# vtk DataFile Version 3.0
vtk output
ASCII
DATASET UNSTRUCTURED_GRID
POINTS       496 double 
  0.00000000E+00  3.00000000E+02  0.00000000E+00
  0.00000000E+00  2.80000000E+02  0.00000000E+00
  0.00000000E+00  2.60000000E+02  0.00000000E+00
  0.00000000E+00  2.40000000E+02  0.00000000E+00
  0.00000000E+00  2.20000000E+02  0.00000000E+00
  0.00000000E+00  2.00000000E+02  0.00000000E+00
  0.00000000E+00  1.80000000E+02  0.00000000E+00
  0.00000000E+00  1.60000000E+02  0.00000000E+00
  0.00000000E+00  1.40000000E+02  0.00000000E+00
  0.00000000E+00  1.20000000E+02  0.00000000E+00
  0.00000000E+00  1.00000000E+02  0.00000000E+00
  0.00000000E+00  8.00000000E+01  0.00000000E+00
  0.00000000E+00  6.00000000E+01  0.00000000E+00
  0.00000000E+00  4.00000000E+01  0.00000000E+00
  0.00000000E+00  2.00000000E+01  0.00000000E+00
  0.00000000E+00  4.99600361E-14  0.00000000E+00
  2.00000000E+01  3.00000000E+02  0.00000000E+00
  2.00000000E+01  2.80000000E+02  0.00000000E+00
  2.00000000E+01  2.60000000E+02  0.00000000E+00
  2.00000000E+01  2.40000000E+02  0.00000000E+00
  2.00000000E+01  2.20000000E+02  0.00000000E+00
  2.00000000E+01  2.00000000E+02  0.00000000E+00
  2.00000000E+01  1.80000000E+02  0.00000000E+00
  2.00000000E+01  1.60000000E+02  0.00000000E+00
  2.00000000E+01  1.40000000E+02  0.00000000E+00
  2.00000000E+01  1.20000000E+02  0.00000000E+00
  2.00000000E+01  1.00000000E+02  0.00000000E+00
  2.00000000E+01  8.00000000E+01  0.00000000E+00
  2.00000000E+01  6.00000000E+01  0.00000000E+00
  2.00000000E+01  4.00000000E+01  0.00000000E+00
  2.00000000E+01  2.00000000E+01  0.00000000E+00
  2.00000000E+01  4.99600361E-14  0.00000000E+00
  4.00000000E+01  3.00000000E+02  0.00000000E+00
  4.00000000E+01  2.80000000E+02  0.00000000E+00
  4.00000000E+01  2.60000000E+02  0.00000000E+00
  4.00000000E+01  2.40000000E+02  0.00000000E+00
  4.00000000E+01  2.20000000E+02  0.00000000E+00
  4.00000000E+01  2.00000000E+02  0.00000000E+00
  4.00000000E+01  1.80000000E+02  0.00000000E+00
  4.00000000E+01  1.60000000E+02  0.00000000E+00
  4.00000000E+01  1.40000000E+02  0.00000000E+00
  4.00000000E+01  1.20000000E+02  0.00000000E+00
  4.00000000E+01  1.00000000E+02  0.00000000E+00
  4.00000000E+01  8.00000000E+01  0.00000000E+00
  4.00000000E+01  6.00000000E+01  0.00000000E+00
  4.00000000E+01  4.00000000E+01  0.00000000E+00
  4.00000000E+01  2.00000000E+01  0.00000000E+00
  4.00000000E+01  4.99600361E-14  0.00000000E+00
  6.00000000E+01  3.00000000E+02  0.00000000E+00
  6.00000000E+01  2.80000000E+02  0.00000000E+00
  6.00000000E+01  2.60000000E+02  0.00000000E+00
  6.00000000E+01  2.40000000E+02  0.00000000E+00
  6.00000000E+01  2.20000000E+02  0.00000000E+00
  6.00000000E+01  2.00000000E+02  0.00000000E+00
  6.00000000E+01  1.80000000E+02  0.00000000E+00
  6.00000000E+01  1.60000000E+02  0.00000000E+00
  6.00000000E+01  1.40000000E+02  0.00000000E+00
  6.00000000E+01  1.20000000E+02  0.00000000E+00
  6.00000000E+01  1.00000000E+02  0.00000000E+00
  6.00000000E+01  8.00000000E+01  0.00000000E+00
  6.00000000E+01  6.00000000E+01  0.00000000E+00
  6.00000000E+01  4.00000000E+01  0.00000000E+00
  6.00000000E+01  2.00000000E+01  0.00000000E+00
  6.00000000E+01  4.99600361E-14  0.00000000E+00
  8.00000000E+01  3.00000000E+02  0.00000000E+00
  8.00000000E+01  2.80000000E+02  0.00000000E+00
  8.00000000E+01  2.60000000E+02  0.00000000E+00
  8.00000000E+01  2.40000000E+02  0.00000000E+00
  8.00000000E+01  2.20000000E+02  0.00000000E+00
  8.00000000E+01  2.00000000E+02  0.00000000E+00
  8.00000000E+01  1.80000000E+02  0.00000000E+00
  8.00000000E+01  1.60000000E+02  0.00000000E+00
  8.00000000E+01  1.40000000E+02  0.00000000E+00
  8.00000000E+01  1.20000000E+02  0.00000000E+00
  8.00000000E+01  1.00000000E+02  0.00000000E+00
  8.00000000E+01  8.00000000E+01  0.00000000E+00
  8.00000000E+01  6.00000000E+01  0.00000000E+00
  8.00000000E+01  4.00000000E+01  0.00000000E+00
  8.00000000E+01  2.00000000E+01  0.00000000E+00
  8.00000000E+01  4.99600361E-14  0.00000000E+00
  1.00000000E+02  3.00000000E+02  0.00000000E+00
  1.00000000E+02  2.80000000E+02  0.00000000E+00
  1.00000000E+02  2.60000000E+02  0.00000000E+00
  1.00000000E+02  2.40000000E+02  0.00000000E+00
  1.00000000E+02  2.20000000E+02  0.00000000E+00
  1.00000000E+02  2.00000000E+02  0.00000000E+00
  1.00000000E+02  1.80000000E+02  0.00000000E+00
  1.00000000E+02  1.60000000E+02  0.00000000E+00
  1.00000000E+02  1.40000000E+02  0.00000000E+00
  1.00000000E+02  1.20000000E+02  0.00000000E+00
  1.00000000E+02  1.00000000E+02  0.00000000E+00
  1.00000000E+02  8.00000000E+01  0.00000000E+00
  1.00000000E+02  6.00000000E+01  0.00000000E+00
  1.00000000E+02  4.00000000E+01  0.00000000E+00
  1.00000000E+02  2.00000000E+01  0.00000000E+00
  1.00000000E+02  4.99600361E-14  0.00000000E+00
  1.20000000E+02  3.00000000E+02  0.00000000E+00
  1.20000000E+02  2.80000000E+02  0.00000000E+00
  1.20000000E+02  2.60000000E+02  0.00000000E+00
  1.20000000E+02  2.40000000E+02  0.00000000E+00
  1.20000000E+02  2.20000000E+02  0.00000000E+00
  1.20000000E+02  2.00000000E+02  0.00000000E+00
  1.20000000E+02  1.80000000E+02  0.00000000E+00
  1.20000000E+02  1.60000000E+02  0.00000000E+00
  1.20000000E+02  1.40000000E+02  0.00000000E+00
  1.20000000E+02  1.20000000E+02  0.00000000E+00
  1.20000000E+02  1.00000000E+02  0.00000000E+00
  1.20000000E+02  8.00000000E+01  0.00000000E+00
  1.20000000E+02  6.00000000E+01  0.00000000E+00
  1.20000000E+02  4.00000000E+01  0.00000000E+00
  1.20000000E+02  2.00000000E+01  0.00000000E+00
  1.20000000E+02  4.99600361E-14  0.00000000E+00
  1.40000000E+02  3.00000000E+02  0.00000000E+00
  1.40000000E+02  2.80000000E+02  0.00000000E+00
  1.40000000E+02  2.60000000E+02  0.00000000E+00
  1.40000000E+02  2.40000000E+02  0.00000000E+00
  1.40000000E+02  2.20000000E+02  0.00000000E+00
  1.40000000E+02  2.00000000E+02  0.00000000E+00
  1.40000000E+02  1.80000000E+02  0.00000000E+00
  1.40000000E+02  1.60000000E+02  0.00000000E+00
  1.40000000E+02  1.40000000E+02  0.00000000E+00
  1.40000000E+02  1.20000000E+02  0.00000000E+00
  1.40000000E+02  1.00000000E+02  0.00000000E+00
  1.40000000E+02  8.00000000E+01  0.00000000E+00
  1.40000000E+02  6.00000000E+01  0.00000000E+00
  1.40000000E+02  4.00000000E+01  0.00000000E+00
  1.40000000E+02  2.00000000E+01  0.00000000E+00
  1.40000000E+02  4.99600361E-14  0.00000000E+00
  1.60000000E+02  3.00000000E+02  0.00000000E+00
  1.60000000E+02  2.80000000E+02  0.00000000E+00
  1.60000000E+02  2.60000000E+02  0.00000000E+00
  1.60000000E+02  2.40000000E+02  0.00000000E+00
  1.60000000E+02  2.20000000E+02  0.00000000E+00
  1.60000000E+02  2.00000000E+02  0.00000000E+00
  1.60000000E+02  1.80000000E+02  0.00000000E+00
  1.60000000E+02  1.60000000E+02  0.00000000E+00
  1.60000000E+02  1.40000000E+02  0.00000000E+00
  1.60000000E+02  1.20000000E+02  0.00000000E+00
  1.60000000E+02  1.00000000E+02  0.00000000E+00
  1.60000000E+02  8.00000000E+01  0.00000000E+00
  1.60000000E+02  6.00000000E+01  0.00000000E+00
  1.60000000E+02  4.00000000E+01  0.00000000E+00
  1.60000000E+02  2.00000000E+01  0.00000000E+00
  1.60000000E+02  4.99600361E-14  0.00000000E+00
  1.80000000E+02  3.00000000E+02  0.00000000E+00
  1.80000000E+02  2.80000000E+02  0.00000000E+00
  1.80000000E+02  2.60000000E+02  0.00000000E+00
  1.80000000E+02  2.40000000E+02  0.00000000E+00
  1.80000000E+02  2.20000000E+02  0.00000000E+00
  1.80000000E+02  2.00000000E+02  0.00000000E+00
  1.80000000E+02  1.80000000E+02  0.00000000E+00
  1.80000000E+02  1.60000000E+02  0.00000000E+00
  1.80000000E+02  1.40000000E+02  0.00000000E+00
  1.80000000E+02  1.20000000E+02  0.00000000E+00
  1.80000000E+02  1.00000000E+02  0.00000000E+00
  1.80000000E+02  8.00000000E+01  0.00000000E+00
  1.80000000E+02  6.00000000E+01  0.00000000E+00
  1.80000000E+02  4.00000000E+01  0.00000000E+00
  1.80000000E+02  2.00000000E+01  0.00000000E+00
  1.80000000E+02  4.99600361E-14  0.00000000E+00
  2.00000000E+02  3.00000000E+02  0.00000000E+00
  2.00000000E+02  2.80000000E+02  0.00000000E+00
  2.00000000E+02  2.60000000E+02  0.00000000E+00
  2.00000000E+02  2.40000000E+02  0.00000000E+00
  2.00000000E+02  2.20000000E+02  0.00000000E+00
  2.00000000E+02  2.00000000E+02  0.00000000E+00
  2.00000000E+02  1.80000000E+02  0.00000000E+00
  2.00000000E+02  1.60000000E+02  0.00000000E+00
  2.00000000E+02  1.40000000E+02  0.00000000E+00
  2.00000000E+02  1.20000000E+02  0.00000000E+00
  2.00000000E+02  1.00000000E+02  0.00000000E+00
  2.00000000E+02  8.00000000E+01  0.00000000E+00
  2.00000000E+02  6.00000000E+01  0.00000000E+00
  2.00000000E+02  4.00000000E+01  0.00000000E+00
  2.00000000E+02  2.00000000E+01  0.00000000E+00
  2.00000000E+02  4.99600361E-14  0.00000000E+00
  2.20000000E+02  3.00000000E+02  0.00000000E+00
  2.20000000E+02  2.80000000E+02  0.00000000E+00
  2.20000000E+02  2.60000000E+02  0.00000000E+00
  2.20000000E+02  2.40000000E+02  0.00000000E+00
  2.20000000E+02  2.20000000E+02  0.00000000E+00
  2.20000000E+02  2.00000000E+02  0.00000000E+00
  2.20000000E+02  1.80000000E+02  0.00000000E+00
  2.20000000E+02  1.60000000E+02  0.00000000E+00
  2.20000000E+02  1.40000000E+02  0.00000000E+00
  2.20000000E+02  1.20000000E+02  0.00000000E+00
  2.20000000E+02  1.00000000E+02  0.00000000E+00
  2.20000000E+02  8.00000000E+01  0.00000000E+00
  2.20000000E+02  6.00000000E+01  0.00000000E+00
  2.20000000E+02  4.00000000E+01  0.00000000E+00
  2.20000000E+02  2.00000000E+01  0.00000000E+00
  2.20000000E+02  4.99600361E-14  0.00000000E+00
  2.40000000E+02  3.00000000E+02  0.00000000E+00
  2.40000000E+02  2.80000000E+02  0.00000000E+00
  2.40000000E+02  2.60000000E+02  0.00000000E+00
  2.40000000E+02  2.40000000E+02  0.00000000E+00
  2.40000000E+02  2.20000000E+02  0.00000000E+00
  2.40000000E+02  2.00000000E+02  0.00000000E+00
  2.40000000E+02  1.80000000E+02  0.00000000E+00
  2.40000000E+02  1.60000000E+02  0.00000000E+00
  2.40000000E+02  1.40000000E+02  0.00000000E+00
  2.40000000E+02  1.20000000E+02  0.00000000E+00
  2.40000000E+02  1.00000000E+02  0.00000000E+00
  2.40000000E+02  8.00000000E+01  0.00000000E+00
  2.40000000E+02  6.00000000E+01  0.00000000E+00
  2.40000000E+02  4.00000000E+01  0.00000000E+00
  2.40000000E+02  2.00000000E+01  0.00000000E+00
  2.40000000E+02  4.99600361E-14  0.00000000E+00
  2.60000000E+02  3.00000000E+02  0.00000000E+00
  2.60000000E+02  2.80000000E+02  0.00000000E+00
  2.60000000E+02  2.60000000E+02  0.00000000E+00
  2.60000000E+02  2.40000000E+02  0.00000000E+00
  2.60000000E+02  2.20000000E+02  0.00000000E+00
  2.60000000E+02  2.00000000E+02  0.00000000E+00
  2.60000000E+02  1.80000000E+02  0.00000000E+00
  2.60000000E+02  1.60000000E+02  0.00000000E+00
  2.60000000E+02  1.40000000E+02  0.00000000E+00
  2.60000000E+02  1.20000000E+02  0.00000000E+00
  2.60000000E+02  1.00000000E+02  0.00000000E+00
  2.60000000E+02  8.00000000E+01  0.00000000E+00
  2.60000000E+02  6.00000000E+01  0.00000000E+00
  2.60000000E+02  4.00000000E+01  0.00000000E+00
  2.60000000E+02  2.00000000E+01  0.00000000E+00
  2.60000000E+02  4.99600361E-14  0.00000000E+00
  2.80000000E+02  3.00000000E+02  0.00000000E+00
  2.80000000E+02  2.80000000E+02  0.00000000E+00
  2.80000000E+02  2.60000000E+02  0.00000000E+00
  2.80000000E+02  2.40000000E+02  0.00000000E+00
  2.80000000E+02  2.20000000E+02  0.00000000E+00
  2.80000000E+02  2.00000000E+02  0.00000000E+00
  2.80000000E+02  1.80000000E+02  0.00000000E+00
  2.80000000E+02  1.60000000E+02  0.00000000E+00
  2.80000000E+02  1.40000000E+02  0.00000000E+00
  2.80000000E+02  1.20000000E+02  0.00000000E+00
  2.80000000E+02  1.00000000E+02  0.00000000E+00
  2.80000000E+02  8.00000000E+01  0.00000000E+00
  2.80000000E+02  6.00000000E+01  0.00000000E+00
  2.80000000E+02  4.00000000E+01  0.00000000E+00
  2.80000000E+02  2.00000000E+01  0.00000000E+00
  2.80000000E+02  4.99600361E-14  0.00000000E+00
  3.00000000E+02  3.00000000E+02  0.00000000E+00
  3.00000000E+02  2.80000000E+02  0.00000000E+00
  3.00000000E+02  2.60000000E+02  0.00000000E+00
  3.00000000E+02  2.40000000E+02  0.00000000E+00
  3.00000000E+02  2.20000000E+02  0.00000000E+00
  3.00000000E+02  2.00000000E+02  0.00000000E+00
  3.00000000E+02  1.80000000E+02  0.00000000E+00
  3.00000000E+02  1.60000000E+02  0.00000000E+00
  3.00000000E+02  1.40000000E+02  0.00000000E+00
  3.00000000E+02  1.20000000E+02  0.00000000E+00
  3.00000000E+02  1.00000000E+02  0.00000000E+00
  3.00000000E+02  8.00000000E+01  0.00000000E+00
  3.00000000E+02  6.00000000E+01  0.00000000E+00
  3.00000000E+02  4.00000000E+01  0.00000000E+00
  3.00000000E+02  2.00000000E+01  0.00000000E+00
  3.00000000E+02  4.99600361E-14  0.00000000E+00
  3.20000000E+02  3.00000000E+02  0.00000000E+00
  3.20000000E+02  2.80000000E+02  0.00000000E+00
  3.20000000E+02  2.60000000E+02  0.00000000E+00
  3.20000000E+02  2.40000000E+02  0.00000000E+00
  3.20000000E+02  2.20000000E+02  0.00000000E+00
  3.20000000E+02  2.00000000E+02  0.00000000E+00
  3.20000000E+02  1.80000000E+02  0.00000000E+00
  3.20000000E+02  1.60000000E+02  0.00000000E+00
  3.20000000E+02  1.40000000E+02  0.00000000E+00
  3.20000000E+02  1.20000000E+02  0.00000000E+00
  3.20000000E+02  1.00000000E+02  0.00000000E+00
  3.20000000E+02  8.00000000E+01  0.00000000E+00
  3.20000000E+02  6.00000000E+01  0.00000000E+00
  3.20000000E+02  4.00000000E+01  0.00000000E+00
  3.20000000E+02  2.00000000E+01  0.00000000E+00
  3.20000000E+02  4.99600361E-14  0.00000000E+00
  3.40000000E+02  3.00000000E+02  0.00000000E+00
  3.40000000E+02  2.80000000E+02  0.00000000E+00
  3.40000000E+02  2.60000000E+02  0.00000000E+00
  3.40000000E+02  2.40000000E+02  0.00000000E+00
  3.40000000E+02  2.20000000E+02  0.00000000E+00
  3.40000000E+02  2.00000000E+02  0.00000000E+00
  3.40000000E+02  1.80000000E+02  0.00000000E+00
  3.40000000E+02  1.60000000E+02  0.00000000E+00
  3.40000000E+02  1.40000000E+02  0.00000000E+00
  3.40000000E+02  1.20000000E+02  0.00000000E+00
  3.40000000E+02  1.00000000E+02  0.00000000E+00
  3.40000000E+02  8.00000000E+01  0.00000000E+00
  3.40000000E+02  6.00000000E+01  0.00000000E+00
  3.40000000E+02  4.00000000E+01  0.00000000E+00
  3.40000000E+02  2.00000000E+01  0.00000000E+00
  3.40000000E+02  4.99600361E-14  0.00000000E+00
  3.60000000E+02  3.00000000E+02  0.00000000E+00
  3.60000000E+02  2.80000000E+02  0.00000000E+00
  3.60000000E+02  2.60000000E+02  0.00000000E+00
  3.60000000E+02  2.40000000E+02  0.00000000E+00
  3.60000000E+02  2.20000000E+02  0.00000000E+00
  3.60000000E+02  2.00000000E+02  0.00000000E+00
  3.60000000E+02  1.80000000E+02  0.00000000E+00
  3.60000000E+02  1.60000000E+02  0.00000000E+00
  3.60000000E+02  1.40000000E+02  0.00000000E+00
  3.60000000E+02  1.20000000E+02  0.00000000E+00
  3.60000000E+02  1.00000000E+02  0.00000000E+00
  3.60000000E+02  8.00000000E+01  0.00000000E+00
  3.60000000E+02  6.00000000E+01  0.00000000E+00
  3.60000000E+02  4.00000000E+01  0.00000000E+00
  3.60000000E+02  2.00000000E+01  0.00000000E+00
  3.60000000E+02  4.99600361E-14  0.00000000E+00
  3.80000000E+02  3.00000000E+02  0.00000000E+00
  3.80000000E+02  2.80000000E+02  0.00000000E+00
  3.80000000E+02  2.60000000E+02  0.00000000E+00
  3.80000000E+02  2.40000000E+02  0.00000000E+00
  3.80000000E+02  2.20000000E+02  0.00000000E+00
  3.80000000E+02  2.00000000E+02  0.00000000E+00
  3.80000000E+02  1.80000000E+02  0.00000000E+00
  3.80000000E+02  1.60000000E+02  0.00000000E+00
  3.80000000E+02  1.40000000E+02  0.00000000E+00
  3.80000000E+02  1.20000000E+02  0.00000000E+00
  3.80000000E+02  1.00000000E+02  0.00000000E+00
  3.80000000E+02  8.00000000E+01  0.00000000E+00
  3.80000000E+02  6.00000000E+01  0.00000000E+00
  3.80000000E+02  4.00000000E+01  0.00000000E+00
  3.80000000E+02  2.00000000E+01  0.00000000E+00
  3.80000000E+02  4.99600361E-14  0.00000000E+00
  4.00000000E+02  3.00000000E+02  0.00000000E+00
  4.00000000E+02  2.80000000E+02  0.00000000E+00
  4.00000000E+02  2.60000000E+02  0.00000000E+00
  4.00000000E+02  2.40000000E+02  0.00000000E+00
  4.00000000E+02  2.20000000E+02  0.00000000E+00
  4.00000000E+02  2.00000000E+02  0.00000000E+00
  4.00000000E+02  1.80000000E+02  0.00000000E+00
  4.00000000E+02  1.60000000E+02  0.00000000E+00
  4.00000000E+02  1.40000000E+02  0.00000000E+00
  4.00000000E+02  1.20000000E+02  0.00000000E+00
  4.00000000E+02  1.00000000E+02  0.00000000E+00
  4.00000000E+02  8.00000000E+01  0.00000000E+00
  4.00000000E+02  6.00000000E+01  0.00000000E+00
  4.00000000E+02  4.00000000E+01  0.00000000E+00
  4.00000000E+02  2.00000000E+01  0.00000000E+00
  4.00000000E+02  4.99600361E-14  0.00000000E+00
  4.20000000E+02  3.00000000E+02  0.00000000E+00
  4.20000000E+02  2.80000000E+02  0.00000000E+00
  4.20000000E+02  2.60000000E+02  0.00000000E+00
  4.20000000E+02  2.40000000E+02  0.00000000E+00
  4.20000000E+02  2.20000000E+02  0.00000000E+00
  4.20000000E+02  2.00000000E+02  0.00000000E+00
  4.20000000E+02  1.80000000E+02  0.00000000E+00
  4.20000000E+02  1.60000000E+02  0.00000000E+00
  4.20000000E+02  1.40000000E+02  0.00000000E+00
  4.20000000E+02  1.20000000E+02  0.00000000E+00
  4.20000000E+02  1.00000000E+02  0.00000000E+00
  4.20000000E+02  8.00000000E+01  0.00000000E+00
  4.20000000E+02  6.00000000E+01  0.00000000E+00
  4.20000000E+02  4.00000000E+01  0.00000000E+00
  4.20000000E+02  2.00000000E+01  0.00000000E+00
  4.20000000E+02  4.99600361E-14  0.00000000E+00
  4.40000000E+02  3.00000000E+02  0.00000000E+00
  4.40000000E+02  2.80000000E+02  0.00000000E+00
  4.40000000E+02  2.60000000E+02  0.00000000E+00
  4.40000000E+02  2.40000000E+02  0.00000000E+00
  4.40000000E+02  2.20000000E+02  0.00000000E+00
  4.40000000E+02  2.00000000E+02  0.00000000E+00
  4.40000000E+02  1.80000000E+02  0.00000000E+00
  4.40000000E+02  1.60000000E+02  0.00000000E+00
  4.40000000E+02  1.40000000E+02  0.00000000E+00
  4.40000000E+02  1.20000000E+02  0.00000000E+00
  4.40000000E+02  1.00000000E+02  0.00000000E+00
  4.40000000E+02  8.00000000E+01  0.00000000E+00
  4.40000000E+02  6.00000000E+01  0.00000000E+00
  4.40000000E+02  4.00000000E+01  0.00000000E+00
  4.40000000E+02  2.00000000E+01  0.00000000E+00
  4.40000000E+02  4.99600361E-14  0.00000000E+00
  4.60000000E+02  3.00000000E+02  0.00000000E+00
  4.60000000E+02  2.80000000E+02  0.00000000E+00
  4.60000000E+02  2.60000000E+02  0.00000000E+00
  4.60000000E+02  2.40000000E+02  0.00000000E+00
  4.60000000E+02  2.20000000E+02  0.00000000E+00
  4.60000000E+02  2.00000000E+02  0.00000000E+00
  4.60000000E+02  1.80000000E+02  0.00000000E+00
  4.60000000E+02  1.60000000E+02  0.00000000E+00
  4.60000000E+02  1.40000000E+02  0.00000000E+00
  4.60000000E+02  1.20000000E+02  0.00000000E+00
  4.60000000E+02  1.00000000E+02  0.00000000E+00
  4.60000000E+02  8.00000000E+01  0.00000000E+00
  4.60000000E+02  6.00000000E+01  0.00000000E+00
  4.60000000E+02  4.00000000E+01  0.00000000E+00
  4.60000000E+02  2.00000000E+01  0.00000000E+00
  4.60000000E+02  4.99600361E-14  0.00000000E+00
  4.80000000E+02  3.00000000E+02  0.00000000E+00
  4.80000000E+02  2.80000000E+02  0.00000000E+00
  4.80000000E+02  2.60000000E+02  0.00000000E+00
  4.80000000E+02  2.40000000E+02  0.00000000E+00
  4.80000000E+02  2.20000000E+02  0.00000000E+00
  4.80000000E+02  2.00000000E+02  0.00000000E+00
  4.80000000E+02  1.80000000E+02  0.00000000E+00
  4.80000000E+02  1.60000000E+02  0.00000000E+00
  4.80000000E+02  1.40000000E+02  0.00000000E+00
  4.80000000E+02  1.20000000E+02  0.00000000E+00
  4.80000000E+02  1.00000000E+02  0.00000000E+00
  4.80000000E+02  8.00000000E+01  0.00000000E+00
  4.80000000E+02  6.00000000E+01  0.00000000E+00
  4.80000000E+02  4.00000000E+01  0.00000000E+00
  4.80000000E+02  2.00000000E+01  0.00000000E+00
  4.80000000E+02  4.99600361E-14  0.00000000E+00
  5.00000000E+02  3.00000000E+02  0.00000000E+00
  5.00000000E+02  2.80000000E+02  0.00000000E+00
  5.00000000E+02  2.60000000E+02  0.00000000E+00
  5.00000000E+02  2.40000000E+02  0.00000000E+00
  5.00000000E+02  2.20000000E+02  0.00000000E+00
  5.00000000E+02  2.00000000E+02  0.00000000E+00
  5.00000000E+02  1.80000000E+02  0.00000000E+00
  5.00000000E+02  1.60000000E+02  0.00000000E+00
  5.00000000E+02  1.40000000E+02  0.00000000E+00
  5.00000000E+02  1.20000000E+02  0.00000000E+00
  5.00000000E+02  1.00000000E+02  0.00000000E+00
  5.00000000E+02  8.00000000E+01  0.00000000E+00
  5.00000000E+02  6.00000000E+01  0.00000000E+00
  5.00000000E+02  4.00000000E+01  0.00000000E+00
  5.00000000E+02  2.00000000E+01  0.00000000E+00
  5.00000000E+02  4.99600361E-14  0.00000000E+00
  5.20000000E+02  3.00000000E+02  0.00000000E+00
  5.20000000E+02  2.80000000E+02  0.00000000E+00
  5.20000000E+02  2.60000000E+02  0.00000000E+00
  5.20000000E+02  2.40000000E+02  0.00000000E+00
  5.20000000E+02  2.20000000E+02  0.00000000E+00
  5.20000000E+02  2.00000000E+02  0.00000000E+00
  5.20000000E+02  1.80000000E+02  0.00000000E+00
  5.20000000E+02  1.60000000E+02  0.00000000E+00
  5.20000000E+02  1.40000000E+02  0.00000000E+00
  5.20000000E+02  1.20000000E+02  0.00000000E+00
  5.20000000E+02  1.00000000E+02  0.00000000E+00
  5.20000000E+02  8.00000000E+01  0.00000000E+00
  5.20000000E+02  6.00000000E+01  0.00000000E+00
  5.20000000E+02  4.00000000E+01  0.00000000E+00
  5.20000000E+02  2.00000000E+01  0.00000000E+00
  5.20000000E+02  4.99600361E-14  0.00000000E+00
  5.40000000E+02  3.00000000E+02  0.00000000E+00
  5.40000000E+02  2.80000000E+02  0.00000000E+00
  5.40000000E+02  2.60000000E+02  0.00000000E+00
  5.40000000E+02  2.40000000E+02  0.00000000E+00
  5.40000000E+02  2.20000000E+02  0.00000000E+00
  5.40000000E+02  2.00000000E+02  0.00000000E+00
  5.40000000E+02  1.80000000E+02  0.00000000E+00
  5.40000000E+02  1.60000000E+02  0.00000000E+00
  5.40000000E+02  1.40000000E+02  0.00000000E+00
  5.40000000E+02  1.20000000E+02  0.00000000E+00
  5.40000000E+02  1.00000000E+02  0.00000000E+00
  5.40000000E+02  8.00000000E+01  0.00000000E+00
  5.40000000E+02  6.00000000E+01  0.00000000E+00
  5.40000000E+02  4.00000000E+01  0.00000000E+00
  5.40000000E+02  2.00000000E+01  0.00000000E+00
  5.40000000E+02  4.99600361E-14  0.00000000E+00
  5.60000000E+02  3.00000000E+02  0.00000000E+00
  5.60000000E+02  2.80000000E+02  0.00000000E+00
  5.60000000E+02  2.60000000E+02  0.00000000E+00
  5.60000000E+02  2.40000000E+02  0.00000000E+00
  5.60000000E+02  2.20000000E+02  0.00000000E+00
  5.60000000E+02  2.00000000E+02  0.00000000E+00
  5.60000000E+02  1.80000000E+02  0.00000000E+00
  5.60000000E+02  1.60000000E+02  0.00000000E+00
  5.60000000E+02  1.40000000E+02  0.00000000E+00
  5.60000000E+02  1.20000000E+02  0.00000000E+00
  5.60000000E+02  1.00000000E+02  0.00000000E+00
  5.60000000E+02  8.00000000E+01  0.00000000E+00
  5.60000000E+02  6.00000000E+01  0.00000000E+00
  5.60000000E+02  4.00000000E+01  0.00000000E+00
  5.60000000E+02  2.00000000E+01  0.00000000E+00
  5.60000000E+02  4.99600361E-14  0.00000000E+00
  5.80000000E+02  3.00000000E+02  0.00000000E+00
  5.80000000E+02  2.80000000E+02  0.00000000E+00
  5.80000000E+02  2.60000000E+02  0.00000000E+00
  5.80000000E+02  2.40000000E+02  0.00000000E+00
  5.80000000E+02  2.20000000E+02  0.00000000E+00
  5.80000000E+02  2.00000000E+02  0.00000000E+00
  5.80000000E+02  1.80000000E+02  0.00000000E+00
  5.80000000E+02  1.60000000E+02  0.00000000E+00
  5.80000000E+02  1.40000000E+02  0.00000000E+00
  5.80000000E+02  1.20000000E+02  0.00000000E+00
  5.80000000E+02  1.00000000E+02  0.00000000E+00
  5.80000000E+02  8.00000000E+01  0.00000000E+00
  5.80000000E+02  6.00000000E+01  0.00000000E+00
  5.80000000E+02  4.00000000E+01  0.00000000E+00
  5.80000000E+02  2.00000000E+01  0.00000000E+00
  5.80000000E+02  4.99600361E-14  0.00000000E+00
  6.00000000E+02  3.00000000E+02  0.00000000E+00
  6.00000000E+02  2.80000000E+02  0.00000000E+00
  6.00000000E+02  2.60000000E+02  0.00000000E+00
  6.00000000E+02  2.40000000E+02  0.00000000E+00
  6.00000000E+02  2.20000000E+02  0.00000000E+00
  6.00000000E+02  2.00000000E+02  0.00000000E+00
  6.00000000E+02  1.80000000E+02  0.00000000E+00
  6.00000000E+02  1.60000000E+02  0.00000000E+00
  6.00000000E+02  1.40000000E+02  0.00000000E+00
  6.00000000E+02  1.20000000E+02  0.00000000E+00
  6.00000000E+02  1.00000000E+02  0.00000000E+00
  6.00000000E+02  8.00000000E+01  0.00000000E+00
  6.00000000E+02  6.00000000E+01  0.00000000E+00
  6.00000000E+02  4.00000000E+01  0.00000000E+00
  6.00000000E+02  2.00000000E+01  0.00000000E+00
  6.00000000E+02  4.99600361E-14  0.00000000E+00
CELLS       450      2250
         4           0           1          17          16
         4           1           2          18          17
         4           2           3          19          18
         4           3           4          20          19
         4           4           5          21          20
         4           5           6          22          21
         4           6           7          23          22
         4           7           8          24          23
         4           8           9          25          24
         4           9          10          26          25
         4          10          11          27          26
         4          11          12          28          27
         4          12          13          29          28
         4          13          14          30          29
         4          14          15          31          30
         4          16          17          33          32
         4          17          18          34          33
         4          18          19          35          34
         4          19          20          36          35
         4          20          21          37          36
         4          21          22          38          37
         4          22          23          39          38
         4          23          24          40          39
         4          24          25          41          40
         4          25          26          42          41
         4          26          27          43          42
         4          27          28          44          43
         4          28          29          45          44
         4          29          30          46          45
         4          30          31          47          46
         4          32          33          49          48
         4          33          34          50          49
         4          34          35          51          50
         4          35          36          52          51
         4          36          37          53          52
         4          37          38          54          53
         4          38          39          55          54
         4          39          40          56          55
         4          40          41          57          56
         4          41          42          58          57
         4          42          43          59          58
         4          43          44          60          59
         4          44          45          61          60
         4          45          46          62          61
         4          46          47          63          62
         4          48          49          65          64
         4          49          50          66          65
         4          50          51          67          66
         4          51          52          68          67
         4          52          53          69          68
         4          53          54          70          69
         4          54          55          71          70
         4          55          56          72          71
         4          56          57          73          72
         4          57          58          74          73
         4          58          59          75          74
         4          59          60          76          75
         4          60          61          77          76
         4          61          62          78          77
         4          62          63          79          78
         4          64          65          81          80
         4          65          66          82          81
         4          66          67          83          82
         4          67          68          84          83
         4          68          69          85          84
         4          69          70          86          85
         4          70          71          87          86
         4          71          72          88          87
         4          72          73          89          88
         4          73          74          90          89
         4          74          75          91          90
         4          75          76          92          91
         4          76          77          93          92
         4          77          78          94          93
         4          78          79          95          94
         4          80          81          97          96
         4          81          82          98          97
         4          82          83          99          98
         4          83          84         100          99
         4          84          85         101         100
         4          85          86         102         101
         4          86          87         103         102
         4          87          88         104         103
         4          88          89         105         104
         4          89          90         106         105
         4          90          91         107         106
         4          91          92         108         107
         4          92          93         109         108
         4          93          94         110         109
         4          94          95         111         110
         4          96          97         113         112
         4          97          98         114         113
         4          98          99         115         114
         4          99         100         116         115
         4         100         101         117         116
         4         101         102         118         117
         4         102         103         119         118
         4         103         104         120         119
         4         104         105         121         120
         4         105         106         122         121
         4         106         107         123         122
         4         107         108         124         123
         4         108         109         125         124
         4         109         110         126         125
         4         110         111         127         126
         4         112         113         129         128
         4         113         114         130         129
         4         114         115         131         130
         4         115         116         132         131
         4         116         117         133         132
         4         117         118         134         133
         4         118         119         135         134
         4         119         120         136         135
         4         120         121         137         136
         4         121         122         138         137
         4         122         123         139         138
         4         123         124         140         139
         4         124         125         141         140
         4         125         126         142         141
         4         126         127         143         142
         4         128         129         145         144
         4         129         130         146         145
         4         130         131         147         146
         4         131         132         148         147
         4         132         133         149         148
         4         133         134         150         149
         4         134         135         151         150
         4         135         136         152         151
         4         136         137         153         152
         4         137         138         154         153
         4         138         139         155         154
         4         139         140         156         155
         4         140         141         157         156
         4         141         142         158         157
         4         142         143         159         158
         4         144         145         161         160
         4         145         146         162         161
         4         146         147         163         162
         4         147         148         164         163
         4         148         149         165         164
         4         149         150         166         165
         4         150         151         167         166
         4         151         152         168         167
         4         152         153         169         168
         4         153         154         170         169
         4         154         155         171         170
         4         155         156         172         171
         4         156         157         173         172
         4         157         158         174         173
         4         158         159         175         174
         4         160         161         177         176
         4         161         162         178         177
         4         162         163         179         178
         4         163         164         180         179
         4         164         165         181         180
         4         165         166         182         181
         4         166         167         183         182
         4         167         168         184         183
         4         168         169         185         184
         4         169         170         186         185
         4         170         171         187         186
         4         171         172         188         187
         4         172         173         189         188
         4         173         174         190         189
         4         174         175         191         190
         4         176         177         193         192
         4         177         178         194         193
         4         178         179         195         194
         4         179         180         196         195
         4         180         181         197         196
         4         181         182         198         197
         4         182         183         199         198
         4         183         184         200         199
         4         184         185         201         200
         4         185         186         202         201
         4         186         187         203         202
         4         187         188         204         203
         4         188         189         205         204
         4         189         190         206         205
         4         190         191         207         206
         4         192         193         209         208
         4         193         194         210         209
         4         194         195         211         210
         4         195         196         212         211
         4         196         197         213         212
         4         197         198         214         213
         4         198         199         215         214
         4         199         200         216         215
         4         200         201         217         216
         4         201         202         218         217
         4         202         203         219         218
         4         203         204         220         219
         4         204         205         221         220
         4         205         206         222         221
         4         206         207         223         222
         4         208         209         225         224
         4         209         210         226         225
         4         210         211         227         226
         4         211         212         228         227
         4         212         213         229         228
         4         213         214         230         229
         4         214         215         231         230
         4         215         216         232         231
         4         216         217         233         232
         4         217         218         234         233
         4         218         219         235         234
         4         219         220         236         235
         4         220         221         237         236
         4         221         222         238         237
         4         222         223         239         238
         4         224         225         241         240
         4         225         226         242         241
         4         226         227         243         242
         4         227         228         244         243
         4         228         229         245         244
         4         229         230         246         245
         4         230         231         247         246
         4         231         232         248         247
         4         232         233         249         248
         4         233         234         250         249
         4         234         235         251         250
         4         235         236         252         251
         4         236         237         253         252
         4         237         238         254         253
         4         238         239         255         254
         4         240         241         257         256
         4         241         242         258         257
         4         242         243         259         258
         4         243         244         260         259
         4         244         245         261         260
         4         245         246         262         261
         4         246         247         263         262
         4         247         248         264         263
         4         248         249         265         264
         4         249         250         266         265
         4         250         251         267         266
         4         251         252         268         267
         4         252         253         269         268
         4         253         254         270         269
         4         254         255         271         270
         4         256         257         273         272
         4         257         258         274         273
         4         258         259         275         274
         4         259         260         276         275
         4         260         261         277         276
         4         261         262         278         277
         4         262         263         279         278
         4         263         264         280         279
         4         264         265         281         280
         4         265         266         282         281
         4         266         267         283         282
         4         267         268         284         283
         4         268         269         285         284
         4         269         270         286         285
         4         270         271         287         286
         4         272         273         289         288
         4         273         274         290         289
         4         274         275         291         290
         4         275         276         292         291
         4         276         277         293         292
         4         277         278         294         293
         4         278         279         295         294
         4         279         280         296         295
         4         280         281         297         296
         4         281         282         298         297
         4         282         283         299         298
         4         283         284         300         299
         4         284         285         301         300
         4         285         286         302         301
         4         286         287         303         302
         4         288         289         305         304
         4         289         290         306         305
         4         290         291         307         306
         4         291         292         308         307
         4         292         293         309         308
         4         293         294         310         309
         4         294         295         311         310
         4         295         296         312         311
         4         296         297         313         312
         4         297         298         314         313
         4         298         299         315         314
         4         299         300         316         315
         4         300         301         317         316
         4         301         302         318         317
         4         302         303         319         318
         4         304         305         321         320
         4         305         306         322         321
         4         306         307         323         322
         4         307         308         324         323
         4         308         309         325         324
         4         309         310         326         325
         4         310         311         327         326
         4         311         312         328         327
         4         312         313         329         328
         4         313         314         330         329
         4         314         315         331         330
         4         315         316         332         331
         4         316         317         333         332
         4         317         318         334         333
         4         318         319         335         334
         4         320         321         337         336
         4         321         322         338         337
         4         322         323         339         338
         4         323         324         340         339
         4         324         325         341         340
         4         325         326         342         341
         4         326         327         343         342
         4         327         328         344         343
         4         328         329         345         344
         4         329         330         346         345
         4         330         331         347         346
         4         331         332         348         347
         4         332         333         349         348
         4         333         334         350         349
         4         334         335         351         350
         4         336         337         353         352
         4         337         338         354         353
         4         338         339         355         354
         4         339         340         356         355
         4         340         341         357         356
         4         341         342         358         357
         4         342         343         359         358
         4         343         344         360         359
         4         344         345         361         360
         4         345         346         362         361
         4         346         347         363         362
         4         347         348         364         363
         4         348         349         365         364
         4         349         350         366         365
         4         350         351         367         366
         4         352         353         369         368
         4         353         354         370         369
         4         354         355         371         370
         4         355         356         372         371
         4         356         357         373         372
         4         357         358         374         373
         4         358         359         375         374
         4         359         360         376         375
         4         360         361         377         376
         4         361         362         378         377
         4         362         363         379         378
         4         363         364         380         379
         4         364         365         381         380
         4         365         366         382         381
         4         366         367         383         382
         4         368         369         385         384
         4         369         370         386         385
         4         370         371         387         386
         4         371         372         388         387
         4         372         373         389         388
         4         373         374         390         389
         4         374         375         391         390
         4         375         376         392         391
         4         376         377         393         392
         4         377         378         394         393
         4         378         379         395         394
         4         379         380         396         395
         4         380         381         397         396
         4         381         382         398         397
         4         382         383         399         398
         4         384         385         401         400
         4         385         386         402         401
         4         386         387         403         402
         4         387         388         404         403
         4         388         389         405         404
         4         389         390         406         405
         4         390         391         407         406
         4         391         392         408         407
         4         392         393         409         408
         4         393         394         410         409
         4         394         395         411         410
         4         395         396         412         411
         4         396         397         413         412
         4         397         398         414         413
         4         398         399         415         414
         4         400         401         417         416
         4         401         402         418         417
         4         402         403         419         418
         4         403         404         420         419
         4         404         405         421         420
         4         405         406         422         421
         4         406         407         423         422
         4         407         408         424         423
         4         408         409         425         424
         4         409         410         426         425
         4         410         411         427         426
         4         411         412         428         427
         4         412         413         429         428
         4         413         414         430         429
         4         414         415         431         430
         4         416         417         433         432
         4         417         418         434         433
         4         418         419         435         434
         4         419         420         436         435
         4         420         421         437         436
         4         421         422         438         437
         4         422         423         439         438
         4         423         424         440         439
         4         424         425         441         440
         4         425         426         442         441
         4         426         427         443         442
         4         427         428         444         443
         4         428         429         445         444
         4         429         430         446         445
         4         430         431         447         446
         4         432         433         449         448
         4         433         434         450         449
         4         434         435         451         450
         4         435         436         452         451
         4         436         437         453         452
         4         437         438         454         453
         4         438         439         455         454
         4         439         440         456         455
         4         440         441         457         456
         4         441         442         458         457
         4         442         443         459         458
         4         443         444         460         459
         4         444         445         461         460
         4         445         446         462         461
         4         446         447         463         462
         4         448         449         465         464
         4         449         450         466         465
         4         450         451         467         466
         4         451         452         468         467
         4         452         453         469         468
         4         453         454         470         469
         4         454         455         471         470
         4         455         456         472         471
         4         456         457         473         472
         4         457         458         474         473
         4         458         459         475         474
         4         459         460         476         475
         4         460         461         477         476
         4         461         462         478         477
         4         462         463         479         478
         4         464         465         481         480
         4         465         466         482         481
         4         466         467         483         482
         4         467         468         484         483
         4         468         469         485         484
         4         469         470         486         485
         4         470         471         487         486
         4         471         472         488         487
         4         472         473         489         488
         4         473         474         490         489
         4         474         475         491         490
         4         475         476         492         491
         4         476         477         493         492
         4         477         478         494         493
         4         478         479         495         494
CELL_TYPES        450
9
9
9
9
9
9
9
9
9
9
9
9
9
9
9
9
9
9
9
9
9
9
9
9
9
9
9
9
9
9
9
9
9
9
9
9
9
9
9
9
9
9
9
9
9
9
9
9
9
9
9
9
9
9
9
9
9
9
9
9
9
9
9
9
9
9
9
9
9
9
9
9
9
9
9
9
9
9
9
9
9
9
9
9
9
9
9
9
9
9
9
9
9
9
9
9
9
9
9
9
9
9
9
9
9
9
9
9
9
9
9
9
9
9
9
9
9
9
9
9
9
9
9
9
9
9
9
9
9
9
9
9
9
9
9
9
9
9
9
9
9
9
9
9
9
9
9
9
9
9
9
9
9
9
9
9
9
9
9
9
9
9
9
9
9
9
9
9
9
9
9
9
9
9
9
9
9
9
9
9
9
9
9
9
9
9
9
9
9
9
9
9
9
9
9
9
9
9
9
9
9
9
9
9
9
9
9
9
9
9
9
9
9
9
9
9
9
9
9
9
9
9
9
9
9
9
9
9
9
9
9
9
9
9
9
9
9
9
9
9
9
9
9
9
9
9
9
9
9
9
9
9
9
9
9
9
9
9
9
9
9
9
9
9
9
9
9
9
9
9
9
9
9
9
9
9
9
9
9
9
9
9
9
9
9
9
9
9
9
9
9
9
9
9
9
9
9
9
9
9
9
9
9
9
9
9
9
9
9
9
9
9
9
9
9
9
9
9
9
9
9
9
9
9
9
9
9
9
9
9
9
9
9
9
9
9
9
9
9
9
9
9
9
9
9
9
9
9
9
9
9
9
9
9
9
9
9
9
9
9
9
9
9
9
9
9
9
9
9
9
9
9
9
9
9
9
9
9
9
9
9
9
9
9
9
9
9
9
9
9
9
9
9
9
9
9
9
9
9
9
9
9
9
9
9
9
9
9
9
9
9
9
9
9
9
9
9
9
9
9
9
9
9
9
9
9
9
9
9
9
9
9
9
9
9
9
9
9
9
9
9
9
9
9
9
9
9
9
9
9
POINT_DATA       496
SCALARS p double 
LOOKUP_TABLE default
   75518852.4830671     
   75548821.8209001     
   75616800.7855098     
   75695599.5239684     
   75780546.6408063     
   75868015.7005434     
   75955742.6581222     
   76042128.6224757     
   76125979.7411133     
   76206341.0380494     
   76282376.8432604     
   76353252.2450231     
   76417981.5789382     
   76475008.7249037     
   76522159.7809611     
   76543206.5818837     
   74380809.4948590     
   74390790.3634500     
   74422574.2608049     
   74471770.8661688     
   74530020.0362972     
   74593259.3727582     
   74658704.6621619     
   74724368.1741070     
   74788718.2384651     
   74850479.7193442     
   74908476.8589988     
   74961472.4812130     
   75007924.8411743     
   75045649.4295488     
   75069925.1662358     
   75077875.1511047     
   73204730.8971508     
   73209622.2542038     
   73225447.4622154     
   73252747.9261433     
   73289114.0494527     
   73331240.6169614     
   73376610.5300857     
   73423229.4034393     
   73469470.4328696     
   73513923.9806796     
   73555265.1250466     
   73592115.9109493     
   73622902.7940711     
   73645616.2139519     
   73658726.0849267     
   73662794.4952608     
   72014327.3470246     
   72015944.4140939     
   72022432.1876176     
   72035680.4245834     
   72055442.9037839     
   72080306.8888541     
   72108507.8259124     
   72138410.1248721     
   72168548.9865248     
   72197595.8954700     
   72224296.8824979     
   72247417.9624752     
   72265726.9244523     
   72278242.9889435     
   72284780.4982950     
   72286601.7884117     
   70816561.2425496     
   70816229.0173939     
   70816787.0958858     
   70820541.3476015     
   70828258.1169428     
   70839629.4104108     
   70853771.4512047     
   70869586.5704889     
   70885960.3062197     
   70901823.4290360     
   70916171.2367627     
   70928088.2757296     
   70936847.8534271     
   70942126.6190475     
   70944314.1388639     
   70944738.7819173     
   69616472.4061099     
   69614922.6238079     
   69611643.3664446     
   69608900.3154604     
   69607907.0907959     
   69609018.3753668     
   69612010.5050676     
   69616339.6142449     
   69621324.9549429     
   69626261.6910096     
   69630492.5868102     
   69633482.7171623     
   69634928.4058705     
   69634908.5708390     
   69634032.5866786     
   69633492.3415838     
   68417695.1959020     
   68415379.1348799     
   68409588.9254596     
   68402378.3859511     
   68395107.6459368     
   68388508.5422960     
   68382829.6984062     
   68378001.0333952     
   68373777.8739150     
   68369852.4711601     
   68365942.9092049     
   68361876.9225079     
   68357683.3892477     
   68353684.5188470     
   68350557.4178288     
   68349318.0229511     
   67222689.2566005     
   67219893.0231942     
   67212452.0158216     
   67202143.6017753     
   67190323.3064718     
   67177926.5874407     
   67165532.0232207     
   67153455.1515170     
   67141846.6802694     
   67130781.5728840     
   67120337.2749532     
   67110664.9804707     
   67102054.7160495     
   67094985.5902717     
   67090141.9094099     
   67088372.7902945     
   66032780.2854294     
   66029679.7641466     
   66021125.5975787     
   66008603.0288663     
   65993391.5037369     
   65976531.3054938     
   65958835.2461024     
   65940930.2098231     
   65923312.5309605     
   65906405.7881692     
   65890615.2273837     
   65876375.9901624     
   65864191.3470776     
   65854653.2680462     
   65848434.3419704     
   65846241.2081379     
   64848128.1476568     
   64844814.6581292     
   64835435.4583516     
   64821193.1973332     
   64803265.3834962     
   64782747.9133013     
   64760631.3367514     
   64737802.4565923     
   64715061.7647816     
   64693148.2151197     
   64672764.9783439     
   64654601.2927429     
   64639345.4973481     
   64627683.4459448     
   64620276.3921938     
   64617714.8808994     
   63667668.3232810     
   63664161.4690573     
   63654033.3363849     
   63638229.5154150     
   63617828.8100675     
   63593968.4086733     
   63567792.6857685     
   63540422.2263851     
   63512937.6683706     
   63486372.5267563     
   63461709.6418894     
   63439876.4964662     
   63421735.0240669     
   63408061.9603735     
   63399516.9912516     
   63396598.5742789     
   62489054.3960217     
   62485308.1669160     
   62474313.2790664     
   62456796.0607294     
   62433761.3857983     
   62406400.6769375     
   62376016.5272535     
   62343962.9246837     
   62311598.4436392     
   62280248.8225273     
   62251175.0243642     
   62225542.9946228     
   62204391.8063142     
   62188597.8446740     
   62178834.3635720     
   62175528.2381868     
   61308614.3385720     
   61304518.8640952     
   61292350.6637156     
   61272665.7249906     
   61246438.5747734     
   61214951.9981041     
   61179697.6438299     
   61142288.4868720     
   61104382.7147751     
   61067617.3525795     
   61033549.1102524     
   61003599.6901895     
   60979003.2332130     
   60960754.7755656     
   60949560.5106896     
   60945793.0870814     
   60121323.1955652     
   60116702.6840603     
   60102859.9076329     
   60080241.3035205     
   60049853.8752639     
   60013133.2144912     
   59971817.5564456     
   59927831.1267637     
   59883178.4704810     
   59839849.6860085     
   59799735.0524027     
   59764546.8653246     
   59735746.6426519     
   59714477.2706052     
   59701501.9419033     
   59697154.4477624     
   58920786.2001487     
   58915392.6673205     
   58899161.4306322     
   58872504.9460144     
   58836548.0361333     
   58792967.7817994     
   58743835.4796609     
   58691467.0788427     
   58638286.1794461     
   58586700.8403942     
   58538992.9929198     
   58497217.9291850     
   58463111.5593166     
   58438004.9393745     
   58422748.6070448     
   58417652.8210927     
   57699219.0029802     
   57692720.7877924     
   57673142.2966664     
   57640958.2957795     
   57597525.9656698     
   57544885.8072163     
   57485562.0001446     
   57422373.3294536     
   57358261.7321720     
   57296140.6183117     
   57238760.8808997     
   57188590.1258265     
   57147700.7596418     
   57117665.1687861     
   57099460.7093577     
   57093392.5364140     
   56447405.0804906     
   56439368.5305803     
   56415188.3663073     
   56375529.1606450     
   56322135.6522776     
   56257577.0121880     
   56184990.4541696     
   56107842.5934855     
   56029719.4673382     
   55954147.4610822     
   55884440.0932050     
   55823561.5712682     
   55773998.1051762     
   55737632.0143649     
   55715620.7109807     
   55708291.0734831     
   55154603.7375183     
   55144465.4879350     
   55114058.0148026     
   55064411.9868463     
   54997874.3717191     
   54917767.5306796     
   54828052.4671147     
   54733026.1827105     
   54637069.0602584     
   54544442.8422713     
   54459127.4847884     
   54384678.7080792     
   54324088.4011720     
   54279636.6463694     
   54252735.4238740     
   54243777.6634600     
   53808373.8726433     
   53795399.3987860     
   53756656.6076033     
   53693796.6392119     
   53610073.5153364     
   53509871.4722304     
   53398251.1922699     
   53280563.3177635     
   53162151.1468711     
   53048137.4889827     
   52943270.6194039     
   52851794.7385616     
   52777311.7490392     
   52722612.0796990     
   52689470.2738715     
   52678422.8380611     
   52394266.0851153     
   52377486.9367569     
   52327653.2784094     
   52247418.7972331     
   52141390.1878689     
   52015445.2097810     
   51876104.9938055     
   51730038.0304464     
   51583722.9429842     
   51443250.6872311     
   51314215.8714922     
   51201634.6429115     
   51109831.0166306     
   51042251.2596558     
   51001193.8025802     
   50987476.3275780     
   50895313.9437400     
   50873429.8146475     
   50808850.1582579     
   50705827.6125311     
   50570993.1655424     
   50412333.1194359     
   50238299.6511228     
   50057176.2473489     
   49876722.8091401     
   49704047.2225297     
   49545607.0013324     
   49407233.6794526     
   49294084.2482419     
   49210451.2032748     
   49159403.5677838     
   49142283.4242522     
   49291215.3135610     
   49262434.8144215     
   49178155.2952356     
   49045196.3367976     
   48873257.4506645     
   48673324.8493886     
   48456388.1876879     
   48232647.5335174     
   48011204.4005467     
   47800106.4692739     
   47606568.7664900     
   47437198.8818479     
   47298080.1596654     
   47194603.5139548     
   47130991.6648023     
   47109536.4500085     
   47557018.3686454     
   47518787.0492192     
   47407894.8079704     
   47235366.4945683     
   47015644.9520572     
   46764021.7312504     
   46494775.6385820     
   46220253.0656820     
   45950762.3766373     
   45694980.6130558     
   45460563.0383512     
   45254706.1053775     
   45084465.9904773     
   44956666.6865232     
   44877283.1865196     
   44850292.4247956     
   45660973.9590792     
   45609482.8178381     
   45461959.8190573     
   45236542.3638532     
   44955185.2595217     
   44639386.7854012     
   44307547.3246760     
   43974134.0368472     
   43650141.9578778     
   43344182.0302194     
   43063703.3623962     
   42816063.5724764     
   42609234.5349745     
   42451904.9645292     
   42352732.9006291     
   42318639.4046083     
   43560890.6249390     
   43490125.5946601     
   43290748.9098408     
   42993464.7185779     
   42632440.5346851     
   42238035.7498447     
   41833375.5705972     
   41434358.0130407     
   41051462.9658263     
   40691987.3340606     
   40362085.8609739     
   40068486.1636151     
   39819798.3653598     
   39627073.9032711     
   39503072.0219843     
   39459802.1811593     
   41197564.7638548     
   41097314.1662740     
   40821565.3699128     
   40424531.3882246     
   39960727.7272997     
   39472516.8095703     
   38987115.6033686     
   38519670.7948124     
   38077913.0210863     
   37665974.7920704     
   37287158.8918404     
   36946281.9850468     
   36651834.1005677     
   36417607.0712336     
   36262515.4775952     
   36207298.4737641     
   38481915.4318124     
   38333081.1587171     
   37938518.2569172     
   37399960.4836566     
   36805894.1913087     
   36212173.6685667     
   35645326.5336124     
   35114819.9065702     
   34622399.8929527     
   34166842.9816070     
   33746864.1549293     
   33363517.8825226     
   33023487.3133264     
   32742835.0815847     
   32549249.6392877     
   32478436.5977057     
   35266279.7184468     
   35027893.8287654     
   34434932.8397446     
   33693389.7922599     
   32946454.7592396     
   32251337.4510881     
   31618891.2359225     
   31046021.1831790     
   30525042.6990606     
   30047678.2070276     
   29606838.8322355     
   29198257.1358025     
   28823126.6402992     
   28496866.3932446     
   28257678.1654182     
   28166565.7921152     
   31266816.1105282     
   30835179.5546457     
   29871309.6611587     
   28866035.5884081     
   27991216.4408627     
   27239987.0911139     
   26592048.3417477     
   26025659.2812472     
   25522366.1898533     
   25066978.7871064     
   24647159.4650374     
   24253276.1784363     
   23879834.9108948     
   23528092.6998285     
   23242956.4862272     
   23128496.0376537     
   25814816.3618056     
   24665433.8824367     
   23087585.1106884     
   21982350.2173311     
   21143003.6796717     
   20483851.1174909     
   19947314.7412957     
   19497085.8238218     
   19108407.3239991     
   18763447.6573379     
   18448559.3082607     
   18152721.7196578     
   17866444.1580091     
   17583897.7708433     
   17291989.8469137     
   17149215.7420079     
   10000000.0000000     
   10000000.0000000     
   10000000.0000000     
   10000000.0000000     
   10000000.0000000     
   10000000.0000000     
   10000000.0000000     
   10000000.0000000     
   10000000.0000000     
   10000000.0000000     
   10000000.0000000     
   10000000.0000000     
   10000000.0000000     
  10000000.00000000     
   10000000.0000000     
   10000000.0000000     
VECTORS u double 
    0.00000E+00         0.72257E+01         0.00000E+00
    0.00000E+00         0.68029E+01         0.00000E+00
    0.00000E+00         0.63727E+01         0.00000E+00
    0.00000E+00         0.59408E+01         0.00000E+00
    0.00000E+00         0.55082E+01         0.00000E+00
    0.00000E+00         0.50740E+01         0.00000E+00
    0.00000E+00         0.46365E+01         0.00000E+00
    0.00000E+00         0.41939E+01         0.00000E+00
    0.00000E+00         0.37439E+01         0.00000E+00
    0.00000E+00         0.32835E+01         0.00000E+00
    0.00000E+00         0.28093E+01         0.00000E+00
    0.00000E+00         0.23169E+01         0.00000E+00
    0.00000E+00         0.18008E+01         0.00000E+00
    0.00000E+00         0.12530E+01         0.00000E+00
    0.00000E+00         0.66200E+00         0.00000E+00
    0.00000E+00         0.00000E+00         0.00000E+00
    0.12099E+01         0.70933E+01         0.00000E+00
    0.10081E+01         0.67051E+01         0.00000E+00
    0.89795E+00         0.62968E+01         0.00000E+00
    0.81662E+00         0.58779E+01         0.00000E+00
    0.74905E+00         0.54542E+01         0.00000E+00
    0.68964E+00         0.50267E+01         0.00000E+00
    0.63531E+00         0.45949E+01         0.00000E+00
    0.58394E+00         0.41572E+01         0.00000E+00
    0.53386E+00         0.37115E+01         0.00000E+00
    0.48354E+00         0.32551E+01         0.00000E+00
    0.43133E+00         0.27845E+01         0.00000E+00
    0.37527E+00         0.22956E+01         0.00000E+00
    0.31258E+00         0.17826E+01         0.00000E+00
    0.23871E+00         0.12381E+01         0.00000E+00
    0.14471E+00         0.65034E+00         0.00000E+00
    0.00000E+00         0.00000E+00         0.00000E+00
    0.22565E+01         0.68056E+01         0.00000E+00
    0.19634E+01         0.64560E+01         0.00000E+00
    0.17492E+01         0.60860E+01         0.00000E+00
    0.15850E+01         0.56973E+01         0.00000E+00
    0.14480E+01         0.52970E+01         0.00000E+00
    0.13277E+01         0.48886E+01         0.00000E+00
    0.12178E+01         0.44728E+01         0.00000E+00
    0.11141E+01         0.40493E+01         0.00000E+00
    0.10131E+01         0.36163E+01         0.00000E+00
    0.91188E+00         0.31716E+01         0.00000E+00
    0.80712E+00         0.27120E+01         0.00000E+00
    0.69502E+00         0.22335E+01         0.00000E+00
    0.57037E+00         0.17308E+01         0.00000E+00
    0.42506E+00         0.11971E+01         0.00000E+00
    0.24402E+00         0.62279E+00         0.00000E+00
    0.00000E+00         0.00000E+00         0.00000E+00
    0.32393E+01         0.64179E+01         0.00000E+00
    0.28550E+01         0.61036E+01         0.00000E+00
    0.25526E+01         0.57689E+01         0.00000E+00
    0.23078E+01         0.54158E+01         0.00000E+00
    0.21011E+01         0.50474E+01         0.00000E+00
    0.19190E+01         0.46668E+01         0.00000E+00
    0.17526E+01         0.42758E+01         0.00000E+00
    0.15958E+01         0.38745E+01         0.00000E+00
    0.14435E+01         0.34620E+01         0.00000E+00
    0.12911E+01         0.30364E+01         0.00000E+00
    0.11341E+01         0.25951E+01         0.00000E+00
    0.96698E+00         0.21345E+01         0.00000E+00
    0.78277E+00         0.16501E+01         0.00000E+00
    0.57139E+00         0.11362E+01         0.00000E+00
    0.31764E+00         0.58733E+00         0.00000E+00
    0.00000E+00         0.00000E+00         0.00000E+00
    0.41501E+01         0.59408E+01         0.00000E+00
    0.36847E+01         0.56629E+01         0.00000E+00
    0.33036E+01         0.53657E+01         0.00000E+00
    0.29847E+01         0.50501E+01         0.00000E+00
    0.27103E+01         0.47177E+01         0.00000E+00
    0.24668E+01         0.43709E+01         0.00000E+00
    0.22439E+01         0.40110E+01         0.00000E+00
    0.20338E+01         0.36387E+01         0.00000E+00
    0.18302E+01         0.32536E+01         0.00000E+00
    0.16272E+01         0.28542E+01         0.00000E+00
    0.14189E+01         0.24383E+01         0.00000E+00
    0.11988E+01         0.20032E+01         0.00000E+00
    0.95877E+00         0.15451E+01         0.00000E+00
    0.68857E+00         0.10603E+01         0.00000E+00
    0.37456E+00         0.54561E+00         0.00000E+00
    0.00000E+00         0.00000E+00         0.00000E+00
    0.49880E+01         0.53892E+01         0.00000E+00
    0.44528E+01         0.51484E+01         0.00000E+00
    0.40013E+01         0.48899E+01         0.00000E+00
    0.36145E+01         0.46133E+01         0.00000E+00
    0.32761E+01         0.43197E+01         0.00000E+00
    0.29730E+01         0.40103E+01         0.00000E+00
    0.26946E+01         0.36864E+01         0.00000E+00
    0.24320E+01         0.33486E+01         0.00000E+00
    0.21779E+01         0.29967E+01         0.00000E+00
    0.19254E+01         0.26298E+01         0.00000E+00
    0.16676E+01         0.22463E+01         0.00000E+00
    0.13973E+01         0.18438E+01         0.00000E+00
    0.11061E+01         0.14199E+01         0.00000E+00
    0.78418E+00         0.97200E+00         0.00000E+00
    0.41984E+00         0.49863E+00         0.00000E+00
    0.00000E+00         0.00000E+00         0.00000E+00
    0.57551E+01         0.47750E+01         0.00000E+00
    0.51597E+01         0.45718E+01         0.00000E+00
    0.46456E+01         0.43526E+01         0.00000E+00
    0.41968E+01         0.41162E+01         0.00000E+00
    0.37987E+01         0.38630E+01         0.00000E+00
    0.34390E+01         0.35938E+01         0.00000E+00
    0.31071E+01         0.33095E+01         0.00000E+00
    0.27937E+01         0.30106E+01         0.00000E+00
    0.24907E+01         0.26971E+01         0.00000E+00
    0.21906E+01         0.23683E+01         0.00000E+00
    0.18858E+01         0.20232E+01         0.00000E+00
    0.15686E+01         0.16601E+01         0.00000E+00
    0.12309E+01         0.12771E+01         0.00000E+00
    0.86359E+00         0.87301E+00         0.00000E+00
    0.45670E+00         0.44701E+00         0.00000E+00
    0.00000E+00         0.00000E+00         0.00000E+00
    0.64544E+01         0.41075E+01         0.00000E+00
    0.58066E+01         0.39424E+01         0.00000E+00
    0.52368E+01         0.37628E+01         0.00000E+00
    0.47316E+01         0.35674E+01         0.00000E+00
    0.42784E+01         0.33559E+01         0.00000E+00
    0.38657E+01         0.31289E+01         0.00000E+00
    0.34832E+01         0.28869E+01         0.00000E+00
    0.31215E+01         0.26305E+01         0.00000E+00
    0.27720E+01         0.23597E+01         0.00000E+00
    0.24268E+01         0.20741E+01         0.00000E+00
    0.20780E+01         0.17730E+01         0.00000E+00
    0.17177E+01         0.14550E+01         0.00000E+00
    0.13381E+01         0.11192E+01         0.00000E+00
    0.93073E+00         0.76464E+00         0.00000E+00
    0.48741E+00         0.39120E+00         0.00000E+00
    0.00000E+00         0.00000E+00         0.00000E+00
    0.70889E+01         0.33938E+01         0.00000E+00
    0.63950E+01         0.32672E+01         0.00000E+00
    0.57755E+01         0.31276E+01         0.00000E+00
    0.52193E+01         0.29736E+01         0.00000E+00
    0.47156E+01         0.28048E+01         0.00000E+00
    0.42539E+01         0.26215E+01         0.00000E+00
    0.38243E+01         0.24242E+01         0.00000E+00
    0.34175E+01         0.22134E+01         0.00000E+00
    0.30247E+01         0.19891E+01         0.00000E+00
    0.26376E+01         0.17510E+01         0.00000E+00
    0.22482E+01         0.14987E+01         0.00000E+00
    0.18486E+01         0.12312E+01         0.00000E+00
    0.14312E+01         0.94777E+00         0.00000E+00
    0.98855E+00         0.64787E+00         0.00000E+00
    0.51361E+00         0.33159E+00         0.00000E+00
    0.00000E+00         0.00000E+00         0.00000E+00
    0.76619E+01         0.26394E+01         0.00000E+00
    0.69267E+01         0.25517E+01         0.00000E+00
    0.62625E+01         0.24524E+01         0.00000E+00
    0.56603E+01         0.23402E+01         0.00000E+00
    0.51108E+01         0.22148E+01         0.00000E+00
    0.46045E+01         0.20766E+01         0.00000E+00
    0.41318E+01         0.19259E+01         0.00000E+00
    0.36837E+01         0.17632E+01         0.00000E+00
    0.32512E+01         0.15887E+01         0.00000E+00
    0.28258E+01         0.14020E+01         0.00000E+00
    0.23995E+01         0.12029E+01         0.00000E+00
    0.19644E+01         0.99045E+00         0.00000E+00
    0.15133E+01         0.76412E+00         0.00000E+00
    0.10393E+01         0.52344E+00         0.00000E+00
    0.53656E+00         0.26845E+00         0.00000E+00
    0.00000E+00         0.00000E+00         0.00000E+00
    0.81760E+01         0.18481E+01         0.00000E+00
    0.74033E+01         0.17997E+01         0.00000E+00
    0.66986E+01         0.17408E+01         0.00000E+00
    0.60550E+01         0.16708E+01         0.00000E+00
    0.54643E+01         0.15896E+01         0.00000E+00
    0.49179E+01         0.14976E+01         0.00000E+00
    0.44066E+01         0.13953E+01         0.00000E+00
    0.39214E+01         0.12832E+01         0.00000E+00
    0.34534E+01         0.11613E+01         0.00000E+00
    0.29938E+01         0.10295E+01         0.00000E+00
    0.25346E+01         0.88740E+00         0.00000E+00
    0.20678E+01         0.73421E+00         0.00000E+00
    0.15867E+01         0.56923E+00         0.00000E+00
    0.10849E+01         0.39188E+00         0.00000E+00
    0.55725E+00         0.20199E+00         0.00000E+00
    0.00000E+00         0.00000E+00         0.00000E+00
    0.86338E+01         0.10225E+01         0.00000E+00
    0.78260E+01         0.10136E+01         0.00000E+00
    0.70845E+01         0.99555E+00         0.00000E+00
    0.64036E+01         0.96813E+00         0.00000E+00
    0.57764E+01         0.93176E+00         0.00000E+00
    0.51946E+01         0.88709E+00         0.00000E+00
    0.46495E+01         0.83479E+00         0.00000E+00
    0.41319E+01         0.77533E+00         0.00000E+00
    0.36329E+01         0.70885E+00         0.00000E+00
    0.31435E+01         0.63513E+00         0.00000E+00
    0.26555E+01         0.55361E+00         0.00000E+00
    0.21610E+01         0.46346E+00         0.00000E+00
    0.16533E+01         0.36374E+00         0.00000E+00
    0.11266E+01         0.25356E+00         0.00000E+00
    0.57651E+00         0.13234E+00         0.00000E+00
    0.00000E+00         0.00000E+00         0.00000E+00
    0.90368E+01         0.16403E+00         0.00000E+00
    0.81958E+01         0.19505E+00         0.00000E+00
    0.74204E+01         0.21805E+00         0.00000E+00
    0.67063E+01         0.23366E+00         0.00000E+00
    0.60470E+01         0.24283E+00         0.00000E+00
    0.54348E+01         0.24660E+00         0.00000E+00
    0.48609E+01         0.24585E+00         0.00000E+00
    0.43160E+01         0.24113E+00         0.00000E+00
    0.37909E+01         0.23259E+00         0.00000E+00
    0.32764E+01         0.21991E+00         0.00000E+00
    0.27640E+01         0.20234E+00         0.00000E+00
    0.22457E+01         0.17882E+00         0.00000E+00
    0.17148E+01         0.14803E+00         0.00000E+00
    0.11659E+01         0.10867E+00         0.00000E+00
    0.59503E+00         0.59579E-01         0.00000E+00
    0.00000E+00         0.00000E+00         0.00000E+00
    0.93858E+01        -0.72675E+00         0.00000E+00
    0.85127E+01        -0.65547E+00         0.00000E+00
    0.77062E+01        -0.59104E+00         0.00000E+00
    0.69626E+01        -0.53191E+00         0.00000E+00
    0.62760E+01        -0.47641E+00         0.00000E+00
    0.56385E+01        -0.42306E+00         0.00000E+00
    0.50411E+01        -0.37069E+00         0.00000E+00
    0.44743E+01        -0.31863E+00         0.00000E+00
    0.39284E+01        -0.26676E+00         0.00000E+00
    0.33938E+01        -0.21554E+00         0.00000E+00
    0.28615E+01        -0.16594E+00         0.00000E+00
    0.23233E+01        -0.11941E+00         0.00000E+00
    0.17726E+01        -0.77697E-01         0.00000E+00
    0.12038E+01        -0.42705E-01         0.00000E+00
    0.61343E+00        -0.16286E-01         0.00000E+00
    0.00000E+00         0.00000E+00         0.00000E+00
    0.96807E+01        -0.16500E+01         0.00000E+00
    0.87760E+01        -0.15380E+01         0.00000E+00
    0.79409E+01        -0.14318E+01         0.00000E+00
    0.71717E+01        -0.13285E+01         0.00000E+00
    0.64625E+01        -0.12258E+01         0.00000E+00
    0.58050E+01        -0.11216E+01         0.00000E+00
    0.51899E+01        -0.10145E+01         0.00000E+00
    0.46070E+01        -0.90359E+00         0.00000E+00
    0.40460E+01        -0.78886E+00         0.00000E+00
    0.34965E+01        -0.67092E+00         0.00000E+00
    0.29491E+01        -0.55105E+00         0.00000E+00
    0.23952E+01        -0.43112E+00         0.00000E+00
    0.18277E+01        -0.31343E+00         0.00000E+00
    0.12412E+01        -0.20059E+00         0.00000E+00
    0.63227E+00        -0.95279E-01         0.00000E+00
    0.00000E+00         0.00000E+00         0.00000E+00
    0.99200E+01        -0.26063E+01         0.00000E+00
    0.89843E+01        -0.24533E+01         0.00000E+00
    0.81228E+01        -0.23046E+01         0.00000E+00
    0.73320E+01        -0.21564E+01         0.00000E+00
    0.66052E+01        -0.20055E+01         0.00000E+00
    0.59335E+01        -0.18491E+01         0.00000E+00
    0.53068E+01        -0.16855E+01         0.00000E+00
    0.47140E+01        -0.15136E+01         0.00000E+00
    0.41437E+01        -0.13336E+01         0.00000E+00
    0.35850E+01        -0.11461E+01         0.00000E+00
    0.30276E+01        -0.95292E+00         0.00000E+00
    0.24621E+01        -0.75630E+00         0.00000E+00
    0.18811E+01        -0.55921E+00         0.00000E+00
    0.12789E+01        -0.36506E+00         0.00000E+00
    0.65206E+00        -0.17746E+00         0.00000E+00
    0.00000E+00         0.00000E+00         0.00000E+00
    0.10101E+02        -0.35966E+01         0.00000E+00
    0.91348E+01        -0.34019E+01         0.00000E+00
    0.82496E+01        -0.32101E+01         0.00000E+00
    0.74413E+01        -0.30162E+01         0.00000E+00
    0.67022E+01        -0.28158E+01         0.00000E+00
    0.60225E+01        -0.26056E+01         0.00000E+00
    0.53907E+01        -0.23835E+01         0.00000E+00
    0.47945E+01        -0.21486E+01         0.00000E+00
    0.42215E+01        -0.19007E+01         0.00000E+00
    0.36596E+01        -0.16410E+01         0.00000E+00
    0.30974E+01        -0.13714E+01         0.00000E+00
    0.25248E+01        -0.10949E+01         0.00000E+00
    0.19337E+01        -0.81510E+00         0.00000E+00
    0.13177E+01        -0.53619E+00         0.00000E+00
    0.67328E+00        -0.26288E+00         0.00000E+00
    0.00000E+00         0.00000E+00         0.00000E+00
    0.10220E+02        -0.46219E+01         0.00000E+00
    0.92236E+01        -0.43847E+01         0.00000E+00
    0.83176E+01        -0.41490E+01         0.00000E+00
    0.74965E+01        -0.39081E+01         0.00000E+00
    0.67511E+01        -0.36567E+01         0.00000E+00
    0.60701E+01        -0.33909E+01         0.00000E+00
    0.54402E+01        -0.31084E+01         0.00000E+00
    0.48477E+01        -0.28079E+01         0.00000E+00
    0.42787E+01        -0.24897E+01         0.00000E+00
    0.37198E+01        -0.21550E+01         0.00000E+00
    0.31585E+01        -0.18063E+01         0.00000E+00
    0.25835E+01        -0.14469E+01         0.00000E+00
    0.19857E+01        -0.10811E+01         0.00000E+00
    0.13580E+01        -0.71403E+00         0.00000E+00
    0.69629E+00        -0.35160E+00         0.00000E+00
    0.00000E+00         0.00000E+00         0.00000E+00
    0.10271E+02        -0.56826E+01         0.00000E+00
    0.92456E+01        -0.54022E+01         0.00000E+00
    0.83223E+01        -0.51213E+01         0.00000E+00
    0.74937E+01        -0.48319E+01         0.00000E+00
    0.67487E+01        -0.45278E+01         0.00000E+00
    0.60734E+01        -0.42044E+01         0.00000E+00
    0.54530E+01        -0.38590E+01         0.00000E+00
    0.48716E+01        -0.34907E+01         0.00000E+00
    0.43139E+01        -0.30996E+01         0.00000E+00
    0.37647E+01        -0.26874E+01         0.00000E+00
    0.32102E+01        -0.22567E+01         0.00000E+00
    0.26380E+01        -0.18116E+01         0.00000E+00
    0.20373E+01        -0.13568E+01         0.00000E+00
    0.14001E+01        -0.89850E+00         0.00000E+00
    0.72137E+00        -0.44365E+00         0.00000E+00
    0.00000E+00         0.00000E+00         0.00000E+00
    0.10247E+02        -0.67790E+01         0.00000E+00
    0.91943E+01        -0.64541E+01         0.00000E+00
    0.82581E+01        -0.61266E+01         0.00000E+00
    0.74283E+01        -0.57868E+01         0.00000E+00
    0.66908E+01        -0.54277E+01         0.00000E+00
    0.60294E+01        -0.50441E+01         0.00000E+00
    0.54264E+01        -0.46334E+01         0.00000E+00
    0.48641E+01        -0.41946E+01         0.00000E+00
    0.43250E+01        -0.37282E+01         0.00000E+00
    0.37925E+01        -0.32361E+01         0.00000E+00
    0.32512E+01        -0.27213E+01         0.00000E+00
    0.26871E+01        -0.21881E+01         0.00000E+00
    0.20878E+01        -0.16418E+01         0.00000E+00
    0.14438E+01        -0.10894E+01         0.00000E+00
    0.74857E+00        -0.53897E+00         0.00000E+00
    0.00000E+00         0.00000E+00         0.00000E+00
    0.10139E+02        -0.79102E+01         0.00000E+00
    0.90618E+01        -0.75393E+01         0.00000E+00
    0.81181E+01        -0.71632E+01         0.00000E+00
    0.72944E+01        -0.67707E+01         0.00000E+00
    0.65729E+01        -0.63537E+01         0.00000E+00
    0.59339E+01        -0.59071E+01         0.00000E+00
    0.53569E+01        -0.54281E+01         0.00000E+00
    0.48217E+01        -0.49161E+01         0.00000E+00
    0.43090E+01        -0.43722E+01         0.00000E+00
    0.38004E+01        -0.37982E+01         0.00000E+00
    0.32789E+01        -0.31976E+01         0.00000E+00
    0.27287E+01        -0.25746E+01         0.00000E+00
    0.21358E+01        -0.19350E+01         0.00000E+00
    0.14882E+01        -0.12862E+01         0.00000E+00
    0.77765E+00        -0.63745E+00         0.00000E+00
    0.00000E+00         0.00000E+00         0.00000E+00
    0.99363E+01        -0.90744E+01         0.00000E+00
    0.88385E+01        -0.86556E+01         0.00000E+00
    0.78945E+01        -0.82283E+01         0.00000E+00
    0.70856E+01        -0.77798E+01         0.00000E+00
    0.63894E+01        -0.73014E+01         0.00000E+00
    0.57821E+01        -0.67880E+01         0.00000E+00
    0.52400E+01        -0.62374E+01         0.00000E+00
    0.47402E+01        -0.56496E+01         0.00000E+00
    0.42615E+01        -0.50261E+01         0.00000E+00
    0.37840E+01        -0.43691E+01         0.00000E+00
    0.32892E+01        -0.36818E+01         0.00000E+00
    0.27594E+01        -0.29685E+01         0.00000E+00
    0.21784E+01        -0.22347E+01         0.00000E+00
    0.15318E+01        -0.14881E+01         0.00000E+00
    0.80791E+00        -0.73885E+00         0.00000E+00
    0.00000E+00         0.00000E+00         0.00000E+00
    0.96250E+01        -0.10268E+02         0.00000E+00
    0.85132E+01        -0.97987E+01         0.00000E+00
    0.75780E+01        -0.93168E+01         0.00000E+00
    0.67944E+01        -0.88081E+01         0.00000E+00
    0.61342E+01        -0.82637E+01         0.00000E+00
    0.55687E+01        -0.76791E+01         0.00000E+00
    0.50703E+01        -0.70531E+01         0.00000E+00
    0.46138E+01        -0.63868E+01         0.00000E+00
    0.41764E+01        -0.56822E+01         0.00000E+00
    0.37370E+01        -0.49418E+01         0.00000E+00
    0.32757E+01        -0.41684E+01         0.00000E+00
    0.27733E+01        -0.33656E+01         0.00000E+00
    0.22111E+01        -0.25383E+01         0.00000E+00
    0.15712E+01        -0.16938E+01         0.00000E+00
    0.83792E+00        -0.84282E+00         0.00000E+00
    0.00000E+00         0.00000E+00         0.00000E+00
    0.91900E+01        -0.11486E+02         0.00000E+00
    0.80729E+01        -0.10963E+02         0.00000E+00
    0.71580E+01        -0.10421E+02         0.00000E+00
    0.64126E+01        -0.98469E+01         0.00000E+00
    0.58005E+01        -0.92304E+01         0.00000E+00
    0.52871E+01        -0.85689E+01         0.00000E+00
    0.48410E+01        -0.78633E+01         0.00000E+00
    0.44350E+01        -0.71159E+01         0.00000E+00
    0.40452E+01        -0.63297E+01         0.00000E+00
    0.36502E+01        -0.55069E+01         0.00000E+00
    0.32293E+01        -0.46498E+01         0.00000E+00
    0.27619E+01        -0.37605E+01         0.00000E+00
    0.22267E+01        -0.28424E+01         0.00000E+00
    0.16015E+01        -0.19017E+01         0.00000E+00
    0.86525E+00        -0.94889E+00         0.00000E+00
    0.00000E+00         0.00000E+00         0.00000E+00
    0.86129E+01        -0.12721E+02         0.00000E+00
    0.75022E+01        -0.12138E+02         0.00000E+00
    0.66231E+01        -0.11531E+02         0.00000E+00
    0.59313E+01        -0.10883E+02         0.00000E+00
    0.53806E+01        -0.10187E+02         0.00000E+00
    0.49296E+01        -0.94416E+01         0.00000E+00
    0.45434E+01        -0.86518E+01         0.00000E+00
    0.41936E+01        -0.78216E+01         0.00000E+00
    0.38566E+01        -0.69543E+01         0.00000E+00
    0.35111E+01        -0.60521E+01         0.00000E+00
    0.31369E+01        -0.51158E+01         0.00000E+00
    0.27126E+01        -0.41455E+01         0.00000E+00
    0.22142E+01        -0.31422E+01         0.00000E+00
    0.16149E+01        -0.21095E+01         0.00000E+00
    0.88590E+00        -0.10564E+01         0.00000E+00
    0.00000E+00         0.00000E+00         0.00000E+00
    0.78714E+01        -0.13961E+02         0.00000E+00
    0.67835E+01        -0.13313E+02         0.00000E+00
    0.59604E+01        -0.12631E+02         0.00000E+00
    0.53411E+01        -0.11898E+02         0.00000E+00
    0.48662E+01        -0.11111E+02         0.00000E+00
    0.44868E+01        -0.10275E+02         0.00000E+00
    0.41660E+01        -0.93973E+01         0.00000E+00
    0.38759E+01        -0.84836E+01         0.00000E+00
    0.35944E+01        -0.75380E+01         0.00000E+00
    0.33022E+01        -0.65617E+01         0.00000E+00
    0.29803E+01        -0.55535E+01         0.00000E+00
    0.26074E+01        -0.45109E+01         0.00000E+00
    0.21577E+01        -0.34312E+01         0.00000E+00
    0.15992E+01        -0.23138E+01         0.00000E+00
    0.89359E+00        -0.11646E+01         0.00000E+00
    0.00000E+00         0.00000E+00         0.00000E+00
    0.69374E+01        -0.15193E+02         0.00000E+00
    0.58957E+01        -0.14469E+02         0.00000E+00
    0.51563E+01        -0.13698E+02         0.00000E+00
    0.46320E+01        -0.12866E+02         0.00000E+00
    0.42465E+01        -0.11976E+02         0.00000E+00
    0.39452E+01        -0.11041E+02         0.00000E+00
    0.36920E+01        -0.10073E+02         0.00000E+00
    0.34621E+01        -0.90777E+01         0.00000E+00
    0.32368E+01        -0.80593E+01         0.00000E+00
    0.29999E+01        -0.70169E+01         0.00000E+00
    0.27346E+01        -0.59471E+01         0.00000E+00
    0.24214E+01        -0.48443E+01         0.00000E+00
    0.20342E+01        -0.37009E+01         0.00000E+00
    0.15364E+01        -0.25105E+01         0.00000E+00
    0.87847E+00        -0.12723E+01         0.00000E+00
    0.00000E+00         0.00000E+00         0.00000E+00
    0.57737E+01        -0.16394E+02         0.00000E+00
    0.48136E+01        -0.15579E+02         0.00000E+00
    0.41965E+01        -0.14698E+02         0.00000E+00
    0.37918E+01        -0.13745E+02         0.00000E+00
    0.35052E+01        -0.12739E+02         0.00000E+00
    0.32832E+01        -0.11702E+02         0.00000E+00
    0.30958E+01        -0.10646E+02         0.00000E+00
    0.29240E+01        -0.95764E+01         0.00000E+00
    0.27536E+01        -0.84945E+01         0.00000E+00
    0.25722E+01        -0.73972E+01         0.00000E+00
    0.23669E+01        -0.62786E+01         0.00000E+00
    0.21211E+01        -0.51301E+01         0.00000E+00
    0.18111E+01        -0.39398E+01         0.00000E+00
    0.13992E+01        -0.26930E+01         0.00000E+00
    0.82471E+00        -0.13782E+01         0.00000E+00
    0.00000E+00         0.00000E+00         0.00000E+00
    0.43261E+01        -0.17533E+02         0.00000E+00
    0.35074E+01        -0.16600E+02         0.00000E+00
    0.30660E+01        -0.15572E+02         0.00000E+00
    0.27990E+01        -0.14472E+02         0.00000E+00
    0.26105E+01        -0.13346E+02         0.00000E+00
    0.24630E+01        -0.12214E+02         0.00000E+00
    0.23366E+01        -0.11082E+02         0.00000E+00
    0.22192E+01        -0.99521E+01         0.00000E+00
    0.21019E+01        -0.88206E+01         0.00000E+00
    0.19764E+01        -0.76822E+01         0.00000E+00
    0.18336E+01        -0.65290E+01         0.00000E+00
    0.16617E+01        -0.53503E+01         0.00000E+00
    0.14427E+01        -0.41314E+01         0.00000E+00
    0.11454E+01        -0.28509E+01         0.00000E+00
    0.70545E+00        -0.14790E+01         0.00000E+00
    0.00000E+00         0.00000E+00         0.00000E+00
    0.24982E+01        -0.18562E+02         0.00000E+00
    0.19483E+01        -0.17438E+02         0.00000E+00
    0.17309E+01        -0.16201E+02         0.00000E+00
    0.15934E+01        -0.14959E+02         0.00000E+00
    0.14942E+01        -0.13736E+02         0.00000E+00
    0.14150E+01        -0.12535E+02         0.00000E+00
    0.13465E+01        -0.11352E+02         0.00000E+00
    0.12827E+01        -0.10182E+02         0.00000E+00
    0.12191E+01        -0.90191E+01         0.00000E+00
    0.11515E+01        -0.78556E+01         0.00000E+00
    0.10752E+01        -0.66822E+01         0.00000E+00
    0.98396E+00        -0.54874E+01         0.00000E+00
    0.86796E+00        -0.42554E+01         0.00000E+00
    0.70926E+00        -0.29627E+01         0.00000E+00
    0.46945E+00        -0.15685E+01         0.00000E+00
    0.00000E+00         0.00000E+00         0.00000E+00
    0.00000E+00        -0.19254E+02         0.00000E+00
    0.00000E+00        -0.17788E+02         0.00000E+00
    0.00000E+00        -0.16420E+02         0.00000E+00
    0.00000E+00        -0.15120E+02         0.00000E+00
    0.00000E+00        -0.13862E+02         0.00000E+00
    0.00000E+00        -0.12637E+02         0.00000E+00
    0.00000E+00        -0.11437E+02         0.00000E+00
    0.00000E+00        -0.10255E+02         0.00000E+00
    0.00000E+00        -0.90817E+01         0.00000E+00
    0.00000E+00        -0.79102E+01         0.00000E+00
    0.00000E+00        -0.67306E+01         0.00000E+00
    0.00000E+00        -0.55310E+01         0.00000E+00
    0.00000E+00        -0.42957E+01         0.00000E+00
    0.00000E+00        -0.30010E+01         0.00000E+00
    0.00000E+00        -0.16074E+01         0.00000E+00
    0.00000E+00         0.00000E+00         0.00000E+00
CELL_DATA        450
VECTORS vDarcy double 
    0.11684E-05         0.20330E-07         0.00000E+00
    0.11475E-05         0.48667E-07         0.00000E+00
    0.11445E-05         0.60582E-07         0.00000E+00
    0.11423E-05         0.66106E-07         0.00000E+00
    0.11410E-05         0.68094E-07         0.00000E+00
    0.11401E-05         0.67902E-07         0.00000E+00
    0.11394E-05         0.66258E-07         0.00000E+00
    0.11389E-05         0.63575E-07         0.00000E+00
    0.11385E-05         0.60082E-07         0.00000E+00
    0.11381E-05         0.55882E-07         0.00000E+00
    0.11377E-05         0.50955E-07         0.00000E+00
    0.11372E-05         0.45124E-07         0.00000E+00
    0.11363E-05         0.37918E-07         0.00000E+00
    0.11351E-05         0.28136E-07         0.00000E+00
    0.11255E-05         0.11186E-07         0.00000E+00
    0.11527E-05         0.72724E-08         0.00000E+00
    0.11288E-05         0.22597E-07         0.00000E+00
    0.11153E-05         0.35311E-07         0.00000E+00
    0.11084E-05         0.42632E-07         0.00000E+00
    0.11040E-05         0.46476E-07         0.00000E+00
    0.11010E-05         0.47958E-07         0.00000E+00
    0.10988E-05         0.47760E-07         0.00000E+00
    0.10970E-05         0.46299E-07         0.00000E+00
    0.10955E-05         0.43813E-07         0.00000E+00
    0.10941E-05         0.40406E-07         0.00000E+00
    0.10925E-05         0.36054E-07         0.00000E+00
    0.10906E-05         0.30582E-07         0.00000E+00
    0.10877E-05         0.23605E-07         0.00000E+00
    0.10820E-05         0.14389E-07         0.00000E+00
    0.10717E-05         0.45572E-08         0.00000E+00
    0.11233E-05         0.30665E-08         0.00000E+00
    0.11009E-05         0.10249E-07         0.00000E+00
    0.10851E-05         0.18180E-07         0.00000E+00
    0.10745E-05         0.24609E-07         0.00000E+00
    0.10674E-05         0.28780E-07         0.00000E+00
    0.10623E-05         0.31026E-07         0.00000E+00
    0.10585E-05         0.31726E-07         0.00000E+00
    0.10553E-05         0.31173E-07         0.00000E+00
    0.10526E-05         0.29561E-07         0.00000E+00
    0.10500E-05         0.26988E-07         0.00000E+00
    0.10473E-05         0.23474E-07         0.00000E+00
    0.10440E-05         0.18971E-07         0.00000E+00
    0.10395E-05         0.13441E-07         0.00000E+00
    0.10329E-05         0.74031E-08         0.00000E+00
    0.10242E-05         0.21934E-08         0.00000E+00
    0.10869E-05         0.58250E-09         0.00000E+00
    0.10671E-05         0.31259E-08         0.00000E+00
    0.10514E-05         0.73843E-08         0.00000E+00
    0.10394E-05         0.11695E-07         0.00000E+00
    0.10305E-05         0.15131E-07         0.00000E+00
    0.10238E-05         0.17372E-07         0.00000E+00
    0.10185E-05         0.18451E-07         0.00000E+00
    0.10141E-05         0.18487E-07         0.00000E+00
    0.10103E-05         0.17597E-07         0.00000E+00
    0.10066E-05         0.15869E-07         0.00000E+00
    0.10029E-05         0.13374E-07         0.00000E+00
    0.99861E-06         0.10207E-07         0.00000E+00
    0.99346E-06         0.66335E-08         0.00000E+00
    0.98718E-06         0.32180E-08         0.00000E+00
    0.98003E-06         0.82059E-09         0.00000E+00
    0.10470E-05        -0.82054E-09         0.00000E+00
    0.10299E-05        -0.11645E-08         0.00000E+00
    0.10151E-05         0.42472E-09         0.00000E+00
    0.10030E-05         0.27728E-08         0.00000E+00
    0.99323E-06         0.50584E-08         0.00000E+00
    0.98542E-06         0.68292E-08         0.00000E+00
    0.97905E-06         0.79047E-08         0.00000E+00
    0.97368E-06         0.82597E-08         0.00000E+00
    0.96892E-06         0.79338E-08         0.00000E+00
    0.96445E-06         0.69959E-08         0.00000E+00
    0.95997E-06         0.55461E-08         0.00000E+00
    0.95521E-06         0.37543E-08         0.00000E+00
    0.94997E-06         0.19147E-08         0.00000E+00
    0.94427E-06         0.47314E-09         0.00000E+00
    0.93844E-06        -0.41382E-10         0.00000E+00
    0.10055E-05        -0.16208E-08         0.00000E+00
    0.99078E-06        -0.37416E-08         0.00000E+00
    0.97734E-06        -0.40389E-08         0.00000E+00
    0.96565E-06        -0.32985E-08         0.00000E+00
    0.95574E-06        -0.21555E-08         0.00000E+00
    0.94744E-06        -0.10391E-08         0.00000E+00
    0.94044E-06        -0.19039E-09         0.00000E+00
    0.93441E-06         0.28649E-09         0.00000E+00
    0.92903E-06         0.37523E-09         0.00000E+00
    0.92403E-06         0.11778E-09         0.00000E+00
    0.91915E-06        -0.38991E-09         0.00000E+00
    0.91422E-06        -0.98560E-09         0.00000E+00
    0.90916E-06        -0.14281E-08         0.00000E+00
    0.90407E-06        -0.14111E-08         0.00000E+00
    0.89926E-06        -0.62328E-09         0.00000E+00
    0.96401E-06        -0.20616E-08         0.00000E+00
    0.95131E-06        -0.52607E-08         0.00000E+00
    0.93923E-06        -0.68635E-08         0.00000E+00
    0.92828E-06        -0.73687E-08         0.00000E+00
    0.91864E-06        -0.72247E-08         0.00000E+00
    0.91030E-06        -0.67764E-08         0.00000E+00
    0.90307E-06        -0.62522E-08         0.00000E+00
    0.89675E-06        -0.57794E-08         0.00000E+00
    0.89108E-06        -0.54058E-08         0.00000E+00
    0.88584E-06        -0.51174E-08         0.00000E+00
    0.88084E-06        -0.48467E-08         0.00000E+00
    0.87598E-06        -0.44741E-08         0.00000E+00
    0.87123E-06        -0.38351E-08         0.00000E+00
    0.86670E-06        -0.27424E-08         0.00000E+00
    0.86268E-06        -0.10294E-08         0.00000E+00
    0.92360E-06        -0.22882E-08         0.00000E+00
    0.91255E-06        -0.61290E-08         0.00000E+00
    0.90175E-06        -0.86327E-08         0.00000E+00
    0.89169E-06        -0.10083E-07         0.00000E+00
    0.88261E-06        -0.10767E-07         0.00000E+00
    0.87455E-06        -0.10928E-07         0.00000E+00
    0.86746E-06        -0.10751E-07         0.00000E+00
    0.86118E-06        -0.10353E-07         0.00000E+00
    0.85553E-06        -0.97960E-08         0.00000E+00
    0.85033E-06        -0.90903E-08         0.00000E+00
    0.84546E-06        -0.82046E-08         0.00000E+00
    0.84083E-06        -0.70728E-08         0.00000E+00
    0.83646E-06        -0.56054E-08         0.00000E+00
    0.83245E-06        -0.37103E-08         0.00000E+00
    0.82902E-06        -0.13225E-08         0.00000E+00
    0.88518E-06        -0.23961E-08         0.00000E+00
    0.87544E-06        -0.66228E-08         0.00000E+00
    0.86579E-06        -0.97648E-08         0.00000E+00
    0.85667E-06        -0.11941E-07         0.00000E+00
    0.84832E-06        -0.13301E-07         0.00000E+00
    0.84083E-06        -0.13995E-07         0.00000E+00
    0.83416E-06        -0.14150E-07         0.00000E+00
    0.82822E-06        -0.13862E-07         0.00000E+00
    0.82286E-06        -0.13192E-07         0.00000E+00
    0.81797E-06        -0.12171E-07         0.00000E+00
    0.81342E-06        -0.10804E-07         0.00000E+00
    0.80916E-06        -0.90753E-08         0.00000E+00
    0.80521E-06        -0.69624E-08         0.00000E+00
    0.80166E-06        -0.44492E-08         0.00000E+00
    0.79869E-06        -0.15458E-08         0.00000E+00
    0.84948E-06        -0.24538E-08         0.00000E+00
    0.84075E-06        -0.69435E-08         0.00000E+00
    0.83212E-06        -0.10574E-07         0.00000E+00
    0.82394E-06        -0.13334E-07         0.00000E+00
    0.81645E-06        -0.15261E-07         0.00000E+00
    0.80971E-06        -0.16419E-07         0.00000E+00
    0.80371E-06        -0.16880E-07         0.00000E+00
    0.79837E-06        -0.16711E-07         0.00000E+00
    0.79357E-06        -0.15970E-07         0.00000E+00
    0.78919E-06        -0.14703E-07         0.00000E+00
    0.78514E-06        -0.12946E-07         0.00000E+00
    0.78137E-06        -0.10729E-07         0.00000E+00
    0.77787E-06        -0.80860E-08         0.00000E+00
    0.77474E-06        -0.50643E-08         0.00000E+00
    0.77212E-06        -0.17327E-08         0.00000E+00
    0.81707E-06        -0.25138E-08         0.00000E+00
    0.80909E-06        -0.72461E-08         0.00000E+00
    0.80134E-06        -0.11309E-07         0.00000E+00
    0.79411E-06        -0.14582E-07         0.00000E+00
    0.78757E-06        -0.17010E-07         0.00000E+00
    0.78176E-06        -0.18583E-07         0.00000E+00
    0.77665E-06        -0.19325E-07         0.00000E+00
    0.77213E-06        -0.19272E-07         0.00000E+00
    0.76811E-06        -0.18478E-07         0.00000E+00
    0.76444E-06        -0.16998E-07         0.00000E+00
    0.76105E-06        -0.14897E-07         0.00000E+00
    0.75786E-06        -0.12246E-07         0.00000E+00
    0.75487E-06        -0.91282E-08         0.00000E+00
    0.75213E-06        -0.56432E-08         0.00000E+00
    0.74976E-06        -0.19113E-08         0.00000E+00
    0.78835E-06        -0.26181E-08         0.00000E+00
    0.78091E-06        -0.76556E-08         0.00000E+00
    0.77395E-06        -0.12169E-07         0.00000E+00
    0.76768E-06        -0.15947E-07         0.00000E+00
    0.76219E-06        -0.18855E-07         0.00000E+00
    0.75746E-06        -0.20822E-07         0.00000E+00
    0.75342E-06        -0.21824E-07         0.00000E+00
    0.74994E-06        -0.21877E-07         0.00000E+00
    0.74690E-06        -0.21024E-07         0.00000E+00
    0.74413E-06        -0.19334E-07         0.00000E+00
    0.74154E-06        -0.16895E-07         0.00000E+00
    0.73904E-06        -0.13815E-07         0.00000E+00
    0.73660E-06        -0.10221E-07         0.00000E+00
    0.73424E-06        -0.62626E-08         0.00000E+00
    0.73205E-06        -0.21058E-08         0.00000E+00
    0.76358E-06        -0.28021E-08         0.00000E+00
    0.75653E-06        -0.82774E-08         0.00000E+00
    0.75031E-06        -0.13326E-07         0.00000E+00
    0.74502E-06        -0.17655E-07         0.00000E+00
    0.74067E-06        -0.21064E-07         0.00000E+00
    0.73718E-06        -0.23424E-07         0.00000E+00
    0.73441E-06        -0.24678E-07         0.00000E+00
    0.73218E-06        -0.24818E-07         0.00000E+00
    0.73032E-06        -0.23885E-07         0.00000E+00
    0.72864E-06        -0.21958E-07         0.00000E+00
    0.72700E-06        -0.19150E-07         0.00000E+00
    0.72528E-06        -0.15602E-07         0.00000E+00
    0.72344E-06        -0.11484E-07         0.00000E+00
    0.72146E-06        -0.69908E-08         0.00000E+00
    0.71940E-06        -0.23382E-08         0.00000E+00
    0.74287E-06        -0.30973E-08         0.00000E+00
    0.73610E-06        -0.92047E-08         0.00000E+00
    0.73060E-06        -0.14929E-07         0.00000E+00
    0.72637E-06        -0.19905E-07         0.00000E+00
    0.72330E-06        -0.23868E-07         0.00000E+00
    0.72122E-06        -0.26646E-07         0.00000E+00
    0.71992E-06        -0.28148E-07         0.00000E+00
    0.71915E-06        -0.28355E-07         0.00000E+00
    0.71867E-06        -0.27306E-07         0.00000E+00
    0.71827E-06        -0.25093E-07         0.00000E+00
    0.71774E-06        -0.21850E-07         0.00000E+00
    0.71693E-06        -0.17756E-07         0.00000E+00
    0.71574E-06        -0.13021E-07         0.00000E+00
    0.71414E-06        -0.78902E-08         0.00000E+00
    0.71216E-06        -0.26288E-08         0.00000E+00
    0.72618E-06        -0.35330E-08         0.00000E+00
    0.71965E-06        -0.10524E-07         0.00000E+00
    0.71491E-06        -0.17117E-07         0.00000E+00
    0.71184E-06        -0.22874E-07         0.00000E+00
    0.71022E-06        -0.27477E-07         0.00000E+00
    0.70976E-06        -0.30713E-07         0.00000E+00
    0.71015E-06        -0.32470E-07         0.00000E+00
    0.71107E-06        -0.32718E-07         0.00000E+00
    0.71221E-06        -0.31504E-07         0.00000E+00
    0.71328E-06        -0.28932E-07         0.00000E+00
    0.71402E-06        -0.25165E-07         0.00000E+00
    0.71424E-06        -0.20413E-07         0.00000E+00
    0.71378E-06        -0.14933E-07         0.00000E+00
    0.71258E-06        -0.90192E-08         0.00000E+00
    0.71064E-06        -0.29966E-08         0.00000E+00
    0.71331E-06        -0.41386E-08         0.00000E+00
    0.70703E-06        -0.12320E-07         0.00000E+00
    0.70316E-06        -0.20020E-07         0.00000E+00
    0.70143E-06        -0.26730E-07         0.00000E+00
    0.70146E-06        -0.32080E-07         0.00000E+00
    0.70287E-06        -0.35827E-07         0.00000E+00
    0.70521E-06        -0.37845E-07         0.00000E+00
    0.70808E-06        -0.38105E-07         0.00000E+00
    0.71108E-06        -0.36663E-07         0.00000E+00
    0.71384E-06        -0.33646E-07         0.00000E+00
    0.71605E-06        -0.29241E-07         0.00000E+00
    0.71744E-06        -0.23695E-07         0.00000E+00
    0.71781E-06        -0.17309E-07         0.00000E+00
    0.71703E-06        -0.10433E-07         0.00000E+00
    0.71508E-06        -0.34600E-08         0.00000E+00
    0.70391E-06        -0.49439E-08         0.00000E+00
    0.69797E-06        -0.14676E-07         0.00000E+00
    0.69514E-06        -0.23765E-07         0.00000E+00
    0.69498E-06        -0.31627E-07         0.00000E+00
    0.69696E-06        -0.37847E-07         0.00000E+00
    0.70053E-06        -0.42161E-07         0.00000E+00
    0.70513E-06        -0.44442E-07         0.00000E+00
    0.71024E-06        -0.44676E-07         0.00000E+00
    0.71536E-06        -0.42936E-07         0.00000E+00
    0.72006E-06        -0.39374E-07         0.00000E+00
    0.72394E-06        -0.34205E-07         0.00000E+00
    0.72667E-06        -0.27709E-07         0.00000E+00
    0.72798E-06        -0.20232E-07         0.00000E+00
    0.72767E-06        -0.12185E-07         0.00000E+00
    0.72567E-06        -0.40375E-08         0.00000E+00
    0.69748E-06        -0.59810E-08         0.00000E+00
    0.69204E-06        -0.17682E-07         0.00000E+00
    0.69052E-06        -0.28478E-07         0.00000E+00
    0.69227E-06        -0.37710E-07         0.00000E+00
    0.69655E-06        -0.44924E-07         0.00000E+00
    0.70264E-06        -0.49852E-07         0.00000E+00
    0.70984E-06        -0.52387E-07         0.00000E+00
    0.71749E-06        -0.52541E-07         0.00000E+00
    0.72503E-06        -0.50424E-07         0.00000E+00
    0.73193E-06        -0.46213E-07         0.00000E+00
    0.73773E-06        -0.40150E-07         0.00000E+00
    0.74199E-06        -0.32544E-07         0.00000E+00
    0.74438E-06        -0.23779E-07         0.00000E+00
    0.74461E-06        -0.14328E-07         0.00000E+00
    0.74254E-06        -0.47480E-08         0.00000E+00
    0.69337E-06        -0.72847E-08         0.00000E+00
    0.68871E-06        -0.21428E-07         0.00000E+00
    0.68888E-06        -0.34282E-07         0.00000E+00
    0.69296E-06        -0.45107E-07         0.00000E+00
    0.69998E-06        -0.53423E-07         0.00000E+00
    0.70902E-06        -0.58986E-07         0.00000E+00
    0.71919E-06        -0.61735E-07         0.00000E+00
    0.72974E-06        -0.61740E-07         0.00000E+00
    0.74000E-06        -0.59158E-07         0.00000E+00
    0.74937E-06        -0.54200E-07         0.00000E+00
    0.75733E-06        -0.47127E-07         0.00000E+00
    0.76336E-06        -0.38261E-07         0.00000E+00
    0.76701E-06        -0.28015E-07         0.00000E+00
    0.76790E-06        -0.16914E-07         0.00000E+00
    0.76573E-06        -0.56117E-08         0.00000E+00
    0.69078E-06        -0.88937E-08         0.00000E+00
    0.68729E-06        -0.26014E-07         0.00000E+00
    0.68967E-06        -0.41298E-07         0.00000E+00
    0.69665E-06        -0.53920E-07         0.00000E+00
    0.70698E-06        -0.63403E-07         0.00000E+00
    0.71944E-06        -0.69565E-07         0.00000E+00
    0.73300E-06        -0.72442E-07         0.00000E+00
    0.74678E-06        -0.72200E-07         0.00000E+00
    0.76005E-06        -0.69064E-07         0.00000E+00
    0.77217E-06        -0.63282E-07         0.00000E+00
    0.78255E-06        -0.55118E-07         0.00000E+00
    0.79062E-06        -0.44884E-07         0.00000E+00
    0.79577E-06        -0.32990E-07         0.00000E+00
    0.79747E-06        -0.19994E-07         0.00000E+00
    0.79526E-06        -0.66515E-08         0.00000E+00
    0.68875E-06        -0.10854E-07         0.00000E+00
    0.68701E-06        -0.31548E-07         0.00000E+00
    0.69231E-06        -0.49637E-07         0.00000E+00
    0.70294E-06        -0.64211E-07         0.00000E+00
    0.71723E-06        -0.74837E-07         0.00000E+00
    0.73368E-06        -0.81469E-07         0.00000E+00
    0.75104E-06        -0.84313E-07         0.00000E+00
    0.76836E-06        -0.83685E-07         0.00000E+00
    0.78488E-06        -0.79910E-07         0.00000E+00
    0.79998E-06        -0.73270E-07         0.00000E+00
    0.81305E-06        -0.64008E-07         0.00000E+00
    0.82344E-06        -0.52377E-07         0.00000E+00
    0.83042E-06        -0.38730E-07         0.00000E+00
    0.83320E-06        -0.23622E-07         0.00000E+00
    0.83108E-06        -0.78941E-08         0.00000E+00
    0.68615E-06        -0.13221E-07         0.00000E+00
    0.68698E-06        -0.38157E-07         0.00000E+00
    0.69618E-06        -0.59405E-07         0.00000E+00
    0.71143E-06        -0.75976E-07         0.00000E+00
    0.73050E-06        -0.87569E-07         0.00000E+00
    0.75152E-06        -0.94390E-07         0.00000E+00
    0.77306E-06        -0.96927E-07         0.00000E+00
    0.79414E-06        -0.95724E-07         0.00000E+00
    0.81406E-06        -0.91240E-07         0.00000E+00
    0.83228E-06        -0.83785E-07         0.00000E+00
    0.84827E-06        -0.73535E-07         0.00000E+00
    0.86132E-06        -0.60612E-07         0.00000E+00
    0.87054E-06        -0.45228E-07         0.00000E+00
    0.87483E-06        -0.27851E-07         0.00000E+00
    0.87307E-06        -0.93723E-08         0.00000E+00
    0.68169E-06        -0.16073E-07         0.00000E+00
    0.68622E-06        -0.45997E-07         0.00000E+00
    0.70069E-06        -0.70685E-07         0.00000E+00
    0.72183E-06        -0.89103E-07         0.00000E+00
    0.74666E-06        -0.10123E-06         0.00000E+00
    0.77284E-06        -0.10774E-06         0.00000E+00
    0.79882E-06        -0.10954E-06         0.00000E+00
    0.82369E-06        -0.10752E-06         0.00000E+00
    0.84697E-06        -0.10229E-06         0.00000E+00
    0.86833E-06        -0.94173E-07         0.00000E+00
    0.88738E-06        -0.83223E-07         0.00000E+00
    0.90345E-06        -0.69327E-07         0.00000E+00
    0.91547E-06        -0.52415E-07         0.00000E+00
    0.92193E-06        -0.32731E-07         0.00000E+00
    0.92109E-06        -0.11128E-07         0.00000E+00
    0.67380E-06        -0.19523E-07         0.00000E+00
    0.68371E-06        -0.55280E-07         0.00000E+00
    0.70538E-06        -0.83525E-07         0.00000E+00
    0.73408E-06        -0.10328E-06         0.00000E+00
    0.76577E-06        -0.11512E-06         0.00000E+00
    0.79763E-06        -0.12049E-06         0.00000E+00
    0.82808E-06        -0.12096E-06         0.00000E+00
    0.85651E-06        -0.11783E-06         0.00000E+00
    0.88282E-06        -0.11188E-06         0.00000E+00
    0.90708E-06        -0.10342E-06         0.00000E+00
    0.92920E-06        -0.92293E-07         0.00000E+00
    0.94865E-06        -0.78043E-07         0.00000E+00
    0.96422E-06        -0.60120E-07         0.00000E+00
    0.97387E-06        -0.38301E-07         0.00000E+00
    0.97494E-06        -0.13213E-07         0.00000E+00
    0.66059E-06        -0.23753E-07         0.00000E+00
    0.67841E-06        -0.66296E-07         0.00000E+00
    0.71008E-06        -0.97859E-07         0.00000E+00
    0.74855E-06        -0.11781E-06         0.00000E+00
    0.78826E-06        -0.12796E-06         0.00000E+00
    0.82601E-06        -0.13101E-06         0.00000E+00
    0.86057E-06        -0.12943E-06         0.00000E+00
    0.89192E-06        -0.12491E-06         0.00000E+00
    0.92058E-06        -0.11837E-06         0.00000E+00
    0.94718E-06        -0.11003E-06         0.00000E+00
    0.97211E-06        -0.99527E-07         0.00000E+00
    0.99521E-06        -0.85933E-07         0.00000E+00
    0.10153E-05        -0.67969E-07         0.00000E+00
    0.10297E-05        -0.44554E-07         0.00000E+00
    0.10344E-05        -0.15690E-07         0.00000E+00
    0.63967E-06        -0.29076E-07         0.00000E+00
    0.66940E-06        -0.79456E-07         0.00000E+00
    0.71530E-06        -0.11328E-06         0.00000E+00
    0.76626E-06        -0.13118E-06         0.00000E+00
    0.81488E-06        -0.13743E-06         0.00000E+00
    0.85811E-06        -0.13677E-06         0.00000E+00
    0.89579E-06        -0.13250E-06         0.00000E+00
    0.92896E-06        -0.12650E-06         0.00000E+00
    0.95890E-06        -0.11961E-06         0.00000E+00
    0.98689E-06        -0.11199E-06         0.00000E+00
    0.10140E-05        -0.10310E-06         0.00000E+00
    0.10408E-05        -0.91572E-07         0.00000E+00
    0.10664E-05        -0.75180E-07         0.00000E+00
    0.10878E-05        -0.51338E-07         0.00000E+00
    0.10992E-05        -0.18614E-07         0.00000E+00
    0.60779E-06        -0.36092E-07         0.00000E+00
    0.65633E-06        -0.95192E-07         0.00000E+00
    0.72291E-06        -0.12835E-06         0.00000E+00
    0.78929E-06        -0.13989E-06         0.00000E+00
    0.84646E-06        -0.13950E-06         0.00000E+00
    0.89355E-06        -0.13417E-06         0.00000E+00
    0.93273E-06        -0.12713E-06         0.00000E+00
    0.96625E-06        -0.11991E-06         0.00000E+00
    0.99614E-06        -0.11310E-06         0.00000E+00
    0.10243E-05        -0.10676E-06         0.00000E+00
    0.10524E-05        -0.10035E-06         0.00000E+00
    0.10822E-05        -0.92512E-07         0.00000E+00
    0.11141E-05        -0.80056E-07         0.00000E+00
    0.11457E-05        -0.58077E-07         0.00000E+00
    0.11688E-05        -0.21998E-07         0.00000E+00
    0.56023E-06        -0.45820E-07         0.00000E+00
    0.64074E-06        -0.11392E-06         0.00000E+00
    0.73805E-06        -0.13728E-06         0.00000E+00
    0.82028E-06        -0.13599E-06         0.00000E+00
    0.88237E-06        -0.12805E-06         0.00000E+00
    0.93063E-06        -0.11870E-06         0.00000E+00
    0.96931E-06        -0.10991E-06         0.00000E+00
    0.10017E-05        -0.10236E-06         0.00000E+00
    0.10303E-05        -0.96258E-07         0.00000E+00
    0.10573E-05        -0.91539E-07         0.00000E+00
    0.10849E-05        -0.87896E-07         0.00000E+00
    0.11157E-05        -0.84465E-07         0.00000E+00
    0.11537E-05        -0.78913E-07         0.00000E+00
    0.11989E-05        -0.62966E-07         0.00000E+00
    0.12422E-05        -0.25403E-07         0.00000E+00
    0.48852E-06        -0.66459E-07         0.00000E+00
    0.63456E-06        -0.12451E-06         0.00000E+00
    0.76996E-06        -0.11890E-06         0.00000E+00
    0.85645E-06        -0.10691E-06         0.00000E+00
    0.91861E-06        -0.95234E-07         0.00000E+00
    0.96512E-06        -0.85305E-07         0.00000E+00
    0.10017E-05        -0.77304E-07         0.00000E+00
    0.10320E-05        -0.71122E-07         0.00000E+00
    0.10585E-05        -0.66617E-07         0.00000E+00
    0.10836E-05        -0.63680E-07         0.00000E+00
    0.11095E-05        -0.62220E-07         0.00000E+00
    0.11394E-05        -0.62052E-07         0.00000E+00
    0.11781E-05        -0.62491E-07         0.00000E+00
    0.12391E-05        -0.60110E-07         0.00000E+00
    0.13166E-05        -0.28387E-07         0.00000E+00
    0.39897E-06        -0.15045E-07         0.00000E+00
    0.67002E-06        -0.38093E-07         0.00000E+00
    0.80001E-06        -0.35269E-07         0.00000E+00
    0.88507E-06        -0.32124E-07         0.00000E+00
    0.94424E-06        -0.28779E-07         0.00000E+00
    0.98828E-06        -0.25953E-07         0.00000E+00
    0.10228E-05        -0.23682E-07         0.00000E+00
    0.10512E-05        -0.21961E-07         0.00000E+00
    0.10761E-05        -0.20771E-07         0.00000E+00
    0.10996E-05        -0.20117E-07         0.00000E+00
    0.11239E-05        -0.20027E-07         0.00000E+00
    0.11519E-05        -0.20586E-07         0.00000E+00
    0.11894E-05        -0.21750E-07         0.00000E+00
    0.12466E-05        -0.24463E-07         0.00000E+00
    0.13819E-05        -0.13662E-07         0.00000E+00
POINT_DATA        496
VECTORS vDarcyNodal double 
    0.11583E-05         0.30502E-07         0.00000E+00
    0.11542E-05         0.48413E-07         0.00000E+00
    0.11478E-05         0.70459E-07         0.00000E+00
    0.11442E-05         0.76512E-07         0.00000E+00
    0.11423E-05         0.78736E-07         0.00000E+00
    0.11411E-05         0.78411E-07         0.00000E+00
    0.11402E-05         0.76534E-07         0.00000E+00
    0.11395E-05         0.73614E-07         0.00000E+00
    0.11390E-05         0.69942E-07         0.00000E+00
    0.11385E-05         0.65674E-07         0.00000E+00
    0.11380E-05         0.60856E-07         0.00000E+00
    0.11374E-05         0.55426E-07         0.00000E+00
    0.11366E-05         0.49092E-07         0.00000E+00
    0.11351E-05         0.41395E-07         0.00000E+00
    0.11323E-05         0.26693E-07         0.00000E+00
    0.11306E-05         0.16239E-07         0.00000E+00
    0.11542E-05         0.99597E-08         0.00000E+00
    0.11462E-05         0.20275E-07         0.00000E+00
    0.11343E-05         0.38293E-07         0.00000E+00
    0.11281E-05         0.49565E-07         0.00000E+00
    0.11244E-05         0.54802E-07         0.00000E+00
    0.11220E-05         0.56901E-07         0.00000E+00
    0.11202E-05         0.56940E-07         0.00000E+00
    0.11188E-05         0.55545E-07         0.00000E+00
    0.11177E-05         0.53065E-07         0.00000E+00
    0.11167E-05         0.49678E-07         0.00000E+00
    0.11157E-05         0.45419E-07         0.00000E+00
    0.11145E-05         0.40156E-07         0.00000E+00
    0.11129E-05         0.33538E-07         0.00000E+00
    0.11103E-05         0.24368E-07         0.00000E+00
    0.11053E-05         0.12494E-07         0.00000E+00
    0.11019E-05         0.60815E-08         0.00000E+00
    0.11360E-05         0.46964E-08         0.00000E+00
    0.11244E-05         0.97383E-08         0.00000E+00
    0.11064E-05         0.19811E-07         0.00000E+00
    0.10956E-05         0.28586E-07         0.00000E+00
    0.10887E-05         0.34505E-07         0.00000E+00
    0.10839E-05         0.37724E-07         0.00000E+00
    0.10804E-05         0.38963E-07         0.00000E+00
    0.10776E-05         0.38695E-07         0.00000E+00
    0.10753E-05         0.37224E-07         0.00000E+00
    0.10732E-05         0.34714E-07         0.00000E+00
    0.10712E-05         0.31212E-07         0.00000E+00
    0.10688E-05         0.26649E-07         0.00000E+00
    0.10658E-05         0.20811E-07         0.00000E+00
    0.10613E-05         0.13761E-07         0.00000E+00
    0.10538E-05         0.65216E-08         0.00000E+00
    0.10491E-05         0.30578E-08         0.00000E+00
    0.11039E-05         0.14950E-08         0.00000E+00
    0.10934E-05         0.36767E-08         0.00000E+00
    0.10752E-05         0.87761E-08         0.00000E+00
    0.10621E-05         0.14385E-07         0.00000E+00
    0.10528E-05         0.19070E-07         0.00000E+00
    0.10460E-05         0.22264E-07         0.00000E+00
    0.10409E-05         0.23964E-07         0.00000E+00
    0.10367E-05         0.24373E-07         0.00000E+00
    0.10333E-05         0.23672E-07         0.00000E+00
    0.10301E-05         0.21988E-07         0.00000E+00
    0.10269E-05         0.19394E-07         0.00000E+00
    0.10235E-05         0.15927E-07         0.00000E+00
    0.10193E-05         0.11710E-07         0.00000E+00
    0.10139E-05         0.71577E-08         0.00000E+00
    0.10068E-05         0.31091E-08         0.00000E+00
    0.10028E-05         0.13437E-08         0.00000E+00
    0.10663E-05        -0.29547E-09         0.00000E+00
    0.10570E-05         0.95477E-10         0.00000E+00
    0.10402E-05         0.18469E-08         0.00000E+00
    0.10267E-05         0.48370E-08         0.00000E+00
    0.10163E-05         0.79116E-08         0.00000E+00
    0.10081E-05         0.10398E-07         0.00000E+00
    0.10017E-05         0.12014E-07         0.00000E+00
    0.99641E-06         0.12714E-07         0.00000E+00
    0.99188E-06         0.12553E-07         0.00000E+00
    0.98775E-06         0.11608E-07         0.00000E+00
    0.98372E-06         0.99658E-08         0.00000E+00
    0.97949E-06         0.77539E-08         0.00000E+00
    0.97473E-06         0.52077E-08         0.00000E+00
    0.96920E-06         0.27429E-08         0.00000E+00
    0.96294E-06         0.95156E-09         0.00000E+00
    0.95966E-06         0.30716E-09         0.00000E+00
    0.10258E-05        -0.13255E-08         0.00000E+00
    0.10178E-05        -0.20408E-08         0.00000E+00
    0.10028E-05        -0.25107E-08         0.00000E+00
    0.98987E-06        -0.15356E-08         0.00000E+00
    0.97912E-06         0.40389E-10         0.00000E+00
    0.97031E-06         0.16183E-08         0.00000E+00
    0.96304E-06         0.28493E-08         0.00000E+00
    0.95693E-06         0.35752E-08         0.00000E+00
    0.95161E-06         0.37582E-08         0.00000E+00
    0.94677E-06         0.34293E-08         0.00000E+00
    0.94213E-06         0.26700E-08         0.00000E+00
    0.93743E-06         0.16233E-08         0.00000E+00
    0.93248E-06         0.51805E-09         0.00000E+00
    0.92723E-06        -0.31954E-09         0.00000E+00
    0.92184E-06        -0.50370E-09         0.00000E+00
    0.91914E-06        -0.38260E-09         0.00000E+00
    0.98451E-06        -0.19050E-08         0.00000E+00
    0.97761E-06        -0.32980E-08         0.00000E+00
    0.96433E-06        -0.52209E-08         0.00000E+00
    0.95232E-06        -0.57296E-08         0.00000E+00
    0.94184E-06        -0.54051E-08         0.00000E+00
    0.93287E-06        -0.47137E-08         0.00000E+00
    0.92524E-06        -0.39758E-08         0.00000E+00
    0.91867E-06        -0.33776E-08         0.00000E+00
    0.91289E-06        -0.30005E-08         0.00000E+00
    0.90763E-06        -0.28494E-08         0.00000E+00
    0.90266E-06        -0.28674E-08         0.00000E+00
    0.89779E-06        -0.29388E-08         0.00000E+00
    0.89292E-06        -0.28881E-08         0.00000E+00
    0.88806E-06        -0.24924E-08         0.00000E+00
    0.88342E-06        -0.15182E-08         0.00000E+00
    0.88119E-06        -0.85813E-09         0.00000E+00
    0.94365E-06        -0.22127E-08         0.00000E+00
    0.93767E-06        -0.40112E-08         0.00000E+00
    0.92597E-06        -0.68730E-08         0.00000E+00
    0.91499E-06        -0.84539E-08         0.00000E+00
    0.90510E-06        -0.91243E-08         0.00000E+00
    0.89638E-06        -0.92128E-08         0.00000E+00
    0.88876E-06        -0.89727E-08         0.00000E+00
    0.88210E-06        -0.85734E-08         0.00000E+00
    0.87618E-06        -0.81076E-08         0.00000E+00
    0.87080E-06        -0.76039E-08         0.00000E+00
    0.86578E-06        -0.70368E-08         0.00000E+00
    0.86098E-06        -0.63342E-08         0.00000E+00
    0.85634E-06        -0.53864E-08         0.00000E+00
    0.85192E-06        -0.40632E-08         0.00000E+00
    0.84790E-06        -0.22434E-08         0.00000E+00
    0.84601E-06        -0.11958E-08         0.00000E+00
    0.90429E-06        -0.23614E-08         0.00000E+00
    0.89906E-06        -0.43991E-08         0.00000E+00
    0.88870E-06        -0.78702E-08         0.00000E+00
    0.87878E-06        -0.10229E-07         0.00000E+00
    0.86965E-06        -0.11680E-07         0.00000E+00
    0.86144E-06        -0.12426E-07         0.00000E+00
    0.85417E-06        -0.12644E-07         0.00000E+00
    0.84773E-06        -0.12466E-07         0.00000E+00
    0.84198E-06        -0.11979E-07         0.00000E+00
    0.83676E-06        -0.11225E-07         0.00000E+00
    0.83193E-06        -0.10209E-07         0.00000E+00
    0.82738E-06        -0.89038E-08         0.00000E+00
    0.82309E-06        -0.72629E-08         0.00000E+00
    0.81911E-06        -0.52341E-08         0.00000E+00
    0.81560E-06        -0.27807E-08         0.00000E+00
    0.81398E-06        -0.14450E-08         0.00000E+00
    0.86726E-06        -0.24300E-08         0.00000E+00
    0.86261E-06        -0.46161E-08         0.00000E+00
    0.85338E-06        -0.85054E-08         0.00000E+00
    0.84447E-06        -0.11453E-07         0.00000E+00
    0.83619E-06        -0.13527E-07         0.00000E+00
    0.82871E-06        -0.14825E-07         0.00000E+00
    0.82203E-06        -0.15450E-07         0.00000E+00
    0.81609E-06        -0.15492E-07         0.00000E+00
    0.81078E-06        -0.15021E-07         0.00000E+00
    0.80597E-06        -0.14088E-07         0.00000E+00
    0.80154E-06        -0.12723E-07         0.00000E+00
    0.79741E-06        -0.10941E-07         0.00000E+00
    0.79355E-06        -0.87492E-08         0.00000E+00
    0.79002E-06        -0.61611E-08         0.00000E+00
    0.78693E-06        -0.32064E-08         0.00000E+00
    0.78552E-06        -0.16427E-08         0.00000E+00
    0.83320E-06        -0.24771E-08         0.00000E+00
    0.82900E-06        -0.47783E-08         0.00000E+00
    0.82068E-06        -0.90025E-08         0.00000E+00
    0.81273E-06        -0.12436E-07         0.00000E+00
    0.80538E-06        -0.15037E-07         0.00000E+00
    0.79876E-06        -0.16814E-07         0.00000E+00
    0.79289E-06        -0.17802E-07         0.00000E+00
    0.78769E-06        -0.18050E-07         0.00000E+00
    0.78307E-06        -0.17611E-07         0.00000E+00
    0.77889E-06        -0.16539E-07         0.00000E+00
    0.77506E-06        -0.14885E-07         0.00000E+00
    0.77148E-06        -0.12700E-07         0.00000E+00
    0.76813E-06        -0.10041E-07         0.00000E+00
    0.76504E-06        -0.69731E-08         0.00000E+00
    0.76231E-06        -0.35828E-08         0.00000E+00
    0.76105E-06        -0.18189E-08         0.00000E+00
    0.80261E-06        -0.25492E-08         0.00000E+00
    0.79873E-06        -0.49774E-08         0.00000E+00
    0.79117E-06        -0.95403E-08         0.00000E+00
    0.78412E-06        -0.13432E-07         0.00000E+00
    0.77775E-06        -0.16521E-07         0.00000E+00
    0.77213E-06        -0.18737E-07         0.00000E+00
    0.76725E-06        -0.20058E-07         0.00000E+00
    0.76301E-06        -0.20496E-07         0.00000E+00
    0.75929E-06        -0.20088E-07         0.00000E+00
    0.75596E-06        -0.18889E-07         0.00000E+00
    0.75290E-06        -0.16967E-07         0.00000E+00
    0.75000E-06        -0.14408E-07         0.00000E+00
    0.74724E-06        -0.11307E-07         0.00000E+00
    0.74461E-06        -0.77809E-08         0.00000E+00
    0.74218E-06        -0.39632E-08         0.00000E+00
    0.74104E-06        -0.19994E-08         0.00000E+00
    0.77582E-06        -0.26840E-08         0.00000E+00
    0.77218E-06        -0.52890E-08         0.00000E+00
    0.76525E-06        -0.10267E-07         0.00000E+00
    0.75907E-06        -0.14655E-07         0.00000E+00
    0.75374E-06        -0.18241E-07         0.00000E+00
    0.74926E-06        -0.20890E-07         0.00000E+00
    0.74555E-06        -0.22532E-07         0.00000E+00
    0.74247E-06        -0.23145E-07         0.00000E+00
    0.73986E-06        -0.22754E-07         0.00000E+00
    0.73757E-06        -0.21414E-07         0.00000E+00
    0.73545E-06        -0.19212E-07         0.00000E+00
    0.73336E-06        -0.16261E-07         0.00000E+00
    0.73125E-06        -0.12698E-07         0.00000E+00
    0.72910E-06        -0.86825E-08         0.00000E+00
    0.72695E-06        -0.43950E-08         0.00000E+00
    0.72588E-06        -0.22071E-08         0.00000E+00
    0.75302E-06        -0.29145E-08         0.00000E+00
    0.74955E-06        -0.57783E-08         0.00000E+00
    0.74316E-06        -0.11310E-07         0.00000E+00
    0.73787E-06        -0.16286E-07         0.00000E+00
    0.73367E-06        -0.20424E-07         0.00000E+00
    0.73047E-06        -0.23533E-07         0.00000E+00
    0.72811E-06        -0.25498E-07         0.00000E+00
    0.72640E-06        -0.26275E-07         0.00000E+00
    0.72512E-06        -0.25876E-07         0.00000E+00
    0.72407E-06        -0.24361E-07         0.00000E+00
    0.72305E-06        -0.21835E-07         0.00000E+00
    0.72191E-06        -0.18440E-07         0.00000E+00
    0.72054E-06        -0.14348E-07         0.00000E+00
    0.71889E-06        -0.97660E-08         0.00000E+00
    0.71698E-06        -0.49211E-08         0.00000E+00
    0.71597E-06        -0.24629E-08         0.00000E+00
    0.73424E-06        -0.32706E-08         0.00000E+00
    0.73091E-06        -0.65043E-08         0.00000E+00
    0.72504E-06        -0.12784E-07         0.00000E+00
    0.72068E-06        -0.18489E-07         0.00000E+00
    0.71773E-06        -0.23273E-07         0.00000E+00
    0.71598E-06        -0.26893E-07         0.00000E+00
    0.71519E-06        -0.29200E-07         0.00000E+00
    0.71506E-06        -0.30131E-07         0.00000E+00
    0.71533E-06        -0.29691E-07         0.00000E+00
    0.71572E-06        -0.27949E-07         0.00000E+00
    0.71599E-06        -0.25030E-07         0.00000E+00
    0.71594E-06        -0.21102E-07         0.00000E+00
    0.71540E-06        -0.16379E-07         0.00000E+00
    0.71430E-06        -0.11112E-07         0.00000E+00
    0.71262E-06        -0.55812E-08         0.00000E+00
    0.71163E-06        -0.27863E-08         0.00000E+00
    0.71936E-06        -0.37809E-08         0.00000E+00
    0.71616E-06        -0.75234E-08         0.00000E+00
    0.71083E-06        -0.14798E-07         0.00000E+00
    0.70753E-06        -0.21417E-07         0.00000E+00
    0.70600E-06        -0.26972E-07         0.00000E+00
    0.70592E-06        -0.31176E-07         0.00000E+00
    0.70692E-06        -0.33853E-07         0.00000E+00
    0.70863E-06        -0.34927E-07         0.00000E+00
    0.71069E-06        -0.34406E-07         0.00000E+00
    0.71275E-06        -0.32370E-07         0.00000E+00
    0.71450E-06        -0.28965E-07         0.00000E+00
    0.71569E-06        -0.24392E-07         0.00000E+00
    0.71610E-06        -0.18902E-07         0.00000E+00
    0.71560E-06        -0.12796E-07         0.00000E+00
    0.71413E-06        -0.64128E-08         0.00000E+00
    0.71315E-06        -0.31959E-08         0.00000E+00
    0.70810E-06        -0.44744E-08         0.00000E+00
    0.70506E-06        -0.88915E-08         0.00000E+00
    0.70038E-06        -0.17457E-07         0.00000E+00
    0.69831E-06        -0.25213E-07         0.00000E+00
    0.69843E-06        -0.31691E-07         0.00000E+00
    0.70028E-06        -0.36565E-07         0.00000E+00
    0.70335E-06        -0.39644E-07         0.00000E+00
    0.70718E-06        -0.40848E-07         0.00000E+00
    0.71129E-06        -0.40196E-07         0.00000E+00
    0.71526E-06        -0.37787E-07         0.00000E+00
    0.71872E-06        -0.33789E-07         0.00000E+00
    0.72133E-06        -0.28435E-07         0.00000E+00
    0.72282E-06        -0.22017E-07         0.00000E+00
    0.72299E-06        -0.14889E-07         0.00000E+00
    0.72173E-06        -0.74519E-08         0.00000E+00
    0.72074E-06        -0.37098E-08         0.00000E+00
    0.70004E-06        -0.53814E-08         0.00000E+00
    0.69723E-06        -0.10666E-07         0.00000E+00
    0.69337E-06        -0.20864E-07         0.00000E+00
    0.69278E-06        -0.30012E-07         0.00000E+00
    0.69487E-06        -0.37581E-07         0.00000E+00
    0.69897E-06        -0.43218E-07         0.00000E+00
    0.70445E-06        -0.46725E-07         0.00000E+00
    0.71070E-06        -0.48038E-07         0.00000E+00
    0.71716E-06        -0.47196E-07         0.00000E+00
    0.72331E-06        -0.44324E-07         0.00000E+00
    0.72871E-06        -0.39616E-07         0.00000E+00
    0.73294E-06        -0.33336E-07         0.00000E+00
    0.73567E-06        -0.25814E-07         0.00000E+00
    0.73661E-06        -0.17455E-07         0.00000E+00
    0.73558E-06        -0.87340E-08         0.00000E+00
    0.73455E-06        -0.43465E-08         0.00000E+00
    0.69459E-06        -0.65341E-08         0.00000E+00
    0.69211E-06        -0.12907E-07         0.00000E+00
    0.68937E-06        -0.25125E-07         0.00000E+00
    0.69063E-06        -0.35943E-07         0.00000E+00
    0.69507E-06        -0.44775E-07         0.00000E+00
    0.70183E-06        -0.51255E-07         0.00000E+00
    0.71010E-06        -0.55202E-07         0.00000E+00
    0.71912E-06        -0.56584E-07         0.00000E+00
    0.72823E-06        -0.55482E-07         0.00000E+00
    0.73684E-06        -0.52054E-07         0.00000E+00
    0.74443E-06        -0.46521E-07         0.00000E+00
    0.75052E-06        -0.39172E-07         0.00000E+00
    0.75467E-06        -0.30367E-07         0.00000E+00
    0.75651E-06        -0.20557E-07         0.00000E+00
    0.75574E-06        -0.10294E-07         0.00000E+00
    0.75468E-06        -0.51253E-08         0.00000E+00
    0.69102E-06        -0.79678E-08         0.00000E+00
    0.68906E-06        -0.15677E-07         0.00000E+00
    0.68782E-06        -0.30345E-07         0.00000E+00
    0.69143E-06        -0.43122E-07         0.00000E+00
    0.69874E-06        -0.53375E-07         0.00000E+00
    0.70864E-06        -0.60746E-07         0.00000E+00
    0.72012E-06        -0.65106E-07         0.00000E+00
    0.73227E-06        -0.66491E-07         0.00000E+00
    0.74434E-06        -0.65044E-07         0.00000E+00
    0.75569E-06        -0.60970E-07         0.00000E+00
    0.76574E-06        -0.54516E-07         0.00000E+00
    0.77393E-06        -0.45977E-07         0.00000E+00
    0.77974E-06        -0.35727E-07         0.00000E+00
    0.78266E-06        -0.24249E-07         0.00000E+00
    0.78225E-06        -0.12170E-07         0.00000E+00
    0.78117E-06        -0.60672E-08         0.00000E+00
    0.68844E-06        -0.97221E-08         0.00000E+00
    0.68724E-06        -0.19046E-07         0.00000E+00
    0.68809E-06        -0.36628E-07         0.00000E+00
    0.69470E-06        -0.51647E-07         0.00000E+00
    0.70553E-06        -0.63432E-07         0.00000E+00
    0.71915E-06        -0.71677E-07         0.00000E+00
    0.73429E-06        -0.76359E-07         0.00000E+00
    0.74994E-06        -0.77634E-07         0.00000E+00
    0.76526E-06        -0.75742E-07         0.00000E+00
    0.77960E-06        -0.70949E-07         0.00000E+00
    0.79236E-06        -0.63516E-07         0.00000E+00
    0.80293E-06        -0.53722E-07         0.00000E+00
    0.81068E-06        -0.41915E-07         0.00000E+00
    0.81493E-06        -0.28578E-07         0.00000E+00
    0.81504E-06        -0.14397E-07         0.00000E+00
    0.81398E-06        -0.71962E-08         0.00000E+00
    0.68578E-06        -0.11844E-07         0.00000E+00
    0.68571E-06        -0.23091E-07         0.00000E+00
    0.68947E-06        -0.44080E-07         0.00000E+00
    0.69995E-06        -0.61582E-07         0.00000E+00
    0.71513E-06        -0.74920E-07         0.00000E+00
    0.73312E-06        -0.83910E-07         0.00000E+00
    0.75241E-06        -0.88720E-07         0.00000E+00
    0.77186E-06        -0.89703E-07         0.00000E+00
    0.79065E-06        -0.87248E-07         0.00000E+00
    0.80816E-06        -0.81694E-07         0.00000E+00
    0.82383E-06        -0.73299E-07         0.00000E+00
    0.83705E-06        -0.62281E-07         0.00000E+00
    0.84709E-06        -0.48898E-07         0.00000E+00
    0.85305E-06        -0.33575E-07         0.00000E+00
    0.85397E-06        -0.17018E-07         0.00000E+00
    0.85305E-06        -0.85413E-08         0.00000E+00
    0.68180E-06        -0.14391E-07         0.00000E+00
    0.68339E-06        -0.27905E-07         0.00000E+00
    0.69118E-06        -0.52807E-07         0.00000E+00
    0.70675E-06        -0.72945E-07         0.00000E+00
    0.72729E-06        -0.87691E-07         0.00000E+00
    0.75040E-06        -0.97110E-07         0.00000E+00
    0.77428E-06        -0.10170E-06         0.00000E+00
    0.79774E-06        -0.10212E-06         0.00000E+00
    0.82006E-06        -0.98964E-07         0.00000E+00
    0.84077E-06        -0.92665E-07         0.00000E+00
    0.85947E-06        -0.83444E-07         0.00000E+00
    0.87561E-06        -0.71388E-07         0.00000E+00
    0.88836E-06        -0.56570E-07         0.00000E+00
    0.89656E-06        -0.39249E-07         0.00000E+00
    0.89881E-06        -0.20076E-07         0.00000E+00
    0.89826E-06        -0.10138E-07         0.00000E+00
    0.67502E-06        -0.17447E-07         0.00000E+00
    0.67902E-06        -0.33607E-07         0.00000E+00
    0.69248E-06        -0.62914E-07         0.00000E+00
    0.71477E-06        -0.85664E-07         0.00000E+00
    0.74198E-06        -0.10140E-06         0.00000E+00
    0.77099E-06        -0.11065E-06         0.00000E+00
    0.79976E-06        -0.11445E-06         0.00000E+00
    0.82721E-06        -0.11392E-06         0.00000E+00
    0.85289E-06        -0.10993E-06         0.00000E+00
    0.87664E-06        -0.10299E-06         0.00000E+00
    0.89832E-06        -0.93246E-07         0.00000E+00
    0.91757E-06        -0.80568E-07         0.00000E+00
    0.93355E-06        -0.64703E-07         0.00000E+00
    0.94477E-06        -0.45571E-07         0.00000E+00
    0.94921E-06        -0.23616E-07         0.00000E+00
    0.94945E-06        -0.12034E-07         0.00000E+00
    0.66361E-06        -0.21129E-07         0.00000E+00
    0.67119E-06        -0.40360E-07         0.00000E+00
    0.69274E-06        -0.74498E-07         0.00000E+00
    0.72404E-06        -0.99508E-07         0.00000E+00
    0.75945E-06        -0.11536E-06         0.00000E+00
    0.79505E-06        -0.12344E-06         0.00000E+00
    0.82876E-06        -0.12563E-06         0.00000E+00
    0.85985E-06        -0.12366E-06         0.00000E+00
    0.88838E-06        -0.11871E-06         0.00000E+00
    0.91469E-06        -0.11135E-06         0.00000E+00
    0.93907E-06        -0.10162E-06         0.00000E+00
    0.96150E-06        -0.89037E-07         0.00000E+00
    0.98127E-06        -0.72867E-07         0.00000E+00
    0.99662E-06        -0.52428E-07         0.00000E+00
    0.10047E-05        -0.27680E-07         0.00000E+00
    0.10064E-05        -0.14283E-07         0.00000E+00
    0.64525E-06        -0.25626E-07         0.00000E+00
    0.65828E-06        -0.48394E-07         0.00000E+00
    0.69169E-06        -0.87597E-07         0.00000E+00
    0.73514E-06        -0.11390E-06         0.00000E+00
    0.78045E-06        -0.12828E-06         0.00000E+00
    0.82295E-06        -0.13366E-06         0.00000E+00
    0.86109E-06        -0.13321E-06         0.00000E+00
    0.89501E-06        -0.12931E-06         0.00000E+00
    0.92552E-06        -0.12337E-06         0.00000E+00
    0.95356E-06        -0.11596E-06         0.00000E+00
    0.98002E-06        -0.10696E-06         0.00000E+00
    0.10054E-05        -0.95540E-07         0.00000E+00
    0.10295E-05        -0.80286E-07         0.00000E+00
    0.10505E-05        -0.59541E-07         0.00000E+00
    0.10644E-05        -0.32273E-07         0.00000E+00
    0.10689E-05        -0.16952E-07         0.00000E+00
    0.61672E-06        -0.31246E-07         0.00000E+00
    0.63850E-06        -0.58025E-07         0.00000E+00
    0.68991E-06        -0.10200E-06         0.00000E+00
    0.74979E-06        -0.12742E-06         0.00000E+00
    0.80615E-06        -0.13766E-06         0.00000E+00
    0.85486E-06        -0.13838E-06         0.00000E+00
    0.89621E-06        -0.13433E-06         0.00000E+00
    0.93169E-06        -0.12825E-06         0.00000E+00
    0.96296E-06        -0.12149E-06         0.00000E+00
    0.99163E-06        -0.11450E-06         0.00000E+00
    0.10192E-05        -0.10705E-06         0.00000E+00
    0.10469E-05        -0.98103E-07         0.00000E+00
    0.10754E-05        -0.85530E-07         0.00000E+00
    0.11037E-05        -0.66240E-07         0.00000E+00
    0.11270E-05        -0.37280E-07         0.00000E+00
    0.11365E-05        -0.20079E-07         0.00000E+00
    0.57323E-06        -0.38521E-07         0.00000E+00
    0.61010E-06        -0.69535E-07         0.00000E+00
    0.69080E-06        -0.11659E-06         0.00000E+00
    0.77123E-06        -0.13659E-06         0.00000E+00
    0.83728E-06        -0.13867E-06         0.00000E+00
    0.89004E-06        -0.13308E-06         0.00000E+00
    0.93269E-06        -0.12533E-06         0.00000E+00
    0.96815E-06        -0.11749E-06         0.00000E+00
    0.99889E-06        -0.11042E-06         0.00000E+00
    0.10270E-05        -0.10435E-06         0.00000E+00
    0.10544E-05        -0.99042E-07         0.00000E+00
    0.10831E-05        -0.93689E-07         0.00000E+00
    0.11153E-05        -0.85932E-07         0.00000E+00
    0.11524E-05        -0.70916E-07         0.00000E+00
    0.11904E-05        -0.42229E-07         0.00000E+00
    0.12083E-05        -0.23637E-07         0.00000E+00
    0.50268E-06        -0.47662E-07         0.00000E+00
    0.57755E-06        -0.82705E-07         0.00000E+00
    0.70354E-06        -0.12669E-06         0.00000E+00
    0.80064E-06        -0.13178E-06         0.00000E+00
    0.87187E-06        -0.12258E-06         0.00000E+00
    0.92552E-06        -0.11198E-06         0.00000E+00
    0.96741E-06        -0.10222E-06         0.00000E+00
    0.10015E-05        -0.94070E-07         0.00000E+00
    0.10308E-05        -0.87664E-07         0.00000E+00
    0.10574E-05        -0.82969E-07         0.00000E+00
    0.10836E-05        -0.79857E-07         0.00000E+00
    0.11119E-05        -0.77969E-07         0.00000E+00
    0.11456E-05        -0.76428E-07         0.00000E+00
    0.11899E-05        -0.69769E-07         0.00000E+00
    0.12493E-05        -0.45360E-07         0.00000E+00
    0.12824E-05        -0.26775E-07         0.00000E+00
    0.43618E-06        -0.63359E-07         0.00000E+00
    0.55380E-06        -0.89374E-07         0.00000E+00
    0.72404E-06        -0.10646E-06         0.00000E+00
    0.82904E-06        -0.91003E-07         0.00000E+00
    0.90126E-06        -0.78880E-07         0.00000E+00
    0.95381E-06        -0.68940E-07         0.00000E+00
    0.99411E-06        -0.61256E-07         0.00000E+00
    0.10266E-05        -0.55435E-07         0.00000E+00
    0.10542E-05        -0.51218E-07         0.00000E+00
    0.10793E-05        -0.48447E-07         0.00000E+00
    0.11041E-05        -0.47062E-07         0.00000E+00
    0.11312E-05        -0.47114E-07         0.00000E+00
    0.11646E-05        -0.48550E-07         0.00000E+00
    0.12121E-05        -0.52229E-07         0.00000E+00
    0.12927E-05        -0.42144E-07         0.00000E+00
    0.13440E-05        -0.29418E-07         0.00000E+00
    0.41402E-06         0.00000E+00         0.00000E+00
    0.54602E-06         0.00000E+00         0.00000E+00
    0.73360E-06        -0.23776E-20         0.00000E+00
    0.84096E-06         0.42954E-21         0.00000E+00
    0.91298E-06         0.24505E-20         0.00000E+00
    0.96485E-06         0.00000E+00         0.00000E+00
    0.10044E-05         0.00000E+00         0.00000E+00
    0.10361E-05        -0.30257E-20         0.00000E+00
    0.10631E-05        -0.28941E-20         0.00000E+00
    0.10875E-05         0.31980E-20         0.00000E+00
    0.11117E-05         0.31236E-20         0.00000E+00
    0.11382E-05        -0.34323E-20         0.00000E+00
    0.11712E-05         0.13463E-21         0.00000E+00
    0.12193E-05         0.34213E-20         0.00000E+00
    0.13089E-05         0.19512E-21         0.00000E+00
    0.13682E-05         0.00000E+00         0.00000E+00
CELL_DATA        450
TENSORS stressef double 
    0.25806E+08        -0.10181E+06         0.00000E+00
   -0.10181E+06         0.14892E+08         0.00000E+00
    0.00000E+00         0.00000E+00         0.85680E+07
 
    0.23508E+08        -0.26423E+06         0.00000E+00
   -0.26423E+06         0.14611E+08         0.00000E+00
    0.00000E+00         0.00000E+00         0.76238E+07
 
    0.21414E+08        -0.23944E+06         0.00000E+00
   -0.23944E+06         0.14216E+08         0.00000E+00
    0.00000E+00         0.00000E+00         0.71260E+07
 
    0.19775E+08        -0.20598E+06         0.00000E+00
   -0.20598E+06         0.13863E+08         0.00000E+00
    0.00000E+00         0.00000E+00         0.67277E+07
 
    0.18379E+08        -0.17439E+06         0.00000E+00
   -0.17439E+06         0.13571E+08         0.00000E+00
    0.00000E+00         0.00000E+00         0.63901E+07
 
    0.17136E+08        -0.14350E+06         0.00000E+00
   -0.14350E+06         0.13339E+08         0.00000E+00
    0.00000E+00         0.00000E+00         0.60951E+07
 
    0.15992E+08        -0.11206E+06         0.00000E+00
   -0.11206E+06         0.13168E+08         0.00000E+00
    0.00000E+00         0.00000E+00         0.58320E+07
 
    0.14908E+08        -0.79103E+05         0.00000E+00
   -0.79103E+05         0.13058E+08         0.00000E+00
    0.00000E+00         0.00000E+00         0.55932E+07
 
    0.13851E+08        -0.43574E+05         0.00000E+00
   -0.43574E+05         0.13013E+08         0.00000E+00
    0.00000E+00         0.00000E+00         0.53727E+07
 
    0.12789E+08        -0.41085E+04         0.00000E+00
   -0.41085E+04         0.13039E+08         0.00000E+00
    0.00000E+00         0.00000E+00         0.51656E+07
 
    0.11688E+08         0.41418E+05         0.00000E+00
    0.41418E+05         0.13144E+08         0.00000E+00
    0.00000E+00         0.00000E+00         0.49665E+07
 
    0.10501E+08         0.96780E+05         0.00000E+00
    0.96780E+05         0.13345E+08         0.00000E+00
    0.00000E+00         0.00000E+00         0.47694E+07
 
    0.91594E+07         0.17023E+06         0.00000E+00
    0.17023E+06         0.13667E+08         0.00000E+00
    0.00000E+00         0.00000E+00         0.45653E+07
 
    0.75347E+07         0.28087E+06         0.00000E+00
    0.28087E+06         0.14163E+08         0.00000E+00
    0.00000E+00         0.00000E+00         0.43396E+07
 
    0.52533E+07         0.55436E+06         0.00000E+00
    0.55436E+06         0.14984E+08         0.00000E+00
    0.00000E+00         0.00000E+00         0.40474E+07
 
    0.24292E+08        -0.17533E+06         0.00000E+00
   -0.17533E+06         0.13758E+08         0.00000E+00
    0.00000E+00         0.00000E+00         0.76099E+07
 
    0.22234E+08        -0.56538E+06         0.00000E+00
   -0.56538E+06         0.13666E+08         0.00000E+00
    0.00000E+00         0.00000E+00         0.71800E+07
 
    0.20239E+08        -0.60788E+06         0.00000E+00
   -0.60788E+06         0.13472E+08         0.00000E+00
    0.00000E+00         0.00000E+00         0.67423E+07
 
    0.18592E+08        -0.55525E+06         0.00000E+00
   -0.55525E+06         0.13231E+08         0.00000E+00
    0.00000E+00         0.00000E+00         0.63647E+07
 
    0.17178E+08        -0.48188E+06         0.00000E+00
   -0.48188E+06         0.13002E+08         0.00000E+00
    0.00000E+00         0.00000E+00         0.60358E+07
 
    0.15916E+08        -0.40017E+06         0.00000E+00
   -0.40017E+06         0.12808E+08         0.00000E+00
    0.00000E+00         0.00000E+00         0.57447E+07
 
    0.14755E+08        -0.31224E+06         0.00000E+00
   -0.31224E+06         0.12660E+08         0.00000E+00
    0.00000E+00         0.00000E+00         0.54830E+07
 
    0.13656E+08        -0.21732E+06         0.00000E+00
   -0.21732E+06         0.12567E+08         0.00000E+00
    0.00000E+00         0.00000E+00         0.52446E+07
 
    0.12588E+08        -0.11321E+06         0.00000E+00
   -0.11321E+06         0.12534E+08         0.00000E+00
    0.00000E+00         0.00000E+00         0.50243E+07
 
    0.11518E+08         0.37442E+04         0.00000E+00
    0.37442E+04         0.12568E+08         0.00000E+00
    0.00000E+00         0.00000E+00         0.48174E+07
 
    0.10416E+08         0.13973E+06         0.00000E+00
    0.13973E+06         0.12682E+08         0.00000E+00
    0.00000E+00         0.00000E+00         0.46194E+07
 
    0.92381E+07         0.30612E+06         0.00000E+00
    0.30612E+06         0.12889E+08         0.00000E+00
    0.00000E+00         0.00000E+00         0.44254E+07
 
    0.79301E+07         0.52635E+06         0.00000E+00
    0.52635E+06         0.13215E+08         0.00000E+00
    0.00000E+00         0.00000E+00         0.42290E+07
 
    0.64019E+07         0.86010E+06         0.00000E+00
    0.86010E+06         0.13705E+08         0.00000E+00
    0.00000E+00         0.00000E+00         0.40214E+07
 
    0.46398E+07         0.15049E+07         0.00000E+00
    0.15049E+07         0.14422E+08         0.00000E+00
    0.00000E+00         0.00000E+00         0.38123E+07
 
    0.22671E+08        -0.26089E+06         0.00000E+00
   -0.26089E+06         0.12584E+08         0.00000E+00
    0.00000E+00         0.00000E+00         0.70510E+07
 
    0.20790E+08        -0.63725E+06         0.00000E+00
   -0.63725E+06         0.12538E+08         0.00000E+00
    0.00000E+00         0.00000E+00         0.66657E+07
 
    0.19018E+08        -0.79012E+06         0.00000E+00
   -0.79012E+06         0.12481E+08         0.00000E+00
    0.00000E+00         0.00000E+00         0.62998E+07
 
    0.17424E+08        -0.78121E+06         0.00000E+00
   -0.78121E+06         0.12364E+08         0.00000E+00
    0.00000E+00         0.00000E+00         0.59576E+07
 
    0.16019E+08        -0.70377E+06         0.00000E+00
   -0.70377E+06         0.12223E+08         0.00000E+00
    0.00000E+00         0.00000E+00         0.56484E+07
 
    0.14753E+08        -0.59394E+06         0.00000E+00
   -0.59394E+06         0.12092E+08         0.00000E+00
    0.00000E+00         0.00000E+00         0.53691E+07
 
    0.13586E+08        -0.46375E+06         0.00000E+00
   -0.46375E+06         0.11989E+08         0.00000E+00
    0.00000E+00         0.00000E+00         0.51151E+07
 
    0.12483E+08        -0.31613E+06         0.00000E+00
   -0.31613E+06         0.11928E+08         0.00000E+00
    0.00000E+00         0.00000E+00         0.48821E+07
 
    0.11413E+08        -0.14961E+06         0.00000E+00
   -0.14961E+06         0.11919E+08         0.00000E+00
    0.00000E+00         0.00000E+00         0.46664E+07
 
    0.10350E+08         0.40693E+05         0.00000E+00
    0.40693E+05         0.11971E+08         0.00000E+00
    0.00000E+00         0.00000E+00         0.44642E+07
 
    0.92636E+07         0.26413E+06         0.00000E+00
    0.26413E+06         0.12098E+08         0.00000E+00
    0.00000E+00         0.00000E+00         0.42723E+07
 
    0.81238E+07         0.53800E+06         0.00000E+00
    0.53800E+06         0.12313E+08         0.00000E+00
    0.00000E+00         0.00000E+00         0.40875E+07
 
    0.68960E+07         0.89608E+06         0.00000E+00
    0.89608E+06         0.12637E+08         0.00000E+00
    0.00000E+00         0.00000E+00         0.39066E+07
 
    0.55637E+07         0.14103E+07         0.00000E+00
    0.14103E+07         0.13090E+08         0.00000E+00
    0.00000E+00         0.00000E+00         0.37308E+07
 
    0.41795E+07         0.21925E+07         0.00000E+00
    0.21925E+07         0.13650E+08         0.00000E+00
    0.00000E+00         0.00000E+00         0.35659E+07
 
    0.20984E+08        -0.28340E+06         0.00000E+00
   -0.28340E+06         0.11415E+08         0.00000E+00
    0.00000E+00         0.00000E+00         0.64798E+07
 
    0.19319E+08        -0.66780E+06         0.00000E+00
   -0.66780E+06         0.11412E+08         0.00000E+00
    0.00000E+00         0.00000E+00         0.61461E+07
 
    0.17723E+08        -0.85547E+06         0.00000E+00
   -0.85547E+06         0.11397E+08         0.00000E+00
    0.00000E+00         0.00000E+00         0.58239E+07
 
    0.16236E+08        -0.89304E+06         0.00000E+00
   -0.89304E+06         0.11358E+08         0.00000E+00
    0.00000E+00         0.00000E+00         0.55189E+07
 
    0.14876E+08        -0.83264E+06         0.00000E+00
   -0.83264E+06         0.11296E+08         0.00000E+00
    0.00000E+00         0.00000E+00         0.52344E+07
 
    0.13630E+08        -0.71413E+06         0.00000E+00
   -0.71413E+06         0.11229E+08         0.00000E+00
    0.00000E+00         0.00000E+00         0.49719E+07
 
    0.12474E+08        -0.55668E+06         0.00000E+00
   -0.55668E+06         0.11177E+08         0.00000E+00
    0.00000E+00         0.00000E+00         0.47301E+07
 
    0.11379E+08        -0.36755E+06         0.00000E+00
   -0.36755E+06         0.11154E+08         0.00000E+00
    0.00000E+00         0.00000E+00         0.45067E+07
 
    0.10322E+08        -0.14709E+06         0.00000E+00
   -0.14709E+06         0.11174E+08         0.00000E+00
    0.00000E+00         0.00000E+00         0.42992E+07
 
    0.92789E+07         0.10956E+06         0.00000E+00
    0.10956E+06         0.11248E+08         0.00000E+00
    0.00000E+00         0.00000E+00         0.41053E+07
 
    0.82277E+07         0.41310E+06         0.00000E+00
    0.41310E+06         0.11388E+08         0.00000E+00
    0.00000E+00         0.00000E+00         0.39231E+07
 
    0.71489E+07         0.78294E+06         0.00000E+00
    0.78294E+06         0.11605E+08         0.00000E+00
    0.00000E+00         0.00000E+00         0.37508E+07
 
    0.60316E+07         0.12531E+07         0.00000E+00
    0.12531E+07         0.11911E+08         0.00000E+00
    0.00000E+00         0.00000E+00         0.35885E+07
 
    0.48889E+07         0.18756E+07         0.00000E+00
    0.18756E+07         0.12301E+08         0.00000E+00
    0.00000E+00         0.00000E+00         0.34380E+07
 
    0.37796E+07         0.27104E+07         0.00000E+00
    0.27104E+07         0.12746E+08         0.00000E+00
    0.00000E+00         0.00000E+00         0.33052E+07
 
    0.19286E+08        -0.27285E+06         0.00000E+00
   -0.27285E+06         0.10224E+08         0.00000E+00
    0.00000E+00         0.00000E+00         0.59019E+07
 
    0.17831E+08        -0.65753E+06         0.00000E+00
   -0.65753E+06         0.10246E+08         0.00000E+00
    0.00000E+00         0.00000E+00         0.56155E+07
 
    0.16395E+08        -0.86191E+06         0.00000E+00
   -0.86191E+06         0.10268E+08         0.00000E+00
    0.00000E+00         0.00000E+00         0.53326E+07
 
    0.15022E+08        -0.92514E+06         0.00000E+00
   -0.92514E+06         0.10276E+08         0.00000E+00
    0.00000E+00         0.00000E+00         0.50597E+07
 
    0.13734E+08        -0.88320E+06         0.00000E+00
   -0.88320E+06         0.10269E+08         0.00000E+00
    0.00000E+00         0.00000E+00         0.48007E+07
 
    0.12532E+08        -0.76576E+06         0.00000E+00
   -0.76576E+06         0.10255E+08         0.00000E+00
    0.00000E+00         0.00000E+00         0.45575E+07
 
    0.11405E+08        -0.59218E+06         0.00000E+00
   -0.59218E+06         0.10248E+08         0.00000E+00
    0.00000E+00         0.00000E+00         0.43307E+07
 
    0.10336E+08        -0.37184E+06         0.00000E+00
   -0.37184E+06         0.10262E+08         0.00000E+00
    0.00000E+00         0.00000E+00         0.41195E+07
 
    0.93059E+07        -0.10677E+06         0.00000E+00
   -0.10677E+06         0.10309E+08         0.00000E+00
    0.00000E+00         0.00000E+00         0.39230E+07
 
    0.82977E+07         0.20689E+06         0.00000E+00
    0.20689E+06         0.10401E+08         0.00000E+00
    0.00000E+00         0.00000E+00         0.37398E+07
 
    0.72966E+07         0.57905E+06         0.00000E+00
    0.57905E+06         0.10549E+08         0.00000E+00
    0.00000E+00         0.00000E+00         0.35692E+07
 
    0.62933E+07         0.10271E+07         0.00000E+00
    0.10271E+07         0.10761E+08         0.00000E+00
    0.00000E+00         0.00000E+00         0.34108E+07
 
    0.52903E+07         0.15773E+07         0.00000E+00
    0.15773E+07         0.11038E+08         0.00000E+00
    0.00000E+00         0.00000E+00         0.32656E+07
 
    0.43101E+07         0.22627E+07         0.00000E+00
    0.22627E+07         0.11370E+08         0.00000E+00
    0.00000E+00         0.00000E+00         0.31360E+07
 
    0.34037E+07         0.31142E+07         0.00000E+00
    0.31142E+07         0.11728E+08         0.00000E+00
    0.00000E+00         0.00000E+00         0.30264E+07
 
    0.17612E+08        -0.25049E+06         0.00000E+00
   -0.25049E+06         0.90275E+07         0.00000E+00
    0.00000E+00         0.00000E+00         0.53278E+07
 
    0.16341E+08        -0.61833E+06         0.00000E+00
   -0.61833E+06         0.90619E+07         0.00000E+00
    0.00000E+00         0.00000E+00         0.50806E+07
 
    0.15054E+08        -0.82783E+06         0.00000E+00
   -0.82783E+06         0.91059E+07         0.00000E+00
    0.00000E+00         0.00000E+00         0.48320E+07
 
    0.13796E+08        -0.90544E+06         0.00000E+00
   -0.90544E+06         0.91449E+07         0.00000E+00
    0.00000E+00         0.00000E+00         0.45881E+07
 
    0.12591E+08        -0.87652E+06         0.00000E+00
   -0.87652E+06         0.91745E+07         0.00000E+00
    0.00000E+00         0.00000E+00         0.43531E+07
 
    0.11450E+08        -0.76263E+06         0.00000E+00
   -0.76263E+06         0.91983E+07         0.00000E+00
    0.00000E+00         0.00000E+00         0.41297E+07
 
    0.10371E+08        -0.57943E+06         0.00000E+00
   -0.57943E+06         0.92253E+07         0.00000E+00
    0.00000E+00         0.00000E+00         0.39192E+07
 
    0.93426E+07        -0.33598E+06         0.00000E+00
   -0.33598E+06         0.92670E+07         0.00000E+00
    0.00000E+00         0.00000E+00         0.37219E+07
 
    0.83543E+07        -0.35264E+05         0.00000E+00
   -0.35264E+05         0.93349E+07         0.00000E+00
    0.00000E+00         0.00000E+00         0.35378E+07
 
    0.73944E+07         0.32511E+06         0.00000E+00
    0.32511E+06         0.94393E+07         0.00000E+00
    0.00000E+00         0.00000E+00         0.33668E+07
 
    0.64544E+07         0.75267E+06         0.00000E+00
    0.75267E+06         0.95887E+07         0.00000E+00
    0.00000E+00         0.00000E+00         0.32086E+07
 
    0.55321E+07         0.12602E+07         0.00000E+00
    0.12602E+07         0.97876E+07         0.00000E+00
    0.00000E+00         0.00000E+00         0.30639E+07
 
    0.46361E+07         0.18650E+07         0.00000E+00
    0.18650E+07         0.10034E+08         0.00000E+00
    0.00000E+00         0.00000E+00         0.29340E+07
 
    0.37902E+07         0.25859E+07         0.00000E+00
    0.25859E+07         0.10316E+08         0.00000E+00
    0.00000E+00         0.00000E+00         0.28213E+07
 
    0.30364E+07         0.34371E+07         0.00000E+00
    0.34371E+07         0.10609E+08         0.00000E+00
    0.00000E+00         0.00000E+00         0.27292E+07
 
    0.15980E+08        -0.22385E+06         0.00000E+00
   -0.22385E+06         0.78312E+07         0.00000E+00
    0.00000E+00         0.00000E+00         0.47623E+07
 
    0.14864E+08        -0.56403E+06         0.00000E+00
   -0.56403E+06         0.78702E+07         0.00000E+00
    0.00000E+00         0.00000E+00         0.45469E+07
 
    0.13711E+08        -0.76880E+06         0.00000E+00
   -0.76880E+06         0.79253E+07         0.00000E+00
    0.00000E+00         0.00000E+00         0.43273E+07
 
    0.12564E+08        -0.85285E+06         0.00000E+00
   -0.85285E+06         0.79811E+07         0.00000E+00
    0.00000E+00         0.00000E+00         0.41090E+07
 
    0.11450E+08        -0.83213E+06         0.00000E+00
   -0.83213E+06         0.80315E+07         0.00000E+00
    0.00000E+00         0.00000E+00         0.38962E+07
 
    0.10382E+08        -0.72128E+06         0.00000E+00
   -0.72128E+06         0.80776E+07         0.00000E+00
    0.00000E+00         0.00000E+00         0.36919E+07
 
    0.93633E+07        -0.53178E+06         0.00000E+00
   -0.53178E+06         0.81256E+07         0.00000E+00
    0.00000E+00         0.00000E+00         0.34978E+07
 
    0.83906E+07        -0.27108E+06         0.00000E+00
   -0.27108E+06         0.81843E+07         0.00000E+00
    0.00000E+00         0.00000E+00         0.33150E+07
 
    0.74571E+07         0.57578E+05         0.00000E+00
    0.57578E+05         0.82634E+07         0.00000E+00
    0.00000E+00         0.00000E+00         0.31441E+07
 
    0.65563E+07         0.45495E+06         0.00000E+00
    0.45495E+06         0.83716E+07         0.00000E+00
    0.00000E+00         0.00000E+00         0.29856E+07
 
    0.56842E+07         0.92549E+06         0.00000E+00
    0.92549E+06         0.85155E+07         0.00000E+00
    0.00000E+00         0.00000E+00         0.28399E+07
 
    0.48431E+07         0.14768E+07         0.00000E+00
    0.14768E+07         0.86975E+07         0.00000E+00
    0.00000E+00         0.00000E+00         0.27081E+07
 
    0.40437E+07         0.21183E+07         0.00000E+00
    0.21183E+07         0.89142E+07         0.00000E+00
    0.00000E+00         0.00000E+00         0.25916E+07
 
    0.33079E+07         0.28585E+07         0.00000E+00
    0.28585E+07         0.91544E+07         0.00000E+00
    0.00000E+00         0.00000E+00         0.24925E+07
 
    0.26696E+07         0.37013E+07         0.00000E+00
    0.37013E+07         0.93987E+07         0.00000E+00
    0.00000E+00         0.00000E+00         0.24137E+07
 
    0.14399E+08        -0.19646E+06         0.00000E+00
   -0.19646E+06         0.66383E+07         0.00000E+00
    0.00000E+00         0.00000E+00         0.42074E+07
 
    0.13410E+08        -0.50424E+06         0.00000E+00
   -0.50424E+06         0.66770E+07         0.00000E+00
    0.00000E+00         0.00000E+00         0.40174E+07
 
    0.12375E+08        -0.69813E+06         0.00000E+00
   -0.69813E+06         0.67339E+07         0.00000E+00
    0.00000E+00         0.00000E+00         0.38217E+07
 
    0.11333E+08        -0.78308E+06         0.00000E+00
   -0.78308E+06         0.67945E+07         0.00000E+00
    0.00000E+00         0.00000E+00         0.36256E+07
 
    0.10312E+08        -0.76689E+06         0.00000E+00
   -0.76689E+06         0.68521E+07         0.00000E+00
    0.00000E+00         0.00000E+00         0.34328E+07
 
    0.93247E+07        -0.65797E+06         0.00000E+00
   -0.65797E+06         0.69065E+07         0.00000E+00
    0.00000E+00         0.00000E+00         0.32462E+07
 
    0.83783E+07        -0.46380E+06         0.00000E+00
   -0.46380E+06         0.69620E+07         0.00000E+00
    0.00000E+00         0.00000E+00         0.30681E+07
 
    0.74725E+07        -0.18987E+06         0.00000E+00
   -0.18987E+06         0.70256E+07         0.00000E+00
    0.00000E+00         0.00000E+00         0.28996E+07
 
    0.66044E+07         0.16065E+06         0.00000E+00
    0.16065E+06         0.71054E+07         0.00000E+00
    0.00000E+00         0.00000E+00         0.27420E+07
 
    0.57707E+07         0.58703E+06         0.00000E+00
    0.58703E+06         0.72087E+07         0.00000E+00
    0.00000E+00         0.00000E+00         0.25959E+07
 
    0.49708E+07         0.10906E+07         0.00000E+00
    0.10906E+07         0.73406E+07         0.00000E+00
    0.00000E+00         0.00000E+00         0.24623E+07
 
    0.42086E+07         0.16742E+07         0.00000E+00
    0.16742E+07         0.75026E+07         0.00000E+00
    0.00000E+00         0.00000E+00         0.23422E+07
 
    0.34951E+07         0.23406E+07         0.00000E+00
    0.23406E+07         0.76912E+07         0.00000E+00
    0.00000E+00         0.00000E+00         0.22373E+07
 
    0.28494E+07         0.30912E+07         0.00000E+00
    0.30912E+07         0.78968E+07         0.00000E+00
    0.00000E+00         0.00000E+00         0.21492E+07
 
    0.22989E+07         0.39225E+07         0.00000E+00
    0.39225E+07         0.81039E+07         0.00000E+00
    0.00000E+00         0.00000E+00         0.20806E+07
 
    0.12869E+08        -0.17054E+06         0.00000E+00
   -0.17054E+06         0.54498E+07         0.00000E+00
    0.00000E+00         0.00000E+00         0.36638E+07
 
    0.11982E+08        -0.44589E+06         0.00000E+00
   -0.44589E+06         0.54844E+07         0.00000E+00
    0.00000E+00         0.00000E+00         0.34933E+07
 
    0.11050E+08        -0.62654E+06         0.00000E+00
   -0.62654E+06         0.55358E+07         0.00000E+00
    0.00000E+00         0.00000E+00         0.33172E+07
 
    0.10107E+08        -0.70947E+06         0.00000E+00
   -0.70947E+06         0.55910E+07         0.00000E+00
    0.00000E+00         0.00000E+00         0.31397E+07
 
    0.91786E+07        -0.69550E+06         0.00000E+00
   -0.69550E+06         0.56438E+07         0.00000E+00
    0.00000E+00         0.00000E+00         0.29645E+07
 
    0.82776E+07        -0.58765E+06         0.00000E+00
   -0.58765E+06         0.56936E+07         0.00000E+00
    0.00000E+00         0.00000E+00         0.27942E+07
 
    0.74113E+07        -0.38967E+06         0.00000E+00
   -0.38967E+06         0.57438E+07         0.00000E+00
    0.00000E+00         0.00000E+00         0.26310E+07
 
    0.65815E+07        -0.10517E+06         0.00000E+00
   -0.10517E+06         0.58005E+07         0.00000E+00
    0.00000E+00         0.00000E+00         0.24764E+07
 
    0.57871E+07         0.26293E+06         0.00000E+00
    0.26293E+06         0.58705E+07         0.00000E+00
    0.00000E+00         0.00000E+00         0.23315E+07
 
    0.50269E+07         0.71255E+06         0.00000E+00
    0.71255E+06         0.59602E+07         0.00000E+00
    0.00000E+00         0.00000E+00         0.21974E+07
 
    0.43013E+07         0.12422E+07         0.00000E+00
    0.12422E+07         0.60742E+07         0.00000E+00
    0.00000E+00         0.00000E+00         0.20751E+07
 
    0.36149E+07         0.18506E+07         0.00000E+00
    0.18506E+07         0.62136E+07         0.00000E+00
    0.00000E+00         0.00000E+00         0.19657E+07
 
    0.29778E+07         0.25354E+07         0.00000E+00
    0.25354E+07         0.63755E+07         0.00000E+00
    0.00000E+00         0.00000E+00         0.18707E+07
 
    0.24060E+07         0.32922E+07         0.00000E+00
    0.32922E+07         0.65521E+07         0.00000E+00
    0.00000E+00         0.00000E+00         0.17916E+07
 
    0.19218E+07         0.41126E+07         0.00000E+00
    0.41126E+07         0.67309E+07         0.00000E+00
    0.00000E+00         0.00000E+00         0.17305E+07
 
    0.11387E+08        -0.14784E+06         0.00000E+00
   -0.14784E+06         0.42654E+07         0.00000E+00
    0.00000E+00         0.00000E+00         0.31304E+07
 
    0.10580E+08        -0.39441E+06         0.00000E+00
   -0.39441E+06         0.42928E+07         0.00000E+00
    0.00000E+00         0.00000E+00         0.29746E+07
 
    0.97371E+07        -0.56282E+06         0.00000E+00
   -0.56282E+06         0.43324E+07         0.00000E+00
    0.00000E+00         0.00000E+00         0.28139E+07
 
    0.88867E+07        -0.64330E+06         0.00000E+00
   -0.64330E+06         0.43734E+07         0.00000E+00
    0.00000E+00         0.00000E+00         0.26520E+07
 
    0.80496E+07        -0.63081E+06         0.00000E+00
   -0.63081E+06         0.44107E+07         0.00000E+00
    0.00000E+00         0.00000E+00         0.24920E+07
 
    0.72381E+07        -0.52366E+06         0.00000E+00
   -0.52366E+06         0.44442E+07         0.00000E+00
    0.00000E+00         0.00000E+00         0.23364E+07
 
    0.64581E+07        -0.32239E+06         0.00000E+00
   -0.32239E+06         0.44773E+07         0.00000E+00
    0.00000E+00         0.00000E+00         0.21871E+07
 
    0.57115E+07        -0.28892E+05         0.00000E+00
   -0.28892E+05         0.45157E+07         0.00000E+00
    0.00000E+00         0.00000E+00         0.20454E+07
 
    0.49975E+07         0.35418E+06         0.00000E+00
    0.35418E+06         0.45660E+07         0.00000E+00
    0.00000E+00         0.00000E+00         0.19127E+07
 
    0.43152E+07         0.82358E+06         0.00000E+00
    0.82358E+06         0.46342E+07         0.00000E+00
    0.00000E+00         0.00000E+00         0.17899E+07
 
    0.36653E+07         0.13755E+07         0.00000E+00
    0.13755E+07         0.47247E+07         0.00000E+00
    0.00000E+00         0.00000E+00         0.16780E+07
 
    0.30518E+07         0.20049E+07         0.00000E+00
    0.20049E+07         0.48390E+07         0.00000E+00
    0.00000E+00         0.00000E+00         0.15782E+07
 
    0.24828E+07         0.27055E+07         0.00000E+00
    0.27055E+07         0.49752E+07         0.00000E+00
    0.00000E+00         0.00000E+00         0.14916E+07
 
    0.19717E+07         0.34681E+07         0.00000E+00
    0.34681E+07         0.51271E+07         0.00000E+00
    0.00000E+00         0.00000E+00         0.14197E+07
 
    0.15367E+07         0.42806E+07         0.00000E+00
    0.42806E+07         0.52847E+07         0.00000E+00
    0.00000E+00         0.00000E+00         0.13643E+07
 
    0.99427E+07        -0.12985E+06         0.00000E+00
   -0.12985E+06         0.30833E+07         0.00000E+00
    0.00000E+00         0.00000E+00         0.26052E+07
 
    0.91985E+07        -0.35438E+06         0.00000E+00
   -0.35438E+06         0.31007E+07         0.00000E+00
    0.00000E+00         0.00000E+00         0.24598E+07
 
    0.84323E+07        -0.51434E+06         0.00000E+00
   -0.51434E+06         0.31229E+07         0.00000E+00
    0.00000E+00         0.00000E+00         0.23111E+07
 
    0.76682E+07        -0.59419E+06         0.00000E+00
   -0.59419E+06         0.31418E+07         0.00000E+00
    0.00000E+00         0.00000E+00         0.21620E+07
 
    0.69219E+07        -0.58386E+06         0.00000E+00
   -0.58386E+06         0.31541E+07         0.00000E+00
    0.00000E+00         0.00000E+00         0.20152E+07
 
    0.62025E+07        -0.47772E+06         0.00000E+00
   -0.47772E+06         0.31608E+07         0.00000E+00
    0.00000E+00         0.00000E+00         0.18727E+07
 
    0.55140E+07        -0.27353E+06         0.00000E+00
   -0.27353E+06         0.31661E+07         0.00000E+00
    0.00000E+00         0.00000E+00         0.17360E+07
 
    0.48564E+07         0.28281E+05         0.00000E+00
    0.28281E+05         0.31761E+07         0.00000E+00
    0.00000E+00         0.00000E+00         0.16065E+07
 
    0.42283E+07         0.42525E+06         0.00000E+00
    0.42525E+06         0.31975E+07         0.00000E+00
    0.00000E+00         0.00000E+00         0.14852E+07
 
    0.36278E+07         0.91314E+06         0.00000E+00
    0.91314E+06         0.32367E+07         0.00000E+00
    0.00000E+00         0.00000E+00         0.13729E+07
 
    0.30546E+07         0.14860E+07         0.00000E+00
    0.14860E+07         0.32985E+07         0.00000E+00
    0.00000E+00         0.00000E+00         0.12706E+07
 
    0.25111E+07         0.21359E+07         0.00000E+00
    0.21359E+07         0.33851E+07         0.00000E+00
    0.00000E+00         0.00000E+00         0.11793E+07
 
    0.20036E+07         0.28528E+07         0.00000E+00
    0.28528E+07         0.34959E+07         0.00000E+00
    0.00000E+00         0.00000E+00         0.10999E+07
 
    0.15424E+07         0.36240E+07         0.00000E+00
    0.36240E+07         0.36263E+07         0.00000E+00
    0.00000E+00         0.00000E+00         0.10338E+07
 
    0.11427E+07         0.44338E+07         0.00000E+00
    0.44338E+07         0.37683E+07         0.00000E+00
    0.00000E+00         0.00000E+00         0.98220E+06
 
    0.85243E+07        -0.11791E+06         0.00000E+00
   -0.11791E+06         0.19007E+07         0.00000E+00
    0.00000E+00         0.00000E+00         0.20850E+07
 
    0.78272E+07        -0.32975E+06         0.00000E+00
   -0.32975E+06         0.19053E+07         0.00000E+00
    0.00000E+00         0.00000E+00         0.19465E+07
 
    0.71287E+07        -0.48743E+06         0.00000E+00
   -0.48743E+06         0.19052E+07         0.00000E+00
    0.00000E+00         0.00000E+00         0.18068E+07
 
    0.64463E+07        -0.57034E+06         0.00000E+00
   -0.57034E+06         0.18949E+07         0.00000E+00
    0.00000E+00         0.00000E+00         0.16682E+07
 
    0.57904E+07        -0.56416E+06         0.00000E+00
   -0.56416E+06         0.18736E+07         0.00000E+00
    0.00000E+00         0.00000E+00         0.15328E+07
 
    0.51659E+07        -0.45991E+06         0.00000E+00
   -0.45991E+06         0.18441E+07         0.00000E+00
    0.00000E+00         0.00000E+00         0.14020E+07
 
    0.45733E+07        -0.25309E+06         0.00000E+00
   -0.25309E+06         0.18119E+07         0.00000E+00
    0.00000E+00         0.00000E+00         0.12770E+07
 
    0.40102E+07         0.57076E+05         0.00000E+00
    0.57076E+05         0.17840E+07         0.00000E+00
    0.00000E+00         0.00000E+00         0.11588E+07
 
    0.34729E+07         0.46821E+06         0.00000E+00
    0.46821E+06         0.17682E+07         0.00000E+00
    0.00000E+00         0.00000E+00         0.10482E+07
 
    0.29577E+07         0.97514E+06         0.00000E+00
    0.97514E+06         0.17715E+07         0.00000E+00
    0.00000E+00         0.00000E+00         0.94585E+06
 
    0.24623E+07         0.15701E+07         0.00000E+00
    0.15701E+07         0.17997E+07         0.00000E+00
    0.00000E+00         0.00000E+00         0.85240E+06
 
    0.19869E+07         0.22425E+07         0.00000E+00
    0.22425E+07         0.18562E+07         0.00000E+00
    0.00000E+00         0.00000E+00         0.76863E+06
 
    0.15353E+07         0.29792E+07         0.00000E+00
    0.29792E+07         0.19415E+07         0.00000E+00
    0.00000E+00         0.00000E+00         0.69537E+06
 
    0.11153E+07         0.37641E+07         0.00000E+00
    0.37641E+07         0.20529E+07         0.00000E+00
    0.00000E+00         0.00000E+00         0.63364E+06
 
    0.73887E+06         0.45782E+07         0.00000E+00
    0.45782E+07         0.21839E+07         0.00000E+00
    0.00000E+00         0.00000E+00         0.58456E+06
 
    0.71148E+07        -0.11324E+06         0.00000E+00
   -0.11324E+06         0.71305E+06         0.00000E+00
    0.00000E+00         0.00000E+00         0.15656E+07
 
    0.64532E+07        -0.32400E+06         0.00000E+00
   -0.32400E+06         0.70248E+06         0.00000E+00
    0.00000E+00         0.00000E+00         0.14311E+07
 
    0.58156E+07        -0.48752E+06         0.00000E+00
   -0.48752E+06         0.67537E+06         0.00000E+00
    0.00000E+00         0.00000E+00         0.12982E+07
 
    0.52124E+07        -0.57875E+06         0.00000E+00
   -0.57875E+06         0.62952E+06         0.00000E+00
    0.00000E+00         0.00000E+00         0.11684E+07
 
    0.46478E+07        -0.57975E+06         0.00000E+00
   -0.57975E+06         0.56690E+06         0.00000E+00
    0.00000E+00         0.00000E+00         0.10429E+07
 
    0.41215E+07        -0.47878E+06         0.00000E+00
   -0.47878E+06         0.49267E+06         0.00000E+00
    0.00000E+00         0.00000E+00         0.92283E+06
 
    0.36296E+07        -0.26952E+06         0.00000E+00
   -0.26952E+06         0.41425E+06         0.00000E+00
    0.00000E+00         0.00000E+00         0.80878E+06
 
    0.31664E+07         0.49664E+05         0.00000E+00
    0.49664E+05         0.34028E+06         0.00000E+00
    0.00000E+00         0.00000E+00         0.70133E+06
 
    0.27248E+07         0.47635E+06         0.00000E+00
    0.47635E+06         0.27972E+06         0.00000E+00
    0.00000E+00         0.00000E+00         0.60090E+06
 
    0.22984E+07         0.10045E+07         0.00000E+00
    0.10045E+07         0.24095E+06         0.00000E+00
    0.00000E+00         0.00000E+00         0.50788E+06
 
    0.18824E+07         0.16245E+07         0.00000E+00
    0.16245E+07         0.23096E+06         0.00000E+00
    0.00000E+00         0.00000E+00         0.42266E+06
 
    0.14740E+07         0.23236E+07         0.00000E+00
    0.23236E+07         0.25464E+06         0.00000E+00
    0.00000E+00         0.00000E+00         0.34573E+06
 
    0.10743E+07         0.30858E+07         0.00000E+00
    0.30858E+07         0.31410E+06         0.00000E+00
    0.00000E+00         0.00000E+00         0.27768E+06
 
    0.68805E+06         0.38917E+07         0.00000E+00
    0.38917E+07         0.40820E+06         0.00000E+00
    0.00000E+00         0.00000E+00         0.21925E+06
 
    0.32468E+06         0.47191E+07         0.00000E+00
    0.47191E+07         0.53214E+06         0.00000E+00
    0.00000E+00         0.00000E+00         0.17136E+06
 
    0.56937E+07        -0.11693E+06         0.00000E+00
   -0.11693E+06        -0.48516E+06         0.00000E+00
    0.00000E+00         0.00000E+00         0.10417E+07
 
    0.50598E+07        -0.34017E+06         0.00000E+00
   -0.34017E+06        -0.51327E+06         0.00000E+00
    0.00000E+00         0.00000E+00         0.90931E+06
 
    0.44796E+07        -0.51926E+06         0.00000E+00
   -0.51926E+06        -0.57172E+06         0.00000E+00
    0.00000E+00         0.00000E+00         0.78157E+06
 
    0.39554E+07        -0.62529E+06         0.00000E+00
   -0.62529E+06        -0.65901E+06         0.00000E+00
    0.00000E+00         0.00000E+00         0.65928E+06
 
    0.34846E+07        -0.63727E+06         0.00000E+00
   -0.63727E+06        -0.76987E+06         0.00000E+00
    0.00000E+00         0.00000E+00         0.54295E+06
 
    0.30609E+07        -0.54128E+06         0.00000E+00
   -0.54128E+06        -0.89630E+06         0.00000E+00
    0.00000E+00         0.00000E+00         0.43293E+06
 
    0.26754E+07        -0.32968E+06         0.00000E+00
   -0.32968E+06        -0.10285E+07         0.00000E+00
    0.00000E+00         0.00000E+00         0.32936E+06
 
    0.23176E+07        -0.29424E+03         0.00000E+00
   -0.29424E+03        -0.11560E+07         0.00000E+00
    0.00000E+00         0.00000E+00         0.23233E+06
 
    0.19770E+07         0.44422E+06         0.00000E+00
    0.44422E+06        -0.12679E+07         0.00000E+00
    0.00000E+00         0.00000E+00         0.14182E+06
 
    0.16436E+07         0.99687E+06         0.00000E+00
    0.99687E+06        -0.13543E+07         0.00000E+00
    0.00000E+00         0.00000E+00         0.57853E+05
 
    0.13092E+07         0.16466E+07         0.00000E+00
    0.16466E+07        -0.14067E+07         0.00000E+00
    0.00000E+00         0.00000E+00        -0.19518E+05
 
    0.96780E+06         0.23785E+07         0.00000E+00
    0.23785E+07        -0.14185E+07         0.00000E+00
    0.00000E+00         0.00000E+00        -0.90137E+05
 
    0.61710E+06         0.31737E+07         0.00000E+00
    0.31737E+07        -0.13856E+07         0.00000E+00
    0.00000E+00         0.00000E+00        -0.15371E+06
 
    0.25877E+06         0.40099E+07         0.00000E+00
    0.40099E+07        -0.13075E+07         0.00000E+00
    0.00000E+00         0.00000E+00        -0.20975E+06
 
   -0.10056E+06         0.48612E+07         0.00000E+00
    0.48612E+07        -0.11873E+07         0.00000E+00
    0.00000E+00         0.00000E+00        -0.25757E+06
 
    0.42375E+07        -0.12992E+06         0.00000E+00
   -0.12992E+06        -0.17011E+07         0.00000E+00
    0.00000E+00         0.00000E+00         0.50728E+06
 
    0.36276E+07        -0.38084E+06         0.00000E+00
   -0.38084E+06        -0.17489E+07         0.00000E+00
    0.00000E+00         0.00000E+00         0.37574E+06
 
    0.31045E+07        -0.58651E+06         0.00000E+00
   -0.58651E+06        -0.18427E+07         0.00000E+00
    0.00000E+00         0.00000E+00         0.25237E+06
 
    0.26619E+07        -0.71470E+06         0.00000E+00
   -0.71470E+06        -0.19767E+07         0.00000E+00
    0.00000E+00         0.00000E+00         0.13705E+06
 
    0.22896E+07        -0.74197E+06         0.00000E+00
   -0.74197E+06        -0.21419E+07         0.00000E+00
    0.00000E+00         0.00000E+00         0.29537E+05
 
    0.19744E+07        -0.65281E+06         0.00000E+00
   -0.65281E+06        -0.23271E+07         0.00000E+00
    0.00000E+00         0.00000E+00        -0.70540E+05
 
    0.17015E+07        -0.43877E+06         0.00000E+00
   -0.43877E+06        -0.25196E+07         0.00000E+00
    0.00000E+00         0.00000E+00        -0.16363E+06
 
    0.14557E+07        -0.97540E+05         0.00000E+00
   -0.97540E+05        -0.27067E+07         0.00000E+00
    0.00000E+00         0.00000E+00        -0.25020E+06
 
    0.12219E+07         0.36778E+06         0.00000E+00
    0.36778E+06        -0.28756E+07         0.00000E+00
    0.00000E+00         0.00000E+00        -0.33074E+06
 
    0.98632E+06         0.94927E+06         0.00000E+00
    0.94927E+06        -0.30146E+07         0.00000E+00
    0.00000E+00         0.00000E+00        -0.40566E+06
 
    0.73671E+06         0.16344E+07         0.00000E+00
    0.16344E+07        -0.31133E+07         0.00000E+00
    0.00000E+00         0.00000E+00        -0.47531E+06
 
    0.46349E+06         0.24064E+07         0.00000E+00
    0.24064E+07        -0.31630E+07         0.00000E+00
    0.00000E+00         0.00000E+00        -0.53990E+06
 
    0.16042E+06         0.32438E+07         0.00000E+00
    0.32438E+07        -0.31578E+07         0.00000E+00
    0.00000E+00         0.00000E+00        -0.59947E+06
 
   -0.17444E+06         0.41212E+07         0.00000E+00
    0.41212E+07        -0.30948E+07         0.00000E+00
    0.00000E+00         0.00000E+00        -0.65385E+06
 
   -0.53763E+06         0.50090E+07         0.00000E+00
    0.50090E+07        -0.29754E+07         0.00000E+00
    0.00000E+00         0.00000E+00        -0.70261E+06
 
    0.27192E+07        -0.15301E+06         0.00000E+00
   -0.15301E+06        -0.29431E+07         0.00000E+00
    0.00000E+00         0.00000E+00        -0.44782E+05
 
    0.21341E+07        -0.44812E+06         0.00000E+00
   -0.44812E+06        -0.30127E+07         0.00000E+00
    0.00000E+00         0.00000E+00        -0.17571E+06
 
    0.16718E+07        -0.69230E+06         0.00000E+00
   -0.69230E+06        -0.31455E+07         0.00000E+00
    0.00000E+00         0.00000E+00        -0.29474E+06
 
    0.13165E+07        -0.85055E+06         0.00000E+00
   -0.85055E+06        -0.33310E+07         0.00000E+00
    0.00000E+00         0.00000E+00        -0.40290E+06
 
    0.10495E+07        -0.89759E+06         0.00000E+00
   -0.89759E+06        -0.35559E+07         0.00000E+00
    0.00000E+00         0.00000E+00        -0.50127E+06
 
    0.85032E+06        -0.81699E+06         0.00000E+00
   -0.81699E+06        -0.38052E+07         0.00000E+00
    0.00000E+00         0.00000E+00        -0.59097E+06
 
    0.69775E+06        -0.60012E+06         0.00000E+00
   -0.60012E+06        -0.40633E+07         0.00000E+00
    0.00000E+00         0.00000E+00        -0.67310E+06
 
    0.57113E+06        -0.24501E+06         0.00000E+00
   -0.24501E+06        -0.43148E+07         0.00000E+00
    0.00000E+00         0.00000E+00        -0.74874E+06
 
    0.45079E+06         0.24456E+06         0.00000E+00
    0.24456E+06        -0.45452E+07         0.00000E+00
    0.00000E+00         0.00000E+00        -0.81888E+06
 
    0.31853E+06         0.85968E+06         0.00000E+00
    0.85968E+06        -0.47406E+07         0.00000E+00
    0.00000E+00         0.00000E+00        -0.88442E+06
 
    0.15808E+06         0.15866E+07         0.00000E+00
    0.15866E+07        -0.48888E+07         0.00000E+00
    0.00000E+00         0.00000E+00        -0.94614E+06
 
   -0.44421E+05         0.24068E+07         0.00000E+00
    0.24068E+07        -0.49790E+07         0.00000E+00
    0.00000E+00         0.00000E+00        -0.10047E+07
 
   -0.29961E+06         0.32968E+07         0.00000E+00
    0.32968E+07        -0.50027E+07         0.00000E+00
    0.00000E+00         0.00000E+00        -0.10605E+07
 
   -0.61379E+06         0.42278E+07         0.00000E+00
    0.42278E+07        -0.49546E+07         0.00000E+00
    0.00000E+00         0.00000E+00        -0.11137E+07
 
   -0.98744E+06         0.51663E+07         0.00000E+00
    0.51663E+07        -0.48337E+07         0.00000E+00
    0.00000E+00         0.00000E+00        -0.11642E+07
 
    0.11093E+07        -0.18685E+06         0.00000E+00
   -0.18685E+06        -0.42213E+07         0.00000E+00
    0.00000E+00         0.00000E+00        -0.62239E+06
 
    0.55461E+06        -0.54364E+06         0.00000E+00
   -0.54364E+06        -0.43146E+07         0.00000E+00
    0.00000E+00         0.00000E+00        -0.75200E+06
 
    0.16074E+06        -0.83881E+06         0.00000E+00
   -0.83881E+06        -0.44898E+07         0.00000E+00
    0.00000E+00         0.00000E+00        -0.86581E+06
 
   -0.98212E+05        -0.10351E+07         0.00000E+00
   -0.10351E+07        -0.47309E+07         0.00000E+00
    0.00000E+00         0.00000E+00        -0.96582E+06
 
   -0.25034E+06        -0.11061E+07         0.00000E+00
   -0.11061E+07        -0.50198E+07         0.00000E+00
    0.00000E+00         0.00000E+00        -0.10540E+07
 
   -0.32428E+06        -0.10354E+07         0.00000E+00
   -0.10354E+07        -0.53373E+07         0.00000E+00
    0.00000E+00         0.00000E+00        -0.11323E+07
 
   -0.34785E+06        -0.81485E+06         0.00000E+00
   -0.81485E+06        -0.56645E+07         0.00000E+00
    0.00000E+00         0.00000E+00        -0.12025E+07
 
   -0.34734E+06        -0.44347E+06         0.00000E+00
   -0.44347E+06        -0.59837E+07         0.00000E+00
    0.00000E+00         0.00000E+00        -0.12662E+07
 
   -0.34711E+06         0.73964E+05         0.00000E+00
    0.73964E+05        -0.62783E+07         0.00000E+00
    0.00000E+00         0.00000E+00        -0.13251E+07
 
   -0.36961E+06         0.72760E+06         0.00000E+00
    0.72760E+06        -0.65329E+07         0.00000E+00
    0.00000E+00         0.00000E+00        -0.13805E+07
 
   -0.43541E+06         0.15028E+07         0.00000E+00
    0.15028E+07        -0.67331E+07         0.00000E+00
    0.00000E+00         0.00000E+00        -0.14337E+07
 
   -0.56298E+06         0.23797E+07         0.00000E+00
    0.23797E+07        -0.68661E+07         0.00000E+00
    0.00000E+00         0.00000E+00        -0.14858E+07
 
   -0.76804E+06         0.33331E+07         0.00000E+00
    0.33331E+07        -0.69205E+07         0.00000E+00
    0.00000E+00         0.00000E+00        -0.15377E+07
 
   -0.10622E+07         0.43314E+07         0.00000E+00
    0.43314E+07        -0.68878E+07         0.00000E+00
    0.00000E+00         0.00000E+00        -0.15900E+07
 
   -0.14512E+07         0.53368E+07         0.00000E+00
    0.53368E+07        -0.67637E+07         0.00000E+00
    0.00000E+00         0.00000E+00        -0.16430E+07
 
   -0.62443E+06        -0.23191E+06         0.00000E+00
   -0.23191E+06        -0.55472E+07         0.00000E+00
    0.00000E+00         0.00000E+00        -0.12343E+07
 
   -0.11381E+07        -0.66850E+06         0.00000E+00
   -0.66850E+06        -0.56661E+07         0.00000E+00
    0.00000E+00         0.00000E+00        -0.13608E+07
 
   -0.14512E+07        -0.10272E+07         0.00000E+00
   -0.10272E+07        -0.58868E+07         0.00000E+00
    0.00000E+00         0.00000E+00        -0.14676E+07
 
   -0.16011E+07        -0.12691E+07         0.00000E+00
   -0.12691E+07        -0.61872E+07         0.00000E+00
    0.00000E+00         0.00000E+00        -0.15577E+07
 
   -0.16263E+07        -0.13675E+07         0.00000E+00
   -0.13675E+07        -0.65432E+07         0.00000E+00
    0.00000E+00         0.00000E+00        -0.16339E+07
 
   -0.15640E+07        -0.13071E+07         0.00000E+00
   -0.13071E+07        -0.69313E+07         0.00000E+00
    0.00000E+00         0.00000E+00        -0.16991E+07
 
   -0.14491E+07        -0.10813E+07         0.00000E+00
   -0.10813E+07        -0.73292E+07         0.00000E+00
    0.00000E+00         0.00000E+00        -0.17557E+07
 
   -0.13131E+07        -0.69099E+06         0.00000E+00
   -0.69099E+06        -0.77170E+07         0.00000E+00
    0.00000E+00         0.00000E+00        -0.18060E+07
 
   -0.11849E+07        -0.14219E+06         0.00000E+00
   -0.14219E+06        -0.80764E+07         0.00000E+00
    0.00000E+00         0.00000E+00        -0.18523E+07
 
   -0.10907E+07         0.55434E+06         0.00000E+00
    0.55434E+06        -0.83911E+07         0.00000E+00
    0.00000E+00         0.00000E+00        -0.18964E+07
 
   -0.10552E+07         0.13835E+07         0.00000E+00
    0.13835E+07        -0.86450E+07         0.00000E+00
    0.00000E+00         0.00000E+00        -0.19400E+07
 
   -0.11017E+07         0.23251E+07         0.00000E+00
    0.23251E+07        -0.88229E+07         0.00000E+00
    0.00000E+00         0.00000E+00        -0.19849E+07
 
   -0.12518E+07         0.33528E+07         0.00000E+00
    0.33528E+07        -0.89102E+07         0.00000E+00
    0.00000E+00         0.00000E+00        -0.20324E+07
 
   -0.15239E+07         0.44329E+07         0.00000E+00
    0.44329E+07        -0.88943E+07         0.00000E+00
    0.00000E+00         0.00000E+00        -0.20836E+07
 
   -0.19304E+07         0.55234E+07         0.00000E+00
    0.55234E+07        -0.87665E+07         0.00000E+00
    0.00000E+00         0.00000E+00        -0.21394E+07
 
   -0.25169E+07        -0.28853E+06         0.00000E+00
   -0.28853E+06        -0.69344E+07         0.00000E+00
    0.00000E+00         0.00000E+00        -0.18903E+07
 
   -0.29730E+07        -0.82334E+06         0.00000E+00
   -0.82334E+06        -0.70809E+07         0.00000E+00
    0.00000E+00         0.00000E+00        -0.20108E+07
 
   -0.31882E+07        -0.12577E+07         0.00000E+00
   -0.12577E+07        -0.73503E+07         0.00000E+00
    0.00000E+00         0.00000E+00        -0.21077E+07
 
   -0.32125E+07        -0.15515E+07         0.00000E+00
   -0.15515E+07        -0.77127E+07         0.00000E+00
    0.00000E+00         0.00000E+00        -0.21850E+07
 
   -0.30959E+07        -0.16792E+07         0.00000E+00
   -0.16792E+07        -0.81377E+07         0.00000E+00
    0.00000E+00         0.00000E+00        -0.22467E+07
 
   -0.28851E+07        -0.16280E+07         0.00000E+00
   -0.16280E+07        -0.85966E+07         0.00000E+00
    0.00000E+00         0.00000E+00        -0.22963E+07
 
   -0.26218E+07        -0.13945E+07         0.00000E+00
   -0.13945E+07        -0.90638E+07         0.00000E+00
    0.00000E+00         0.00000E+00        -0.23371E+07
 
   -0.23425E+07        -0.98215E+06         0.00000E+00
   -0.98215E+06        -0.95177E+07         0.00000E+00
    0.00000E+00         0.00000E+00        -0.23720E+07
 
   -0.20792E+07        -0.39906E+06         0.00000E+00
   -0.39906E+06        -0.99399E+07         0.00000E+00
    0.00000E+00         0.00000E+00        -0.24038E+07
 
   -0.18612E+07         0.34348E+06         0.00000E+00
    0.34348E+06        -0.10313E+08         0.00000E+00
    0.00000E+00         0.00000E+00        -0.24349E+07
 
   -0.17167E+07         0.12308E+07         0.00000E+00
    0.12308E+07        -0.10621E+08         0.00000E+00
    0.00000E+00         0.00000E+00        -0.24675E+07
 
   -0.16738E+07         0.22435E+07         0.00000E+00
    0.22435E+07        -0.10846E+08         0.00000E+00
    0.00000E+00         0.00000E+00        -0.25039E+07
 
   -0.17609E+07         0.33556E+07         0.00000E+00
    0.33556E+07        -0.10969E+08         0.00000E+00
    0.00000E+00         0.00000E+00        -0.25460E+07
 
   -0.20047E+07         0.45322E+07         0.00000E+00
    0.45322E+07        -0.10973E+08         0.00000E+00
    0.00000E+00         0.00000E+00        -0.25955E+07
 
   -0.24273E+07         0.57275E+07         0.00000E+00
    0.57275E+07        -0.10842E+08         0.00000E+00
    0.00000E+00         0.00000E+00        -0.26539E+07
 
   -0.46057E+07        -0.35698E+06         0.00000E+00
   -0.35698E+06        -0.83986E+07         0.00000E+00
    0.00000E+00         0.00000E+00        -0.26009E+07
 
   -0.49817E+07        -0.10083E+07         0.00000E+00
   -0.10083E+07        -0.85751E+07         0.00000E+00
    0.00000E+00         0.00000E+00        -0.27114E+07
 
   -0.50758E+07        -0.15292E+07         0.00000E+00
   -0.15292E+07        -0.88963E+07         0.00000E+00
    0.00000E+00         0.00000E+00        -0.27944E+07
 
   -0.49534E+07        -0.18792E+07         0.00000E+00
   -0.18792E+07        -0.93232E+07         0.00000E+00
    0.00000E+00         0.00000E+00        -0.28553E+07
 
   -0.46777E+07        -0.20355E+07         0.00000E+00
   -0.20355E+07        -0.98172E+07         0.00000E+00
    0.00000E+00         0.00000E+00        -0.28990E+07
 
   -0.43053E+07        -0.19900E+07         0.00000E+00
   -0.19900E+07        -0.10344E+08         0.00000E+00
    0.00000E+00         0.00000E+00        -0.29298E+07
 
   -0.38846E+07        -0.17446E+07         0.00000E+00
   -0.17446E+07        -0.10875E+08         0.00000E+00
    0.00000E+00         0.00000E+00        -0.29519E+07
 
   -0.34554E+07        -0.13071E+07         0.00000E+00
   -0.13071E+07        -0.11389E+08         0.00000E+00
    0.00000E+00         0.00000E+00        -0.29688E+07
 
   -0.30514E+07        -0.68785E+06         0.00000E+00
   -0.68785E+06        -0.11867E+08         0.00000E+00
    0.00000E+00         0.00000E+00        -0.29837E+07
 
   -0.27031E+07         0.10158E+06         0.00000E+00
    0.10158E+06        -0.12295E+08         0.00000E+00
    0.00000E+00         0.00000E+00        -0.29996E+07
 
   -0.24410E+07         0.10482E+07         0.00000E+00
    0.10482E+07        -0.12655E+08         0.00000E+00
    0.00000E+00         0.00000E+00        -0.30191E+07
 
   -0.22980E+07         0.21355E+07         0.00000E+00
    0.21355E+07        -0.12927E+08         0.00000E+00
    0.00000E+00         0.00000E+00        -0.30451E+07
 
   -0.23097E+07         0.33399E+07         0.00000E+00
    0.33399E+07        -0.13091E+08         0.00000E+00
    0.00000E+00         0.00000E+00        -0.30800E+07
 
   -0.25136E+07         0.46272E+07         0.00000E+00
    0.46272E+07        -0.13119E+08         0.00000E+00
    0.00000E+00         0.00000E+00        -0.31266E+07
 
   -0.29447E+07         0.59489E+07         0.00000E+00
    0.59489E+07        -0.12990E+08         0.00000E+00
    0.00000E+00         0.00000E+00        -0.31870E+07
 
   -0.69318E+07        -0.43755E+06         0.00000E+00
   -0.43755E+06        -0.99588E+07         0.00000E+00
    0.00000E+00         0.00000E+00        -0.33781E+07
 
   -0.71975E+07        -0.12234E+07         0.00000E+00
   -0.12234E+07        -0.10168E+08         0.00000E+00
    0.00000E+00         0.00000E+00        -0.34732E+07
 
   -0.71409E+07        -0.18395E+07         0.00000E+00
   -0.18395E+07        -0.10545E+08         0.00000E+00
    0.00000E+00         0.00000E+00        -0.35372E+07
 
   -0.68459E+07        -0.22462E+07         0.00000E+00
   -0.22462E+07        -0.11038E+08         0.00000E+00
    0.00000E+00         0.00000E+00        -0.35768E+07
 
   -0.63913E+07        -0.24262E+07         0.00000E+00
   -0.24262E+07        -0.11599E+08         0.00000E+00
    0.00000E+00         0.00000E+00        -0.35980E+07
 
   -0.58446E+07        -0.23794E+07         0.00000E+00
   -0.23794E+07        -0.12186E+08         0.00000E+00
    0.00000E+00         0.00000E+00        -0.36061E+07
 
   -0.52595E+07        -0.21160E+07         0.00000E+00
   -0.21160E+07        -0.12770E+08         0.00000E+00
    0.00000E+00         0.00000E+00        -0.36060E+07
 
   -0.46769E+07        -0.16500E+07         0.00000E+00
   -0.16500E+07        -0.13331E+08         0.00000E+00
    0.00000E+00         0.00000E+00        -0.36016E+07
 
   -0.41294E+07        -0.99476E+06         0.00000E+00
   -0.99476E+06        -0.13854E+08         0.00000E+00
    0.00000E+00         0.00000E+00        -0.35968E+07
 
   -0.36460E+07        -0.16116E+06         0.00000E+00
   -0.16116E+06        -0.14327E+08         0.00000E+00
    0.00000E+00         0.00000E+00        -0.35946E+07
 
   -0.32575E+07         0.84138E+06         0.00000E+00
    0.84138E+06        -0.14735E+08         0.00000E+00
    0.00000E+00         0.00000E+00        -0.35984E+07
 
   -0.30004E+07         0.20019E+07         0.00000E+00
    0.20019E+07        -0.15056E+08         0.00000E+00
    0.00000E+00         0.00000E+00        -0.36114E+07
 
   -0.29188E+07         0.33026E+07         0.00000E+00
    0.33026E+07        -0.15265E+08         0.00000E+00
    0.00000E+00         0.00000E+00        -0.36368E+07
 
   -0.30635E+07         0.47131E+07         0.00000E+00
    0.47131E+07        -0.15328E+08         0.00000E+00
    0.00000E+00         0.00000E+00        -0.36782E+07
 
   -0.34868E+07         0.61840E+07         0.00000E+00
    0.61840E+07        -0.15208E+08         0.00000E+00
    0.00000E+00         0.00000E+00        -0.37390E+07
 
   -0.95406E+07        -0.53074E+06         0.00000E+00
   -0.53074E+06        -0.11638E+08         0.00000E+00
    0.00000E+00         0.00000E+00        -0.42357E+07
 
   -0.96570E+07        -0.14683E+07         0.00000E+00
   -0.14683E+07        -0.11885E+08         0.00000E+00
    0.00000E+00         0.00000E+00        -0.43084E+07
 
   -0.94116E+07        -0.21849E+07         0.00000E+00
   -0.21849E+07        -0.12323E+08         0.00000E+00
    0.00000E+00         0.00000E+00        -0.43468E+07
 
   -0.89124E+07        -0.26431E+07         0.00000E+00
   -0.26431E+07        -0.12882E+08         0.00000E+00
    0.00000E+00         0.00000E+00        -0.43589E+07
 
   -0.82575E+07        -0.28355E+07         0.00000E+00
   -0.28355E+07        -0.13503E+08         0.00000E+00
    0.00000E+00         0.00000E+00        -0.43520E+07
 
   -0.75256E+07        -0.27755E+07         0.00000E+00
   -0.27755E+07        -0.14137E+08         0.00000E+00
    0.00000E+00         0.00000E+00        -0.43326E+07
 
   -0.67734E+07        -0.24856E+07         0.00000E+00
   -0.24856E+07        -0.14757E+08         0.00000E+00
    0.00000E+00         0.00000E+00        -0.43060E+07
 
   -0.60392E+07        -0.19881E+07         0.00000E+00
   -0.19881E+07        -0.15345E+08         0.00000E+00
    0.00000E+00         0.00000E+00        -0.42768E+07
 
   -0.53501E+07        -0.12998E+07         0.00000E+00
   -0.12998E+07        -0.15894E+08         0.00000E+00
    0.00000E+00         0.00000E+00        -0.42488E+07
 
   -0.47298E+07        -0.42999E+06         0.00000E+00
   -0.42999E+06        -0.16397E+08         0.00000E+00
    0.00000E+00         0.00000E+00        -0.42254E+07
 
   -0.42062E+07         0.61826E+06         0.00000E+00
    0.61826E+06        -0.16845E+08         0.00000E+00
    0.00000E+00         0.00000E+00        -0.42102E+07
 
   -0.38179E+07         0.18434E+07         0.00000E+00
    0.18434E+07        -0.17216E+08         0.00000E+00
    0.00000E+00         0.00000E+00        -0.42067E+07
 
   -0.36177E+07         0.32382E+07         0.00000E+00
    0.32382E+07        -0.17478E+08         0.00000E+00
    0.00000E+00         0.00000E+00        -0.42192E+07
 
   -0.36731E+07         0.47808E+07         0.00000E+00
    0.47808E+07        -0.17587E+08         0.00000E+00
    0.00000E+00         0.00000E+00        -0.42520E+07
 
   -0.40600E+07         0.64244E+07         0.00000E+00
    0.64244E+07        -0.17491E+08         0.00000E+00
    0.00000E+00         0.00000E+00        -0.43102E+07
 
   -0.12484E+08        -0.63760E+06         0.00000E+00
   -0.63760E+06        -0.13466E+08         0.00000E+00
    0.00000E+00         0.00000E+00        -0.51900E+07
 
   -0.12400E+08        -0.17431E+07         0.00000E+00
   -0.17431E+07        -0.13757E+08         0.00000E+00
    0.00000E+00         0.00000E+00        -0.52315E+07
 
   -0.11917E+08        -0.25593E+07         0.00000E+00
   -0.25593E+07        -0.14262E+08         0.00000E+00
    0.00000E+00         0.00000E+00        -0.52357E+07
 
   -0.11176E+08        -0.30547E+07         0.00000E+00
   -0.30547E+07        -0.14887E+08         0.00000E+00
    0.00000E+00         0.00000E+00        -0.52125E+07
 
   -0.10299E+08        -0.32395E+07         0.00000E+00
   -0.32395E+07        -0.15555E+08         0.00000E+00
    0.00000E+00         0.00000E+00        -0.51708E+07
 
   -0.93757E+07        -0.31480E+07         0.00000E+00
   -0.31480E+07        -0.16215E+08         0.00000E+00
    0.00000E+00         0.00000E+00        -0.51181E+07
 
   -0.84610E+07        -0.28204E+07         0.00000E+00
   -0.28204E+07        -0.16841E+08         0.00000E+00
    0.00000E+00         0.00000E+00        -0.50603E+07
 
   -0.75847E+07        -0.22898E+07         0.00000E+00
   -0.22898E+07        -0.17426E+08         0.00000E+00
    0.00000E+00         0.00000E+00        -0.50022E+07
 
   -0.67628E+07        -0.15760E+07         0.00000E+00
   -0.15760E+07        -0.17974E+08         0.00000E+00
    0.00000E+00         0.00000E+00        -0.49473E+07
 
   -0.60084E+07        -0.68497E+06         0.00000E+00
   -0.68497E+06        -0.18487E+08         0.00000E+00
    0.00000E+00         0.00000E+00        -0.48990E+07
 
   -0.53423E+07         0.38962E+06         0.00000E+00
    0.38962E+06        -0.18962E+08         0.00000E+00
    0.00000E+00         0.00000E+00        -0.48608E+07
 
   -0.48020E+07         0.16605E+07         0.00000E+00
    0.16605E+07        -0.19381E+08         0.00000E+00
    0.00000E+00         0.00000E+00        -0.48366E+07
 
   -0.44488E+07         0.31377E+07         0.00000E+00
    0.31377E+07        -0.19707E+08         0.00000E+00
    0.00000E+00         0.00000E+00        -0.48313E+07
 
   -0.43700E+07         0.48150E+07         0.00000E+00
    0.48150E+07        -0.19883E+08         0.00000E+00
    0.00000E+00         0.00000E+00        -0.48505E+07
 
   -0.46734E+07         0.66546E+07         0.00000E+00
    0.66546E+07        -0.19832E+08         0.00000E+00
    0.00000E+00         0.00000E+00        -0.49011E+07
 
   -0.15825E+08        -0.76029E+06         0.00000E+00
   -0.76029E+06        -0.15480E+08         0.00000E+00
    0.00000E+00         0.00000E+00        -0.62611E+07
 
   -0.15473E+08        -0.20484E+07         0.00000E+00
   -0.20484E+07        -0.15827E+08         0.00000E+00
    0.00000E+00         0.00000E+00        -0.62601E+07
 
   -0.14687E+08        -0.29534E+07         0.00000E+00
   -0.29534E+07        -0.16408E+08         0.00000E+00
    0.00000E+00         0.00000E+00        -0.62190E+07
 
   -0.13660E+08        -0.34573E+07         0.00000E+00
   -0.34573E+07        -0.17093E+08         0.00000E+00
    0.00000E+00         0.00000E+00        -0.61506E+07
 
   -0.12543E+08        -0.36019E+07         0.00000E+00
   -0.36019E+07        -0.17786E+08         0.00000E+00
    0.00000E+00         0.00000E+00        -0.60658E+07
 
   -0.11431E+08        -0.34538E+07         0.00000E+00
   -0.34538E+07        -0.18435E+08         0.00000E+00
    0.00000E+00         0.00000E+00        -0.59732E+07
 
   -0.10370E+08        -0.30764E+07         0.00000E+00
   -0.30764E+07        -0.19026E+08         0.00000E+00
    0.00000E+00         0.00000E+00        -0.58790E+07
 
   -0.93712E+07        -0.25142E+07         0.00000E+00
   -0.25142E+07        -0.19567E+08         0.00000E+00
    0.00000E+00         0.00000E+00        -0.57876E+07
 
   -0.84337E+07        -0.17889E+07         0.00000E+00
   -0.17889E+07        -0.20076E+08         0.00000E+00
    0.00000E+00         0.00000E+00        -0.57020E+07
 
   -0.75540E+07        -0.90061E+06         0.00000E+00
   -0.90061E+06        -0.20571E+08         0.00000E+00
    0.00000E+00         0.00000E+00        -0.56250E+07
 
   -0.67404E+07         0.16945E+06         0.00000E+00
    0.16945E+06        -0.21056E+08         0.00000E+00
    0.00000E+00         0.00000E+00        -0.55593E+07
 
   -0.60243E+07         0.14535E+07         0.00000E+00
    0.14535E+07        -0.21520E+08         0.00000E+00
    0.00000E+00         0.00000E+00        -0.55089E+07
 
   -0.54723E+07         0.29873E+07         0.00000E+00
    0.29873E+07        -0.21924E+08         0.00000E+00
    0.00000E+00         0.00000E+00        -0.54793E+07
 
   -0.51944E+07         0.47918E+07         0.00000E+00
    0.47918E+07        -0.22194E+08         0.00000E+00
    0.00000E+00         0.00000E+00        -0.54776E+07
 
   -0.53408E+07         0.68485E+07         0.00000E+00
    0.68485E+07        -0.22224E+08         0.00000E+00
    0.00000E+00         0.00000E+00        -0.55129E+07
 
   -0.19645E+08        -0.90306E+06         0.00000E+00
   -0.90306E+06        -0.17735E+08         0.00000E+00
    0.00000E+00         0.00000E+00        -0.74761E+07
 
   -0.18929E+08        -0.23851E+07         0.00000E+00
   -0.23851E+07        -0.18156E+08         0.00000E+00
    0.00000E+00         0.00000E+00        -0.74170E+07
 
   -0.17756E+08        -0.33497E+07         0.00000E+00
   -0.33497E+07        -0.18823E+08         0.00000E+00
    0.00000E+00         0.00000E+00        -0.73158E+07
 
   -0.16394E+08        -0.38114E+07         0.00000E+00
   -0.38114E+07        -0.19552E+08         0.00000E+00
    0.00000E+00         0.00000E+00        -0.71893E+07
 
   -0.15028E+08        -0.38681E+07         0.00000E+00
   -0.38681E+07        -0.20228E+08         0.00000E+00
    0.00000E+00         0.00000E+00        -0.70512E+07
 
   -0.13746E+08        -0.36340E+07         0.00000E+00
   -0.36340E+07        -0.20810E+08         0.00000E+00
    0.00000E+00         0.00000E+00        -0.69112E+07
 
   -0.12568E+08        -0.31981E+07         0.00000E+00
   -0.31981E+07        -0.21308E+08         0.00000E+00
    0.00000E+00         0.00000E+00        -0.67753E+07
 
   -0.11479E+08        -0.26130E+07         0.00000E+00
   -0.26130E+07        -0.21753E+08         0.00000E+00
    0.00000E+00         0.00000E+00        -0.66466E+07
 
   -0.10452E+08        -0.18985E+07         0.00000E+00
   -0.18985E+07        -0.22181E+08         0.00000E+00
    0.00000E+00         0.00000E+00        -0.65266E+07
 
   -0.94628E+07        -0.10466E+07         0.00000E+00
   -0.10466E+07        -0.22621E+08         0.00000E+00
    0.00000E+00         0.00000E+00        -0.64167E+07
 
   -0.85007E+07        -0.24516E+05         0.00000E+00
   -0.24516E+05        -0.23092E+08         0.00000E+00
    0.00000E+00         0.00000E+00        -0.63186E+07
 
   -0.75831E+07         0.12234E+07         0.00000E+00
    0.12234E+07        -0.23594E+08         0.00000E+00
    0.00000E+00         0.00000E+00        -0.62355E+07
 
   -0.67744E+07         0.27683E+07         0.00000E+00
    0.27683E+07        -0.24090E+08         0.00000E+00
    0.00000E+00         0.00000E+00        -0.61729E+07
 
   -0.62063E+07         0.46752E+07         0.00000E+00
    0.46752E+07        -0.24493E+08         0.00000E+00
    0.00000E+00         0.00000E+00        -0.61398E+07
 
   -0.60839E+07         0.69638E+07         0.00000E+00
    0.69638E+07        -0.24656E+08         0.00000E+00
    0.00000E+00         0.00000E+00        -0.61480E+07
 
   -0.24056E+08        -0.10741E+07         0.00000E+00
   -0.10741E+07        -0.20311E+08         0.00000E+00
    0.00000E+00         0.00000E+00        -0.88734E+07
 
   -0.22834E+08        -0.27530E+07         0.00000E+00
   -0.27530E+07        -0.20835E+08         0.00000E+00
    0.00000E+00         0.00000E+00        -0.87338E+07
 
   -0.21162E+08        -0.37126E+07         0.00000E+00
   -0.37126E+07        -0.21595E+08         0.00000E+00
    0.00000E+00         0.00000E+00        -0.85512E+07
 
   -0.19423E+08        -0.40477E+07         0.00000E+00
   -0.40477E+07        -0.22324E+08         0.00000E+00
    0.00000E+00         0.00000E+00        -0.83493E+07
 
   -0.17823E+08        -0.39564E+07         0.00000E+00
   -0.39564E+07        -0.22905E+08         0.00000E+00
    0.00000E+00         0.00000E+00        -0.81456E+07
 
   -0.16414E+08        -0.36126E+07         0.00000E+00
   -0.36126E+07        -0.23338E+08         0.00000E+00
    0.00000E+00         0.00000E+00        -0.79504E+07
 
   -0.15166E+08        -0.31225E+07         0.00000E+00
   -0.31225E+07        -0.23673E+08         0.00000E+00
    0.00000E+00         0.00000E+00        -0.77677E+07
 
   -0.14026E+08        -0.25358E+07         0.00000E+00
   -0.25358E+07        -0.23965E+08         0.00000E+00
    0.00000E+00         0.00000E+00        -0.75981E+07
 
   -0.12940E+08        -0.18642E+07         0.00000E+00
   -0.18642E+07        -0.24263E+08         0.00000E+00
    0.00000E+00         0.00000E+00        -0.74406E+07
 
   -0.11861E+08        -0.10905E+07         0.00000E+00
   -0.10905E+07        -0.24610E+08         0.00000E+00
    0.00000E+00         0.00000E+00        -0.72943E+07
 
   -0.10755E+08        -0.17030E+06         0.00000E+00
   -0.17030E+06        -0.25037E+08         0.00000E+00
    0.00000E+00         0.00000E+00        -0.71585E+07
 
   -0.96135E+07         0.97436E+06         0.00000E+00
    0.97436E+06        -0.25560E+08         0.00000E+00
    0.00000E+00         0.00000E+00        -0.70348E+07
 
   -0.84801E+07         0.24576E+07         0.00000E+00
    0.24576E+07        -0.26160E+08         0.00000E+00
    0.00000E+00         0.00000E+00        -0.69280E+07
 
   -0.74972E+07         0.44131E+07         0.00000E+00
    0.44131E+07        -0.26744E+08         0.00000E+00
    0.00000E+00         0.00000E+00        -0.68481E+07
 
   -0.69372E+07         0.69346E+07         0.00000E+00
    0.69346E+07        -0.27119E+08         0.00000E+00
    0.00000E+00         0.00000E+00        -0.68112E+07
 
   -0.29228E+08        -0.12899E+07         0.00000E+00
   -0.12899E+07        -0.23342E+08         0.00000E+00
    0.00000E+00         0.00000E+00        -0.10514E+08
 
   -0.27274E+08        -0.31405E+07         0.00000E+00
   -0.31405E+07        -0.24015E+08         0.00000E+00
    0.00000E+00         0.00000E+00        -0.10258E+08
 
   -0.24961E+08        -0.39584E+07         0.00000E+00
   -0.39584E+07        -0.24844E+08         0.00000E+00
    0.00000E+00         0.00000E+00        -0.99612E+07
 
   -0.22839E+08        -0.40412E+07         0.00000E+00
   -0.40412E+07        -0.25460E+08         0.00000E+00
    0.00000E+00         0.00000E+00        -0.96598E+07
 
   -0.21070E+08        -0.37513E+07         0.00000E+00
   -0.37513E+07        -0.25810E+08         0.00000E+00
    0.00000E+00         0.00000E+00        -0.93761E+07
 
   -0.19603E+08        -0.33046E+07         0.00000E+00
   -0.33046E+07        -0.25988E+08         0.00000E+00
    0.00000E+00         0.00000E+00        -0.91183E+07
 
   -0.18338E+08        -0.27920E+07         0.00000E+00
   -0.27920E+07        -0.26086E+08         0.00000E+00
    0.00000E+00         0.00000E+00        -0.88847E+07
 
   -0.17183E+08        -0.22430E+07         0.00000E+00
   -0.22430E+07        -0.26174E+08         0.00000E+00
    0.00000E+00         0.00000E+00        -0.86714E+07
 
   -0.16065E+08        -0.16554E+07         0.00000E+00
   -0.16554E+07        -0.26305E+08         0.00000E+00
    0.00000E+00         0.00000E+00        -0.84740E+07
 
   -0.14916E+08        -0.10049E+07         0.00000E+00
   -0.10049E+07        -0.26524E+08         0.00000E+00
    0.00000E+00         0.00000E+00        -0.82880E+07
 
   -0.13677E+08        -0.24247E+06         0.00000E+00
   -0.24247E+06        -0.26871E+08         0.00000E+00
    0.00000E+00         0.00000E+00        -0.81096E+07
 
   -0.12299E+08         0.71933E+06         0.00000E+00
    0.71933E+06        -0.27383E+08         0.00000E+00
    0.00000E+00         0.00000E+00        -0.79365E+07
 
   -0.10774E+08         0.20344E+07         0.00000E+00
    0.20344E+07        -0.28081E+08         0.00000E+00
    0.00000E+00         0.00000E+00        -0.77709E+07
 
   -0.92137E+07         0.39339E+07         0.00000E+00
    0.39339E+07        -0.28898E+08         0.00000E+00
    0.00000E+00         0.00000E+00        -0.76223E+07
 
   -0.79598E+07         0.66556E+07         0.00000E+00
    0.66556E+07        -0.29599E+08         0.00000E+00
    0.00000E+00         0.00000E+00        -0.75118E+07
 
   -0.35454E+08        -0.15862E+07         0.00000E+00
   -0.15862E+07        -0.27073E+08         0.00000E+00
    0.00000E+00         0.00000E+00        -0.12505E+08
 
   -0.32375E+08        -0.34842E+07         0.00000E+00
   -0.34842E+07        -0.27972E+08         0.00000E+00
    0.00000E+00         0.00000E+00        -0.12070E+08
 
   -0.29296E+08        -0.38716E+07         0.00000E+00
   -0.38716E+07        -0.28713E+08         0.00000E+00
    0.00000E+00         0.00000E+00        -0.11602E+08
 
   -0.26895E+08        -0.35806E+07         0.00000E+00
   -0.35806E+07        -0.28935E+08         0.00000E+00
    0.00000E+00         0.00000E+00        -0.11166E+08
 
   -0.25081E+08        -0.31235E+07         0.00000E+00
   -0.31235E+07        -0.28870E+08         0.00000E+00
    0.00000E+00         0.00000E+00        -0.10790E+08
 
   -0.23626E+08        -0.26450E+07         0.00000E+00
   -0.26450E+07        -0.28692E+08         0.00000E+00
    0.00000E+00         0.00000E+00        -0.10464E+08
 
   -0.22375E+08        -0.21792E+07         0.00000E+00
   -0.21792E+07        -0.28503E+08         0.00000E+00
    0.00000E+00         0.00000E+00        -0.10176E+08
 
   -0.21219E+08        -0.17253E+07         0.00000E+00
   -0.17253E+07        -0.28361E+08         0.00000E+00
    0.00000E+00         0.00000E+00        -0.99160E+07
 
   -0.20072E+08        -0.12678E+07         0.00000E+00
   -0.12678E+07        -0.28308E+08         0.00000E+00
    0.00000E+00         0.00000E+00        -0.96760E+07
 
   -0.18857E+08        -0.78048E+06         0.00000E+00
   -0.78048E+06        -0.28379E+08         0.00000E+00
    0.00000E+00         0.00000E+00        -0.94473E+07
 
   -0.17494E+08        -0.22062E+06         0.00000E+00
   -0.22062E+06        -0.28615E+08         0.00000E+00
    0.00000E+00         0.00000E+00        -0.92218E+07
 
   -0.15889E+08         0.48818E+06         0.00000E+00
    0.48818E+06        -0.29068E+08         0.00000E+00
    0.00000E+00         0.00000E+00        -0.89915E+07
 
   -0.13933E+08         0.14985E+07         0.00000E+00
    0.14985E+07        -0.29808E+08         0.00000E+00
    0.00000E+00         0.00000E+00        -0.87483E+07
 
   -0.11608E+08         0.31491E+07         0.00000E+00
    0.31491E+07        -0.30889E+08         0.00000E+00
    0.00000E+00         0.00000E+00        -0.84996E+07
 
   -0.92617E+07         0.59557E+07         0.00000E+00
    0.59557E+07        -0.32077E+08         0.00000E+00
    0.00000E+00         0.00000E+00        -0.82678E+07
 
   -0.43347E+08        -0.20776E+07         0.00000E+00
   -0.20776E+07        -0.32265E+08         0.00000E+00
    0.00000E+00         0.00000E+00        -0.15122E+08
 
   -0.38448E+08        -0.33681E+07         0.00000E+00
   -0.33681E+07        -0.33200E+08         0.00000E+00
    0.00000E+00         0.00000E+00        -0.14329E+08
 
   -0.34736E+08        -0.29625E+07         0.00000E+00
   -0.29625E+07        -0.33086E+08         0.00000E+00
    0.00000E+00         0.00000E+00        -0.13564E+08
 
   -0.32323E+08        -0.24523E+07         0.00000E+00
   -0.24523E+07        -0.32549E+08         0.00000E+00
    0.00000E+00         0.00000E+00        -0.12974E+08
 
   -0.30529E+08        -0.20163E+07         0.00000E+00
   -0.20163E+07        -0.31941E+08         0.00000E+00
    0.00000E+00         0.00000E+00        -0.12494E+08
 
   -0.29074E+08        -0.16473E+07         0.00000E+00
   -0.16473E+07        -0.31377E+08         0.00000E+00
    0.00000E+00         0.00000E+00        -0.12090E+08
 
   -0.27796E+08        -0.13250E+07         0.00000E+00
   -0.13250E+07        -0.30904E+08         0.00000E+00
    0.00000E+00         0.00000E+00        -0.11740E+08
 
   -0.26589E+08        -0.10301E+07         0.00000E+00
   -0.10301E+07        -0.30546E+08         0.00000E+00
    0.00000E+00         0.00000E+00        -0.11427E+08
 
   -0.25369E+08        -0.74449E+06         0.00000E+00
   -0.74449E+06        -0.30321E+08         0.00000E+00
    0.00000E+00         0.00000E+00        -0.11138E+08
 
   -0.24054E+08        -0.44826E+06         0.00000E+00
   -0.44826E+06        -0.30248E+08         0.00000E+00
    0.00000E+00         0.00000E+00        -0.10860E+08
 
   -0.22550E+08        -0.11360E+06         0.00000E+00
   -0.11360E+06        -0.30361E+08         0.00000E+00
    0.00000E+00         0.00000E+00        -0.10582E+08
 
   -0.20725E+08         0.30780E+06         0.00000E+00
    0.30780E+06        -0.30712E+08         0.00000E+00
    0.00000E+00         0.00000E+00        -0.10287E+08
 
   -0.18380E+08         0.91732E+06         0.00000E+00
    0.91732E+06        -0.31399E+08         0.00000E+00
    0.00000E+00         0.00000E+00        -0.99557E+07
 
   -0.15152E+08         0.19932E+07         0.00000E+00
    0.19932E+07        -0.32602E+08         0.00000E+00
    0.00000E+00         0.00000E+00        -0.95508E+07
 
   -0.11088E+08         0.45222E+07         0.00000E+00
    0.45222E+07        -0.34517E+08         0.00000E+00
    0.00000E+00         0.00000E+00        -0.91209E+07
 
   -0.56601E+08        -0.20469E+07         0.00000E+00
   -0.20469E+07        -0.41133E+08         0.00000E+00
    0.00000E+00         0.00000E+00        -0.19547E+08
 
   -0.48113E+08        -0.14643E+07         0.00000E+00
   -0.14643E+07        -0.39151E+08         0.00000E+00
    0.00000E+00         0.00000E+00        -0.17453E+08
 
   -0.44002E+08        -0.10115E+07         0.00000E+00
   -0.10115E+07        -0.37493E+08         0.00000E+00
    0.00000E+00         0.00000E+00        -0.16299E+08
 
   -0.41198E+08        -0.78418E+06         0.00000E+00
   -0.78418E+06        -0.36138E+08         0.00000E+00
    0.00000E+00         0.00000E+00        -0.15467E+08
 
   -0.39064E+08        -0.62367E+06         0.00000E+00
   -0.62367E+06        -0.35038E+08         0.00000E+00
    0.00000E+00         0.00000E+00        -0.14821E+08
 
   -0.37303E+08        -0.49907E+06         0.00000E+00
   -0.49907E+06        -0.34148E+08         0.00000E+00
    0.00000E+00         0.00000E+00        -0.14290E+08
 
   -0.35747E+08        -0.39390E+06         0.00000E+00
   -0.39390E+06        -0.33440E+08         0.00000E+00
    0.00000E+00         0.00000E+00        -0.13837E+08
 
   -0.34285E+08        -0.29888E+06         0.00000E+00
   -0.29888E+06        -0.32902E+08         0.00000E+00
    0.00000E+00         0.00000E+00        -0.13437E+08
 
   -0.32826E+08        -0.20701E+06         0.00000E+00
   -0.20701E+06        -0.32529E+08         0.00000E+00
    0.00000E+00         0.00000E+00        -0.13071E+08
 
   -0.31277E+08        -0.11139E+06         0.00000E+00
   -0.11139E+06        -0.32329E+08         0.00000E+00
    0.00000E+00         0.00000E+00        -0.12721E+08
 
   -0.29531E+08        -0.28864E+04         0.00000E+00
   -0.28864E+04        -0.32324E+08         0.00000E+00
    0.00000E+00         0.00000E+00        -0.12371E+08
 
   -0.27431E+08         0.13391E+06         0.00000E+00
    0.13391E+06        -0.32560E+08         0.00000E+00
    0.00000E+00         0.00000E+00        -0.11998E+08
 
   -0.24712E+08         0.33392E+06         0.00000E+00
    0.33392E+06        -0.33129E+08         0.00000E+00
    0.00000E+00         0.00000E+00        -0.11568E+08
 
   -0.20841E+08         0.67765E+06         0.00000E+00
    0.67765E+06        -0.34250E+08         0.00000E+00
    0.00000E+00         0.00000E+00        -0.11018E+08
 
   -0.14038E+08         0.17940E+07         0.00000E+00
    0.17940E+07        -0.36593E+08         0.00000E+00
    0.00000E+00         0.00000E+00        -0.10126E+08
 
TENSORS stresstot double 
   -0.49153E+08        -0.10181E+06         0.00000E+00
   -0.10181E+06        -0.60068E+08         0.00000E+00
    0.00000E+00         0.00000E+00        -0.66392E+08
 
   -0.51487E+08        -0.26423E+06         0.00000E+00
   -0.26423E+06        -0.60383E+08         0.00000E+00
    0.00000E+00         0.00000E+00        -0.67371E+08
 
   -0.53638E+08        -0.23944E+06         0.00000E+00
   -0.23944E+06        -0.60836E+08         0.00000E+00
    0.00000E+00         0.00000E+00        -0.67926E+08
 
   -0.55345E+08        -0.20598E+06         0.00000E+00
   -0.20598E+06        -0.61256E+08         0.00000E+00
    0.00000E+00         0.00000E+00        -0.68392E+08
 
   -0.56814E+08        -0.17439E+06         0.00000E+00
   -0.17439E+06        -0.61622E+08         0.00000E+00
    0.00000E+00         0.00000E+00        -0.68803E+08
 
   -0.58133E+08        -0.14350E+06         0.00000E+00
   -0.14350E+06        -0.61930E+08         0.00000E+00
    0.00000E+00         0.00000E+00        -0.69174E+08
 
   -0.59353E+08        -0.11206E+06         0.00000E+00
   -0.11206E+06        -0.62178E+08         0.00000E+00
    0.00000E+00         0.00000E+00        -0.69513E+08
 
   -0.60512E+08        -0.79103E+05         0.00000E+00
   -0.79103E+05        -0.62363E+08         0.00000E+00
    0.00000E+00         0.00000E+00        -0.69827E+08
 
   -0.61642E+08        -0.43574E+05         0.00000E+00
   -0.43574E+05        -0.62480E+08         0.00000E+00
    0.00000E+00         0.00000E+00        -0.70120E+08
 
   -0.62772E+08        -0.41085E+04         0.00000E+00
   -0.41085E+04        -0.62523E+08         0.00000E+00
    0.00000E+00         0.00000E+00        -0.70396E+08
 
   -0.63938E+08         0.41418E+05         0.00000E+00
    0.41418E+05        -0.62482E+08         0.00000E+00
    0.00000E+00         0.00000E+00        -0.70660E+08
 
   -0.65184E+08         0.96780E+05         0.00000E+00
    0.96780E+05        -0.62340E+08         0.00000E+00
    0.00000E+00         0.00000E+00        -0.70916E+08
 
   -0.66577E+08         0.17023E+06         0.00000E+00
    0.17023E+06        -0.62069E+08         0.00000E+00
    0.00000E+00         0.00000E+00        -0.71171E+08
 
   -0.68243E+08         0.28087E+06         0.00000E+00
    0.28087E+06        -0.61615E+08         0.00000E+00
    0.00000E+00         0.00000E+00        -0.71439E+08
 
   -0.70550E+08         0.55436E+06         0.00000E+00
    0.55436E+06        -0.60820E+08         0.00000E+00
    0.00000E+00         0.00000E+00        -0.71756E+08
 
   -0.49505E+08        -0.17533E+06         0.00000E+00
   -0.17533E+06        -0.60039E+08         0.00000E+00
    0.00000E+00         0.00000E+00        -0.66187E+08
 
   -0.51578E+08        -0.56538E+06         0.00000E+00
   -0.56538E+06        -0.60146E+08         0.00000E+00
    0.00000E+00         0.00000E+00        -0.66632E+08
 
   -0.53604E+08        -0.60788E+06         0.00000E+00
   -0.60788E+06        -0.60371E+08         0.00000E+00
    0.00000E+00         0.00000E+00        -0.67101E+08
 
   -0.55294E+08        -0.55525E+06         0.00000E+00
   -0.55525E+06        -0.60655E+08         0.00000E+00
    0.00000E+00         0.00000E+00        -0.67521E+08
 
   -0.56758E+08        -0.48188E+06         0.00000E+00
   -0.48188E+06        -0.60934E+08         0.00000E+00
    0.00000E+00         0.00000E+00        -0.67900E+08
 
   -0.58074E+08        -0.40017E+06         0.00000E+00
   -0.40017E+06        -0.61182E+08         0.00000E+00
    0.00000E+00         0.00000E+00        -0.68245E+08
 
   -0.59291E+08        -0.31224E+06         0.00000E+00
   -0.31224E+06        -0.61385E+08         0.00000E+00
    0.00000E+00         0.00000E+00        -0.68563E+08
 
   -0.60445E+08        -0.21732E+06         0.00000E+00
   -0.21732E+06        -0.61535E+08         0.00000E+00
    0.00000E+00         0.00000E+00        -0.68857E+08
 
   -0.61568E+08        -0.11321E+06         0.00000E+00
   -0.11321E+06        -0.61622E+08         0.00000E+00
    0.00000E+00         0.00000E+00        -0.69131E+08
 
   -0.62689E+08         0.37442E+04         0.00000E+00
    0.37442E+04        -0.61639E+08         0.00000E+00
    0.00000E+00         0.00000E+00        -0.69390E+08
 
   -0.63839E+08         0.13973E+06         0.00000E+00
    0.13973E+06        -0.61573E+08         0.00000E+00
    0.00000E+00         0.00000E+00        -0.69635E+08
 
   -0.65058E+08         0.30612E+06         0.00000E+00
    0.30612E+06        -0.61407E+08         0.00000E+00
    0.00000E+00         0.00000E+00        -0.69871E+08
 
   -0.66400E+08         0.52635E+06         0.00000E+00
    0.52635E+06        -0.61116E+08         0.00000E+00
    0.00000E+00         0.00000E+00        -0.70102E+08
 
   -0.67953E+08         0.86010E+06         0.00000E+00
    0.86010E+06        -0.60650E+08         0.00000E+00
    0.00000E+00         0.00000E+00        -0.70334E+08
 
   -0.69728E+08         0.15049E+07         0.00000E+00
    0.15049E+07        -0.59946E+08         0.00000E+00
    0.00000E+00         0.00000E+00        -0.70555E+08
 
   -0.49940E+08        -0.26089E+06         0.00000E+00
   -0.26089E+06        -0.60027E+08         0.00000E+00
    0.00000E+00         0.00000E+00        -0.65560E+08
 
   -0.51828E+08        -0.63725E+06         0.00000E+00
   -0.63725E+06        -0.60080E+08         0.00000E+00
    0.00000E+00         0.00000E+00        -0.65953E+08
 
   -0.53616E+08        -0.79012E+06         0.00000E+00
   -0.79012E+06        -0.60153E+08         0.00000E+00
    0.00000E+00         0.00000E+00        -0.66334E+08
 
   -0.55234E+08        -0.78121E+06         0.00000E+00
   -0.78121E+06        -0.60295E+08         0.00000E+00
    0.00000E+00         0.00000E+00        -0.66701E+08
 
   -0.56670E+08        -0.70377E+06         0.00000E+00
   -0.70377E+06        -0.60466E+08         0.00000E+00
    0.00000E+00         0.00000E+00        -0.67041E+08
 
   -0.57971E+08        -0.59394E+06         0.00000E+00
   -0.59394E+06        -0.60632E+08         0.00000E+00
    0.00000E+00         0.00000E+00        -0.67355E+08
 
   -0.59175E+08        -0.46375E+06         0.00000E+00
   -0.46375E+06        -0.60773E+08         0.00000E+00
    0.00000E+00         0.00000E+00        -0.67647E+08
 
   -0.60317E+08        -0.31613E+06         0.00000E+00
   -0.31613E+06        -0.60872E+08         0.00000E+00
    0.00000E+00         0.00000E+00        -0.67918E+08
 
   -0.61424E+08        -0.14961E+06         0.00000E+00
   -0.14961E+06        -0.60919E+08         0.00000E+00
    0.00000E+00         0.00000E+00        -0.68171E+08
 
   -0.62523E+08         0.40693E+05         0.00000E+00
    0.40693E+05        -0.60901E+08         0.00000E+00
    0.00000E+00         0.00000E+00        -0.68409E+08
 
   -0.63641E+08         0.26413E+06         0.00000E+00
    0.26413E+06        -0.60807E+08         0.00000E+00
    0.00000E+00         0.00000E+00        -0.68632E+08
 
   -0.64808E+08         0.53800E+06         0.00000E+00
    0.53800E+06        -0.60619E+08         0.00000E+00
    0.00000E+00         0.00000E+00        -0.68845E+08
 
   -0.66057E+08         0.89608E+06         0.00000E+00
    0.89608E+06        -0.60316E+08         0.00000E+00
    0.00000E+00         0.00000E+00        -0.69047E+08
 
   -0.67403E+08         0.14103E+07         0.00000E+00
    0.14103E+07        -0.59876E+08         0.00000E+00
    0.00000E+00         0.00000E+00        -0.69236E+08
 
   -0.68794E+08         0.21925E+07         0.00000E+00
    0.21925E+07        -0.59323E+08         0.00000E+00
    0.00000E+00         0.00000E+00        -0.69407E+08
 
   -0.50432E+08        -0.28340E+06         0.00000E+00
   -0.28340E+06        -0.60001E+08         0.00000E+00
    0.00000E+00         0.00000E+00        -0.64936E+08
 
   -0.52099E+08        -0.66780E+06         0.00000E+00
   -0.66780E+06        -0.60006E+08         0.00000E+00
    0.00000E+00         0.00000E+00        -0.65272E+08
 
   -0.53701E+08        -0.85547E+06         0.00000E+00
   -0.85547E+06        -0.60027E+08         0.00000E+00
    0.00000E+00         0.00000E+00        -0.65600E+08
 
   -0.55199E+08        -0.89304E+06         0.00000E+00
   -0.89304E+06        -0.60077E+08         0.00000E+00
    0.00000E+00         0.00000E+00        -0.65916E+08
 
   -0.56575E+08        -0.83264E+06         0.00000E+00
   -0.83264E+06        -0.60155E+08         0.00000E+00
    0.00000E+00         0.00000E+00        -0.66217E+08
 
   -0.57840E+08        -0.71413E+06         0.00000E+00
   -0.71413E+06        -0.60241E+08         0.00000E+00
    0.00000E+00         0.00000E+00        -0.66499E+08
 
   -0.59019E+08        -0.55668E+06         0.00000E+00
   -0.55668E+06        -0.60316E+08         0.00000E+00
    0.00000E+00         0.00000E+00        -0.66762E+08
 
   -0.60136E+08        -0.36755E+06         0.00000E+00
   -0.36755E+06        -0.60362E+08         0.00000E+00
    0.00000E+00         0.00000E+00        -0.67009E+08
 
   -0.61216E+08        -0.14709E+06         0.00000E+00
   -0.14709E+06        -0.60365E+08         0.00000E+00
    0.00000E+00         0.00000E+00        -0.67239E+08
 
   -0.62281E+08         0.10956E+06         0.00000E+00
    0.10956E+06        -0.60312E+08         0.00000E+00
    0.00000E+00         0.00000E+00        -0.67455E+08
 
   -0.63351E+08         0.41310E+06         0.00000E+00
    0.41310E+06        -0.60191E+08         0.00000E+00
    0.00000E+00         0.00000E+00        -0.67656E+08
 
   -0.64446E+08         0.78294E+06         0.00000E+00
    0.78294E+06        -0.59989E+08         0.00000E+00
    0.00000E+00         0.00000E+00        -0.67844E+08
 
   -0.65574E+08         0.12531E+07         0.00000E+00
    0.12531E+07        -0.59695E+08         0.00000E+00
    0.00000E+00         0.00000E+00        -0.68017E+08
 
   -0.66723E+08         0.18756E+07         0.00000E+00
    0.18756E+07        -0.59311E+08         0.00000E+00
    0.00000E+00         0.00000E+00        -0.68174E+08
 
   -0.67836E+08         0.27104E+07         0.00000E+00
    0.27104E+07        -0.58869E+08         0.00000E+00
    0.00000E+00         0.00000E+00        -0.68310E+08
 
   -0.50931E+08        -0.27285E+06         0.00000E+00
   -0.27285E+06        -0.59992E+08         0.00000E+00
    0.00000E+00         0.00000E+00        -0.64314E+08
 
   -0.52384E+08        -0.65753E+06         0.00000E+00
   -0.65753E+06        -0.59969E+08         0.00000E+00
    0.00000E+00         0.00000E+00        -0.64599E+08
 
   -0.53819E+08        -0.86191E+06         0.00000E+00
   -0.86191E+06        -0.59947E+08         0.00000E+00
    0.00000E+00         0.00000E+00        -0.64882E+08
 
   -0.55194E+08        -0.92514E+06         0.00000E+00
   -0.92514E+06        -0.59941E+08         0.00000E+00
    0.00000E+00         0.00000E+00        -0.65157E+08
 
   -0.56487E+08        -0.88320E+06         0.00000E+00
   -0.88320E+06        -0.59952E+08         0.00000E+00
    0.00000E+00         0.00000E+00        -0.65421E+08
 
   -0.57696E+08        -0.76576E+06         0.00000E+00
   -0.76576E+06        -0.59973E+08         0.00000E+00
    0.00000E+00         0.00000E+00        -0.65671E+08
 
   -0.58833E+08        -0.59218E+06         0.00000E+00
   -0.59218E+06        -0.59990E+08         0.00000E+00
    0.00000E+00         0.00000E+00        -0.65907E+08
 
   -0.59912E+08        -0.37184E+06         0.00000E+00
   -0.37184E+06        -0.59987E+08         0.00000E+00
    0.00000E+00         0.00000E+00        -0.66129E+08
 
   -0.60953E+08        -0.10677E+06         0.00000E+00
   -0.10677E+06        -0.59950E+08         0.00000E+00
    0.00000E+00         0.00000E+00        -0.66336E+08
 
   -0.61971E+08         0.20689E+06         0.00000E+00
    0.20689E+06        -0.59867E+08         0.00000E+00
    0.00000E+00         0.00000E+00        -0.66529E+08
 
   -0.62980E+08         0.57905E+06         0.00000E+00
    0.57905E+06        -0.59728E+08         0.00000E+00
    0.00000E+00         0.00000E+00        -0.66708E+08
 
   -0.63990E+08         0.10271E+07         0.00000E+00
    0.10271E+07        -0.59522E+08         0.00000E+00
    0.00000E+00         0.00000E+00        -0.66872E+08
 
   -0.64997E+08         0.15773E+07         0.00000E+00
    0.15773E+07        -0.59249E+08         0.00000E+00
    0.00000E+00         0.00000E+00        -0.67022E+08
 
   -0.65979E+08         0.22627E+07         0.00000E+00
    0.22627E+07        -0.58919E+08         0.00000E+00
    0.00000E+00         0.00000E+00        -0.67153E+08
 
   -0.66885E+08         0.31142E+07         0.00000E+00
    0.31142E+07        -0.58561E+08         0.00000E+00
    0.00000E+00         0.00000E+00        -0.67263E+08
 
   -0.51405E+08        -0.25049E+06         0.00000E+00
   -0.25049E+06        -0.59989E+08         0.00000E+00
    0.00000E+00         0.00000E+00        -0.63688E+08
 
   -0.52672E+08        -0.61833E+06         0.00000E+00
   -0.61833E+06        -0.59951E+08         0.00000E+00
    0.00000E+00         0.00000E+00        -0.63932E+08
 
   -0.53954E+08        -0.82783E+06         0.00000E+00
   -0.82783E+06        -0.59902E+08         0.00000E+00
    0.00000E+00         0.00000E+00        -0.64176E+08
 
   -0.55208E+08        -0.90544E+06         0.00000E+00
   -0.90544E+06        -0.59859E+08         0.00000E+00
    0.00000E+00         0.00000E+00        -0.64415E+08
 
   -0.56409E+08        -0.87652E+06         0.00000E+00
   -0.87652E+06        -0.59826E+08         0.00000E+00
    0.00000E+00         0.00000E+00        -0.64647E+08
 
   -0.57548E+08        -0.76263E+06         0.00000E+00
   -0.76263E+06        -0.59800E+08         0.00000E+00
    0.00000E+00         0.00000E+00        -0.64868E+08
 
   -0.58627E+08        -0.57943E+06         0.00000E+00
   -0.57943E+06        -0.59772E+08         0.00000E+00
    0.00000E+00         0.00000E+00        -0.65078E+08
 
   -0.59655E+08        -0.33598E+06         0.00000E+00
   -0.33598E+06        -0.59730E+08         0.00000E+00
    0.00000E+00         0.00000E+00        -0.65275E+08
 
   -0.60643E+08        -0.35264E+05         0.00000E+00
   -0.35264E+05        -0.59663E+08         0.00000E+00
    0.00000E+00         0.00000E+00        -0.65460E+08
 
   -0.61604E+08         0.32511E+06         0.00000E+00
    0.32511E+06        -0.59559E+08         0.00000E+00
    0.00000E+00         0.00000E+00        -0.65631E+08
 
   -0.62544E+08         0.75267E+06         0.00000E+00
    0.75267E+06        -0.59409E+08         0.00000E+00
    0.00000E+00         0.00000E+00        -0.65789E+08
 
   -0.63465E+08         0.12602E+07         0.00000E+00
    0.12602E+07        -0.59209E+08         0.00000E+00
    0.00000E+00         0.00000E+00        -0.65933E+08
 
   -0.64359E+08         0.18650E+07         0.00000E+00
    0.18650E+07        -0.58961E+08         0.00000E+00
    0.00000E+00         0.00000E+00        -0.66061E+08
 
   -0.65203E+08         0.25859E+07         0.00000E+00
    0.25859E+07        -0.58677E+08         0.00000E+00
    0.00000E+00         0.00000E+00        -0.66172E+08
 
   -0.65955E+08         0.34371E+07         0.00000E+00
    0.34371E+07        -0.58382E+08         0.00000E+00
    0.00000E+00         0.00000E+00        -0.66263E+08
 
   -0.51839E+08        -0.22385E+06         0.00000E+00
   -0.22385E+06        -0.59988E+08         0.00000E+00
    0.00000E+00         0.00000E+00        -0.63057E+08
 
   -0.52950E+08        -0.56403E+06         0.00000E+00
   -0.56403E+06        -0.59944E+08         0.00000E+00
    0.00000E+00         0.00000E+00        -0.63267E+08
 
   -0.54096E+08        -0.76880E+06         0.00000E+00
   -0.76880E+06        -0.59881E+08         0.00000E+00
    0.00000E+00         0.00000E+00        -0.63479E+08
 
   -0.55234E+08        -0.85285E+06         0.00000E+00
   -0.85285E+06        -0.59816E+08         0.00000E+00
    0.00000E+00         0.00000E+00        -0.63689E+08
 
   -0.56338E+08        -0.83213E+06         0.00000E+00
   -0.83213E+06        -0.59757E+08         0.00000E+00
    0.00000E+00         0.00000E+00        -0.63892E+08
 
   -0.57397E+08        -0.72128E+06         0.00000E+00
   -0.72128E+06        -0.59701E+08         0.00000E+00
    0.00000E+00         0.00000E+00        -0.64087E+08
 
   -0.58407E+08        -0.53178E+06         0.00000E+00
   -0.53178E+06        -0.59644E+08         0.00000E+00
    0.00000E+00         0.00000E+00        -0.64272E+08
 
   -0.59371E+08        -0.27108E+06         0.00000E+00
   -0.27108E+06        -0.59577E+08         0.00000E+00
    0.00000E+00         0.00000E+00        -0.64447E+08
 
   -0.60297E+08         0.57578E+05         0.00000E+00
    0.57578E+05        -0.59491E+08         0.00000E+00
    0.00000E+00         0.00000E+00        -0.64610E+08
 
   -0.61190E+08         0.45495E+06         0.00000E+00
    0.45495E+06        -0.59375E+08         0.00000E+00
    0.00000E+00         0.00000E+00        -0.64761E+08
 
   -0.62055E+08         0.92549E+06         0.00000E+00
    0.92549E+06        -0.59224E+08         0.00000E+00
    0.00000E+00         0.00000E+00        -0.64900E+08
 
   -0.62890E+08         0.14768E+07         0.00000E+00
    0.14768E+07        -0.59036E+08         0.00000E+00
    0.00000E+00         0.00000E+00        -0.65025E+08
 
   -0.63683E+08         0.21183E+07         0.00000E+00
    0.21183E+07        -0.58813E+08         0.00000E+00
    0.00000E+00         0.00000E+00        -0.65136E+08
 
   -0.64414E+08         0.28585E+07         0.00000E+00
    0.28585E+07        -0.58568E+08         0.00000E+00
    0.00000E+00         0.00000E+00        -0.65230E+08
 
   -0.65050E+08         0.37013E+07         0.00000E+00
    0.37013E+07        -0.58321E+08         0.00000E+00
    0.00000E+00         0.00000E+00        -0.65306E+08
 
   -0.52227E+08        -0.19646E+06         0.00000E+00
   -0.19646E+06        -0.59988E+08         0.00000E+00
    0.00000E+00         0.00000E+00        -0.62419E+08
 
   -0.53211E+08        -0.50424E+06         0.00000E+00
   -0.50424E+06        -0.59944E+08         0.00000E+00
    0.00000E+00         0.00000E+00        -0.62603E+08
 
   -0.54236E+08        -0.69813E+06         0.00000E+00
   -0.69813E+06        -0.59877E+08         0.00000E+00
    0.00000E+00         0.00000E+00        -0.62789E+08
 
   -0.55265E+08        -0.78308E+06         0.00000E+00
   -0.78308E+06        -0.59804E+08         0.00000E+00
    0.00000E+00         0.00000E+00        -0.62973E+08
 
   -0.56273E+08        -0.76689E+06         0.00000E+00
   -0.76689E+06        -0.59732E+08         0.00000E+00
    0.00000E+00         0.00000E+00        -0.63152E+08
 
   -0.57245E+08        -0.65797E+06         0.00000E+00
   -0.65797E+06        -0.59663E+08         0.00000E+00
    0.00000E+00         0.00000E+00        -0.63323E+08
 
   -0.58176E+08        -0.46380E+06         0.00000E+00
   -0.46380E+06        -0.59593E+08         0.00000E+00
    0.00000E+00         0.00000E+00        -0.63487E+08
 
   -0.59067E+08        -0.18987E+06         0.00000E+00
   -0.18987E+06        -0.59514E+08         0.00000E+00
    0.00000E+00         0.00000E+00        -0.63640E+08
 
   -0.59921E+08         0.16065E+06         0.00000E+00
    0.16065E+06        -0.59420E+08         0.00000E+00
    0.00000E+00         0.00000E+00        -0.63784E+08
 
   -0.60741E+08         0.58703E+06         0.00000E+00
    0.58703E+06        -0.59303E+08         0.00000E+00
    0.00000E+00         0.00000E+00        -0.63916E+08
 
   -0.61529E+08         0.10906E+07         0.00000E+00
    0.10906E+07        -0.59159E+08         0.00000E+00
    0.00000E+00         0.00000E+00        -0.64037E+08
 
   -0.62280E+08         0.16742E+07         0.00000E+00
    0.16742E+07        -0.58986E+08         0.00000E+00
    0.00000E+00         0.00000E+00        -0.64146E+08
 
   -0.62984E+08         0.23406E+07         0.00000E+00
    0.23406E+07        -0.58788E+08         0.00000E+00
    0.00000E+00         0.00000E+00        -0.64242E+08
 
   -0.63623E+08         0.30912E+07         0.00000E+00
    0.30912E+07        -0.58575E+08         0.00000E+00
    0.00000E+00         0.00000E+00        -0.64323E+08
 
   -0.64169E+08         0.39225E+07         0.00000E+00
    0.39225E+07        -0.58364E+08         0.00000E+00
    0.00000E+00         0.00000E+00        -0.64388E+08
 
   -0.52570E+08        -0.17054E+06         0.00000E+00
   -0.17054E+06        -0.59989E+08         0.00000E+00
    0.00000E+00         0.00000E+00        -0.61775E+08
 
   -0.53450E+08        -0.44589E+06         0.00000E+00
   -0.44589E+06        -0.59948E+08         0.00000E+00
    0.00000E+00         0.00000E+00        -0.61939E+08
 
   -0.54372E+08        -0.62654E+06         0.00000E+00
   -0.62654E+06        -0.59886E+08         0.00000E+00
    0.00000E+00         0.00000E+00        -0.62104E+08
 
   -0.55299E+08        -0.70947E+06         0.00000E+00
   -0.70947E+06        -0.59816E+08         0.00000E+00
    0.00000E+00         0.00000E+00        -0.62267E+08
 
   -0.56210E+08        -0.69550E+06         0.00000E+00
   -0.69550E+06        -0.59745E+08         0.00000E+00
    0.00000E+00         0.00000E+00        -0.62425E+08
 
   -0.57092E+08        -0.58765E+06         0.00000E+00
   -0.58765E+06        -0.59676E+08         0.00000E+00
    0.00000E+00         0.00000E+00        -0.62575E+08
 
   -0.57938E+08        -0.38967E+06         0.00000E+00
   -0.38967E+06        -0.59606E+08         0.00000E+00
    0.00000E+00         0.00000E+00        -0.62719E+08
 
   -0.58748E+08        -0.10517E+06         0.00000E+00
   -0.10517E+06        -0.59529E+08         0.00000E+00
    0.00000E+00         0.00000E+00        -0.62853E+08
 
   -0.59522E+08         0.26293E+06         0.00000E+00
    0.26293E+06        -0.59439E+08         0.00000E+00
    0.00000E+00         0.00000E+00        -0.62978E+08
 
   -0.60264E+08         0.71255E+06         0.00000E+00
    0.71255E+06        -0.59331E+08         0.00000E+00
    0.00000E+00         0.00000E+00        -0.63093E+08
 
   -0.60972E+08         0.12422E+07         0.00000E+00
    0.12422E+07        -0.59199E+08         0.00000E+00
    0.00000E+00         0.00000E+00        -0.63198E+08
 
   -0.61644E+08         0.18506E+07         0.00000E+00
    0.18506E+07        -0.59045E+08         0.00000E+00
    0.00000E+00         0.00000E+00        -0.63293E+08
 
   -0.62269E+08         0.25354E+07         0.00000E+00
    0.25354E+07        -0.58871E+08         0.00000E+00
    0.00000E+00         0.00000E+00        -0.63376E+08
 
   -0.62832E+08         0.32922E+07         0.00000E+00
    0.32922E+07        -0.58686E+08         0.00000E+00
    0.00000E+00         0.00000E+00        -0.63446E+08
 
   -0.63311E+08         0.41126E+07         0.00000E+00
    0.41126E+07        -0.58502E+08         0.00000E+00
    0.00000E+00         0.00000E+00        -0.63503E+08
 
   -0.52869E+08        -0.14784E+06         0.00000E+00
   -0.14784E+06        -0.59991E+08         0.00000E+00
    0.00000E+00         0.00000E+00        -0.61126E+08
 
   -0.53669E+08        -0.39441E+06         0.00000E+00
   -0.39441E+06        -0.59957E+08         0.00000E+00
    0.00000E+00         0.00000E+00        -0.61275E+08
 
   -0.54500E+08        -0.56282E+06         0.00000E+00
   -0.56282E+06        -0.59905E+08         0.00000E+00
    0.00000E+00         0.00000E+00        -0.61423E+08
 
   -0.55333E+08        -0.64330E+06         0.00000E+00
   -0.64330E+06        -0.59847E+08         0.00000E+00
    0.00000E+00         0.00000E+00        -0.61568E+08
 
   -0.56150E+08        -0.63081E+06         0.00000E+00
   -0.63081E+06        -0.59789E+08         0.00000E+00
    0.00000E+00         0.00000E+00        -0.61707E+08
 
   -0.56938E+08        -0.52366E+06         0.00000E+00
   -0.52366E+06        -0.59732E+08         0.00000E+00
    0.00000E+00         0.00000E+00        -0.61840E+08
 
   -0.57694E+08        -0.32239E+06         0.00000E+00
   -0.32239E+06        -0.59674E+08         0.00000E+00
    0.00000E+00         0.00000E+00        -0.61965E+08
 
   -0.58415E+08        -0.28892E+05         0.00000E+00
   -0.28892E+05        -0.59611E+08         0.00000E+00
    0.00000E+00         0.00000E+00        -0.62081E+08
 
   -0.59104E+08         0.35418E+06         0.00000E+00
    0.35418E+06        -0.59536E+08         0.00000E+00
    0.00000E+00         0.00000E+00        -0.62189E+08
 
   -0.59763E+08         0.82358E+06         0.00000E+00
    0.82358E+06        -0.59444E+08         0.00000E+00
    0.00000E+00         0.00000E+00        -0.62289E+08
 
   -0.60392E+08         0.13755E+07         0.00000E+00
    0.13755E+07        -0.59333E+08         0.00000E+00
    0.00000E+00         0.00000E+00        -0.62379E+08
 
   -0.60987E+08         0.20049E+07         0.00000E+00
    0.20049E+07        -0.59200E+08         0.00000E+00
    0.00000E+00         0.00000E+00        -0.62461E+08
 
   -0.61541E+08         0.27055E+07         0.00000E+00
    0.27055E+07        -0.59049E+08         0.00000E+00
    0.00000E+00         0.00000E+00        -0.62533E+08
 
   -0.62042E+08         0.34681E+07         0.00000E+00
    0.34681E+07        -0.58887E+08         0.00000E+00
    0.00000E+00         0.00000E+00        -0.62594E+08
 
   -0.62472E+08         0.42806E+07         0.00000E+00
    0.42806E+07        -0.58724E+08         0.00000E+00
    0.00000E+00         0.00000E+00        -0.62644E+08
 
   -0.53134E+08        -0.12985E+06         0.00000E+00
   -0.12985E+06        -0.59993E+08         0.00000E+00
    0.00000E+00         0.00000E+00        -0.60471E+08
 
   -0.53871E+08        -0.35438E+06         0.00000E+00
   -0.35438E+06        -0.59969E+08         0.00000E+00
    0.00000E+00         0.00000E+00        -0.60610E+08
 
   -0.54623E+08        -0.51434E+06         0.00000E+00
   -0.51434E+06        -0.59933E+08         0.00000E+00
    0.00000E+00         0.00000E+00        -0.60745E+08
 
   -0.55368E+08        -0.59419E+06         0.00000E+00
   -0.59419E+06        -0.59895E+08         0.00000E+00
    0.00000E+00         0.00000E+00        -0.60875E+08
 
   -0.56091E+08        -0.58386E+06         0.00000E+00
   -0.58386E+06        -0.59859E+08         0.00000E+00
    0.00000E+00         0.00000E+00        -0.60998E+08
 
   -0.56784E+08        -0.47772E+06         0.00000E+00
   -0.47772E+06        -0.59825E+08         0.00000E+00
    0.00000E+00         0.00000E+00        -0.61113E+08
 
   -0.57443E+08        -0.27353E+06         0.00000E+00
   -0.27353E+06        -0.59791E+08         0.00000E+00
    0.00000E+00         0.00000E+00        -0.61221E+08
 
   -0.58071E+08         0.28281E+05         0.00000E+00
    0.28281E+05        -0.59751E+08         0.00000E+00
    0.00000E+00         0.00000E+00        -0.61321E+08
 
   -0.58669E+08         0.42525E+06         0.00000E+00
    0.42525E+06        -0.59700E+08         0.00000E+00
    0.00000E+00         0.00000E+00        -0.61413E+08
 
   -0.59242E+08         0.91314E+06         0.00000E+00
    0.91314E+06        -0.59633E+08         0.00000E+00
    0.00000E+00         0.00000E+00        -0.61497E+08
 
   -0.59790E+08         0.14860E+07         0.00000E+00
    0.14860E+07        -0.59546E+08         0.00000E+00
    0.00000E+00         0.00000E+00        -0.61574E+08
 
   -0.60312E+08         0.21359E+07         0.00000E+00
    0.21359E+07        -0.59438E+08         0.00000E+00
    0.00000E+00         0.00000E+00        -0.61644E+08
 
   -0.60802E+08         0.28528E+07         0.00000E+00
    0.28528E+07        -0.59310E+08         0.00000E+00
    0.00000E+00         0.00000E+00        -0.61706E+08
 
   -0.61251E+08         0.36240E+07         0.00000E+00
    0.36240E+07        -0.59167E+08         0.00000E+00
    0.00000E+00         0.00000E+00        -0.61760E+08
 
   -0.61645E+08         0.44338E+07         0.00000E+00
    0.44338E+07        -0.59019E+08         0.00000E+00
    0.00000E+00         0.00000E+00        -0.61805E+08
 
   -0.53373E+08        -0.11791E+06         0.00000E+00
   -0.11791E+06        -0.59996E+08         0.00000E+00
    0.00000E+00         0.00000E+00        -0.59812E+08
 
   -0.54062E+08        -0.32975E+06         0.00000E+00
   -0.32975E+06        -0.59984E+08         0.00000E+00
    0.00000E+00         0.00000E+00        -0.59943E+08
 
   -0.54745E+08        -0.48743E+06         0.00000E+00
   -0.48743E+06        -0.59969E+08         0.00000E+00
    0.00000E+00         0.00000E+00        -0.60067E+08
 
   -0.55406E+08        -0.57034E+06         0.00000E+00
   -0.57034E+06        -0.59957E+08         0.00000E+00
    0.00000E+00         0.00000E+00        -0.60184E+08
 
   -0.56035E+08        -0.56416E+06         0.00000E+00
   -0.56416E+06        -0.59952E+08         0.00000E+00
    0.00000E+00         0.00000E+00        -0.60293E+08
 
   -0.56628E+08        -0.45991E+06         0.00000E+00
   -0.45991E+06        -0.59950E+08         0.00000E+00
    0.00000E+00         0.00000E+00        -0.60392E+08
 
   -0.57187E+08        -0.25309E+06         0.00000E+00
   -0.25309E+06        -0.59949E+08         0.00000E+00
    0.00000E+00         0.00000E+00        -0.60483E+08
 
   -0.57715E+08         0.57076E+05         0.00000E+00
    0.57076E+05        -0.59942E+08         0.00000E+00
    0.00000E+00         0.00000E+00        -0.60567E+08
 
   -0.58218E+08         0.46821E+06         0.00000E+00
    0.46821E+06        -0.59923E+08         0.00000E+00
    0.00000E+00         0.00000E+00        -0.60643E+08
 
   -0.58700E+08         0.97514E+06         0.00000E+00
    0.97514E+06        -0.59887E+08         0.00000E+00
    0.00000E+00         0.00000E+00        -0.60712E+08
 
   -0.59166E+08         0.15701E+07         0.00000E+00
    0.15701E+07        -0.59829E+08         0.00000E+00
    0.00000E+00         0.00000E+00        -0.60776E+08
 
   -0.59616E+08         0.22425E+07         0.00000E+00
    0.22425E+07        -0.59747E+08         0.00000E+00
    0.00000E+00         0.00000E+00        -0.60835E+08
 
   -0.60048E+08         0.29792E+07         0.00000E+00
    0.29792E+07        -0.59642E+08         0.00000E+00
    0.00000E+00         0.00000E+00        -0.60888E+08
 
   -0.60454E+08         0.37641E+07         0.00000E+00
    0.37641E+07        -0.59517E+08         0.00000E+00
    0.00000E+00         0.00000E+00        -0.60936E+08
 
   -0.60824E+08         0.45782E+07         0.00000E+00
    0.45782E+07        -0.59379E+08         0.00000E+00
    0.00000E+00         0.00000E+00        -0.60978E+08
 
   -0.53598E+08        -0.11324E+06         0.00000E+00
   -0.11324E+06        -0.60000E+08         0.00000E+00
    0.00000E+00         0.00000E+00        -0.59147E+08
 
   -0.54251E+08        -0.32400E+06         0.00000E+00
   -0.32400E+06        -0.60002E+08         0.00000E+00
    0.00000E+00         0.00000E+00        -0.59273E+08
 
   -0.54871E+08        -0.48752E+06         0.00000E+00
   -0.48752E+06        -0.60012E+08         0.00000E+00
    0.00000E+00         0.00000E+00        -0.59389E+08
 
   -0.55450E+08        -0.57875E+06         0.00000E+00
   -0.57875E+06        -0.60033E+08         0.00000E+00
    0.00000E+00         0.00000E+00        -0.59494E+08
 
   -0.55983E+08        -0.57975E+06         0.00000E+00
   -0.57975E+06        -0.60064E+08         0.00000E+00
    0.00000E+00         0.00000E+00        -0.59588E+08
 
   -0.56473E+08        -0.47878E+06         0.00000E+00
   -0.47878E+06        -0.60102E+08         0.00000E+00
    0.00000E+00         0.00000E+00        -0.59672E+08
 
   -0.56926E+08        -0.26952E+06         0.00000E+00
   -0.26952E+06        -0.60141E+08         0.00000E+00
    0.00000E+00         0.00000E+00        -0.59747E+08
 
   -0.57348E+08         0.49664E+05         0.00000E+00
    0.49664E+05        -0.60174E+08         0.00000E+00
    0.00000E+00         0.00000E+00        -0.59813E+08
 
   -0.57749E+08         0.47635E+06         0.00000E+00
    0.47635E+06        -0.60194E+08         0.00000E+00
    0.00000E+00         0.00000E+00        -0.59873E+08
 
   -0.58137E+08         0.10045E+07         0.00000E+00
    0.10045E+07        -0.60194E+08         0.00000E+00
    0.00000E+00         0.00000E+00        -0.59927E+08
 
   -0.58518E+08         0.16245E+07         0.00000E+00
    0.16245E+07        -0.60169E+08         0.00000E+00
    0.00000E+00         0.00000E+00        -0.59978E+08
 
   -0.58897E+08         0.23236E+07         0.00000E+00
    0.23236E+07        -0.60116E+08         0.00000E+00
    0.00000E+00         0.00000E+00        -0.60025E+08
 
   -0.59273E+08         0.30858E+07         0.00000E+00
    0.30858E+07        -0.60033E+08         0.00000E+00
    0.00000E+00         0.00000E+00        -0.60070E+08
 
   -0.59644E+08         0.38917E+07         0.00000E+00
    0.38917E+07        -0.59923E+08         0.00000E+00
    0.00000E+00         0.00000E+00        -0.60112E+08
 
   -0.59999E+08         0.47191E+07         0.00000E+00
    0.47191E+07        -0.59791E+08         0.00000E+00
    0.00000E+00         0.00000E+00        -0.60152E+08
 
   -0.53825E+08        -0.11693E+06         0.00000E+00
   -0.11693E+06        -0.60004E+08         0.00000E+00
    0.00000E+00         0.00000E+00        -0.58477E+08
 
   -0.54449E+08        -0.34017E+06         0.00000E+00
   -0.34017E+06        -0.60022E+08         0.00000E+00
    0.00000E+00         0.00000E+00        -0.58599E+08
 
   -0.55009E+08        -0.51926E+06         0.00000E+00
   -0.51926E+06        -0.60060E+08         0.00000E+00
    0.00000E+00         0.00000E+00        -0.58707E+08
 
   -0.55504E+08        -0.62529E+06         0.00000E+00
   -0.62529E+06        -0.60119E+08         0.00000E+00
    0.00000E+00         0.00000E+00        -0.58801E+08
 
   -0.55938E+08        -0.63727E+06         0.00000E+00
   -0.63727E+06        -0.60193E+08         0.00000E+00
    0.00000E+00         0.00000E+00        -0.58880E+08
 
   -0.56320E+08        -0.54128E+06         0.00000E+00
   -0.54128E+06        -0.60277E+08         0.00000E+00
    0.00000E+00         0.00000E+00        -0.58948E+08
 
   -0.56658E+08        -0.32968E+06         0.00000E+00
   -0.32968E+06        -0.60362E+08         0.00000E+00
    0.00000E+00         0.00000E+00        -0.59004E+08
 
   -0.56968E+08        -0.29424E+03         0.00000E+00
   -0.29424E+03        -0.60441E+08         0.00000E+00
    0.00000E+00         0.00000E+00        -0.59053E+08
 
   -0.57260E+08         0.44422E+06         0.00000E+00
    0.44422E+06        -0.60505E+08         0.00000E+00
    0.00000E+00         0.00000E+00        -0.59095E+08
 
   -0.57548E+08         0.99687E+06         0.00000E+00
    0.99687E+06        -0.60546E+08         0.00000E+00
    0.00000E+00         0.00000E+00        -0.59133E+08
 
   -0.57841E+08         0.16466E+07         0.00000E+00
    0.16466E+07        -0.60557E+08         0.00000E+00
    0.00000E+00         0.00000E+00        -0.59170E+08
 
   -0.58147E+08         0.23785E+07         0.00000E+00
    0.23785E+07        -0.60534E+08         0.00000E+00
    0.00000E+00         0.00000E+00        -0.59205E+08
 
   -0.58471E+08         0.31737E+07         0.00000E+00
    0.31737E+07        -0.60473E+08         0.00000E+00
    0.00000E+00         0.00000E+00        -0.59242E+08
 
   -0.58810E+08         0.40099E+07         0.00000E+00
    0.40099E+07        -0.60377E+08         0.00000E+00
    0.00000E+00         0.00000E+00        -0.59279E+08
 
   -0.59160E+08         0.48612E+07         0.00000E+00
    0.48612E+07        -0.60247E+08         0.00000E+00
    0.00000E+00         0.00000E+00        -0.59317E+08
 
   -0.54070E+08        -0.12992E+06         0.00000E+00
   -0.12992E+06        -0.60008E+08         0.00000E+00
    0.00000E+00         0.00000E+00        -0.57800E+08
 
   -0.54668E+08        -0.38084E+06         0.00000E+00
   -0.38084E+06        -0.60044E+08         0.00000E+00
    0.00000E+00         0.00000E+00        -0.57919E+08
 
   -0.55167E+08        -0.58651E+06         0.00000E+00
   -0.58651E+06        -0.60114E+08         0.00000E+00
    0.00000E+00         0.00000E+00        -0.58019E+08
 
   -0.55575E+08        -0.71470E+06         0.00000E+00
   -0.71470E+06        -0.60214E+08         0.00000E+00
    0.00000E+00         0.00000E+00        -0.58100E+08
 
   -0.55903E+08        -0.74197E+06         0.00000E+00
   -0.74197E+06        -0.60335E+08         0.00000E+00
    0.00000E+00         0.00000E+00        -0.58163E+08
 
   -0.56167E+08        -0.65281E+06         0.00000E+00
   -0.65281E+06        -0.60469E+08         0.00000E+00
    0.00000E+00         0.00000E+00        -0.58212E+08
 
   -0.56384E+08        -0.43877E+06         0.00000E+00
   -0.43877E+06        -0.60605E+08         0.00000E+00
    0.00000E+00         0.00000E+00        -0.58249E+08
 
   -0.56572E+08        -0.97540E+05         0.00000E+00
   -0.97540E+05        -0.60734E+08         0.00000E+00
    0.00000E+00         0.00000E+00        -0.58278E+08
 
   -0.56748E+08         0.36778E+06         0.00000E+00
    0.36778E+06        -0.60845E+08         0.00000E+00
    0.00000E+00         0.00000E+00        -0.58301E+08
 
   -0.56929E+08         0.94927E+06         0.00000E+00
    0.94927E+06        -0.60930E+08         0.00000E+00
    0.00000E+00         0.00000E+00        -0.58321E+08
 
   -0.57129E+08         0.16344E+07         0.00000E+00
    0.16344E+07        -0.60979E+08         0.00000E+00
    0.00000E+00         0.00000E+00        -0.58341E+08
 
   -0.57361E+08         0.24064E+07         0.00000E+00
    0.24064E+07        -0.60987E+08         0.00000E+00
    0.00000E+00         0.00000E+00        -0.58364E+08
 
   -0.57631E+08         0.32438E+07         0.00000E+00
    0.32438E+07        -0.60949E+08         0.00000E+00
    0.00000E+00         0.00000E+00        -0.58391E+08
 
   -0.57944E+08         0.41212E+07         0.00000E+00
    0.41212E+07        -0.60864E+08         0.00000E+00
    0.00000E+00         0.00000E+00        -0.58423E+08
 
   -0.58296E+08         0.50090E+07         0.00000E+00
    0.50090E+07        -0.60734E+08         0.00000E+00
    0.00000E+00         0.00000E+00        -0.58461E+08
 
   -0.54350E+08        -0.15301E+06         0.00000E+00
   -0.15301E+06        -0.60013E+08         0.00000E+00
    0.00000E+00         0.00000E+00        -0.57114E+08
 
   -0.54921E+08        -0.44812E+06         0.00000E+00
   -0.44812E+06        -0.60068E+08         0.00000E+00
    0.00000E+00         0.00000E+00        -0.57231E+08
 
   -0.55354E+08        -0.69230E+06         0.00000E+00
   -0.69230E+06        -0.60172E+08         0.00000E+00
    0.00000E+00         0.00000E+00        -0.57321E+08
 
   -0.55668E+08        -0.85055E+06         0.00000E+00
   -0.85055E+06        -0.60315E+08         0.00000E+00
    0.00000E+00         0.00000E+00        -0.57387E+08
 
   -0.55881E+08        -0.89759E+06         0.00000E+00
   -0.89759E+06        -0.60486E+08         0.00000E+00
    0.00000E+00         0.00000E+00        -0.57432E+08
 
   -0.56018E+08        -0.81699E+06         0.00000E+00
   -0.81699E+06        -0.60673E+08         0.00000E+00
    0.00000E+00         0.00000E+00        -0.57459E+08
 
   -0.56102E+08        -0.60012E+06         0.00000E+00
   -0.60012E+06        -0.60863E+08         0.00000E+00
    0.00000E+00         0.00000E+00        -0.57473E+08
 
   -0.56158E+08        -0.24501E+06         0.00000E+00
   -0.24501E+06        -0.61044E+08         0.00000E+00
    0.00000E+00         0.00000E+00        -0.57478E+08
 
   -0.56209E+08         0.24456E+06         0.00000E+00
    0.24456E+06        -0.61205E+08         0.00000E+00
    0.00000E+00         0.00000E+00        -0.57478E+08
 
   -0.56275E+08         0.85968E+06         0.00000E+00
    0.85968E+06        -0.61334E+08         0.00000E+00
    0.00000E+00         0.00000E+00        -0.57478E+08
 
   -0.56376E+08         0.15866E+07         0.00000E+00
    0.15866E+07        -0.61423E+08         0.00000E+00
    0.00000E+00         0.00000E+00        -0.57480E+08
 
   -0.56528E+08         0.24068E+07         0.00000E+00
    0.24068E+07        -0.61462E+08         0.00000E+00
    0.00000E+00         0.00000E+00        -0.57488E+08
 
   -0.56744E+08         0.32968E+07         0.00000E+00
    0.32968E+07        -0.61447E+08         0.00000E+00
    0.00000E+00         0.00000E+00        -0.57505E+08
 
   -0.57031E+08         0.42278E+07         0.00000E+00
    0.42278E+07        -0.61372E+08         0.00000E+00
    0.00000E+00         0.00000E+00        -0.57531E+08
 
   -0.57392E+08         0.51663E+07         0.00000E+00
    0.51663E+07        -0.61238E+08         0.00000E+00
    0.00000E+00         0.00000E+00        -0.57568E+08
 
   -0.54687E+08        -0.18685E+06         0.00000E+00
   -0.18685E+06        -0.60018E+08         0.00000E+00
    0.00000E+00         0.00000E+00        -0.56419E+08
 
   -0.55224E+08        -0.54364E+06         0.00000E+00
   -0.54364E+06        -0.60093E+08         0.00000E+00
    0.00000E+00         0.00000E+00        -0.56530E+08
 
   -0.55582E+08        -0.83881E+06         0.00000E+00
   -0.83881E+06        -0.60232E+08         0.00000E+00
    0.00000E+00         0.00000E+00        -0.56608E+08
 
   -0.55788E+08        -0.10351E+07         0.00000E+00
   -0.10351E+07        -0.60421E+08         0.00000E+00
    0.00000E+00         0.00000E+00        -0.56656E+08
 
   -0.55874E+08        -0.11061E+07         0.00000E+00
   -0.11061E+07        -0.60644E+08         0.00000E+00
    0.00000E+00         0.00000E+00        -0.56678E+08
 
   -0.55871E+08        -0.10354E+07         0.00000E+00
   -0.10354E+07        -0.60884E+08         0.00000E+00
    0.00000E+00         0.00000E+00        -0.56679E+08
 
   -0.55811E+08        -0.81485E+06         0.00000E+00
   -0.81485E+06        -0.61128E+08         0.00000E+00
    0.00000E+00         0.00000E+00        -0.56666E+08
 
   -0.55724E+08        -0.44347E+06         0.00000E+00
   -0.44347E+06        -0.61361E+08         0.00000E+00
    0.00000E+00         0.00000E+00        -0.56643E+08
 
   -0.55638E+08         0.73964E+05         0.00000E+00
    0.73964E+05        -0.61570E+08         0.00000E+00
    0.00000E+00         0.00000E+00        -0.56616E+08
 
   -0.55580E+08         0.72760E+06         0.00000E+00
    0.72760E+06        -0.61743E+08         0.00000E+00
    0.00000E+00         0.00000E+00        -0.56591E+08
 
   -0.55573E+08         0.15028E+07         0.00000E+00
    0.15028E+07        -0.61871E+08         0.00000E+00
    0.00000E+00         0.00000E+00        -0.56572E+08
 
   -0.55640E+08         0.23797E+07         0.00000E+00
    0.23797E+07        -0.61943E+08         0.00000E+00
    0.00000E+00         0.00000E+00        -0.56562E+08
 
   -0.55797E+08         0.33331E+07         0.00000E+00
    0.33331E+07        -0.61949E+08         0.00000E+00
    0.00000E+00         0.00000E+00        -0.56567E+08
 
   -0.56059E+08         0.43314E+07         0.00000E+00
    0.43314E+07        -0.61884E+08         0.00000E+00
    0.00000E+00         0.00000E+00        -0.56586E+08
 
   -0.56431E+08         0.53368E+07         0.00000E+00
    0.53368E+07        -0.61744E+08         0.00000E+00
    0.00000E+00         0.00000E+00        -0.56623E+08
 
   -0.55100E+08        -0.23191E+06         0.00000E+00
   -0.23191E+06        -0.60023E+08         0.00000E+00
    0.00000E+00         0.00000E+00        -0.55710E+08
 
   -0.55591E+08        -0.66850E+06         0.00000E+00
   -0.66850E+06        -0.60119E+08         0.00000E+00
    0.00000E+00         0.00000E+00        -0.55813E+08
 
   -0.55858E+08        -0.10272E+07         0.00000E+00
   -0.10272E+07        -0.60294E+08         0.00000E+00
    0.00000E+00         0.00000E+00        -0.55875E+08
 
   -0.55943E+08        -0.12691E+07         0.00000E+00
   -0.12691E+07        -0.60529E+08         0.00000E+00
    0.00000E+00         0.00000E+00        -0.55899E+08
 
   -0.55885E+08        -0.13675E+07         0.00000E+00
   -0.13675E+07        -0.60802E+08         0.00000E+00
    0.00000E+00         0.00000E+00        -0.55893E+08
 
   -0.55728E+08        -0.13071E+07         0.00000E+00
   -0.13071E+07        -0.61095E+08         0.00000E+00
    0.00000E+00         0.00000E+00        -0.55863E+08
 
   -0.55509E+08        -0.10813E+07         0.00000E+00
   -0.10813E+07        -0.61389E+08         0.00000E+00
    0.00000E+00         0.00000E+00        -0.55816E+08
 
   -0.55266E+08        -0.69099E+06         0.00000E+00
   -0.69099E+06        -0.61670E+08         0.00000E+00
    0.00000E+00         0.00000E+00        -0.55759E+08
 
   -0.55033E+08        -0.14219E+06         0.00000E+00
   -0.14219E+06        -0.61924E+08         0.00000E+00
    0.00000E+00         0.00000E+00        -0.55700E+08
 
   -0.54839E+08         0.55434E+06         0.00000E+00
    0.55434E+06        -0.62140E+08         0.00000E+00
    0.00000E+00         0.00000E+00        -0.55645E+08
 
   -0.54715E+08         0.13835E+07         0.00000E+00
    0.13835E+07        -0.62305E+08         0.00000E+00
    0.00000E+00         0.00000E+00        -0.55600E+08
 
   -0.54686E+08         0.23251E+07         0.00000E+00
    0.23251E+07        -0.62407E+08         0.00000E+00
    0.00000E+00         0.00000E+00        -0.55569E+08
 
   -0.54778E+08         0.33528E+07         0.00000E+00
    0.33528E+07        -0.62436E+08         0.00000E+00
    0.00000E+00         0.00000E+00        -0.55558E+08
 
   -0.55010E+08         0.44329E+07         0.00000E+00
    0.44329E+07        -0.62380E+08         0.00000E+00
    0.00000E+00         0.00000E+00        -0.55570E+08
 
   -0.55397E+08         0.55234E+07         0.00000E+00
    0.55234E+07        -0.62233E+08         0.00000E+00
    0.00000E+00         0.00000E+00        -0.55605E+08
 
   -0.55611E+08        -0.28853E+06         0.00000E+00
   -0.28853E+06        -0.60028E+08         0.00000E+00
    0.00000E+00         0.00000E+00        -0.54984E+08
 
   -0.56037E+08        -0.82334E+06         0.00000E+00
   -0.82334E+06        -0.60145E+08         0.00000E+00
    0.00000E+00         0.00000E+00        -0.55075E+08
 
   -0.56195E+08        -0.12577E+07         0.00000E+00
   -0.12577E+07        -0.60357E+08         0.00000E+00
    0.00000E+00         0.00000E+00        -0.55114E+08
 
   -0.56136E+08        -0.15515E+07         0.00000E+00
   -0.15515E+07        -0.60636E+08         0.00000E+00
    0.00000E+00         0.00000E+00        -0.55108E+08
 
   -0.55915E+08        -0.16792E+07         0.00000E+00
   -0.16792E+07        -0.60957E+08         0.00000E+00
    0.00000E+00         0.00000E+00        -0.55066E+08
 
   -0.55585E+08        -0.16280E+07         0.00000E+00
   -0.16280E+07        -0.61296E+08         0.00000E+00
    0.00000E+00         0.00000E+00        -0.54996E+08
 
   -0.55193E+08        -0.13945E+07         0.00000E+00
   -0.13945E+07        -0.61635E+08         0.00000E+00
    0.00000E+00         0.00000E+00        -0.54908E+08
 
   -0.54782E+08        -0.98215E+06         0.00000E+00
   -0.98215E+06        -0.61957E+08         0.00000E+00
    0.00000E+00         0.00000E+00        -0.54811E+08
 
   -0.54389E+08        -0.39906E+06         0.00000E+00
   -0.39906E+06        -0.62249E+08         0.00000E+00
    0.00000E+00         0.00000E+00        -0.54713E+08
 
   -0.54048E+08         0.34348E+06         0.00000E+00
    0.34348E+06        -0.62500E+08         0.00000E+00
    0.00000E+00         0.00000E+00        -0.54622E+08
 
   -0.53794E+08         0.12308E+07         0.00000E+00
    0.12308E+07        -0.62699E+08         0.00000E+00
    0.00000E+00         0.00000E+00        -0.54545E+08
 
   -0.53659E+08         0.22435E+07         0.00000E+00
    0.22435E+07        -0.62831E+08         0.00000E+00
    0.00000E+00         0.00000E+00        -0.54489E+08
 
   -0.53674E+08         0.33556E+07         0.00000E+00
    0.33556E+07        -0.62882E+08         0.00000E+00
    0.00000E+00         0.00000E+00        -0.54459E+08
 
   -0.53869E+08         0.45322E+07         0.00000E+00
    0.45322E+07        -0.62837E+08         0.00000E+00
    0.00000E+00         0.00000E+00        -0.54459E+08
 
   -0.54266E+08         0.57275E+07         0.00000E+00
    0.57275E+07        -0.62682E+08         0.00000E+00
    0.00000E+00         0.00000E+00        -0.54493E+08
 
   -0.56241E+08        -0.35698E+06         0.00000E+00
   -0.35698E+06        -0.60034E+08         0.00000E+00
    0.00000E+00         0.00000E+00        -0.54236E+08
 
   -0.56579E+08        -0.10083E+07         0.00000E+00
   -0.10083E+07        -0.60172E+08         0.00000E+00
    0.00000E+00         0.00000E+00        -0.54308E+08
 
   -0.56598E+08        -0.15292E+07         0.00000E+00
   -0.15292E+07        -0.60419E+08         0.00000E+00
    0.00000E+00         0.00000E+00        -0.54317E+08
 
   -0.56370E+08        -0.18792E+07         0.00000E+00
   -0.18792E+07        -0.60740E+08         0.00000E+00
    0.00000E+00         0.00000E+00        -0.54272E+08
 
   -0.55963E+08        -0.20355E+07         0.00000E+00
   -0.20355E+07        -0.61102E+08         0.00000E+00
    0.00000E+00         0.00000E+00        -0.54184E+08
 
   -0.55441E+08        -0.19900E+07         0.00000E+00
   -0.19900E+07        -0.61479E+08         0.00000E+00
    0.00000E+00         0.00000E+00        -0.54065E+08
 
   -0.54860E+08        -0.17446E+07         0.00000E+00
   -0.17446E+07        -0.61850E+08         0.00000E+00
    0.00000E+00         0.00000E+00        -0.53927E+08
 
   -0.54267E+08        -0.13071E+07         0.00000E+00
   -0.13071E+07        -0.62201E+08         0.00000E+00
    0.00000E+00         0.00000E+00        -0.53781E+08
 
   -0.53703E+08        -0.68785E+06         0.00000E+00
   -0.68785E+06        -0.62519E+08         0.00000E+00
    0.00000E+00         0.00000E+00        -0.53636E+08
 
   -0.53205E+08         0.10158E+06         0.00000E+00
    0.10158E+06        -0.62796E+08         0.00000E+00
    0.00000E+00         0.00000E+00        -0.53501E+08
 
   -0.52808E+08         0.10482E+07         0.00000E+00
    0.10482E+07        -0.63022E+08         0.00000E+00
    0.00000E+00         0.00000E+00        -0.53386E+08
 
   -0.52551E+08         0.21355E+07         0.00000E+00
    0.21355E+07        -0.63181E+08         0.00000E+00
    0.00000E+00         0.00000E+00        -0.53298E+08
 
   -0.52474E+08         0.33399E+07         0.00000E+00
    0.33399E+07        -0.63255E+08         0.00000E+00
    0.00000E+00         0.00000E+00        -0.53244E+08
 
   -0.52617E+08         0.46272E+07         0.00000E+00
    0.46272E+07        -0.63223E+08         0.00000E+00
    0.00000E+00         0.00000E+00        -0.53230E+08
 
   -0.53017E+08         0.59489E+07         0.00000E+00
    0.59489E+07        -0.63063E+08         0.00000E+00
    0.00000E+00         0.00000E+00        -0.53260E+08
 
   -0.57012E+08        -0.43755E+06         0.00000E+00
   -0.43755E+06        -0.60039E+08         0.00000E+00
    0.00000E+00         0.00000E+00        -0.53459E+08
 
   -0.57228E+08        -0.12234E+07         0.00000E+00
   -0.12234E+07        -0.60199E+08         0.00000E+00
    0.00000E+00         0.00000E+00        -0.53504E+08
 
   -0.57075E+08        -0.18395E+07         0.00000E+00
   -0.18395E+07        -0.60480E+08         0.00000E+00
    0.00000E+00         0.00000E+00        -0.53472E+08
 
   -0.56645E+08        -0.22462E+07         0.00000E+00
   -0.22462E+07        -0.60837E+08         0.00000E+00
    0.00000E+00         0.00000E+00        -0.53376E+08
 
   -0.56024E+08        -0.24262E+07         0.00000E+00
   -0.24262E+07        -0.61231E+08         0.00000E+00
    0.00000E+00         0.00000E+00        -0.53230E+08
 
   -0.55290E+08        -0.23794E+07         0.00000E+00
   -0.23794E+07        -0.61631E+08         0.00000E+00
    0.00000E+00         0.00000E+00        -0.53051E+08
 
   -0.54506E+08        -0.21160E+07         0.00000E+00
   -0.21160E+07        -0.62016E+08         0.00000E+00
    0.00000E+00         0.00000E+00        -0.52852E+08
 
   -0.53721E+08        -0.16500E+07         0.00000E+00
   -0.16500E+07        -0.62376E+08         0.00000E+00
    0.00000E+00         0.00000E+00        -0.52646E+08
 
   -0.52977E+08        -0.99476E+06         0.00000E+00
   -0.99476E+06        -0.62702E+08         0.00000E+00
    0.00000E+00         0.00000E+00        -0.52445E+08
 
   -0.52310E+08        -0.16116E+06         0.00000E+00
   -0.16116E+06        -0.62991E+08         0.00000E+00
    0.00000E+00         0.00000E+00        -0.52259E+08
 
   -0.51757E+08         0.84138E+06         0.00000E+00
    0.84138E+06        -0.63234E+08         0.00000E+00
    0.00000E+00         0.00000E+00        -0.52098E+08
 
   -0.51360E+08         0.20019E+07         0.00000E+00
    0.20019E+07        -0.63416E+08         0.00000E+00
    0.00000E+00         0.00000E+00        -0.51971E+08
 
   -0.51168E+08         0.33026E+07         0.00000E+00
    0.33026E+07        -0.63515E+08         0.00000E+00
    0.00000E+00         0.00000E+00        -0.51886E+08
 
   -0.51237E+08         0.47131E+07         0.00000E+00
    0.47131E+07        -0.63501E+08         0.00000E+00
    0.00000E+00         0.00000E+00        -0.51852E+08
 
   -0.51622E+08         0.61840E+07         0.00000E+00
    0.61840E+07        -0.63344E+08         0.00000E+00
    0.00000E+00         0.00000E+00        -0.51875E+08
 
   -0.57948E+08        -0.53074E+06         0.00000E+00
   -0.53074E+06        -0.60045E+08         0.00000E+00
    0.00000E+00         0.00000E+00        -0.52643E+08
 
   -0.57999E+08        -0.14683E+07         0.00000E+00
   -0.14683E+07        -0.60227E+08         0.00000E+00
    0.00000E+00         0.00000E+00        -0.52650E+08
 
   -0.57628E+08        -0.21849E+07         0.00000E+00
   -0.21849E+07        -0.60539E+08         0.00000E+00
    0.00000E+00         0.00000E+00        -0.52563E+08
 
   -0.56955E+08        -0.26431E+07         0.00000E+00
   -0.26431E+07        -0.60925E+08         0.00000E+00
    0.00000E+00         0.00000E+00        -0.52401E+08
 
   -0.56089E+08        -0.28355E+07         0.00000E+00
   -0.28355E+07        -0.61334E+08         0.00000E+00
    0.00000E+00         0.00000E+00        -0.52184E+08
 
   -0.55123E+08        -0.27755E+07         0.00000E+00
   -0.27755E+07        -0.61735E+08         0.00000E+00
    0.00000E+00         0.00000E+00        -0.51930E+08
 
   -0.54124E+08        -0.24856E+07         0.00000E+00
   -0.24856E+07        -0.62108E+08         0.00000E+00
    0.00000E+00         0.00000E+00        -0.51657E+08
 
   -0.53143E+08        -0.19881E+07         0.00000E+00
   -0.19881E+07        -0.62449E+08         0.00000E+00
    0.00000E+00         0.00000E+00        -0.51381E+08
 
   -0.52214E+08        -0.12998E+07         0.00000E+00
   -0.12998E+07        -0.62758E+08         0.00000E+00
    0.00000E+00         0.00000E+00        -0.51113E+08
 
   -0.51370E+08        -0.42999E+06         0.00000E+00
   -0.42999E+06        -0.63038E+08         0.00000E+00
    0.00000E+00         0.00000E+00        -0.50866E+08
 
   -0.50646E+08         0.61826E+06         0.00000E+00
    0.61826E+06        -0.63285E+08         0.00000E+00
    0.00000E+00         0.00000E+00        -0.50650E+08
 
   -0.50086E+08         0.18434E+07         0.00000E+00
    0.18434E+07        -0.63484E+08         0.00000E+00
    0.00000E+00         0.00000E+00        -0.50475E+08
 
   -0.49751E+08         0.32382E+07         0.00000E+00
    0.32382E+07        -0.63612E+08         0.00000E+00
    0.00000E+00         0.00000E+00        -0.50353E+08
 
   -0.49713E+08         0.47808E+07         0.00000E+00
    0.47808E+07        -0.63627E+08         0.00000E+00
    0.00000E+00         0.00000E+00        -0.50292E+08
 
   -0.50052E+08         0.64244E+07         0.00000E+00
    0.64244E+07        -0.63483E+08         0.00000E+00
    0.00000E+00         0.00000E+00        -0.50302E+08
 
   -0.59071E+08        -0.63760E+06         0.00000E+00
   -0.63760E+06        -0.60052E+08         0.00000E+00
    0.00000E+00         0.00000E+00        -0.51777E+08
 
   -0.58900E+08        -0.17431E+07         0.00000E+00
   -0.17431E+07        -0.60257E+08         0.00000E+00
    0.00000E+00         0.00000E+00        -0.51731E+08
 
   -0.58252E+08        -0.25593E+07         0.00000E+00
   -0.25593E+07        -0.60597E+08         0.00000E+00
    0.00000E+00         0.00000E+00        -0.51571E+08
 
   -0.57286E+08        -0.30547E+07         0.00000E+00
   -0.30547E+07        -0.60998E+08         0.00000E+00
    0.00000E+00         0.00000E+00        -0.51323E+08
 
   -0.56143E+08        -0.32395E+07         0.00000E+00
   -0.32395E+07        -0.61399E+08         0.00000E+00
    0.00000E+00         0.00000E+00        -0.51014E+08
 
   -0.54927E+08        -0.31480E+07         0.00000E+00
   -0.31480E+07        -0.61766E+08         0.00000E+00
    0.00000E+00         0.00000E+00        -0.50670E+08
 
   -0.53710E+08        -0.28204E+07         0.00000E+00
   -0.28204E+07        -0.62090E+08         0.00000E+00
    0.00000E+00         0.00000E+00        -0.50310E+08
 
   -0.52534E+08        -0.22898E+07         0.00000E+00
   -0.22898E+07        -0.62375E+08         0.00000E+00
    0.00000E+00         0.00000E+00        -0.49951E+08
 
   -0.51423E+08        -0.15760E+07         0.00000E+00
   -0.15760E+07        -0.62634E+08         0.00000E+00
    0.00000E+00         0.00000E+00        -0.49607E+08
 
   -0.50399E+08        -0.68497E+06         0.00000E+00
   -0.68497E+06        -0.62878E+08         0.00000E+00
    0.00000E+00         0.00000E+00        -0.49290E+08
 
   -0.49491E+08         0.38962E+06         0.00000E+00
    0.38962E+06        -0.63111E+08         0.00000E+00
    0.00000E+00         0.00000E+00        -0.49010E+08
 
   -0.48743E+08         0.16605E+07         0.00000E+00
    0.16605E+07        -0.63322E+08         0.00000E+00
    0.00000E+00         0.00000E+00        -0.48778E+08
 
   -0.48224E+08         0.31377E+07         0.00000E+00
    0.31377E+07        -0.63483E+08         0.00000E+00
    0.00000E+00         0.00000E+00        -0.48607E+08
 
   -0.48030E+08         0.48150E+07         0.00000E+00
    0.48150E+07        -0.63542E+08         0.00000E+00
    0.00000E+00         0.00000E+00        -0.48510E+08
 
   -0.48273E+08         0.66546E+07         0.00000E+00
    0.66546E+07        -0.63432E+08         0.00000E+00
    0.00000E+00         0.00000E+00        -0.48501E+08
 
   -0.60406E+08        -0.76029E+06         0.00000E+00
   -0.76029E+06        -0.60061E+08         0.00000E+00
    0.00000E+00         0.00000E+00        -0.50841E+08
 
   -0.59936E+08        -0.20484E+07         0.00000E+00
   -0.20484E+07        -0.60290E+08         0.00000E+00
    0.00000E+00         0.00000E+00        -0.50723E+08
 
   -0.58933E+08        -0.29534E+07         0.00000E+00
   -0.29534E+07        -0.60653E+08         0.00000E+00
    0.00000E+00         0.00000E+00        -0.50465E+08
 
   -0.57615E+08        -0.34573E+07         0.00000E+00
   -0.34573E+07        -0.61047E+08         0.00000E+00
    0.00000E+00         0.00000E+00        -0.50105E+08
 
   -0.56159E+08        -0.36019E+07         0.00000E+00
   -0.36019E+07        -0.61402E+08         0.00000E+00
    0.00000E+00         0.00000E+00        -0.49682E+08
 
   -0.54686E+08        -0.34538E+07         0.00000E+00
   -0.34538E+07        -0.61689E+08         0.00000E+00
    0.00000E+00         0.00000E+00        -0.49228E+08
 
   -0.53257E+08        -0.30764E+07         0.00000E+00
   -0.30764E+07        -0.61913E+08         0.00000E+00
    0.00000E+00         0.00000E+00        -0.48766E+08
 
   -0.51899E+08        -0.25142E+07         0.00000E+00
   -0.25142E+07        -0.62094E+08         0.00000E+00
    0.00000E+00         0.00000E+00        -0.48315E+08
 
   -0.50618E+08        -0.17889E+07         0.00000E+00
   -0.17889E+07        -0.62261E+08         0.00000E+00
    0.00000E+00         0.00000E+00        -0.47886E+08
 
   -0.49420E+08        -0.90061E+06         0.00000E+00
   -0.90061E+06        -0.62436E+08         0.00000E+00
    0.00000E+00         0.00000E+00        -0.47490E+08
 
   -0.48318E+08         0.16945E+06         0.00000E+00
    0.16945E+06        -0.62634E+08         0.00000E+00
    0.00000E+00         0.00000E+00        -0.47137E+08
 
   -0.47353E+08         0.14535E+07         0.00000E+00
    0.14535E+07        -0.62849E+08         0.00000E+00
    0.00000E+00         0.00000E+00        -0.46837E+08
 
   -0.46599E+08         0.29873E+07         0.00000E+00
    0.29873E+07        -0.63051E+08         0.00000E+00
    0.00000E+00         0.00000E+00        -0.46606E+08
 
   -0.46178E+08         0.47918E+07         0.00000E+00
    0.47918E+07        -0.63177E+08         0.00000E+00
    0.00000E+00         0.00000E+00        -0.46461E+08
 
   -0.46249E+08         0.68485E+07         0.00000E+00
    0.68485E+07        -0.63132E+08         0.00000E+00
    0.00000E+00         0.00000E+00        -0.46421E+08
 
   -0.61982E+08        -0.90306E+06         0.00000E+00
   -0.90306E+06        -0.60072E+08         0.00000E+00
    0.00000E+00         0.00000E+00        -0.49813E+08
 
   -0.61104E+08        -0.23851E+07         0.00000E+00
   -0.23851E+07        -0.60331E+08         0.00000E+00
    0.00000E+00         0.00000E+00        -0.49592E+08
 
   -0.59639E+08        -0.33497E+07         0.00000E+00
   -0.33497E+07        -0.60705E+08         0.00000E+00
    0.00000E+00         0.00000E+00        -0.49198E+08
 
   -0.57897E+08        -0.38114E+07         0.00000E+00
   -0.38114E+07        -0.61055E+08         0.00000E+00
    0.00000E+00         0.00000E+00        -0.48692E+08
 
   -0.56104E+08        -0.38681E+07         0.00000E+00
   -0.38681E+07        -0.61304E+08         0.00000E+00
    0.00000E+00         0.00000E+00        -0.48127E+08
 
   -0.54379E+08        -0.36340E+07         0.00000E+00
   -0.36340E+07        -0.61443E+08         0.00000E+00
    0.00000E+00         0.00000E+00        -0.47544E+08
 
   -0.52762E+08        -0.31981E+07         0.00000E+00
   -0.31981E+07        -0.61502E+08         0.00000E+00
    0.00000E+00         0.00000E+00        -0.46969E+08
 
   -0.51250E+08        -0.26130E+07         0.00000E+00
   -0.26130E+07        -0.61524E+08         0.00000E+00
    0.00000E+00         0.00000E+00        -0.46417E+08
 
   -0.49824E+08        -0.18985E+07         0.00000E+00
   -0.18985E+07        -0.61553E+08         0.00000E+00
    0.00000E+00         0.00000E+00        -0.45898E+08
 
   -0.48465E+08        -0.10466E+07         0.00000E+00
   -0.10466E+07        -0.61623E+08         0.00000E+00
    0.00000E+00         0.00000E+00        -0.45419E+08
 
   -0.47167E+08        -0.24516E+05         0.00000E+00
   -0.24516E+05        -0.61758E+08         0.00000E+00
    0.00000E+00         0.00000E+00        -0.44985E+08
 
   -0.45955E+08         0.12234E+07         0.00000E+00
    0.12234E+07        -0.61966E+08         0.00000E+00
    0.00000E+00         0.00000E+00        -0.44607E+08
 
   -0.44903E+08         0.27683E+07         0.00000E+00
    0.27683E+07        -0.62219E+08         0.00000E+00
    0.00000E+00         0.00000E+00        -0.44302E+08
 
   -0.44159E+08         0.46752E+07         0.00000E+00
    0.46752E+07        -0.62445E+08         0.00000E+00
    0.00000E+00         0.00000E+00        -0.44092E+08
 
   -0.43942E+08         0.69638E+07         0.00000E+00
    0.69638E+07        -0.62514E+08         0.00000E+00
    0.00000E+00         0.00000E+00        -0.44006E+08
 
   -0.63833E+08        -0.10741E+07         0.00000E+00
   -0.10741E+07        -0.60089E+08         0.00000E+00
    0.00000E+00         0.00000E+00        -0.48651E+08
 
   -0.62381E+08        -0.27530E+07         0.00000E+00
   -0.27530E+07        -0.60383E+08         0.00000E+00
    0.00000E+00         0.00000E+00        -0.48281E+08
 
   -0.60308E+08        -0.37126E+07         0.00000E+00
   -0.37126E+07        -0.60741E+08         0.00000E+00
    0.00000E+00         0.00000E+00        -0.47697E+08
 
   -0.58071E+08        -0.40477E+07         0.00000E+00
   -0.40477E+07        -0.60971E+08         0.00000E+00
    0.00000E+00         0.00000E+00        -0.46997E+08
 
   -0.55936E+08        -0.39564E+07         0.00000E+00
   -0.39564E+07        -0.61017E+08         0.00000E+00
    0.00000E+00         0.00000E+00        -0.46258E+08
 
   -0.53993E+08        -0.36126E+07         0.00000E+00
   -0.36126E+07        -0.60917E+08         0.00000E+00
    0.00000E+00         0.00000E+00        -0.45530E+08
 
   -0.52233E+08        -0.31225E+07         0.00000E+00
   -0.31225E+07        -0.60739E+08         0.00000E+00
    0.00000E+00         0.00000E+00        -0.44834E+08
 
   -0.50610E+08        -0.25358E+07         0.00000E+00
   -0.25358E+07        -0.60548E+08         0.00000E+00
    0.00000E+00         0.00000E+00        -0.44182E+08
 
   -0.49073E+08        -0.18642E+07         0.00000E+00
   -0.18642E+07        -0.60397E+08         0.00000E+00
    0.00000E+00         0.00000E+00        -0.43574E+08
 
   -0.47578E+08        -0.10905E+07         0.00000E+00
   -0.10905E+07        -0.60327E+08         0.00000E+00
    0.00000E+00         0.00000E+00        -0.43011E+08
 
   -0.46091E+08        -0.17030E+06         0.00000E+00
   -0.17030E+06        -0.60373E+08         0.00000E+00
    0.00000E+00         0.00000E+00        -0.42494E+08
 
   -0.44610E+08         0.97436E+06         0.00000E+00
    0.97436E+06        -0.60557E+08         0.00000E+00
    0.00000E+00         0.00000E+00        -0.42031E+08
 
   -0.43189E+08         0.24576E+07         0.00000E+00
    0.24576E+07        -0.60869E+08         0.00000E+00
    0.00000E+00         0.00000E+00        -0.41637E+08
 
   -0.41990E+08         0.44131E+07         0.00000E+00
    0.44131E+07        -0.61237E+08         0.00000E+00
    0.00000E+00         0.00000E+00        -0.41341E+08
 
   -0.41312E+08         0.69346E+07         0.00000E+00
    0.69346E+07        -0.61493E+08         0.00000E+00
    0.00000E+00         0.00000E+00        -0.41186E+08
 
   -0.66006E+08        -0.12899E+07         0.00000E+00
   -0.12899E+07        -0.60119E+08         0.00000E+00
    0.00000E+00         0.00000E+00        -0.47291E+08
 
   -0.63707E+08        -0.31405E+07         0.00000E+00
   -0.31405E+07        -0.60449E+08         0.00000E+00
    0.00000E+00         0.00000E+00        -0.46691E+08
 
   -0.60828E+08        -0.39584E+07         0.00000E+00
   -0.39584E+07        -0.60711E+08         0.00000E+00
    0.00000E+00         0.00000E+00        -0.45828E+08
 
   -0.58050E+08        -0.40412E+07         0.00000E+00
   -0.40412E+07        -0.60672E+08         0.00000E+00
    0.00000E+00         0.00000E+00        -0.44871E+08
 
   -0.55624E+08        -0.37513E+07         0.00000E+00
   -0.37513E+07        -0.60364E+08         0.00000E+00
    0.00000E+00         0.00000E+00        -0.43930E+08
 
   -0.53535E+08        -0.33046E+07         0.00000E+00
   -0.33046E+07        -0.59920E+08         0.00000E+00
    0.00000E+00         0.00000E+00        -0.43050E+08
 
   -0.51694E+08        -0.27920E+07         0.00000E+00
   -0.27920E+07        -0.59442E+08         0.00000E+00
    0.00000E+00         0.00000E+00        -0.42241E+08
 
   -0.50010E+08        -0.22430E+07         0.00000E+00
   -0.22430E+07        -0.59001E+08         0.00000E+00
    0.00000E+00         0.00000E+00        -0.41498E+08
 
   -0.48405E+08        -0.16554E+07         0.00000E+00
   -0.16554E+07        -0.58646E+08         0.00000E+00
    0.00000E+00         0.00000E+00        -0.40814E+08
 
   -0.46808E+08        -0.10049E+07         0.00000E+00
   -0.10049E+07        -0.58416E+08         0.00000E+00
    0.00000E+00         0.00000E+00        -0.40180E+08
 
   -0.45156E+08        -0.24247E+06         0.00000E+00
   -0.24247E+06        -0.58350E+08         0.00000E+00
    0.00000E+00         0.00000E+00        -0.39588E+08
 
   -0.43401E+08         0.71933E+06         0.00000E+00
    0.71933E+06        -0.58486E+08         0.00000E+00
    0.00000E+00         0.00000E+00        -0.39039E+08
 
   -0.41545E+08         0.20344E+07         0.00000E+00
    0.20344E+07        -0.58852E+08         0.00000E+00
    0.00000E+00         0.00000E+00        -0.38543E+08
 
   -0.39725E+08         0.39339E+07         0.00000E+00
    0.39339E+07        -0.59409E+08         0.00000E+00
    0.00000E+00         0.00000E+00        -0.38134E+08
 
   -0.38323E+08         0.66556E+07         0.00000E+00
    0.66556E+07        -0.59962E+08         0.00000E+00
    0.00000E+00         0.00000E+00        -0.37875E+08
 
   -0.68553E+08        -0.15862E+07         0.00000E+00
   -0.15862E+07        -0.60172E+08         0.00000E+00
    0.00000E+00         0.00000E+00        -0.45604E+08
 
   -0.64917E+08        -0.34842E+07         0.00000E+00
   -0.34842E+07        -0.60515E+08         0.00000E+00
    0.00000E+00         0.00000E+00        -0.44612E+08
 
   -0.61012E+08        -0.38716E+07         0.00000E+00
   -0.38716E+07        -0.60430E+08         0.00000E+00
    0.00000E+00         0.00000E+00        -0.43318E+08
 
   -0.57769E+08        -0.35806E+07         0.00000E+00
   -0.35806E+07        -0.59810E+08         0.00000E+00
    0.00000E+00         0.00000E+00        -0.42040E+08
 
   -0.55189E+08        -0.31235E+07         0.00000E+00
   -0.31235E+07        -0.58977E+08         0.00000E+00
    0.00000E+00         0.00000E+00        -0.40898E+08
 
   -0.53052E+08        -0.26450E+07         0.00000E+00
   -0.26450E+07        -0.58118E+08         0.00000E+00
    0.00000E+00         0.00000E+00        -0.39889E+08
 
   -0.51196E+08        -0.21792E+07         0.00000E+00
   -0.21792E+07        -0.57324E+08         0.00000E+00
    0.00000E+00         0.00000E+00        -0.38996E+08
 
   -0.49499E+08        -0.17253E+07         0.00000E+00
   -0.17253E+07        -0.56641E+08         0.00000E+00
    0.00000E+00         0.00000E+00        -0.38196E+08
 
   -0.47863E+08        -0.12678E+07         0.00000E+00
   -0.12678E+07        -0.56098E+08         0.00000E+00
    0.00000E+00         0.00000E+00        -0.37466E+08
 
   -0.46200E+08        -0.78048E+06         0.00000E+00
   -0.78048E+06        -0.55721E+08         0.00000E+00
    0.00000E+00         0.00000E+00        -0.36789E+08
 
   -0.44421E+08        -0.22062E+06         0.00000E+00
   -0.22062E+06        -0.55541E+08         0.00000E+00
    0.00000E+00         0.00000E+00        -0.36148E+08
 
   -0.42428E+08         0.48818E+06         0.00000E+00
    0.48818E+06        -0.55607E+08         0.00000E+00
    0.00000E+00         0.00000E+00        -0.35530E+08
 
   -0.40115E+08         0.14985E+07         0.00000E+00
    0.14985E+07        -0.55990E+08         0.00000E+00
    0.00000E+00         0.00000E+00        -0.34930E+08
 
   -0.37490E+08         0.31491E+07         0.00000E+00
    0.31491E+07        -0.56771E+08         0.00000E+00
    0.00000E+00         0.00000E+00        -0.34381E+08
 
   -0.34961E+08         0.59557E+07         0.00000E+00
    0.59557E+07        -0.57776E+08         0.00000E+00
    0.00000E+00         0.00000E+00        -0.33967E+08
 
   -0.71493E+08        -0.20776E+07         0.00000E+00
   -0.20776E+07        -0.60410E+08         0.00000E+00
    0.00000E+00         0.00000E+00        -0.43268E+08
 
   -0.65562E+08        -0.33681E+07         0.00000E+00
   -0.33681E+07        -0.60315E+08         0.00000E+00
    0.00000E+00         0.00000E+00        -0.41444E+08
 
   -0.60688E+08        -0.29625E+07         0.00000E+00
   -0.29625E+07        -0.59037E+08         0.00000E+00
    0.00000E+00         0.00000E+00        -0.39516E+08
 
   -0.57319E+08        -0.24523E+07         0.00000E+00
   -0.24523E+07        -0.57545E+08         0.00000E+00
    0.00000E+00         0.00000E+00        -0.37970E+08
 
   -0.54743E+08        -0.20163E+07         0.00000E+00
   -0.20163E+07        -0.56155E+08         0.00000E+00
    0.00000E+00         0.00000E+00        -0.36708E+08
 
   -0.52640E+08        -0.16473E+07         0.00000E+00
   -0.16473E+07        -0.54943E+08         0.00000E+00
    0.00000E+00         0.00000E+00        -0.35656E+08
 
   -0.50811E+08        -0.13250E+07         0.00000E+00
   -0.13250E+07        -0.53920E+08         0.00000E+00
    0.00000E+00         0.00000E+00        -0.34756E+08
 
   -0.49127E+08        -0.10301E+07         0.00000E+00
   -0.10301E+07        -0.53085E+08         0.00000E+00
    0.00000E+00         0.00000E+00        -0.33965E+08
 
   -0.47484E+08        -0.74449E+06         0.00000E+00
   -0.74449E+06        -0.52436E+08         0.00000E+00
    0.00000E+00         0.00000E+00        -0.33253E+08
 
   -0.45786E+08        -0.44826E+06         0.00000E+00
   -0.44826E+06        -0.51980E+08         0.00000E+00
    0.00000E+00         0.00000E+00        -0.32592E+08
 
   -0.43925E+08        -0.11360E+06         0.00000E+00
   -0.11360E+06        -0.51736E+08         0.00000E+00
    0.00000E+00         0.00000E+00        -0.31958E+08
 
   -0.41763E+08         0.30780E+06         0.00000E+00
    0.30780E+06        -0.51750E+08         0.00000E+00
    0.00000E+00         0.00000E+00        -0.31326E+08
 
   -0.39094E+08         0.91732E+06         0.00000E+00
    0.91732E+06        -0.52113E+08         0.00000E+00
    0.00000E+00         0.00000E+00        -0.30670E+08
 
   -0.35564E+08         0.19932E+07         0.00000E+00
    0.19932E+07        -0.53013E+08         0.00000E+00
    0.00000E+00         0.00000E+00        -0.29963E+08
 
   -0.31291E+08         0.45222E+07         0.00000E+00
    0.45222E+07        -0.54720E+08         0.00000E+00
    0.00000E+00         0.00000E+00        -0.29324E+08
 
   -0.74221E+08        -0.20469E+07         0.00000E+00
   -0.20469E+07        -0.58753E+08         0.00000E+00
    0.00000E+00         0.00000E+00        -0.37167E+08
 
   -0.65051E+08        -0.14643E+07         0.00000E+00
   -0.14643E+07        -0.56089E+08         0.00000E+00
    0.00000E+00         0.00000E+00        -0.34391E+08
 
   -0.60269E+08        -0.10115E+07         0.00000E+00
   -0.10115E+07        -0.53760E+08         0.00000E+00
    0.00000E+00         0.00000E+00        -0.32566E+08
 
   -0.56979E+08        -0.78418E+06         0.00000E+00
   -0.78418E+06        -0.51919E+08         0.00000E+00
    0.00000E+00         0.00000E+00        -0.31248E+08
 
   -0.54471E+08        -0.62367E+06         0.00000E+00
   -0.62367E+06        -0.50445E+08         0.00000E+00
    0.00000E+00         0.00000E+00        -0.30227E+08
 
   -0.52410E+08        -0.49907E+06         0.00000E+00
   -0.49907E+06        -0.49256E+08         0.00000E+00
    0.00000E+00         0.00000E+00        -0.29398E+08
 
   -0.50608E+08        -0.39390E+06         0.00000E+00
   -0.39390E+06        -0.48301E+08         0.00000E+00
    0.00000E+00         0.00000E+00        -0.28699E+08
 
   -0.48937E+08        -0.29888E+06         0.00000E+00
   -0.29888E+06        -0.47553E+08         0.00000E+00
    0.00000E+00         0.00000E+00        -0.28089E+08
 
   -0.47294E+08        -0.20701E+06         0.00000E+00
   -0.20701E+06        -0.46997E+08         0.00000E+00
    0.00000E+00         0.00000E+00        -0.27539E+08
 
   -0.45580E+08        -0.11139E+06         0.00000E+00
   -0.11139E+06        -0.46632E+08         0.00000E+00
    0.00000E+00         0.00000E+00        -0.27024E+08
 
   -0.43681E+08        -0.28864E+04         0.00000E+00
   -0.28864E+04        -0.46475E+08         0.00000E+00
    0.00000E+00         0.00000E+00        -0.26521E+08
 
   -0.41436E+08         0.13391E+06         0.00000E+00
    0.13391E+06        -0.46565E+08         0.00000E+00
    0.00000E+00         0.00000E+00        -0.26003E+08
 
   -0.38574E+08         0.33392E+06         0.00000E+00
    0.33392E+06        -0.46992E+08         0.00000E+00
    0.00000E+00         0.00000E+00        -0.25431E+08
 
   -0.34560E+08         0.67765E+06         0.00000E+00
    0.67765E+06        -0.47969E+08         0.00000E+00
    0.00000E+00         0.00000E+00        -0.24737E+08
 
   -0.27649E+08         0.17940E+07         0.00000E+00
    0.17940E+07        -0.50203E+08         0.00000E+00
    0.00000E+00         0.00000E+00        -0.23736E+08
 
SCALARS stresss double 
LOOKUP_TABLE default
  -58537818.0514947     
  -59747053.5252221     
  -60799690.9758036     
  -61664153.5476408     
  -62412792.1682474     
  -63078658.9652975     
  -63681241.6633406     
  -64233990.8436569     
  -64747392.1259155     
  -65230706.2169526     
  -65693334.6397056     
  -66146434.8066324     
  -66605972.3420683     
  -67099055.2507702     
  -67708536.1222206     
  -58576780.0784705     
  -59452042.1871505     
  -60358535.8618941     
  -61156454.0726899     
  -61864270.3087109     
  -62500614.4165952     
  -63079675.1675891     
  -63612234.6677820     
  -64107128.1600037     
  -64572255.5917817     
  -65015443.4165802     
  -65445401.0245472     
  -65872491.2705282     
  -66312115.9253400     
  -66742733.3391809     
  -58509076.2456668     
  -59287008.7998755     
  -60034480.0684754     
  -60743068.4074245     
  -61392153.2271862     
  -61986007.4458046     
  -62531545.0125049     
  -63035672.0312110     
  -63504670.5197806     
  -63944320.7897889     
  -64360098.1413340     
  -64757139.7169842     
  -65139895.0116395     
  -65505175.3689465     
  -65841347.0037772     
  -58456115.9801960     
  -59125652.9247943     
  -59776105.0232070     
  -60397274.2266297     
  -60982160.3230934     
  -61526657.7204796     
  -62032304.6337885     
  -62502253.2492879     
  -62940086.4198160     
  -63349275.9442789     
  -63732841.4276838     
  -64092858.8869403     
  -64428829.5383801     
  -64736279.3850245     
  -65004738.1860131     
  -58412146.5709099     
  -58983969.4054432     
  -59549272.8129461     
  -60097066.0313833     
  -60619898.6188660     
  -61113599.4594766     
  -61576567.9281095     
  -62009248.6083776     
  -62412934.9940296     
  -62789069.2441697     
  -63138675.5649519     
  -63461653.3292665     
  -63755986.9334564     
  -64016827.6301126     
  -64236274.7261939     
  -58360525.3619688     
  -58851650.9671934     
  -59344143.2320187     
  -59827376.1384609     
  -60293838.9422412     
  -60738611.2751603     
  -61158923.9698243     
  -61553536.2773113     
  -61922123.7174686     
  -62264629.9613698     
  -62580695.0743943     
  -62869107.1616964     
  -63127261.0797485     
  -63350793.0533290     
  -63533512.6617526     
  -58294414.0457822     
  -58720535.4107729     
  -59152130.3869948     
  -59579545.9591860     
  -59995523.6431238     
  -60394936.9529822     
  -60774395.3253828     
  -61131801.8635327     
  -61465859.2392326     
  -61775580.4724750     
  -62059817.6817551     
  -62316835.9411945     
  -62543969.9544049     
  -62737420.2797133     
  -62892275.4346096     
  -58211367.9758341     
  -58586024.6161701     
  -58967605.0588294     
  -59347503.0919408     
  -59719028.8874847     
  -60077222.9556195     
  -60418566.3382124     
  -60740625.0575153     
  -61041666.1465984     
  -61320266.9456106     
  -61574945.8004733     
  -61803839.6450945     
  -62004460.4504362     
  -62173569.1488780     
  -62307197.1943815     
  -58111239.2718990     
  -58446078.6315257     
  -58787252.2124612     
  -59127215.0639382     
  -59460032.3672832     
  -59781215.8909937     
  -60087484.7222798     
  -60376477.2424519     
  -60646437.9226084     
  -60895902.2659491     
  -61123401.2774521     
  -61327208.5166018     
  -61505153.5624542     
  -61654524.3521038     
  -61772074.7657684     
  -57995353.0894842     
  -58300374.4959970     
  -58609441.7207172     
  -58916110.8595262     
  -59215355.5636893     
  -59503396.9663039     
  -59777487.5777292     
  -60035662.1912995     
  -60276472.5150994     
  -60498722.6527866     
  -60701222.9805387     
  -60882579.8972447     
  -61041038.4577052     
  -61174392.6665798     
  -61279973.2469210     
  -57866129.8097128     
  -58149801.6576894     
  -58433723.9578720     
  -58712641.0522633     
  -58982586.5555871     
  -59240699.1488116     
  -59485012.7601463     
  -59714227.8267962     
  -59927474.1845865     
  -60124077.8844987     
  -60303344.7278777     
  -60464373.2693673     
  -60605909.3043307     
  -60726252.1723577     
  -60823220.3465985     
  -57726877.6508898     
  -57996142.8758944     
  -58260475.8475613     
  -58515936.7424052     
  -58759782.1699851     
  -58990265.5253816     
  -59206424.6373473     
  -59407860.6547599     
  -59594515.1299097     
  -59766453.6046321     
  -59923664.3985581     
  -60065881.1998018     
  -60192437.6922502     
  -60302161.7884740     
  -60393316.0070001     
  -57581648.8144954     
  -57841855.8711576     
  -58090644.4738128     
  -58325548.6090350     
  -58545225.7129145     
  -58749241.3996790     
  -58937848.8862787     
  -59111766.8530952     
  -59271960.8661661     
  -59419433.7029378     
  -59555029.6207954     
  -59679257.3532418     
  -59792136.7192143     
  -59893074.2353584     
  -59980773.8836663     
  -57435117.9318518     
  -57689905.3463870     
  -57925548.8198126     
  -58141236.9000337     
  -58337221.8339190     
  -58514586.4499197     
  -58675009.9939006     
  -58820538.3533983     
  -58953363.2719929     
  -59075613.4594609     
  -59189158.9146638     
  -59295429.0696194     
  -59395245.9388390     
  -59488675.3103217     
  -59574901.7903685     
  -57292463.4769379     
  -57543616.9221705     
  -57766710.1460264     
  -57962787.1463683     
  -58133908.1660539     
  -58282892.1557652     
  -58413061.7641406     
  -58527999.9317202     
  -58631323.0927989     
  -58726471.3002858     
  -58816511.8907766     
  -58903951.7555347     
  -58990554.3819334     
  -59077161.4218610     
  -59163523.9281109     
  -57159242.0299521     
  -57406534.6992151     
  -57615688.7235423     
  -57789828.7041731     
  -57933062.8125789     
  -58050187.0862884     
  -58146398.2617679     
  -58227030.3553156     
  -58297320.9871511     
  -58362203.9987125     
  -58426117.9040365     
  -58492816.8491165     
  -58565172.5996550     
  -58644962.1784129     
  -58732644.8761317     
  -57041249.5842235     
  -57282269.0831998     
  -57473907.4262910     
  -57621633.0612809     
  -57731883.9835842     
  -57811708.5964207     
  -57868428.3419904     
  -57909346.9468074     
  -57941513.2887816     
  -57971527.8135377     
  -58005370.3849806     
  -58048222.7948254     
  -58104262.3313884     
  -58176412.7793503     
  -58266053.8950358     
  -56944367.1937857     
  -57174323.2810120     
  -57342441.4711509     
  -57456864.3679878     
  -57526711.3279022     
  -57561611.9416405     
  -57571290.0649102     
  -57565237.7037625     
  -57552485.4082187     
  -57541446.5900324     
  -57539793.8734490     
  -57554318.9324805     
  -57590733.0067115     
  -57653381.3564672     
  -57744868.0608409     
  -56874391.5693522     
  -57085885.9262919     
  -57221747.1143065     
  -57293243.4431884     
  -57312644.7718832     
  -57292574.1691830     
  -57245469.8592539     
  -57183217.1367213     
  -57116951.6078786     
  -57056987.0555690     
  -57012792.5148562     
  -56992935.3330842     
  -57004917.6355940     
  -57054859.0046400     
  -57147014.0611229     
  -56836855.1692541     
  -57019572.1148769     
  -57111286.7819032     
  -57127063.6582634     
  -57082990.9454890     
  -56995226.1588418     
  -56879272.2608015     
  -56749569.3243784     
  -56619383.6264544     
  -56500900.8617490     
  -56405392.2801394     
  -56343317.4663958     
  -56324246.7688918     
  -56356524.8389307     
  -56446650.6434793     
  -56836844.4041401     
  -56977081.3612278     
  -57008975.9238049     
  -56952452.8609565     
  -56828420.5225325     
  -56657305.0080801     
  -56458054.8414731     
  -56247721.3515185     
  -56041540.2236215     
  -55853330.9148464     
  -55695993.7377516     
  -55581893.1140523     
  -55522948.3245961     
  -55530304.6826240     
  -55613535.3681580     
  -56878826.5801885     
  -56958708.6169928     
  -56910310.2033336     
  -56760190.2388158     
  -56535635.4323956     
  -56262349.5017671     
  -55963092.8886740     
  -55657357.5828492     
  -55361850.7721482     
  -55091432.2556671     
  -54860155.1329195     
  -54682109.4890132     
  -54571813.4523791     
  -54543949.5915586     
  -54612337.6429228     
  -56966492.0476890     
  -56962568.4465345     
  -56806891.3317237     
  -56535718.7515960     
  -56185192.0858904     
  -55787646.3413692     
  -55369860.1708321     
  -54953131.9967286     
  -54554568.2093248     
  -54188913.6328859     
  -53870418.7931355     
  -53614387.4833227     
  -53438085.6209037     
  -53360669.2733828     
  -53401890.3602355     
  -57102588.6773078     
  -56983216.7152128     
  -56683754.8995035     
  -56255651.6160856     
  -55747846.8103393     
  -55200947.9742615     
  -54645394.5177881     
  -54102744.7134212     
  -53588522.2026556     
  -53115395.1028231     
  -52696150.5003374     
  -52346239.7504162     
  -52085551.2808758     
  -51938871.9207140     
  -51934346.1235355     
  -57288675.1965064     
  -57008872.9687902     
  -56514174.5874906     
  -55881330.8347524     
  -55178270.1582387     
  -54455200.0640384     
  -53744233.4845324     
  -53063976.6491062     
  -52425101.3433250     
  -51835267.2544197     
  -51303224.9255937     
  -50842540.6371181     
  -50474957.3098507     
  -50232088.5056281     
  -50154162.1821775     
  -57524298.8646799     
  -57015291.7529872     
  -56248604.6267445     
  -55346335.6731861     
  -54404076.7519848     
  -53480046.6285365     
  -52602124.3755255     
  -51779853.7053450     
  -51014560.0747448     
  -50305217.6122240     
  -49652893.0400481     
  -49065797.5104928     
  -48564855.4647194     
  -48189340.4929547     
  -47996728.6511662     
  -57805471.1594960     
  -56949175.8137323     
  -55789026.3048844     
  -54531078.9427530     
  -53306229.0776018     
  -52168501.4022205     
  -51125637.0646736     
  -50169927.2883647     
  -49288462.8149372     
  -48468003.5550462     
  -47698088.4077051     
  -46975111.5429274     
  -46313427.0794320     
  -45756180.2710399     
  -45386677.3900615     
  -58109727.6197412     
  -56681330.5558804     
  -54919950.3718649     
  -53206510.5762212     
  -51687752.5378130     
  -50352954.9637711     
  -49171932.9456021     
  -48111798.3490077     
  -47142435.2022694     
  -46236716.1959656     
  -45370068.8632145     
  -44521608.0032588     
  -43678510.4052141     
  -42880559.3695763     
  -42234558.2543989     
  -58390283.9576899     
  -55773782.1494091     
  -53080543.2501819     
  -50944604.1360888     
  -49202359.5175971     
  -47746097.3313346     
  -46495544.7450820     
  -45392352.0223677     
  -44390942.4753985     
  -43452445.6879165     
  -42539835.7238322     
  -41613057.7999802     
  -40625950.9074328     
  -39513280.8943296     
  -38445005.6628626     
  -56713635.8745416     
  -51843972.3800972     
  -48865386.4986922     
  -46715657.3296105     
  -45047761.3361550     
  -43687941.8003406     
  -42536049.9640786     
  -41526232.0561135     
  -40609783.6583721     
  -39745485.0959839     
  -38892305.0298829     
  -38001045.4697038     
  -36998888.5581851     
  -35755020.0949251     
  -33862676.0928432     
SCALARS 2waySource double 
LOOKUP_TABLE default
  0.000000000000000E+000
  0.000000000000000E+000
  0.000000000000000E+000
  0.000000000000000E+000
  0.000000000000000E+000
  0.000000000000000E+000
  0.000000000000000E+000
  0.000000000000000E+000
  0.000000000000000E+000
  0.000000000000000E+000
  0.000000000000000E+000
  0.000000000000000E+000
  0.000000000000000E+000
  0.000000000000000E+000
  0.000000000000000E+000
  0.000000000000000E+000
  0.000000000000000E+000
  0.000000000000000E+000
  0.000000000000000E+000
  0.000000000000000E+000
  0.000000000000000E+000
  0.000000000000000E+000
  0.000000000000000E+000
  0.000000000000000E+000
  0.000000000000000E+000
  0.000000000000000E+000
  0.000000000000000E+000
  0.000000000000000E+000
  0.000000000000000E+000
  0.000000000000000E+000
  0.000000000000000E+000
  0.000000000000000E+000
  0.000000000000000E+000
  0.000000000000000E+000
  0.000000000000000E+000
  0.000000000000000E+000
  0.000000000000000E+000
  0.000000000000000E+000
  0.000000000000000E+000
  0.000000000000000E+000
  0.000000000000000E+000
  0.000000000000000E+000
  0.000000000000000E+000
  0.000000000000000E+000
  0.000000000000000E+000
  0.000000000000000E+000
  0.000000000000000E+000
  0.000000000000000E+000
  0.000000000000000E+000
  0.000000000000000E+000
  0.000000000000000E+000
  0.000000000000000E+000
  0.000000000000000E+000
  0.000000000000000E+000
  0.000000000000000E+000
  0.000000000000000E+000
  0.000000000000000E+000
  0.000000000000000E+000
  0.000000000000000E+000
  0.000000000000000E+000
  0.000000000000000E+000
  0.000000000000000E+000
  0.000000000000000E+000
  0.000000000000000E+000
  0.000000000000000E+000
  0.000000000000000E+000
  0.000000000000000E+000
  0.000000000000000E+000
  0.000000000000000E+000
  0.000000000000000E+000
  0.000000000000000E+000
  0.000000000000000E+000
  0.000000000000000E+000
  0.000000000000000E+000
  0.000000000000000E+000
  0.000000000000000E+000
  0.000000000000000E+000
  0.000000000000000E+000
  0.000000000000000E+000
  0.000000000000000E+000
  0.000000000000000E+000
  0.000000000000000E+000
  0.000000000000000E+000
  0.000000000000000E+000
  0.000000000000000E+000
  0.000000000000000E+000
  0.000000000000000E+000
  0.000000000000000E+000
  0.000000000000000E+000
  0.000000000000000E+000
  0.000000000000000E+000
  0.000000000000000E+000
  0.000000000000000E+000
  0.000000000000000E+000
  0.000000000000000E+000
  0.000000000000000E+000
  0.000000000000000E+000
  0.000000000000000E+000
  0.000000000000000E+000
  0.000000000000000E+000
  0.000000000000000E+000
  0.000000000000000E+000
  0.000000000000000E+000
  0.000000000000000E+000
  0.000000000000000E+000
  0.000000000000000E+000
  0.000000000000000E+000
  0.000000000000000E+000
  0.000000000000000E+000
  0.000000000000000E+000
  0.000000000000000E+000
  0.000000000000000E+000
  0.000000000000000E+000
  0.000000000000000E+000
  0.000000000000000E+000
  0.000000000000000E+000
  0.000000000000000E+000
  0.000000000000000E+000
  0.000000000000000E+000
  0.000000000000000E+000
  0.000000000000000E+000
  0.000000000000000E+000
  0.000000000000000E+000
  0.000000000000000E+000
  0.000000000000000E+000
  0.000000000000000E+000
  0.000000000000000E+000
  0.000000000000000E+000
  0.000000000000000E+000
  0.000000000000000E+000
  0.000000000000000E+000
  0.000000000000000E+000
  0.000000000000000E+000
  0.000000000000000E+000
  0.000000000000000E+000
  0.000000000000000E+000
  0.000000000000000E+000
  0.000000000000000E+000
  0.000000000000000E+000
  0.000000000000000E+000
  0.000000000000000E+000
  0.000000000000000E+000
  0.000000000000000E+000
  0.000000000000000E+000
  0.000000000000000E+000
  0.000000000000000E+000
  0.000000000000000E+000
  0.000000000000000E+000
  0.000000000000000E+000
  0.000000000000000E+000
  0.000000000000000E+000
  0.000000000000000E+000
  0.000000000000000E+000
  0.000000000000000E+000
  0.000000000000000E+000
  0.000000000000000E+000
  0.000000000000000E+000
  0.000000000000000E+000
  0.000000000000000E+000
  0.000000000000000E+000
  0.000000000000000E+000
  0.000000000000000E+000
  0.000000000000000E+000
  0.000000000000000E+000
  0.000000000000000E+000
  0.000000000000000E+000
  0.000000000000000E+000
  0.000000000000000E+000
  0.000000000000000E+000
  0.000000000000000E+000
  0.000000000000000E+000
  0.000000000000000E+000
  0.000000000000000E+000
  0.000000000000000E+000
  0.000000000000000E+000
  0.000000000000000E+000
  0.000000000000000E+000
  0.000000000000000E+000
  0.000000000000000E+000
  0.000000000000000E+000
  0.000000000000000E+000
  0.000000000000000E+000
  0.000000000000000E+000
  0.000000000000000E+000
  0.000000000000000E+000
  0.000000000000000E+000
  0.000000000000000E+000
  0.000000000000000E+000
  0.000000000000000E+000
  0.000000000000000E+000
  0.000000000000000E+000
  0.000000000000000E+000
  0.000000000000000E+000
  0.000000000000000E+000
  0.000000000000000E+000
  0.000000000000000E+000
  0.000000000000000E+000
  0.000000000000000E+000
  0.000000000000000E+000
  0.000000000000000E+000
  0.000000000000000E+000
  0.000000000000000E+000
  0.000000000000000E+000
  0.000000000000000E+000
  0.000000000000000E+000
  0.000000000000000E+000
  0.000000000000000E+000
  0.000000000000000E+000
  0.000000000000000E+000
  0.000000000000000E+000
  0.000000000000000E+000
  0.000000000000000E+000
  0.000000000000000E+000
  0.000000000000000E+000
  0.000000000000000E+000
  0.000000000000000E+000
  0.000000000000000E+000
  0.000000000000000E+000
  0.000000000000000E+000
  0.000000000000000E+000
  0.000000000000000E+000
  0.000000000000000E+000
  0.000000000000000E+000
  0.000000000000000E+000
  0.000000000000000E+000
  0.000000000000000E+000
  0.000000000000000E+000
  0.000000000000000E+000
  0.000000000000000E+000
  0.000000000000000E+000
  0.000000000000000E+000
  0.000000000000000E+000
  0.000000000000000E+000
  0.000000000000000E+000
  0.000000000000000E+000
  0.000000000000000E+000
  0.000000000000000E+000
  0.000000000000000E+000
  0.000000000000000E+000
  0.000000000000000E+000
  0.000000000000000E+000
  0.000000000000000E+000
  0.000000000000000E+000
  0.000000000000000E+000
  0.000000000000000E+000
  0.000000000000000E+000
  0.000000000000000E+000
  0.000000000000000E+000
  0.000000000000000E+000
  0.000000000000000E+000
  0.000000000000000E+000
  0.000000000000000E+000
  0.000000000000000E+000
  0.000000000000000E+000
  0.000000000000000E+000
  0.000000000000000E+000
  0.000000000000000E+000
  0.000000000000000E+000
  0.000000000000000E+000
  0.000000000000000E+000
  0.000000000000000E+000
  0.000000000000000E+000
  0.000000000000000E+000
  0.000000000000000E+000
  0.000000000000000E+000
  0.000000000000000E+000
  0.000000000000000E+000
  0.000000000000000E+000
  0.000000000000000E+000
  0.000000000000000E+000
  0.000000000000000E+000
  0.000000000000000E+000
  0.000000000000000E+000
  0.000000000000000E+000
  0.000000000000000E+000
  0.000000000000000E+000
  0.000000000000000E+000
  0.000000000000000E+000
  0.000000000000000E+000
  0.000000000000000E+000
  0.000000000000000E+000
  0.000000000000000E+000
  0.000000000000000E+000
  0.000000000000000E+000
  0.000000000000000E+000
  0.000000000000000E+000
  0.000000000000000E+000
  0.000000000000000E+000
  0.000000000000000E+000
  0.000000000000000E+000
  0.000000000000000E+000
  0.000000000000000E+000
  0.000000000000000E+000
  0.000000000000000E+000
  0.000000000000000E+000
  0.000000000000000E+000
  0.000000000000000E+000
  0.000000000000000E+000
  0.000000000000000E+000
  0.000000000000000E+000
  0.000000000000000E+000
  0.000000000000000E+000
  0.000000000000000E+000
  0.000000000000000E+000
  0.000000000000000E+000
  0.000000000000000E+000
  0.000000000000000E+000
  0.000000000000000E+000
  0.000000000000000E+000
  0.000000000000000E+000
  0.000000000000000E+000
  0.000000000000000E+000
  0.000000000000000E+000
  0.000000000000000E+000
  0.000000000000000E+000
  0.000000000000000E+000
  0.000000000000000E+000
  0.000000000000000E+000
  0.000000000000000E+000
  0.000000000000000E+000
  0.000000000000000E+000
  0.000000000000000E+000
  0.000000000000000E+000
  0.000000000000000E+000
  0.000000000000000E+000
  0.000000000000000E+000
  0.000000000000000E+000
  0.000000000000000E+000
  0.000000000000000E+000
  0.000000000000000E+000
  0.000000000000000E+000
  0.000000000000000E+000
  0.000000000000000E+000
  0.000000000000000E+000
  0.000000000000000E+000
  0.000000000000000E+000
  0.000000000000000E+000
  0.000000000000000E+000
  0.000000000000000E+000
  0.000000000000000E+000
  0.000000000000000E+000
  0.000000000000000E+000
  0.000000000000000E+000
  0.000000000000000E+000
  0.000000000000000E+000
  0.000000000000000E+000
  0.000000000000000E+000
  0.000000000000000E+000
  0.000000000000000E+000
  0.000000000000000E+000
  0.000000000000000E+000
  0.000000000000000E+000
  0.000000000000000E+000
  0.000000000000000E+000
  0.000000000000000E+000
  0.000000000000000E+000
  0.000000000000000E+000
  0.000000000000000E+000
  0.000000000000000E+000
  0.000000000000000E+000
  0.000000000000000E+000
  0.000000000000000E+000
  0.000000000000000E+000
  0.000000000000000E+000
  0.000000000000000E+000
  0.000000000000000E+000
  0.000000000000000E+000
  0.000000000000000E+000
  0.000000000000000E+000
  0.000000000000000E+000
  0.000000000000000E+000
  0.000000000000000E+000
  0.000000000000000E+000
  0.000000000000000E+000
  0.000000000000000E+000
  0.000000000000000E+000
  0.000000000000000E+000
  0.000000000000000E+000
  0.000000000000000E+000
  0.000000000000000E+000
  0.000000000000000E+000
  0.000000000000000E+000
  0.000000000000000E+000
  0.000000000000000E+000
  0.000000000000000E+000
  0.000000000000000E+000
  0.000000000000000E+000
  0.000000000000000E+000
  0.000000000000000E+000
  0.000000000000000E+000
  0.000000000000000E+000
  0.000000000000000E+000
  0.000000000000000E+000
  0.000000000000000E+000
  0.000000000000000E+000
  0.000000000000000E+000
  0.000000000000000E+000
  0.000000000000000E+000
  0.000000000000000E+000
  0.000000000000000E+000
  0.000000000000000E+000
  0.000000000000000E+000
  0.000000000000000E+000
  0.000000000000000E+000
  0.000000000000000E+000
  0.000000000000000E+000
  0.000000000000000E+000
  0.000000000000000E+000
  0.000000000000000E+000
  0.000000000000000E+000
  0.000000000000000E+000
  0.000000000000000E+000
  0.000000000000000E+000
  0.000000000000000E+000
  0.000000000000000E+000
  0.000000000000000E+000
  0.000000000000000E+000
  0.000000000000000E+000
  0.000000000000000E+000
  0.000000000000000E+000
  0.000000000000000E+000
  0.000000000000000E+000
  0.000000000000000E+000
  0.000000000000000E+000
  0.000000000000000E+000
  0.000000000000000E+000
  0.000000000000000E+000
  0.000000000000000E+000
  0.000000000000000E+000
  0.000000000000000E+000
  0.000000000000000E+000
  0.000000000000000E+000
  0.000000000000000E+000
  0.000000000000000E+000
  0.000000000000000E+000
  0.000000000000000E+000
  0.000000000000000E+000
  0.000000000000000E+000
  0.000000000000000E+000
  0.000000000000000E+000
  0.000000000000000E+000
  0.000000000000000E+000
  0.000000000000000E+000
  0.000000000000000E+000
  0.000000000000000E+000
  0.000000000000000E+000
  0.000000000000000E+000
  0.000000000000000E+000
  0.000000000000000E+000
  0.000000000000000E+000
SCALARS elementIsPlast double 
LOOKUP_TABLE default
   1.00000000000000     
  0.000000000000000E+000
  0.000000000000000E+000
  0.000000000000000E+000
  0.000000000000000E+000
  0.000000000000000E+000
  0.000000000000000E+000
  0.000000000000000E+000
  0.000000000000000E+000
  0.000000000000000E+000
  0.000000000000000E+000
  0.000000000000000E+000
  0.000000000000000E+000
  0.000000000000000E+000
  0.000000000000000E+000
  0.000000000000000E+000
  0.000000000000000E+000
  0.000000000000000E+000
  0.000000000000000E+000
  0.000000000000000E+000
  0.000000000000000E+000
  0.000000000000000E+000
  0.000000000000000E+000
  0.000000000000000E+000
  0.000000000000000E+000
  0.000000000000000E+000
  0.000000000000000E+000
  0.000000000000000E+000
  0.000000000000000E+000
  0.000000000000000E+000
  0.000000000000000E+000
  0.000000000000000E+000
  0.000000000000000E+000
  0.000000000000000E+000
  0.000000000000000E+000
  0.000000000000000E+000
  0.000000000000000E+000
  0.000000000000000E+000
  0.000000000000000E+000
  0.000000000000000E+000
  0.000000000000000E+000
  0.000000000000000E+000
  0.000000000000000E+000
  0.000000000000000E+000
  0.000000000000000E+000
  0.000000000000000E+000
  0.000000000000000E+000
  0.000000000000000E+000
  0.000000000000000E+000
  0.000000000000000E+000
  0.000000000000000E+000
  0.000000000000000E+000
  0.000000000000000E+000
  0.000000000000000E+000
  0.000000000000000E+000
  0.000000000000000E+000
  0.000000000000000E+000
  0.000000000000000E+000
  0.000000000000000E+000
  0.000000000000000E+000
  0.000000000000000E+000
  0.000000000000000E+000
  0.000000000000000E+000
  0.000000000000000E+000
  0.000000000000000E+000
  0.000000000000000E+000
  0.000000000000000E+000
  0.000000000000000E+000
  0.000000000000000E+000
  0.000000000000000E+000
  0.000000000000000E+000
  0.000000000000000E+000
  0.000000000000000E+000
  0.000000000000000E+000
  0.000000000000000E+000
  0.000000000000000E+000
  0.000000000000000E+000
  0.000000000000000E+000
  0.000000000000000E+000
  0.000000000000000E+000
  0.000000000000000E+000
  0.000000000000000E+000
  0.000000000000000E+000
  0.000000000000000E+000
  0.000000000000000E+000
  0.000000000000000E+000
  0.000000000000000E+000
  0.000000000000000E+000
  0.000000000000000E+000
  0.000000000000000E+000
  0.000000000000000E+000
  0.000000000000000E+000
  0.000000000000000E+000
  0.000000000000000E+000
  0.000000000000000E+000
  0.000000000000000E+000
  0.000000000000000E+000
  0.000000000000000E+000
  0.000000000000000E+000
  0.000000000000000E+000
  0.000000000000000E+000
  0.000000000000000E+000
  0.000000000000000E+000
  0.000000000000000E+000
  0.000000000000000E+000
  0.000000000000000E+000
  0.000000000000000E+000
  0.000000000000000E+000
  0.000000000000000E+000
  0.000000000000000E+000
  0.000000000000000E+000
  0.000000000000000E+000
  0.000000000000000E+000
  0.000000000000000E+000
  0.000000000000000E+000
  0.000000000000000E+000
  0.000000000000000E+000
  0.000000000000000E+000
  0.000000000000000E+000
  0.000000000000000E+000
  0.000000000000000E+000
  0.000000000000000E+000
  0.000000000000000E+000
  0.000000000000000E+000
  0.000000000000000E+000
  0.000000000000000E+000
  0.000000000000000E+000
  0.000000000000000E+000
  0.000000000000000E+000
  0.000000000000000E+000
  0.000000000000000E+000
  0.000000000000000E+000
  0.000000000000000E+000
  0.000000000000000E+000
  0.000000000000000E+000
  0.000000000000000E+000
  0.000000000000000E+000
  0.000000000000000E+000
  0.000000000000000E+000
  0.000000000000000E+000
  0.000000000000000E+000
  0.000000000000000E+000
  0.000000000000000E+000
  0.000000000000000E+000
  0.000000000000000E+000
  0.000000000000000E+000
  0.000000000000000E+000
  0.000000000000000E+000
  0.000000000000000E+000
  0.000000000000000E+000
  0.000000000000000E+000
  0.000000000000000E+000
  0.000000000000000E+000
  0.000000000000000E+000
  0.000000000000000E+000
  0.000000000000000E+000
  0.000000000000000E+000
  0.000000000000000E+000
  0.000000000000000E+000
  0.000000000000000E+000
  0.000000000000000E+000
  0.000000000000000E+000
  0.000000000000000E+000
  0.000000000000000E+000
  0.000000000000000E+000
  0.000000000000000E+000
  0.000000000000000E+000
  0.000000000000000E+000
  0.000000000000000E+000
  0.000000000000000E+000
  0.000000000000000E+000
  0.000000000000000E+000
  0.000000000000000E+000
  0.000000000000000E+000
  0.000000000000000E+000
  0.000000000000000E+000
  0.000000000000000E+000
  0.000000000000000E+000
  0.000000000000000E+000
  0.000000000000000E+000
  0.000000000000000E+000
  0.000000000000000E+000
  0.000000000000000E+000
  0.000000000000000E+000
  0.000000000000000E+000
  0.000000000000000E+000
  0.000000000000000E+000
  0.000000000000000E+000
  0.000000000000000E+000
  0.000000000000000E+000
  0.000000000000000E+000
  0.000000000000000E+000
  0.000000000000000E+000
  0.000000000000000E+000
  0.000000000000000E+000
  0.000000000000000E+000
  0.000000000000000E+000
  0.000000000000000E+000
  0.000000000000000E+000
  0.000000000000000E+000
  0.000000000000000E+000
  0.000000000000000E+000
  0.000000000000000E+000
  0.000000000000000E+000
  0.000000000000000E+000
  0.000000000000000E+000
  0.000000000000000E+000
  0.000000000000000E+000
  0.000000000000000E+000
  0.000000000000000E+000
  0.000000000000000E+000
  0.000000000000000E+000
  0.000000000000000E+000
  0.000000000000000E+000
  0.000000000000000E+000
  0.000000000000000E+000
  0.000000000000000E+000
  0.000000000000000E+000
  0.000000000000000E+000
  0.000000000000000E+000
  0.000000000000000E+000
  0.000000000000000E+000
  0.000000000000000E+000
  0.000000000000000E+000
  0.000000000000000E+000
  0.000000000000000E+000
  0.000000000000000E+000
  0.000000000000000E+000
  0.000000000000000E+000
  0.000000000000000E+000
  0.000000000000000E+000
  0.000000000000000E+000
  0.000000000000000E+000
  0.000000000000000E+000
  0.000000000000000E+000
  0.000000000000000E+000
  0.000000000000000E+000
  0.000000000000000E+000
  0.000000000000000E+000
  0.000000000000000E+000
  0.000000000000000E+000
  0.000000000000000E+000
  0.000000000000000E+000
  0.000000000000000E+000
  0.000000000000000E+000
  0.000000000000000E+000
  0.000000000000000E+000
  0.000000000000000E+000
  0.000000000000000E+000
  0.000000000000000E+000
  0.000000000000000E+000
  0.000000000000000E+000
  0.000000000000000E+000
  0.000000000000000E+000
  0.000000000000000E+000
  0.000000000000000E+000
  0.000000000000000E+000
  0.000000000000000E+000
  0.000000000000000E+000
  0.000000000000000E+000
  0.000000000000000E+000
  0.000000000000000E+000
  0.000000000000000E+000
  0.000000000000000E+000
  0.000000000000000E+000
  0.000000000000000E+000
  0.000000000000000E+000
  0.000000000000000E+000
  0.000000000000000E+000
  0.000000000000000E+000
  0.000000000000000E+000
  0.000000000000000E+000
  0.000000000000000E+000
  0.000000000000000E+000
  0.000000000000000E+000
  0.000000000000000E+000
  0.000000000000000E+000
  0.000000000000000E+000
  0.000000000000000E+000
  0.000000000000000E+000
  0.000000000000000E+000
  0.000000000000000E+000
  0.000000000000000E+000
  0.000000000000000E+000
  0.000000000000000E+000
  0.000000000000000E+000
  0.000000000000000E+000
  0.000000000000000E+000
  0.000000000000000E+000
  0.000000000000000E+000
  0.000000000000000E+000
  0.000000000000000E+000
  0.000000000000000E+000
  0.000000000000000E+000
  0.000000000000000E+000
  0.000000000000000E+000
  0.000000000000000E+000
  0.000000000000000E+000
  0.000000000000000E+000
  0.000000000000000E+000
  0.000000000000000E+000
  0.000000000000000E+000
  0.000000000000000E+000
  0.000000000000000E+000
  0.000000000000000E+000
  0.000000000000000E+000
  0.000000000000000E+000
  0.000000000000000E+000
  0.000000000000000E+000
  0.000000000000000E+000
  0.000000000000000E+000
  0.000000000000000E+000
  0.000000000000000E+000
  0.000000000000000E+000
  0.000000000000000E+000
  0.000000000000000E+000
  0.000000000000000E+000
  0.000000000000000E+000
  0.000000000000000E+000
  0.000000000000000E+000
  0.000000000000000E+000
  0.000000000000000E+000
  0.000000000000000E+000
  0.000000000000000E+000
  0.000000000000000E+000
  0.000000000000000E+000
  0.000000000000000E+000
  0.000000000000000E+000
  0.000000000000000E+000
  0.000000000000000E+000
  0.000000000000000E+000
  0.000000000000000E+000
  0.000000000000000E+000
  0.000000000000000E+000
  0.000000000000000E+000
  0.000000000000000E+000
  0.000000000000000E+000
  0.000000000000000E+000
  0.000000000000000E+000
  0.000000000000000E+000
  0.000000000000000E+000
  0.000000000000000E+000
  0.000000000000000E+000
  0.000000000000000E+000
  0.000000000000000E+000
  0.000000000000000E+000
  0.000000000000000E+000
  0.000000000000000E+000
  0.000000000000000E+000
  0.000000000000000E+000
  0.000000000000000E+000
  0.000000000000000E+000
  0.000000000000000E+000
  0.000000000000000E+000
  0.000000000000000E+000
  0.000000000000000E+000
  0.000000000000000E+000
  0.000000000000000E+000
  0.000000000000000E+000
  0.000000000000000E+000
  0.000000000000000E+000
  0.000000000000000E+000
  0.000000000000000E+000
  0.000000000000000E+000
  0.000000000000000E+000
  0.000000000000000E+000
  0.000000000000000E+000
  0.000000000000000E+000
  0.000000000000000E+000
  0.000000000000000E+000
  0.000000000000000E+000
  0.000000000000000E+000
  0.000000000000000E+000
  0.000000000000000E+000
  0.000000000000000E+000
  0.000000000000000E+000
  0.000000000000000E+000
  0.000000000000000E+000
  0.000000000000000E+000
  0.000000000000000E+000
  0.000000000000000E+000
  0.000000000000000E+000
  0.000000000000000E+000
  0.000000000000000E+000
  0.000000000000000E+000
  0.000000000000000E+000
  0.000000000000000E+000
  0.000000000000000E+000
  0.000000000000000E+000
  0.000000000000000E+000
  0.000000000000000E+000
  0.000000000000000E+000
  0.000000000000000E+000
  0.000000000000000E+000
  0.000000000000000E+000
  0.000000000000000E+000
  0.000000000000000E+000
  0.000000000000000E+000
  0.000000000000000E+000
  0.000000000000000E+000
  0.000000000000000E+000
  0.000000000000000E+000
  0.000000000000000E+000
  0.000000000000000E+000
  0.000000000000000E+000
  0.000000000000000E+000
  0.000000000000000E+000
  0.000000000000000E+000
  0.000000000000000E+000
  0.000000000000000E+000
  0.000000000000000E+000
  0.000000000000000E+000
  0.000000000000000E+000
  0.000000000000000E+000
  0.000000000000000E+000
  0.000000000000000E+000
  0.000000000000000E+000
  0.000000000000000E+000
  0.000000000000000E+000
  0.000000000000000E+000
  0.000000000000000E+000
  0.000000000000000E+000
  0.000000000000000E+000
  0.000000000000000E+000
  0.000000000000000E+000
  0.000000000000000E+000
  0.000000000000000E+000
  0.000000000000000E+000
  0.000000000000000E+000
  0.000000000000000E+000
  0.000000000000000E+000
  0.000000000000000E+000
  0.000000000000000E+000
  0.000000000000000E+000
  0.000000000000000E+000
  0.000000000000000E+000
  0.000000000000000E+000
  0.000000000000000E+000
  0.000000000000000E+000
  0.000000000000000E+000
  0.000000000000000E+000
  0.000000000000000E+000
  0.000000000000000E+000
  0.000000000000000E+000
  0.000000000000000E+000
  0.000000000000000E+000
  0.000000000000000E+000
  0.000000000000000E+000
  0.000000000000000E+000
  0.000000000000000E+000
SCALARS poroL double 
LOOKUP_TABLE default
  0.325722979984986     
  0.318614619770998     
  0.314133979224892     
  0.310548988236262     
  0.307510757212093     
  0.304856222348945     
  0.302487974646442     
  0.300338385326725     
  0.298354694012474     
  0.296490455790823     
  0.294698769853382     
  0.292924253409797     
  0.291088009607078     
  0.289056087360890     
  0.286426399965216     
  0.318488686782754     
  0.314620298791081     
  0.310680696701225     
  0.307282566160715     
  0.304322371945704     
  0.301702027205035     
  0.299347238611867     
  0.297201453524972     
  0.295218339697762     
  0.293356513731560     
  0.291575001298623     
  0.289828163420371     
  0.288061144221212     
  0.286192884842466     
  0.284310685983405     
  0.313459359921031     
  0.309991087508457     
  0.306698186192490     
  0.303618300633548     
  0.300835927994096     
  0.298321715588420     
  0.296035650063576     
  0.293939092175720     
  0.291997214368474     
  0.290178023565106     
  0.288451041230087     
  0.286787055314512     
  0.285159522484218     
  0.283577497349123     
  0.282093454208258     
  0.308318422862813     
  0.305314878642791     
  0.302414898583218     
  0.299669679122192     
  0.297109370531070     
  0.294747532781272     
  0.292571189616989     
  0.290560179614823     
  0.288692780805235     
  0.286948131624982     
  0.285307684727571     
  0.283757476151863     
  0.282296079511394     
  0.280942390043183     
  0.279746667771365     
  0.303117548881999     
  0.300539167541979     
  0.297993378482809     
  0.295537010588426     
  0.293205870832809     
  0.291017535892161     
  0.288976115982139     
  0.287075744138934     
  0.285306584205726     
  0.283658280962807     
  0.282122724126239     
  0.280697575677014     
  0.279390471679778     
  0.278224080319351     
  0.277237913812302     
  0.297950163901927     
  0.295725546454546     
  0.293487930323396     
  0.291292887494838     
  0.289178334121110     
  0.287167662273057     
  0.285272670593294     
  0.283497210663159     
  0.281840562386298     
  0.280300783539294     
  0.278877641692871     
  0.277575485636503     
  0.276406180636537     
  0.275391262240987     
  0.274562518437286     
  0.292860250480879     
  0.290922067888297     
  0.288945296553657     
  0.286980740241315     
  0.285065992948356     
  0.283226930169364     
  0.281480016180634     
  0.279834857445587     
  0.278296924346461     
  0.276870166380590     
  0.275559495280131     
  0.274373053273935     
  0.273324094446396     
  0.272432149357192     
  0.271722949452301     
  0.287867016729289     
  0.286156433428068     
  0.284395642009815     
  0.282630005207223     
  0.280894814297355     
  0.279216175007252     
  0.277612548187540     
  0.276096674885322     
  0.274677642234126     
  0.273362956091066     
  0.272160486554961     
  0.271080169510055     
  0.270135298509663     
  0.269343180828459     
  0.268724951656322     
  0.282974251488737     
  0.281440083571116     
  0.279854516986320     
  0.278257291964890     
  0.276680282466507     
  0.275148117517383     
  0.273679292905169     
  0.272287597741394     
  0.270983698684672     
  0.269776740788373     
  0.268675846426178     
  0.267691390068539     
  0.266835916722175     
  0.266124568794708     
  0.265574913730144     
  0.278173780270211     
  0.276771565305177     
  0.275325015202693     
  0.273868082651733     
  0.272428436793379     
  0.271027996539189     
  0.269683785693903     
  0.268409022269798     
  0.267214333878960     
  0.266108992844833     
  0.265102068048199     
  0.264203393561851     
  0.263424256109026     
  0.262777714138875     
  0.262278490582307     
  0.273446882255978     
  0.272138435823250     
  0.270799535905121     
  0.269458058008327     
  0.268136814691519     
  0.266854054416310     
  0.265624161238944     
  0.264458511200381     
  0.263366418313316     
  0.262356093787235     
  0.261435540901561     
  0.260613309899501     
  0.259899043095369     
  0.259303752779245     
  0.258839796378507     
  0.268764983307301     
  0.267518409403992     
  0.266261000130539     
  0.265014154123755     
  0.263795226950132     
  0.262618005337674     
  0.261493300412406     
  0.260429638694797     
  0.259434010165618     
  0.258512622877594     
  0.257671610378346     
  0.256917639540774     
  0.256258371502112     
  0.255702737883181     
  0.255261008692971     
  0.264090134302350     
  0.262880134714233     
  0.261683732167685     
  0.260515380672710     
  0.259386409162347     
  0.258305464165924     
  0.257279019177396     
  0.256311940059825     
  0.255408082854077     
  0.254570893438178     
  0.253803976264361     
  0.253111600395713     
  0.252499114425826     
  0.251973247251996     
  0.251542278759368     
  0.259375449647149     
  0.258183807217110     
  0.257034143847119     
  0.255933475630897     
  0.254886567518513     
  0.253896334261808     
  0.252964275174374     
  0.252090935622183     
  0.251276382349403     
  0.250520677825617     
  0.249824339328824     
  0.249188770057751     
  0.248616651238666     
  0.248112285457346     
  0.247681881988370     
  0.254565547844301     
  0.253381693180446     
  0.252271292183110     
  0.251233437240389     
  0.250265831792429     
  0.249365142751480     
  0.248527364685482     
  0.247748187167163     
  0.247023359124020     
  0.246349048897805     
  0.245722203661440     
  0.245140915020810     
  0.244604798011809     
  0.244115387954259     
  0.243676553831649     
  0.249596963442289     
  0.248418566332547     
  0.247347321128382     
  0.246373938539889     
  0.245488607335416     
  0.244681300294635     
  0.243942072246455     
  0.243261335163835     
  0.242630108496587     
  0.242040257190980     
  0.241484741186935     
  0.240957906061127     
  0.240455843855517     
  0.239976846126067     
  0.239521958716422     
  0.244398450062084     
  0.243232004575179     
  0.242207752551367     
  0.241307596292160     
  0.240513795961593     
  0.239809247213278     
  0.239177723120708     
  0.238604053206133     
  0.238074241385302     
  0.237575552455596     
  0.237096617107095     
  0.236627615057193     
  0.236160594071720     
  0.235689970387961     
  0.235213235453111     
  0.238891045436957     
  0.237752447183214     
  0.236791552034343     
  0.235981036421308     
  0.235294834275651     
  0.234708431757699     
  0.234199074512745     
  0.233745841254123     
  0.233329591268697     
  0.232932841084731     
  0.232539658064166     
  0.232135672600296     
  0.231708306455613     
  0.231247295122688     
  0.230745550700391     
  0.232987705017879     
  0.231902859080937     
  0.231030853973386     
  0.230334668537759     
  0.229779476459894     
  0.229333048215274     
  0.228965962859429     
  0.228651557752577     
  0.228365637813874     
  0.228086042250438     
  0.227792214039562     
  0.227464934666657     
  0.227086377507980     
  0.226640602821902     
  0.226114570372299     
  0.226592210616148     
  0.225597773194634     
  0.224850178058671     
  0.224302047021387     
  0.223909222638256     
  0.223631438131125     
  0.223432596114457     
  0.223280555573957     
  0.223146485300576     
  0.223003957002538     
  0.222828012333960     
  0.222594452936860     
  0.222279584483765     
  0.221860600537268     
  0.221316723866812     
  0.219596893303536     
  0.218741362717358     
  0.218164891421053     
  0.217808646011923     
  0.217618254806764     
  0.217545016497229     
  0.217546328785508     
  0.217585223782539     
  0.217629160007880     
  0.217648381525270     
  0.217614212550381     
  0.217497652577123     
  0.217268604055097     
  0.216896010121735     
  0.216349082838492     
  0.211878417878230     
  0.211223992186235     
  0.210878543636392     
  0.210769792313678     
  0.210831670660500     
  0.211006501449821     
  0.211245654479620     
  0.211508616675610     
  0.211760857117286     
  0.211971051097565     
  0.212108218292937     
  0.212139264828980     
  0.212027382858742     
  0.211731715021261     
  0.211208597298739     
  0.203290330754529     
  0.202916332046440     
  0.202878472928374     
  0.203087347071568     
  0.203462654182753     
  0.203937039378737     
  0.204456928055266     
  0.204980608881396     
  0.205474518408053     
  0.205908746326539     
  0.206252531019317     
  0.206470285303767     
  0.206518670904500     
  0.206345399475254     
  0.205890309785062     
  0.193650008073196     
  0.193659381565613     
  0.194028658239980     
  0.194644404713832     
  0.195407868724107     
  0.196241372725157     
  0.197088816483260     
  0.197911507884896     
  0.198681646162032     
  0.199375425448403     
  0.199966454077876     
  0.200419701589106     
  0.200686532475210     
  0.200701708121003     
  0.200383969766019     
  0.182715093659165     
  0.183247294936218     
  0.184157813541168     
  0.185296571158500     
  0.186539470212001     
  0.187799023911881     
  0.189022284299151     
  0.190180935473133     
  0.191260299332212     
  0.192249405093925     
  0.193132502348989     
  0.193880767824381     
  0.194443544726158     
  0.194742153758019     
  0.194668044354017     
  0.170139265069681     
  0.171395475932356     
  0.173038926615700     
  0.174856492484963     
  0.176689381062407     
  0.178446564363594     
  0.180090739753294     
  0.181617312393297     
  0.183034251687329     
  0.184351716667995     
  0.185573782098415     
  0.186687172644429     
  0.187648384421314     
  0.188366700960118     
  0.188699408781649     
  0.155373196187228     
  0.157679938182867     
  0.160349533172171     
  0.163061556387384     
  0.165614811729770     
  0.167935438690346     
  0.170037824425663     
  0.171957146344342     
  0.173734126586011     
  0.175408236200066     
  0.177013514921503     
  0.178571435650271     
  0.180061682999568     
  0.181399646719797     
  0.182393373213566     
  0.137451916075099     
  0.141374492868392     
  0.145584099693376     
  0.149504936060371     
  0.152887733789934     
  0.155826749797886     
  0.158419249292149     
  0.160755882951973     
  0.162916365708216     
  0.164974514320988     
  0.167003413178486     
  0.169076570708947     
  0.171265613901337     
  0.173503775799715     
  0.175589646396796     
  0.113898748838489     
  0.121034927062704     
  0.127920746023966     
  0.133229713054658     
  0.137554697791094     
  0.141188663462099     
  0.144339920358758     
  0.147157124345632     
  0.149759608813791     
  0.152255907774336     
  0.154760170498071     
  0.157412551487962     
  0.160398774148575     
  0.164043039879806     
  0.167911714894021     
  7.407892008933509E-002
  9.292427065682812E-002
  0.103309437999907     
  0.110795565150881     
  0.116615285634110     
  0.121389323489602     
  0.125462725797404     
  0.129063135538788     
  0.132361810391330     
  0.135508824904371     
  0.138661068521935     
  0.142016856998708     
  0.145886636158126     
  0.150837783142814     
  0.158864313869743     
