# vtk DataFile Version 3.0
vtk output
ASCII
DATASET UNSTRUCTURED_GRID
POINTS       496 double 
  0.00000000E+00  3.00000000E+02  0.00000000E+00
  0.00000000E+00  2.80000000E+02  0.00000000E+00
  0.00000000E+00  2.60000000E+02  0.00000000E+00
  0.00000000E+00  2.40000000E+02  0.00000000E+00
  0.00000000E+00  2.20000000E+02  0.00000000E+00
  0.00000000E+00  2.00000000E+02  0.00000000E+00
  0.00000000E+00  1.80000000E+02  0.00000000E+00
  0.00000000E+00  1.60000000E+02  0.00000000E+00
  0.00000000E+00  1.40000000E+02  0.00000000E+00
  0.00000000E+00  1.20000000E+02  0.00000000E+00
  0.00000000E+00  1.00000000E+02  0.00000000E+00
  0.00000000E+00  8.00000000E+01  0.00000000E+00
  0.00000000E+00  6.00000000E+01  0.00000000E+00
  0.00000000E+00  4.00000000E+01  0.00000000E+00
  0.00000000E+00  2.00000000E+01  0.00000000E+00
  0.00000000E+00  4.99600361E-14  0.00000000E+00
  2.00000000E+01  3.00000000E+02  0.00000000E+00
  2.00000000E+01  2.80000000E+02  0.00000000E+00
  2.00000000E+01  2.60000000E+02  0.00000000E+00
  2.00000000E+01  2.40000000E+02  0.00000000E+00
  2.00000000E+01  2.20000000E+02  0.00000000E+00
  2.00000000E+01  2.00000000E+02  0.00000000E+00
  2.00000000E+01  1.80000000E+02  0.00000000E+00
  2.00000000E+01  1.60000000E+02  0.00000000E+00
  2.00000000E+01  1.40000000E+02  0.00000000E+00
  2.00000000E+01  1.20000000E+02  0.00000000E+00
  2.00000000E+01  1.00000000E+02  0.00000000E+00
  2.00000000E+01  8.00000000E+01  0.00000000E+00
  2.00000000E+01  6.00000000E+01  0.00000000E+00
  2.00000000E+01  4.00000000E+01  0.00000000E+00
  2.00000000E+01  2.00000000E+01  0.00000000E+00
  2.00000000E+01  4.99600361E-14  0.00000000E+00
  4.00000000E+01  3.00000000E+02  0.00000000E+00
  4.00000000E+01  2.80000000E+02  0.00000000E+00
  4.00000000E+01  2.60000000E+02  0.00000000E+00
  4.00000000E+01  2.40000000E+02  0.00000000E+00
  4.00000000E+01  2.20000000E+02  0.00000000E+00
  4.00000000E+01  2.00000000E+02  0.00000000E+00
  4.00000000E+01  1.80000000E+02  0.00000000E+00
  4.00000000E+01  1.60000000E+02  0.00000000E+00
  4.00000000E+01  1.40000000E+02  0.00000000E+00
  4.00000000E+01  1.20000000E+02  0.00000000E+00
  4.00000000E+01  1.00000000E+02  0.00000000E+00
  4.00000000E+01  8.00000000E+01  0.00000000E+00
  4.00000000E+01  6.00000000E+01  0.00000000E+00
  4.00000000E+01  4.00000000E+01  0.00000000E+00
  4.00000000E+01  2.00000000E+01  0.00000000E+00
  4.00000000E+01  4.99600361E-14  0.00000000E+00
  6.00000000E+01  3.00000000E+02  0.00000000E+00
  6.00000000E+01  2.80000000E+02  0.00000000E+00
  6.00000000E+01  2.60000000E+02  0.00000000E+00
  6.00000000E+01  2.40000000E+02  0.00000000E+00
  6.00000000E+01  2.20000000E+02  0.00000000E+00
  6.00000000E+01  2.00000000E+02  0.00000000E+00
  6.00000000E+01  1.80000000E+02  0.00000000E+00
  6.00000000E+01  1.60000000E+02  0.00000000E+00
  6.00000000E+01  1.40000000E+02  0.00000000E+00
  6.00000000E+01  1.20000000E+02  0.00000000E+00
  6.00000000E+01  1.00000000E+02  0.00000000E+00
  6.00000000E+01  8.00000000E+01  0.00000000E+00
  6.00000000E+01  6.00000000E+01  0.00000000E+00
  6.00000000E+01  4.00000000E+01  0.00000000E+00
  6.00000000E+01  2.00000000E+01  0.00000000E+00
  6.00000000E+01  4.99600361E-14  0.00000000E+00
  8.00000000E+01  3.00000000E+02  0.00000000E+00
  8.00000000E+01  2.80000000E+02  0.00000000E+00
  8.00000000E+01  2.60000000E+02  0.00000000E+00
  8.00000000E+01  2.40000000E+02  0.00000000E+00
  8.00000000E+01  2.20000000E+02  0.00000000E+00
  8.00000000E+01  2.00000000E+02  0.00000000E+00
  8.00000000E+01  1.80000000E+02  0.00000000E+00
  8.00000000E+01  1.60000000E+02  0.00000000E+00
  8.00000000E+01  1.40000000E+02  0.00000000E+00
  8.00000000E+01  1.20000000E+02  0.00000000E+00
  8.00000000E+01  1.00000000E+02  0.00000000E+00
  8.00000000E+01  8.00000000E+01  0.00000000E+00
  8.00000000E+01  6.00000000E+01  0.00000000E+00
  8.00000000E+01  4.00000000E+01  0.00000000E+00
  8.00000000E+01  2.00000000E+01  0.00000000E+00
  8.00000000E+01  4.99600361E-14  0.00000000E+00
  1.00000000E+02  3.00000000E+02  0.00000000E+00
  1.00000000E+02  2.80000000E+02  0.00000000E+00
  1.00000000E+02  2.60000000E+02  0.00000000E+00
  1.00000000E+02  2.40000000E+02  0.00000000E+00
  1.00000000E+02  2.20000000E+02  0.00000000E+00
  1.00000000E+02  2.00000000E+02  0.00000000E+00
  1.00000000E+02  1.80000000E+02  0.00000000E+00
  1.00000000E+02  1.60000000E+02  0.00000000E+00
  1.00000000E+02  1.40000000E+02  0.00000000E+00
  1.00000000E+02  1.20000000E+02  0.00000000E+00
  1.00000000E+02  1.00000000E+02  0.00000000E+00
  1.00000000E+02  8.00000000E+01  0.00000000E+00
  1.00000000E+02  6.00000000E+01  0.00000000E+00
  1.00000000E+02  4.00000000E+01  0.00000000E+00
  1.00000000E+02  2.00000000E+01  0.00000000E+00
  1.00000000E+02  4.99600361E-14  0.00000000E+00
  1.20000000E+02  3.00000000E+02  0.00000000E+00
  1.20000000E+02  2.80000000E+02  0.00000000E+00
  1.20000000E+02  2.60000000E+02  0.00000000E+00
  1.20000000E+02  2.40000000E+02  0.00000000E+00
  1.20000000E+02  2.20000000E+02  0.00000000E+00
  1.20000000E+02  2.00000000E+02  0.00000000E+00
  1.20000000E+02  1.80000000E+02  0.00000000E+00
  1.20000000E+02  1.60000000E+02  0.00000000E+00
  1.20000000E+02  1.40000000E+02  0.00000000E+00
  1.20000000E+02  1.20000000E+02  0.00000000E+00
  1.20000000E+02  1.00000000E+02  0.00000000E+00
  1.20000000E+02  8.00000000E+01  0.00000000E+00
  1.20000000E+02  6.00000000E+01  0.00000000E+00
  1.20000000E+02  4.00000000E+01  0.00000000E+00
  1.20000000E+02  2.00000000E+01  0.00000000E+00
  1.20000000E+02  4.99600361E-14  0.00000000E+00
  1.40000000E+02  3.00000000E+02  0.00000000E+00
  1.40000000E+02  2.80000000E+02  0.00000000E+00
  1.40000000E+02  2.60000000E+02  0.00000000E+00
  1.40000000E+02  2.40000000E+02  0.00000000E+00
  1.40000000E+02  2.20000000E+02  0.00000000E+00
  1.40000000E+02  2.00000000E+02  0.00000000E+00
  1.40000000E+02  1.80000000E+02  0.00000000E+00
  1.40000000E+02  1.60000000E+02  0.00000000E+00
  1.40000000E+02  1.40000000E+02  0.00000000E+00
  1.40000000E+02  1.20000000E+02  0.00000000E+00
  1.40000000E+02  1.00000000E+02  0.00000000E+00
  1.40000000E+02  8.00000000E+01  0.00000000E+00
  1.40000000E+02  6.00000000E+01  0.00000000E+00
  1.40000000E+02  4.00000000E+01  0.00000000E+00
  1.40000000E+02  2.00000000E+01  0.00000000E+00
  1.40000000E+02  4.99600361E-14  0.00000000E+00
  1.60000000E+02  3.00000000E+02  0.00000000E+00
  1.60000000E+02  2.80000000E+02  0.00000000E+00
  1.60000000E+02  2.60000000E+02  0.00000000E+00
  1.60000000E+02  2.40000000E+02  0.00000000E+00
  1.60000000E+02  2.20000000E+02  0.00000000E+00
  1.60000000E+02  2.00000000E+02  0.00000000E+00
  1.60000000E+02  1.80000000E+02  0.00000000E+00
  1.60000000E+02  1.60000000E+02  0.00000000E+00
  1.60000000E+02  1.40000000E+02  0.00000000E+00
  1.60000000E+02  1.20000000E+02  0.00000000E+00
  1.60000000E+02  1.00000000E+02  0.00000000E+00
  1.60000000E+02  8.00000000E+01  0.00000000E+00
  1.60000000E+02  6.00000000E+01  0.00000000E+00
  1.60000000E+02  4.00000000E+01  0.00000000E+00
  1.60000000E+02  2.00000000E+01  0.00000000E+00
  1.60000000E+02  4.99600361E-14  0.00000000E+00
  1.80000000E+02  3.00000000E+02  0.00000000E+00
  1.80000000E+02  2.80000000E+02  0.00000000E+00
  1.80000000E+02  2.60000000E+02  0.00000000E+00
  1.80000000E+02  2.40000000E+02  0.00000000E+00
  1.80000000E+02  2.20000000E+02  0.00000000E+00
  1.80000000E+02  2.00000000E+02  0.00000000E+00
  1.80000000E+02  1.80000000E+02  0.00000000E+00
  1.80000000E+02  1.60000000E+02  0.00000000E+00
  1.80000000E+02  1.40000000E+02  0.00000000E+00
  1.80000000E+02  1.20000000E+02  0.00000000E+00
  1.80000000E+02  1.00000000E+02  0.00000000E+00
  1.80000000E+02  8.00000000E+01  0.00000000E+00
  1.80000000E+02  6.00000000E+01  0.00000000E+00
  1.80000000E+02  4.00000000E+01  0.00000000E+00
  1.80000000E+02  2.00000000E+01  0.00000000E+00
  1.80000000E+02  4.99600361E-14  0.00000000E+00
  2.00000000E+02  3.00000000E+02  0.00000000E+00
  2.00000000E+02  2.80000000E+02  0.00000000E+00
  2.00000000E+02  2.60000000E+02  0.00000000E+00
  2.00000000E+02  2.40000000E+02  0.00000000E+00
  2.00000000E+02  2.20000000E+02  0.00000000E+00
  2.00000000E+02  2.00000000E+02  0.00000000E+00
  2.00000000E+02  1.80000000E+02  0.00000000E+00
  2.00000000E+02  1.60000000E+02  0.00000000E+00
  2.00000000E+02  1.40000000E+02  0.00000000E+00
  2.00000000E+02  1.20000000E+02  0.00000000E+00
  2.00000000E+02  1.00000000E+02  0.00000000E+00
  2.00000000E+02  8.00000000E+01  0.00000000E+00
  2.00000000E+02  6.00000000E+01  0.00000000E+00
  2.00000000E+02  4.00000000E+01  0.00000000E+00
  2.00000000E+02  2.00000000E+01  0.00000000E+00
  2.00000000E+02  4.99600361E-14  0.00000000E+00
  2.20000000E+02  3.00000000E+02  0.00000000E+00
  2.20000000E+02  2.80000000E+02  0.00000000E+00
  2.20000000E+02  2.60000000E+02  0.00000000E+00
  2.20000000E+02  2.40000000E+02  0.00000000E+00
  2.20000000E+02  2.20000000E+02  0.00000000E+00
  2.20000000E+02  2.00000000E+02  0.00000000E+00
  2.20000000E+02  1.80000000E+02  0.00000000E+00
  2.20000000E+02  1.60000000E+02  0.00000000E+00
  2.20000000E+02  1.40000000E+02  0.00000000E+00
  2.20000000E+02  1.20000000E+02  0.00000000E+00
  2.20000000E+02  1.00000000E+02  0.00000000E+00
  2.20000000E+02  8.00000000E+01  0.00000000E+00
  2.20000000E+02  6.00000000E+01  0.00000000E+00
  2.20000000E+02  4.00000000E+01  0.00000000E+00
  2.20000000E+02  2.00000000E+01  0.00000000E+00
  2.20000000E+02  4.99600361E-14  0.00000000E+00
  2.40000000E+02  3.00000000E+02  0.00000000E+00
  2.40000000E+02  2.80000000E+02  0.00000000E+00
  2.40000000E+02  2.60000000E+02  0.00000000E+00
  2.40000000E+02  2.40000000E+02  0.00000000E+00
  2.40000000E+02  2.20000000E+02  0.00000000E+00
  2.40000000E+02  2.00000000E+02  0.00000000E+00
  2.40000000E+02  1.80000000E+02  0.00000000E+00
  2.40000000E+02  1.60000000E+02  0.00000000E+00
  2.40000000E+02  1.40000000E+02  0.00000000E+00
  2.40000000E+02  1.20000000E+02  0.00000000E+00
  2.40000000E+02  1.00000000E+02  0.00000000E+00
  2.40000000E+02  8.00000000E+01  0.00000000E+00
  2.40000000E+02  6.00000000E+01  0.00000000E+00
  2.40000000E+02  4.00000000E+01  0.00000000E+00
  2.40000000E+02  2.00000000E+01  0.00000000E+00
  2.40000000E+02  4.99600361E-14  0.00000000E+00
  2.60000000E+02  3.00000000E+02  0.00000000E+00
  2.60000000E+02  2.80000000E+02  0.00000000E+00
  2.60000000E+02  2.60000000E+02  0.00000000E+00
  2.60000000E+02  2.40000000E+02  0.00000000E+00
  2.60000000E+02  2.20000000E+02  0.00000000E+00
  2.60000000E+02  2.00000000E+02  0.00000000E+00
  2.60000000E+02  1.80000000E+02  0.00000000E+00
  2.60000000E+02  1.60000000E+02  0.00000000E+00
  2.60000000E+02  1.40000000E+02  0.00000000E+00
  2.60000000E+02  1.20000000E+02  0.00000000E+00
  2.60000000E+02  1.00000000E+02  0.00000000E+00
  2.60000000E+02  8.00000000E+01  0.00000000E+00
  2.60000000E+02  6.00000000E+01  0.00000000E+00
  2.60000000E+02  4.00000000E+01  0.00000000E+00
  2.60000000E+02  2.00000000E+01  0.00000000E+00
  2.60000000E+02  4.99600361E-14  0.00000000E+00
  2.80000000E+02  3.00000000E+02  0.00000000E+00
  2.80000000E+02  2.80000000E+02  0.00000000E+00
  2.80000000E+02  2.60000000E+02  0.00000000E+00
  2.80000000E+02  2.40000000E+02  0.00000000E+00
  2.80000000E+02  2.20000000E+02  0.00000000E+00
  2.80000000E+02  2.00000000E+02  0.00000000E+00
  2.80000000E+02  1.80000000E+02  0.00000000E+00
  2.80000000E+02  1.60000000E+02  0.00000000E+00
  2.80000000E+02  1.40000000E+02  0.00000000E+00
  2.80000000E+02  1.20000000E+02  0.00000000E+00
  2.80000000E+02  1.00000000E+02  0.00000000E+00
  2.80000000E+02  8.00000000E+01  0.00000000E+00
  2.80000000E+02  6.00000000E+01  0.00000000E+00
  2.80000000E+02  4.00000000E+01  0.00000000E+00
  2.80000000E+02  2.00000000E+01  0.00000000E+00
  2.80000000E+02  4.99600361E-14  0.00000000E+00
  3.00000000E+02  3.00000000E+02  0.00000000E+00
  3.00000000E+02  2.80000000E+02  0.00000000E+00
  3.00000000E+02  2.60000000E+02  0.00000000E+00
  3.00000000E+02  2.40000000E+02  0.00000000E+00
  3.00000000E+02  2.20000000E+02  0.00000000E+00
  3.00000000E+02  2.00000000E+02  0.00000000E+00
  3.00000000E+02  1.80000000E+02  0.00000000E+00
  3.00000000E+02  1.60000000E+02  0.00000000E+00
  3.00000000E+02  1.40000000E+02  0.00000000E+00
  3.00000000E+02  1.20000000E+02  0.00000000E+00
  3.00000000E+02  1.00000000E+02  0.00000000E+00
  3.00000000E+02  8.00000000E+01  0.00000000E+00
  3.00000000E+02  6.00000000E+01  0.00000000E+00
  3.00000000E+02  4.00000000E+01  0.00000000E+00
  3.00000000E+02  2.00000000E+01  0.00000000E+00
  3.00000000E+02  4.99600361E-14  0.00000000E+00
  3.20000000E+02  3.00000000E+02  0.00000000E+00
  3.20000000E+02  2.80000000E+02  0.00000000E+00
  3.20000000E+02  2.60000000E+02  0.00000000E+00
  3.20000000E+02  2.40000000E+02  0.00000000E+00
  3.20000000E+02  2.20000000E+02  0.00000000E+00
  3.20000000E+02  2.00000000E+02  0.00000000E+00
  3.20000000E+02  1.80000000E+02  0.00000000E+00
  3.20000000E+02  1.60000000E+02  0.00000000E+00
  3.20000000E+02  1.40000000E+02  0.00000000E+00
  3.20000000E+02  1.20000000E+02  0.00000000E+00
  3.20000000E+02  1.00000000E+02  0.00000000E+00
  3.20000000E+02  8.00000000E+01  0.00000000E+00
  3.20000000E+02  6.00000000E+01  0.00000000E+00
  3.20000000E+02  4.00000000E+01  0.00000000E+00
  3.20000000E+02  2.00000000E+01  0.00000000E+00
  3.20000000E+02  4.99600361E-14  0.00000000E+00
  3.40000000E+02  3.00000000E+02  0.00000000E+00
  3.40000000E+02  2.80000000E+02  0.00000000E+00
  3.40000000E+02  2.60000000E+02  0.00000000E+00
  3.40000000E+02  2.40000000E+02  0.00000000E+00
  3.40000000E+02  2.20000000E+02  0.00000000E+00
  3.40000000E+02  2.00000000E+02  0.00000000E+00
  3.40000000E+02  1.80000000E+02  0.00000000E+00
  3.40000000E+02  1.60000000E+02  0.00000000E+00
  3.40000000E+02  1.40000000E+02  0.00000000E+00
  3.40000000E+02  1.20000000E+02  0.00000000E+00
  3.40000000E+02  1.00000000E+02  0.00000000E+00
  3.40000000E+02  8.00000000E+01  0.00000000E+00
  3.40000000E+02  6.00000000E+01  0.00000000E+00
  3.40000000E+02  4.00000000E+01  0.00000000E+00
  3.40000000E+02  2.00000000E+01  0.00000000E+00
  3.40000000E+02  4.99600361E-14  0.00000000E+00
  3.60000000E+02  3.00000000E+02  0.00000000E+00
  3.60000000E+02  2.80000000E+02  0.00000000E+00
  3.60000000E+02  2.60000000E+02  0.00000000E+00
  3.60000000E+02  2.40000000E+02  0.00000000E+00
  3.60000000E+02  2.20000000E+02  0.00000000E+00
  3.60000000E+02  2.00000000E+02  0.00000000E+00
  3.60000000E+02  1.80000000E+02  0.00000000E+00
  3.60000000E+02  1.60000000E+02  0.00000000E+00
  3.60000000E+02  1.40000000E+02  0.00000000E+00
  3.60000000E+02  1.20000000E+02  0.00000000E+00
  3.60000000E+02  1.00000000E+02  0.00000000E+00
  3.60000000E+02  8.00000000E+01  0.00000000E+00
  3.60000000E+02  6.00000000E+01  0.00000000E+00
  3.60000000E+02  4.00000000E+01  0.00000000E+00
  3.60000000E+02  2.00000000E+01  0.00000000E+00
  3.60000000E+02  4.99600361E-14  0.00000000E+00
  3.80000000E+02  3.00000000E+02  0.00000000E+00
  3.80000000E+02  2.80000000E+02  0.00000000E+00
  3.80000000E+02  2.60000000E+02  0.00000000E+00
  3.80000000E+02  2.40000000E+02  0.00000000E+00
  3.80000000E+02  2.20000000E+02  0.00000000E+00
  3.80000000E+02  2.00000000E+02  0.00000000E+00
  3.80000000E+02  1.80000000E+02  0.00000000E+00
  3.80000000E+02  1.60000000E+02  0.00000000E+00
  3.80000000E+02  1.40000000E+02  0.00000000E+00
  3.80000000E+02  1.20000000E+02  0.00000000E+00
  3.80000000E+02  1.00000000E+02  0.00000000E+00
  3.80000000E+02  8.00000000E+01  0.00000000E+00
  3.80000000E+02  6.00000000E+01  0.00000000E+00
  3.80000000E+02  4.00000000E+01  0.00000000E+00
  3.80000000E+02  2.00000000E+01  0.00000000E+00
  3.80000000E+02  4.99600361E-14  0.00000000E+00
  4.00000000E+02  3.00000000E+02  0.00000000E+00
  4.00000000E+02  2.80000000E+02  0.00000000E+00
  4.00000000E+02  2.60000000E+02  0.00000000E+00
  4.00000000E+02  2.40000000E+02  0.00000000E+00
  4.00000000E+02  2.20000000E+02  0.00000000E+00
  4.00000000E+02  2.00000000E+02  0.00000000E+00
  4.00000000E+02  1.80000000E+02  0.00000000E+00
  4.00000000E+02  1.60000000E+02  0.00000000E+00
  4.00000000E+02  1.40000000E+02  0.00000000E+00
  4.00000000E+02  1.20000000E+02  0.00000000E+00
  4.00000000E+02  1.00000000E+02  0.00000000E+00
  4.00000000E+02  8.00000000E+01  0.00000000E+00
  4.00000000E+02  6.00000000E+01  0.00000000E+00
  4.00000000E+02  4.00000000E+01  0.00000000E+00
  4.00000000E+02  2.00000000E+01  0.00000000E+00
  4.00000000E+02  4.99600361E-14  0.00000000E+00
  4.20000000E+02  3.00000000E+02  0.00000000E+00
  4.20000000E+02  2.80000000E+02  0.00000000E+00
  4.20000000E+02  2.60000000E+02  0.00000000E+00
  4.20000000E+02  2.40000000E+02  0.00000000E+00
  4.20000000E+02  2.20000000E+02  0.00000000E+00
  4.20000000E+02  2.00000000E+02  0.00000000E+00
  4.20000000E+02  1.80000000E+02  0.00000000E+00
  4.20000000E+02  1.60000000E+02  0.00000000E+00
  4.20000000E+02  1.40000000E+02  0.00000000E+00
  4.20000000E+02  1.20000000E+02  0.00000000E+00
  4.20000000E+02  1.00000000E+02  0.00000000E+00
  4.20000000E+02  8.00000000E+01  0.00000000E+00
  4.20000000E+02  6.00000000E+01  0.00000000E+00
  4.20000000E+02  4.00000000E+01  0.00000000E+00
  4.20000000E+02  2.00000000E+01  0.00000000E+00
  4.20000000E+02  4.99600361E-14  0.00000000E+00
  4.40000000E+02  3.00000000E+02  0.00000000E+00
  4.40000000E+02  2.80000000E+02  0.00000000E+00
  4.40000000E+02  2.60000000E+02  0.00000000E+00
  4.40000000E+02  2.40000000E+02  0.00000000E+00
  4.40000000E+02  2.20000000E+02  0.00000000E+00
  4.40000000E+02  2.00000000E+02  0.00000000E+00
  4.40000000E+02  1.80000000E+02  0.00000000E+00
  4.40000000E+02  1.60000000E+02  0.00000000E+00
  4.40000000E+02  1.40000000E+02  0.00000000E+00
  4.40000000E+02  1.20000000E+02  0.00000000E+00
  4.40000000E+02  1.00000000E+02  0.00000000E+00
  4.40000000E+02  8.00000000E+01  0.00000000E+00
  4.40000000E+02  6.00000000E+01  0.00000000E+00
  4.40000000E+02  4.00000000E+01  0.00000000E+00
  4.40000000E+02  2.00000000E+01  0.00000000E+00
  4.40000000E+02  4.99600361E-14  0.00000000E+00
  4.60000000E+02  3.00000000E+02  0.00000000E+00
  4.60000000E+02  2.80000000E+02  0.00000000E+00
  4.60000000E+02  2.60000000E+02  0.00000000E+00
  4.60000000E+02  2.40000000E+02  0.00000000E+00
  4.60000000E+02  2.20000000E+02  0.00000000E+00
  4.60000000E+02  2.00000000E+02  0.00000000E+00
  4.60000000E+02  1.80000000E+02  0.00000000E+00
  4.60000000E+02  1.60000000E+02  0.00000000E+00
  4.60000000E+02  1.40000000E+02  0.00000000E+00
  4.60000000E+02  1.20000000E+02  0.00000000E+00
  4.60000000E+02  1.00000000E+02  0.00000000E+00
  4.60000000E+02  8.00000000E+01  0.00000000E+00
  4.60000000E+02  6.00000000E+01  0.00000000E+00
  4.60000000E+02  4.00000000E+01  0.00000000E+00
  4.60000000E+02  2.00000000E+01  0.00000000E+00
  4.60000000E+02  4.99600361E-14  0.00000000E+00
  4.80000000E+02  3.00000000E+02  0.00000000E+00
  4.80000000E+02  2.80000000E+02  0.00000000E+00
  4.80000000E+02  2.60000000E+02  0.00000000E+00
  4.80000000E+02  2.40000000E+02  0.00000000E+00
  4.80000000E+02  2.20000000E+02  0.00000000E+00
  4.80000000E+02  2.00000000E+02  0.00000000E+00
  4.80000000E+02  1.80000000E+02  0.00000000E+00
  4.80000000E+02  1.60000000E+02  0.00000000E+00
  4.80000000E+02  1.40000000E+02  0.00000000E+00
  4.80000000E+02  1.20000000E+02  0.00000000E+00
  4.80000000E+02  1.00000000E+02  0.00000000E+00
  4.80000000E+02  8.00000000E+01  0.00000000E+00
  4.80000000E+02  6.00000000E+01  0.00000000E+00
  4.80000000E+02  4.00000000E+01  0.00000000E+00
  4.80000000E+02  2.00000000E+01  0.00000000E+00
  4.80000000E+02  4.99600361E-14  0.00000000E+00
  5.00000000E+02  3.00000000E+02  0.00000000E+00
  5.00000000E+02  2.80000000E+02  0.00000000E+00
  5.00000000E+02  2.60000000E+02  0.00000000E+00
  5.00000000E+02  2.40000000E+02  0.00000000E+00
  5.00000000E+02  2.20000000E+02  0.00000000E+00
  5.00000000E+02  2.00000000E+02  0.00000000E+00
  5.00000000E+02  1.80000000E+02  0.00000000E+00
  5.00000000E+02  1.60000000E+02  0.00000000E+00
  5.00000000E+02  1.40000000E+02  0.00000000E+00
  5.00000000E+02  1.20000000E+02  0.00000000E+00
  5.00000000E+02  1.00000000E+02  0.00000000E+00
  5.00000000E+02  8.00000000E+01  0.00000000E+00
  5.00000000E+02  6.00000000E+01  0.00000000E+00
  5.00000000E+02  4.00000000E+01  0.00000000E+00
  5.00000000E+02  2.00000000E+01  0.00000000E+00
  5.00000000E+02  4.99600361E-14  0.00000000E+00
  5.20000000E+02  3.00000000E+02  0.00000000E+00
  5.20000000E+02  2.80000000E+02  0.00000000E+00
  5.20000000E+02  2.60000000E+02  0.00000000E+00
  5.20000000E+02  2.40000000E+02  0.00000000E+00
  5.20000000E+02  2.20000000E+02  0.00000000E+00
  5.20000000E+02  2.00000000E+02  0.00000000E+00
  5.20000000E+02  1.80000000E+02  0.00000000E+00
  5.20000000E+02  1.60000000E+02  0.00000000E+00
  5.20000000E+02  1.40000000E+02  0.00000000E+00
  5.20000000E+02  1.20000000E+02  0.00000000E+00
  5.20000000E+02  1.00000000E+02  0.00000000E+00
  5.20000000E+02  8.00000000E+01  0.00000000E+00
  5.20000000E+02  6.00000000E+01  0.00000000E+00
  5.20000000E+02  4.00000000E+01  0.00000000E+00
  5.20000000E+02  2.00000000E+01  0.00000000E+00
  5.20000000E+02  4.99600361E-14  0.00000000E+00
  5.40000000E+02  3.00000000E+02  0.00000000E+00
  5.40000000E+02  2.80000000E+02  0.00000000E+00
  5.40000000E+02  2.60000000E+02  0.00000000E+00
  5.40000000E+02  2.40000000E+02  0.00000000E+00
  5.40000000E+02  2.20000000E+02  0.00000000E+00
  5.40000000E+02  2.00000000E+02  0.00000000E+00
  5.40000000E+02  1.80000000E+02  0.00000000E+00
  5.40000000E+02  1.60000000E+02  0.00000000E+00
  5.40000000E+02  1.40000000E+02  0.00000000E+00
  5.40000000E+02  1.20000000E+02  0.00000000E+00
  5.40000000E+02  1.00000000E+02  0.00000000E+00
  5.40000000E+02  8.00000000E+01  0.00000000E+00
  5.40000000E+02  6.00000000E+01  0.00000000E+00
  5.40000000E+02  4.00000000E+01  0.00000000E+00
  5.40000000E+02  2.00000000E+01  0.00000000E+00
  5.40000000E+02  4.99600361E-14  0.00000000E+00
  5.60000000E+02  3.00000000E+02  0.00000000E+00
  5.60000000E+02  2.80000000E+02  0.00000000E+00
  5.60000000E+02  2.60000000E+02  0.00000000E+00
  5.60000000E+02  2.40000000E+02  0.00000000E+00
  5.60000000E+02  2.20000000E+02  0.00000000E+00
  5.60000000E+02  2.00000000E+02  0.00000000E+00
  5.60000000E+02  1.80000000E+02  0.00000000E+00
  5.60000000E+02  1.60000000E+02  0.00000000E+00
  5.60000000E+02  1.40000000E+02  0.00000000E+00
  5.60000000E+02  1.20000000E+02  0.00000000E+00
  5.60000000E+02  1.00000000E+02  0.00000000E+00
  5.60000000E+02  8.00000000E+01  0.00000000E+00
  5.60000000E+02  6.00000000E+01  0.00000000E+00
  5.60000000E+02  4.00000000E+01  0.00000000E+00
  5.60000000E+02  2.00000000E+01  0.00000000E+00
  5.60000000E+02  4.99600361E-14  0.00000000E+00
  5.80000000E+02  3.00000000E+02  0.00000000E+00
  5.80000000E+02  2.80000000E+02  0.00000000E+00
  5.80000000E+02  2.60000000E+02  0.00000000E+00
  5.80000000E+02  2.40000000E+02  0.00000000E+00
  5.80000000E+02  2.20000000E+02  0.00000000E+00
  5.80000000E+02  2.00000000E+02  0.00000000E+00
  5.80000000E+02  1.80000000E+02  0.00000000E+00
  5.80000000E+02  1.60000000E+02  0.00000000E+00
  5.80000000E+02  1.40000000E+02  0.00000000E+00
  5.80000000E+02  1.20000000E+02  0.00000000E+00
  5.80000000E+02  1.00000000E+02  0.00000000E+00
  5.80000000E+02  8.00000000E+01  0.00000000E+00
  5.80000000E+02  6.00000000E+01  0.00000000E+00
  5.80000000E+02  4.00000000E+01  0.00000000E+00
  5.80000000E+02  2.00000000E+01  0.00000000E+00
  5.80000000E+02  4.99600361E-14  0.00000000E+00
  6.00000000E+02  3.00000000E+02  0.00000000E+00
  6.00000000E+02  2.80000000E+02  0.00000000E+00
  6.00000000E+02  2.60000000E+02  0.00000000E+00
  6.00000000E+02  2.40000000E+02  0.00000000E+00
  6.00000000E+02  2.20000000E+02  0.00000000E+00
  6.00000000E+02  2.00000000E+02  0.00000000E+00
  6.00000000E+02  1.80000000E+02  0.00000000E+00
  6.00000000E+02  1.60000000E+02  0.00000000E+00
  6.00000000E+02  1.40000000E+02  0.00000000E+00
  6.00000000E+02  1.20000000E+02  0.00000000E+00
  6.00000000E+02  1.00000000E+02  0.00000000E+00
  6.00000000E+02  8.00000000E+01  0.00000000E+00
  6.00000000E+02  6.00000000E+01  0.00000000E+00
  6.00000000E+02  4.00000000E+01  0.00000000E+00
  6.00000000E+02  2.00000000E+01  0.00000000E+00
  6.00000000E+02  4.99600361E-14  0.00000000E+00
CELLS       450      2250
         4           0           1          17          16
         4           1           2          18          17
         4           2           3          19          18
         4           3           4          20          19
         4           4           5          21          20
         4           5           6          22          21
         4           6           7          23          22
         4           7           8          24          23
         4           8           9          25          24
         4           9          10          26          25
         4          10          11          27          26
         4          11          12          28          27
         4          12          13          29          28
         4          13          14          30          29
         4          14          15          31          30
         4          16          17          33          32
         4          17          18          34          33
         4          18          19          35          34
         4          19          20          36          35
         4          20          21          37          36
         4          21          22          38          37
         4          22          23          39          38
         4          23          24          40          39
         4          24          25          41          40
         4          25          26          42          41
         4          26          27          43          42
         4          27          28          44          43
         4          28          29          45          44
         4          29          30          46          45
         4          30          31          47          46
         4          32          33          49          48
         4          33          34          50          49
         4          34          35          51          50
         4          35          36          52          51
         4          36          37          53          52
         4          37          38          54          53
         4          38          39          55          54
         4          39          40          56          55
         4          40          41          57          56
         4          41          42          58          57
         4          42          43          59          58
         4          43          44          60          59
         4          44          45          61          60
         4          45          46          62          61
         4          46          47          63          62
         4          48          49          65          64
         4          49          50          66          65
         4          50          51          67          66
         4          51          52          68          67
         4          52          53          69          68
         4          53          54          70          69
         4          54          55          71          70
         4          55          56          72          71
         4          56          57          73          72
         4          57          58          74          73
         4          58          59          75          74
         4          59          60          76          75
         4          60          61          77          76
         4          61          62          78          77
         4          62          63          79          78
         4          64          65          81          80
         4          65          66          82          81
         4          66          67          83          82
         4          67          68          84          83
         4          68          69          85          84
         4          69          70          86          85
         4          70          71          87          86
         4          71          72          88          87
         4          72          73          89          88
         4          73          74          90          89
         4          74          75          91          90
         4          75          76          92          91
         4          76          77          93          92
         4          77          78          94          93
         4          78          79          95          94
         4          80          81          97          96
         4          81          82          98          97
         4          82          83          99          98
         4          83          84         100          99
         4          84          85         101         100
         4          85          86         102         101
         4          86          87         103         102
         4          87          88         104         103
         4          88          89         105         104
         4          89          90         106         105
         4          90          91         107         106
         4          91          92         108         107
         4          92          93         109         108
         4          93          94         110         109
         4          94          95         111         110
         4          96          97         113         112
         4          97          98         114         113
         4          98          99         115         114
         4          99         100         116         115
         4         100         101         117         116
         4         101         102         118         117
         4         102         103         119         118
         4         103         104         120         119
         4         104         105         121         120
         4         105         106         122         121
         4         106         107         123         122
         4         107         108         124         123
         4         108         109         125         124
         4         109         110         126         125
         4         110         111         127         126
         4         112         113         129         128
         4         113         114         130         129
         4         114         115         131         130
         4         115         116         132         131
         4         116         117         133         132
         4         117         118         134         133
         4         118         119         135         134
         4         119         120         136         135
         4         120         121         137         136
         4         121         122         138         137
         4         122         123         139         138
         4         123         124         140         139
         4         124         125         141         140
         4         125         126         142         141
         4         126         127         143         142
         4         128         129         145         144
         4         129         130         146         145
         4         130         131         147         146
         4         131         132         148         147
         4         132         133         149         148
         4         133         134         150         149
         4         134         135         151         150
         4         135         136         152         151
         4         136         137         153         152
         4         137         138         154         153
         4         138         139         155         154
         4         139         140         156         155
         4         140         141         157         156
         4         141         142         158         157
         4         142         143         159         158
         4         144         145         161         160
         4         145         146         162         161
         4         146         147         163         162
         4         147         148         164         163
         4         148         149         165         164
         4         149         150         166         165
         4         150         151         167         166
         4         151         152         168         167
         4         152         153         169         168
         4         153         154         170         169
         4         154         155         171         170
         4         155         156         172         171
         4         156         157         173         172
         4         157         158         174         173
         4         158         159         175         174
         4         160         161         177         176
         4         161         162         178         177
         4         162         163         179         178
         4         163         164         180         179
         4         164         165         181         180
         4         165         166         182         181
         4         166         167         183         182
         4         167         168         184         183
         4         168         169         185         184
         4         169         170         186         185
         4         170         171         187         186
         4         171         172         188         187
         4         172         173         189         188
         4         173         174         190         189
         4         174         175         191         190
         4         176         177         193         192
         4         177         178         194         193
         4         178         179         195         194
         4         179         180         196         195
         4         180         181         197         196
         4         181         182         198         197
         4         182         183         199         198
         4         183         184         200         199
         4         184         185         201         200
         4         185         186         202         201
         4         186         187         203         202
         4         187         188         204         203
         4         188         189         205         204
         4         189         190         206         205
         4         190         191         207         206
         4         192         193         209         208
         4         193         194         210         209
         4         194         195         211         210
         4         195         196         212         211
         4         196         197         213         212
         4         197         198         214         213
         4         198         199         215         214
         4         199         200         216         215
         4         200         201         217         216
         4         201         202         218         217
         4         202         203         219         218
         4         203         204         220         219
         4         204         205         221         220
         4         205         206         222         221
         4         206         207         223         222
         4         208         209         225         224
         4         209         210         226         225
         4         210         211         227         226
         4         211         212         228         227
         4         212         213         229         228
         4         213         214         230         229
         4         214         215         231         230
         4         215         216         232         231
         4         216         217         233         232
         4         217         218         234         233
         4         218         219         235         234
         4         219         220         236         235
         4         220         221         237         236
         4         221         222         238         237
         4         222         223         239         238
         4         224         225         241         240
         4         225         226         242         241
         4         226         227         243         242
         4         227         228         244         243
         4         228         229         245         244
         4         229         230         246         245
         4         230         231         247         246
         4         231         232         248         247
         4         232         233         249         248
         4         233         234         250         249
         4         234         235         251         250
         4         235         236         252         251
         4         236         237         253         252
         4         237         238         254         253
         4         238         239         255         254
         4         240         241         257         256
         4         241         242         258         257
         4         242         243         259         258
         4         243         244         260         259
         4         244         245         261         260
         4         245         246         262         261
         4         246         247         263         262
         4         247         248         264         263
         4         248         249         265         264
         4         249         250         266         265
         4         250         251         267         266
         4         251         252         268         267
         4         252         253         269         268
         4         253         254         270         269
         4         254         255         271         270
         4         256         257         273         272
         4         257         258         274         273
         4         258         259         275         274
         4         259         260         276         275
         4         260         261         277         276
         4         261         262         278         277
         4         262         263         279         278
         4         263         264         280         279
         4         264         265         281         280
         4         265         266         282         281
         4         266         267         283         282
         4         267         268         284         283
         4         268         269         285         284
         4         269         270         286         285
         4         270         271         287         286
         4         272         273         289         288
         4         273         274         290         289
         4         274         275         291         290
         4         275         276         292         291
         4         276         277         293         292
         4         277         278         294         293
         4         278         279         295         294
         4         279         280         296         295
         4         280         281         297         296
         4         281         282         298         297
         4         282         283         299         298
         4         283         284         300         299
         4         284         285         301         300
         4         285         286         302         301
         4         286         287         303         302
         4         288         289         305         304
         4         289         290         306         305
         4         290         291         307         306
         4         291         292         308         307
         4         292         293         309         308
         4         293         294         310         309
         4         294         295         311         310
         4         295         296         312         311
         4         296         297         313         312
         4         297         298         314         313
         4         298         299         315         314
         4         299         300         316         315
         4         300         301         317         316
         4         301         302         318         317
         4         302         303         319         318
         4         304         305         321         320
         4         305         306         322         321
         4         306         307         323         322
         4         307         308         324         323
         4         308         309         325         324
         4         309         310         326         325
         4         310         311         327         326
         4         311         312         328         327
         4         312         313         329         328
         4         313         314         330         329
         4         314         315         331         330
         4         315         316         332         331
         4         316         317         333         332
         4         317         318         334         333
         4         318         319         335         334
         4         320         321         337         336
         4         321         322         338         337
         4         322         323         339         338
         4         323         324         340         339
         4         324         325         341         340
         4         325         326         342         341
         4         326         327         343         342
         4         327         328         344         343
         4         328         329         345         344
         4         329         330         346         345
         4         330         331         347         346
         4         331         332         348         347
         4         332         333         349         348
         4         333         334         350         349
         4         334         335         351         350
         4         336         337         353         352
         4         337         338         354         353
         4         338         339         355         354
         4         339         340         356         355
         4         340         341         357         356
         4         341         342         358         357
         4         342         343         359         358
         4         343         344         360         359
         4         344         345         361         360
         4         345         346         362         361
         4         346         347         363         362
         4         347         348         364         363
         4         348         349         365         364
         4         349         350         366         365
         4         350         351         367         366
         4         352         353         369         368
         4         353         354         370         369
         4         354         355         371         370
         4         355         356         372         371
         4         356         357         373         372
         4         357         358         374         373
         4         358         359         375         374
         4         359         360         376         375
         4         360         361         377         376
         4         361         362         378         377
         4         362         363         379         378
         4         363         364         380         379
         4         364         365         381         380
         4         365         366         382         381
         4         366         367         383         382
         4         368         369         385         384
         4         369         370         386         385
         4         370         371         387         386
         4         371         372         388         387
         4         372         373         389         388
         4         373         374         390         389
         4         374         375         391         390
         4         375         376         392         391
         4         376         377         393         392
         4         377         378         394         393
         4         378         379         395         394
         4         379         380         396         395
         4         380         381         397         396
         4         381         382         398         397
         4         382         383         399         398
         4         384         385         401         400
         4         385         386         402         401
         4         386         387         403         402
         4         387         388         404         403
         4         388         389         405         404
         4         389         390         406         405
         4         390         391         407         406
         4         391         392         408         407
         4         392         393         409         408
         4         393         394         410         409
         4         394         395         411         410
         4         395         396         412         411
         4         396         397         413         412
         4         397         398         414         413
         4         398         399         415         414
         4         400         401         417         416
         4         401         402         418         417
         4         402         403         419         418
         4         403         404         420         419
         4         404         405         421         420
         4         405         406         422         421
         4         406         407         423         422
         4         407         408         424         423
         4         408         409         425         424
         4         409         410         426         425
         4         410         411         427         426
         4         411         412         428         427
         4         412         413         429         428
         4         413         414         430         429
         4         414         415         431         430
         4         416         417         433         432
         4         417         418         434         433
         4         418         419         435         434
         4         419         420         436         435
         4         420         421         437         436
         4         421         422         438         437
         4         422         423         439         438
         4         423         424         440         439
         4         424         425         441         440
         4         425         426         442         441
         4         426         427         443         442
         4         427         428         444         443
         4         428         429         445         444
         4         429         430         446         445
         4         430         431         447         446
         4         432         433         449         448
         4         433         434         450         449
         4         434         435         451         450
         4         435         436         452         451
         4         436         437         453         452
         4         437         438         454         453
         4         438         439         455         454
         4         439         440         456         455
         4         440         441         457         456
         4         441         442         458         457
         4         442         443         459         458
         4         443         444         460         459
         4         444         445         461         460
         4         445         446         462         461
         4         446         447         463         462
         4         448         449         465         464
         4         449         450         466         465
         4         450         451         467         466
         4         451         452         468         467
         4         452         453         469         468
         4         453         454         470         469
         4         454         455         471         470
         4         455         456         472         471
         4         456         457         473         472
         4         457         458         474         473
         4         458         459         475         474
         4         459         460         476         475
         4         460         461         477         476
         4         461         462         478         477
         4         462         463         479         478
         4         464         465         481         480
         4         465         466         482         481
         4         466         467         483         482
         4         467         468         484         483
         4         468         469         485         484
         4         469         470         486         485
         4         470         471         487         486
         4         471         472         488         487
         4         472         473         489         488
         4         473         474         490         489
         4         474         475         491         490
         4         475         476         492         491
         4         476         477         493         492
         4         477         478         494         493
         4         478         479         495         494
CELL_TYPES        450
9
9
9
9
9
9
9
9
9
9
9
9
9
9
9
9
9
9
9
9
9
9
9
9
9
9
9
9
9
9
9
9
9
9
9
9
9
9
9
9
9
9
9
9
9
9
9
9
9
9
9
9
9
9
9
9
9
9
9
9
9
9
9
9
9
9
9
9
9
9
9
9
9
9
9
9
9
9
9
9
9
9
9
9
9
9
9
9
9
9
9
9
9
9
9
9
9
9
9
9
9
9
9
9
9
9
9
9
9
9
9
9
9
9
9
9
9
9
9
9
9
9
9
9
9
9
9
9
9
9
9
9
9
9
9
9
9
9
9
9
9
9
9
9
9
9
9
9
9
9
9
9
9
9
9
9
9
9
9
9
9
9
9
9
9
9
9
9
9
9
9
9
9
9
9
9
9
9
9
9
9
9
9
9
9
9
9
9
9
9
9
9
9
9
9
9
9
9
9
9
9
9
9
9
9
9
9
9
9
9
9
9
9
9
9
9
9
9
9
9
9
9
9
9
9
9
9
9
9
9
9
9
9
9
9
9
9
9
9
9
9
9
9
9
9
9
9
9
9
9
9
9
9
9
9
9
9
9
9
9
9
9
9
9
9
9
9
9
9
9
9
9
9
9
9
9
9
9
9
9
9
9
9
9
9
9
9
9
9
9
9
9
9
9
9
9
9
9
9
9
9
9
9
9
9
9
9
9
9
9
9
9
9
9
9
9
9
9
9
9
9
9
9
9
9
9
9
9
9
9
9
9
9
9
9
9
9
9
9
9
9
9
9
9
9
9
9
9
9
9
9
9
9
9
9
9
9
9
9
9
9
9
9
9
9
9
9
9
9
9
9
9
9
9
9
9
9
9
9
9
9
9
9
9
9
9
9
9
9
9
9
9
9
9
9
9
9
9
9
9
9
9
9
9
9
9
9
9
9
9
9
9
9
9
9
9
9
9
9
9
9
9
9
9
9
9
9
9
9
9
9
9
9
9
9
9
9
9
9
9
9
9
9
9
9
9
9
9
9
9
POINT_DATA       496
SCALARS p double 
LOOKUP_TABLE default
   62639580.8694947     
   62645328.6015455     
   62654691.1949544     
   62661281.1484122     
   62667024.5451363     
   62672297.5247886     
   62677304.6506226     
   62682119.6117446     
   62686766.7327888     
   62691254.0957706     
   62695596.9132512     
   62699840.5121740     
   62704113.9085198     
   62708628.4112691     
   62714766.0071702     
   62718578.6050290     
   61240739.4067345     
   61238913.7146031     
   61236894.5203089     
   61236675.9657948     
   61236679.0216885     
   61236787.2823543     
   61236929.8831993     
   61237084.0010802     
   61237237.0160261     
   61237380.2525645     
   61237504.7059200     
   61237597.1351577     
   61237612.8378036     
   61237501.6261569     
   61236133.0678336     
   61234849.6615539     
   60502883.5289903     
   60502164.5858874     
   60500529.5898473     
   60498950.4719809     
   60497708.2998572     
   60496591.3383161     
   60495544.0315228     
   60494540.5476392     
   60493571.8596630     
   60492633.7790026     
   60491720.7050771     
   60490817.0898092     
   60489892.9702078     
   60488807.5107292     
   60487824.8977426     
   60487456.9516215     
   60183205.7566202     
   60182984.5903923     
   60182349.4110921     
   60181476.7298086     
   60180585.3682026     
   60179735.9645876     
   60178916.0645740     
   60178122.0884539     
   60177353.8004354     
   60176612.5316186     
   60175898.5614443     
   60175210.0215718     
   60174537.9524425     
   60173928.4644092     
   60173501.1509214     
   60173349.4625340     
   60061278.9485207     
   60061198.8330954     
   60060959.9594570     
   60060598.7974521     
   60060181.8354291     
   60059754.1810697     
   60059332.0400092     
   60058919.5589960     
   60058519.6978911     
   60058134.9774644     
   60057767.6703426     
   60057420.0245687     
   60057101.6809886     
   60056836.4902441     
   60056659.2326957     
   60056597.4477780     
   60017934.9071077     
   60017905.0681067     
   60017819.6330042     
   60017690.9690955     
   60017536.5049714     
   60017371.4722934     
   60017204.7470862     
   60017040.3435028     
   60016880.2996149     
   60016726.2247604     
   60016579.6989911     
   60016443.2508267     
   60016321.7126815     
   60016223.0837803     
   60016157.2191804     
   60016133.7174937     
   60002403.1941260     
   60002397.1086000     
   60002380.4747788     
   60002356.0400619     
   60002326.1724204     
   60002293.1350283     
   60002258.4657625     
   60002222.9532987     
   60002187.0583936     
   60002151.2569643     
   60002116.2179280     
   60002082.9416915     
   60002052.9439142     
   60002028.2851769     
   60002011.4155813     
   60002005.2525242     
   59995473.7152376     
   59995481.9414299     
   59995504.4888142     
   59995536.6236696     
   59995573.5746162     
   59995611.5272449     
   59995647.8214799     
   59995680.8559019     
   59995709.8935599     
   59995734.8049910     
   59995755.7792298     
   59995773.0678245     
   59995786.8041330     
   59995796.9149879     
   59995803.1449174     
   59995805.2495964     
   59990101.3735395     
   59990122.0921478     
   59990177.7280824     
   59990255.4192875     
   59990343.8618248     
   59990434.3826023     
   59990521.1846425     
   59990601.0545878     
   59990672.7524492     
   59990736.2561754     
   59990792.0051995     
   59990840.2613423     
   59990880.6726485     
   59990912.0844549     
   59990932.6004558     
   59990939.8592406     
   59983321.5959888     
   59983357.6382563     
   59983452.9993449     
   59983583.2898959     
   59983728.3298727     
   59983873.4294886     
   59984009.4623086     
   59984132.0954562     
   59984240.5041812     
   59984335.8697850     
   59984419.9207468     
   59984493.7258512     
   59984556.8879730     
   59984607.2179201     
   59984640.8891125     
   59984652.9959128     
   59973190.6013847     
   59973248.3239450     
   59973398.6795634     
   59973598.9231101     
   59973815.2964701     
   59974024.5916219     
   59974213.7587989     
   59974378.1755907     
   59974519.1308775     
   59974641.0251235     
   59974748.7155564     
   59974845.3475152     
   59974930.9208268     
   59975001.7381306     
   59975050.7610472     
   59975068.7680178     
   59957602.2803262     
   59957691.2047551     
   59957918.5906569     
   59958211.8776645     
   59958516.3040566     
   59958796.6003407     
   59959035.5014206     
   59959230.1639224     
   59959387.4377978     
   59959518.8159211     
   59959635.7379157     
   59959745.7777657     
   59959850.1158168     
   59959942.5672074     
   59960010.2759879     
   59960035.9818302     
   59933709.6943942     
   59933842.0947841     
   59934172.8735877     
   59934581.7104524     
   59934982.0395989     
   59935322.2823370     
   59935581.9932638     
   59935764.8320297     
   59935889.9666939     
   59935983.2216809     
   59936068.9827083     
   59936163.6258608     
   59936271.0805913     
   59936381.0195776     
   59936469.9991217     
   59936505.6053402     
   59897486.1459198     
   59897675.6048193     
   59898134.4501514     
   59898667.7404279     
   59899142.3823348     
   59899486.4416444     
   59899680.5156394     
   59899744.5024130     
   59899722.4444476     
   59899667.4661069     
   59899628.2107110     
   59899637.7697501     
   59899705.9505764     
   59899815.7413401     
   59899924.7846488     
   59899972.4123433     
   59843262.9992025     
   59843520.4970803     
   59844116.5494625     
   59844743.1364498     
   59845202.1409762     
   59845399.6079321     
   59845327.9489989     
   59845041.8758245     
   59844632.4709008     
   59844202.3733439     
   59843843.8008679     
   59843620.4160550     
   59843554.0148915     
   59843617.4449637     
   59843735.5785150     
   59843796.1792580     
   59763188.2260457     
   59763513.5142413     
   59764212.1749512     
   59764810.9207235     
   59765026.2993826     
   59764747.6562506     
   59764002.3553153     
   59762913.2729951     
   59761655.7689823     
   59760418.2899030     
   59759368.1949817     
   59758623.1176053     
   59758228.4880266     
   59758143.3115547     
   59758237.9721864     
   59758308.8143780     
   59646588.2192532     
   59646952.9737858     
   59647623.3467235     
   59647894.9194383     
   59647382.5923657     
   59645980.2856793     
   59643795.4882048     
   59641076.0782658     
   59638141.1437766     
   59635321.1535352     
   59632907.6244546     
   59631110.0757699     
   59630019.1457454     
   59629578.4886029     
   59629572.6633011     
   59629641.7788558     
   59479230.0488982     
   59479547.4760833     
   59479870.5151230     
   59479189.4892081     
   59477018.7184145     
   59473310.4988340     
   59468335.1729969     
   59462557.9100866     
   59456531.2381616     
   59450809.2520918     
   59445879.0315944     
   59442100.4143680     
   59439647.8978463     
   59438456.7182697     
   59438185.8720965     
   59438220.3142530     
   59242483.3468416     
   59242556.1968492     
   59241871.3993068     
   59239048.2350217     
   59233546.5054088     
   59225492.8357397     
   59215464.8820442     
   59204287.8896149     
   59192874.2599423     
   59182110.2469218     
   59172773.7833579     
   59165459.4653675     
   59160492.2241540     
   59157827.8283690     
   59156960.8927362     
   59156882.9214802     
   58912368.5578471     
   58911803.1237675     
   58908860.2431274     
   58901769.3501865     
   58890080.7223446     
   58874325.2121417     
   58855630.4755495     
   58835391.3617418     
   58815042.3915200     
   58795927.6884346     
   58779226.6241582     
   58765880.0918062     
   58756472.9649309     
   58751058.9355248     
   58748957.4247521     
   58748598.1552709     
   58458443.1389368     
   58456508.9018040     
   58449071.1582613     
   58434079.1789555     
   58411520.2298232     
   58382762.2605771     
   58349876.5745589     
   58315115.4429811     
   58280613.6174895     
   58248281.5850712     
   58219795.4431265     
   58196569.8609821     
   58179620.1843767     
   58169270.9506439     
   58164745.1069958     
   58163757.8690695     
   57842405.4652437     
   57837804.1874301     
   57822010.6392673     
   57793098.8856456     
   57752234.6956748     
   57702409.1595447     
   57647251.7503572     
   57590229.8296188     
   57534311.7929252     
   57481985.4128471     
   57435432.3624874     
   57396647.2604534     
   57367323.6520390     
   57348402.5973585     
   57339301.5422305     
   57337005.9612759     
   57016162.8276967     
   57006636.6942052     
   56975950.8421956     
   56923348.5751964     
   56852677.1095357     
   56769935.5048565     
   56681220.0951857     
   56591575.3189426     
   56504753.9769778     
   56423579.9144008     
   56350527.6312467     
   56288171.0607789     
   56239206.6445224     
   56205825.0961003     
   56188366.0937611     
   56183476.4940200     
   55918861.4514013     
   55900491.7023274     
   55843887.7080512     
   55751882.0741864     
   55633970.5399730     
   55501518.0451029     
   55364301.6062113     
   55229099.6333732     
   55099947.2382828     
   54979260.1711129     
   54869154.5128220     
   54772509.6857504     
   54693370.9553000     
   54636243.1420762     
   54603936.9654558     
   54594100.0606315     
   54471881.7793394     
   54437736.9172378     
   54336370.5340138     
   54179668.2102516     
   53988568.0592601     
   53783602.0998770     
   53579463.1186036     
   53384073.3272128     
   53200338.7867303     
   53028702.1938067     
   52869557.7567590     
   52725248.7011197     
   52601325.9878576     
   52506207.7231370     
   52448161.3411429     
   52429178.3929363     
   52569698.2473537     
   52506973.6134552     
   52327593.3350272     
   52065063.1086653     
   51763058.2192155     
   51456634.0674180     
   51165386.0743088     
   50895821.9622331     
   50646806.0383562     
   50414251.2604487     
   50194544.8257968     
   49987639.0114462     
   49799935.7873497     
   49645706.1282820     
   49543980.1385963     
   49508485.5575781     
   50061729.6809512     
   49944928.4427701     
   49625484.7978416     
   49189430.0887992     
   48724476.3895966     
   48284862.2295772     
   47889540.4927478     
   47536967.7006786     
   47217509.8343910     
   46919339.0915078     
   46631948.3626894     
   46349464.9507618     
   46076302.6197248     
   45833376.9860973     
   45658992.2588627     
   45594248.7525952     
   46712040.5183489     
   46483179.0427585     
   45898746.8685552     
   45177491.5049908     
   44489959.4217636     
   43896383.2898580     
   43393319.2997545     
   42961441.2482157     
   42577801.5954845     
   42220313.0803040     
   41869243.4302020     
   41509234.2879100     
   41134197.0391784     
   40766899.9139929     
   40474970.0101171     
   40358729.5819570     
   42090122.3270076     
   41596555.4820004     
   40448583.8175045     
   39293083.9814831     
   38369807.5459814     
   37641146.1643260     
   37058267.2812861     
   36575395.4015023     
   36154751.0516713     
   35764435.3798252     
   35376173.8339594     
   34963922.7580820     
   34506452.1677592     
   33993533.3492966     
   33523011.7741950     
   33322036.5889928     
   35280120.6802977     
   33627029.9120165     
   31343638.5645675     
   29887433.7651352     
   28869792.3899080     
   28133129.6656672     
   27573240.8154248     
   27124715.3862284     
   26742213.6960632     
   26391191.6698050     
   26041949.4425469     
   25665702.6956759     
   25231181.8981287     
   24709966.6966639     
   24045826.6048466     
   23690316.8637375     
   10425000.0000000     
   10425000.0000000     
   10425000.0000000     
   10425000.0000000     
   10425000.0000000     
   10425000.0000000     
   10425000.0000000     
   10425000.0000000     
   10425000.0000000     
   10425000.0000000     
   10425000.0000000     
   10425000.0000000     
   10425000.0000000     
   10425000.0000000     
   10425000.0000000     
   10425000.0000000     
VECTORS u double 
    0.00000E+00         0.46468E+00         0.00000E+00
    0.00000E+00         0.44003E+00         0.00000E+00
    0.00000E+00         0.42699E+00         0.00000E+00
    0.00000E+00         0.42099E+00         0.00000E+00
    0.00000E+00         0.41666E+00         0.00000E+00
    0.00000E+00         0.41076E+00         0.00000E+00
    0.00000E+00         0.40117E+00         0.00000E+00
    0.00000E+00         0.38648E+00         0.00000E+00
    0.00000E+00         0.36577E+00         0.00000E+00
    0.00000E+00         0.33847E+00         0.00000E+00
    0.00000E+00         0.30428E+00         0.00000E+00
    0.00000E+00         0.26299E+00         0.00000E+00
    0.00000E+00         0.21439E+00         0.00000E+00
    0.00000E+00         0.15786E+00         0.00000E+00
    0.00000E+00         0.91415E-01         0.00000E+00
    0.00000E+00         0.00000E+00         0.00000E+00
    0.31439E+00         0.40235E+00         0.00000E+00
    0.26788E+00         0.40871E+00         0.00000E+00
    0.25068E+00         0.40875E+00         0.00000E+00
    0.23690E+00         0.40870E+00         0.00000E+00
    0.22322E+00         0.40766E+00         0.00000E+00
    0.20894E+00         0.40377E+00         0.00000E+00
    0.19408E+00         0.39548E+00         0.00000E+00
    0.17882E+00         0.38168E+00         0.00000E+00
    0.16338E+00         0.36160E+00         0.00000E+00
    0.14792E+00         0.33474E+00         0.00000E+00
    0.13250E+00         0.30081E+00         0.00000E+00
    0.11700E+00         0.25958E+00         0.00000E+00
    0.10089E+00         0.21074E+00         0.00000E+00
    0.82630E-01         0.15353E+00         0.00000E+00
    0.57748E-01         0.85376E-01         0.00000E+00
    0.00000E+00         0.00000E+00         0.00000E+00
    0.56243E+00         0.31226E+00         0.00000E+00
    0.49763E+00         0.34194E+00         0.00000E+00
    0.45962E+00         0.36294E+00         0.00000E+00
    0.42963E+00         0.37576E+00         0.00000E+00
    0.40061E+00         0.38266E+00         0.00000E+00
    0.37095E+00         0.38391E+00         0.00000E+00
    0.34044E+00         0.37912E+00         0.00000E+00
    0.30936E+00         0.36779E+00         0.00000E+00
    0.27805E+00         0.34952E+00         0.00000E+00
    0.24680E+00         0.32397E+00         0.00000E+00
    0.21569E+00         0.29092E+00         0.00000E+00
    0.18450E+00         0.25011E+00         0.00000E+00
    0.15230E+00         0.20117E+00         0.00000E+00
    0.11668E+00         0.14328E+00         0.00000E+00
    0.70525E-01         0.75046E-01         0.00000E+00
    0.00000E+00         0.00000E+00         0.00000E+00
    0.77470E+00         0.23063E+00         0.00000E+00
    0.70668E+00         0.27126E+00         0.00000E+00
    0.65233E+00         0.30539E+00         0.00000E+00
    0.60478E+00         0.33005E+00         0.00000E+00
    0.55884E+00         0.34580E+00         0.00000E+00
    0.51250E+00         0.35349E+00         0.00000E+00
    0.46539E+00         0.35344E+00         0.00000E+00
    0.41778E+00         0.34571E+00         0.00000E+00
    0.37009E+00         0.33021E+00         0.00000E+00
    0.32266E+00         0.30685E+00         0.00000E+00
    0.27564E+00         0.27550E+00         0.00000E+00
    0.22876E+00         0.23601E+00         0.00000E+00
    0.18102E+00         0.18813E+00         0.00000E+00
    0.12996E+00         0.13164E+00         0.00000E+00
    0.71133E-01         0.67496E-01         0.00000E+00
    0.00000E+00         0.00000E+00         0.00000E+00
    0.97442E+00         0.15931E+00         0.00000E+00
    0.90590E+00         0.20492E+00         0.00000E+00
    0.83951E+00         0.24570E+00         0.00000E+00
    0.77543E+00         0.27810E+00         0.00000E+00
    0.71194E+00         0.30112E+00         0.00000E+00
    0.64799E+00         0.31494E+00         0.00000E+00
    0.58342E+00         0.31994E+00         0.00000E+00
    0.51860E+00         0.31638E+00         0.00000E+00
    0.45400E+00         0.30440E+00         0.00000E+00
    0.39006E+00         0.28408E+00         0.00000E+00
    0.32700E+00         0.25546E+00         0.00000E+00
    0.26465E+00         0.21853E+00         0.00000E+00
    0.20225E+00         0.17339E+00         0.00000E+00
    0.13831E+00         0.12055E+00         0.00000E+00
    0.70992E-01         0.61634E-01         0.00000E+00
    0.00000E+00         0.00000E+00         0.00000E+00
    0.11735E+01         0.93096E-01         0.00000E+00
    0.11026E+01         0.14144E+00         0.00000E+00
    0.10257E+01         0.18569E+00         0.00000E+00
    0.94629E+00         0.22271E+00         0.00000E+00
    0.86538E+00         0.25093E+00         0.00000E+00
    0.78338E+00         0.26989E+00         0.00000E+00
    0.70078E+00         0.27967E+00         0.00000E+00
    0.61819E+00         0.28049E+00         0.00000E+00
    0.53628E+00         0.27259E+00         0.00000E+00
    0.45558E+00         0.25614E+00         0.00000E+00
    0.37645E+00         0.23130E+00         0.00000E+00
    0.29896E+00         0.19826E+00         0.00000E+00
    0.22281E+00         0.15741E+00         0.00000E+00
    0.14751E+00         0.10957E+00         0.00000E+00
    0.72860E-01         0.56333E-01         0.00000E+00
    0.00000E+00         0.00000E+00         0.00000E+00
    0.13777E+01         0.26581E-01         0.00000E+00
    0.13013E+01         0.77111E-01         0.00000E+00
    0.12135E+01         0.12362E+00         0.00000E+00
    0.11190E+01         0.16364E+00         0.00000E+00
    0.10208E+01         0.19558E+00         0.00000E+00
    0.92063E+00         0.21872E+00         0.00000E+00
    0.81966E+00         0.23289E+00         0.00000E+00
    0.71898E+00         0.23819E+00         0.00000E+00
    0.61948E+00         0.23484E+00         0.00000E+00
    0.52188E+00         0.22304E+00         0.00000E+00
    0.42673E+00         0.20303E+00         0.00000E+00
    0.33439E+00         0.17511E+00         0.00000E+00
    0.24506E+00         0.13979E+00         0.00000E+00
    0.15898E+00         0.97918E-01         0.00000E+00
    0.76789E-01         0.50795E-01         0.00000E+00
    0.00000E+00         0.00000E+00         0.00000E+00
    0.15898E+01        -0.44696E-01         0.00000E+00
    0.15047E+01         0.80874E-02         0.00000E+00
    0.14044E+01         0.56598E-01         0.00000E+00
    0.12945E+01         0.98971E-01         0.00000E+00
    0.11788E+01         0.13389E+00         0.00000E+00
    0.10602E+01         0.16064E+00         0.00000E+00
    0.94071E+00         0.17897E+00         0.00000E+00
    0.82176E+00         0.18891E+00         0.00000E+00
    0.70455E+00         0.19062E+00         0.00000E+00
    0.59002E+00         0.18430E+00         0.00000E+00
    0.47893E+00         0.17016E+00         0.00000E+00
    0.37191E+00         0.14852E+00         0.00000E+00
    0.26958E+00         0.11985E+00         0.00000E+00
    0.17269E+00         0.84867E-01         0.00000E+00
    0.82311E-01         0.44544E-01         0.00000E+00
    0.00000E+00         0.00000E+00         0.00000E+00
    0.18116E+01        -0.12455E+00         0.00000E+00
    0.17148E+01        -0.69236E-01         0.00000E+00
    0.15999E+01        -0.18601E-01         0.00000E+00
    0.14733E+01         0.26019E-01         0.00000E+00
    0.13396E+01         0.63690E-01         0.00000E+00
    0.12023E+01         0.93898E-01         0.00000E+00
    0.10641E+01         0.11646E+00         0.00000E+00
    0.92680E+00         0.13140E+00         0.00000E+00
    0.79189E+00         0.13883E+00         0.00000E+00
    0.66048E+00         0.13891E+00         0.00000E+00
    0.53351E+00         0.13177E+00         0.00000E+00
    0.41187E+00         0.11763E+00         0.00000E+00
    0.29647E+00         0.96809E-01         0.00000E+00
    0.18841E+00         0.69793E-01         0.00000E+00
    0.89052E-01         0.37256E-01         0.00000E+00
    0.00000E+00         0.00000E+00         0.00000E+00
    0.20446E+01        -0.21658E+00         0.00000E+00
    0.19326E+01        -0.15842E+00         0.00000E+00
    0.18008E+01        -0.10540E+00         0.00000E+00
    0.16559E+01        -0.58368E-01         0.00000E+00
    0.15033E+01        -0.17817E-01         0.00000E+00
    0.13469E+01         0.16047E-01         0.00000E+00
    0.11898E+01         0.43213E-01         0.00000E+00
    0.10343E+01         0.63767E-01         0.00000E+00
    0.88176E+00         0.77810E-01         0.00000E+00
    0.73359E+00         0.85405E-01         0.00000E+00
    0.59083E+00         0.86577E-01         0.00000E+00
    0.45451E+00         0.81346E-01         0.00000E+00
    0.32579E+00         0.69788E-01         0.00000E+00
    0.20603E+00         0.52104E-01         0.00000E+00
    0.96840E-01         0.28659E-01         0.00000E+00
    0.00000E+00         0.00000E+00         0.00000E+00
    0.22897E+01        -0.32453E+00         0.00000E+00
    0.21591E+01        -0.26317E+00         0.00000E+00
    0.20076E+01        -0.20746E+00         0.00000E+00
    0.18427E+01        -0.15772E+00         0.00000E+00
    0.16700E+01        -0.11393E+00         0.00000E+00
    0.14941E+01        -0.75939E-01         0.00000E+00
    0.13181E+01        -0.43504E-01         0.00000E+00
    0.11443E+01        -0.16426E-01         0.00000E+00
    0.97446E+00         0.53937E-02         0.00000E+00
    0.80976E+00         0.21921E-01         0.00000E+00
    0.65131E+00         0.32996E-01         0.00000E+00
    0.50023E+00         0.38378E-01         0.00000E+00
    0.35781E+00         0.37826E-01         0.00000E+00
    0.22567E+00         0.31186E-01         0.00000E+00
    0.10570E+00         0.18482E-01         0.00000E+00
    0.00000E+00         0.00000E+00         0.00000E+00
    0.25476E+01        -0.45242E+00         0.00000E+00
    0.23945E+01        -0.38752E+00         0.00000E+00
    0.22205E+01        -0.32880E+00         0.00000E+00
    0.20336E+01        -0.27594E+00         0.00000E+00
    0.18398E+01        -0.22840E+00         0.00000E+00
    0.16438E+01        -0.18557E+00         0.00000E+00
    0.14488E+01        -0.14692E+00         0.00000E+00
    0.12572E+01        -0.11210E+00         0.00000E+00
    0.10704E+01        -0.80997E-01         0.00000E+00
    0.88954E+00        -0.53780E-01         0.00000E+00
    0.71559E+00        -0.30842E-01         0.00000E+00
    0.54963E+00        -0.12754E-01         0.00000E+00
    0.39307E+00        -0.15652E-03         0.00000E+00
    0.24772E+00         0.63652E-02         0.00000E+00
    0.11583E+00         0.64272E-02         0.00000E+00
    0.00000E+00         0.00000E+00         0.00000E+00
    0.28185E+01        -0.60473E+00         0.00000E+00
    0.26388E+01        -0.53594E+00         0.00000E+00
    0.24393E+01        -0.47383E+00         0.00000E+00
    0.22282E+01        -0.41738E+00         0.00000E+00
    0.20122E+01        -0.36541E+00         0.00000E+00
    0.17959E+01        -0.31681E+00         0.00000E+00
    0.15822E+01        -0.27070E+00         0.00000E+00
    0.13732E+01        -0.22658E+00         0.00000E+00
    0.11701E+01        -0.18433E+00         0.00000E+00
    0.97368E+00        -0.14426E+00         0.00000E+00
    0.78453E+00        -0.10707E+00         0.00000E+00
    0.60364E+00        -0.73724E-01         0.00000E+00
    0.43240E+00        -0.45366E-01         0.00000E+00
    0.27283E+00        -0.23105E-01         0.00000E+00
    0.12761E+00        -0.78350E-02         0.00000E+00
    0.00000E+00         0.00000E+00         0.00000E+00
    0.31022E+01        -0.78642E+00         0.00000E+00
    0.28914E+01        -0.71335E+00         0.00000E+00
    0.26629E+01        -0.64743E+00         0.00000E+00
    0.24259E+01        -0.58680E+00         0.00000E+00
    0.21868E+01        -0.52955E+00         0.00000E+00
    0.19500E+01        -0.47401E+00         0.00000E+00
    0.17182E+01        -0.41891E+00         0.00000E+00
    0.14928E+01        -0.36356E+00         0.00000E+00
    0.12744E+01        -0.30787E+00         0.00000E+00
    0.10631E+01        -0.25235E+00         0.00000E+00
    0.85928E+00        -0.19803E+00         0.00000E+00
    0.66347E+00        -0.14638E+00         0.00000E+00
    0.47696E+00        -0.99136E-01         0.00000E+00
    0.30195E+00        -0.58053E-01         0.00000E+00
    0.14159E+00        -0.24674E-01         0.00000E+00
    0.00000E+00         0.00000E+00         0.00000E+00
    0.33977E+01        -0.10030E+01         0.00000E+00
    0.31507E+01        -0.92520E+00         0.00000E+00
    0.28902E+01        -0.85496E+00         0.00000E+00
    0.26253E+01        -0.78943E+00         0.00000E+00
    0.23625E+01        -0.72584E+00         0.00000E+00
    0.21056E+01        -0.66189E+00         0.00000E+00
    0.18567E+01        -0.59591E+00         0.00000E+00
    0.16161E+01        -0.52703E+00         0.00000E+00
    0.13838E+01        -0.45519E+00         0.00000E+00
    0.11590E+01        -0.38112E+00         0.00000E+00
    0.94126E+00        -0.30629E+00         0.00000E+00
    0.73066E+00        -0.23274E+00         0.00000E+00
    0.52825E+00        -0.16292E+00         0.00000E+00
    0.33630E+00        -0.99390E-01         0.00000E+00
    0.15851E+00        -0.44498E-01         0.00000E+00
    0.00000E+00         0.00000E+00         0.00000E+00
    0.37031E+01        -0.12605E+01         0.00000E+00
    0.34148E+01        -0.11774E+01         0.00000E+00
    0.31188E+01        -0.11022E+01         0.00000E+00
    0.28245E+01        -0.10309E+01         0.00000E+00
    0.25378E+01        -0.95960E+00         0.00000E+00
    0.22617E+01        -0.88545E+00         0.00000E+00
    0.19972E+01        -0.80633E+00         0.00000E+00
    0.17436E+01        -0.72116E+00         0.00000E+00
    0.14993E+01        -0.62997E+00         0.00000E+00
    0.12626E+01        -0.53377E+00         0.00000E+00
    0.10321E+01        -0.43452E+00         0.00000E+00
    0.80705E+00        -0.33494E+00         0.00000E+00
    0.58807E+00        -0.23829E+00         0.00000E+00
    0.37743E+00        -0.14810E+00         0.00000E+00
    0.17932E+00        -0.67757E-01         0.00000E+00
    0.00000E+00         0.00000E+00         0.00000E+00
    0.40155E+01        -0.15656E+01         0.00000E+00
    0.36802E+01        -0.14765E+01         0.00000E+00
    0.33456E+01        -0.13954E+01         0.00000E+00
    0.30207E+01        -0.13170E+01         0.00000E+00
    0.27106E+01        -0.12364E+01         0.00000E+00
    0.24169E+01        -0.11498E+01         0.00000E+00
    0.21392E+01        -0.10548E+01         0.00000E+00
    0.18751E+01        -0.95018E+00         0.00000E+00
    0.16215E+01        -0.83595E+00         0.00000E+00
    0.13753E+01        -0.71355E+00         0.00000E+00
    0.11336E+01        -0.58545E+00         0.00000E+00
    0.89466E+00        -0.45515E+00         0.00000E+00
    0.65850E+00        -0.32687E+00         0.00000E+00
    0.42713E+00        -0.20525E+00         0.00000E+00
    0.20514E+00        -0.94941E-01         0.00000E+00
    0.00000E+00         0.00000E+00         0.00000E+00
    0.43303E+01        -0.19253E+01         0.00000E+00
    0.39424E+01        -0.18292E+01         0.00000E+00
    0.35663E+01        -0.17410E+01         0.00000E+00
    0.32103E+01        -0.16539E+01         0.00000E+00
    0.28779E+01        -0.15618E+01         0.00000E+00
    0.25692E+01        -0.14601E+01         0.00000E+00
    0.22815E+01        -0.13460E+01         0.00000E+00
    0.20105E+01        -0.12181E+01         0.00000E+00
    0.17510E+01        -0.10767E+01         0.00000E+00
    0.14981E+01        -0.92355E+00         0.00000E+00
    0.12474E+01        -0.76174E+00         0.00000E+00
    0.99559E+00        -0.59557E+00         0.00000E+00
    0.74176E+00        -0.43032E+00         0.00000E+00
    0.48738E+00        -0.27193E+00         0.00000E+00
    0.23726E+00        -0.12658E+00         0.00000E+00
    0.00000E+00         0.00000E+00         0.00000E+00
    0.46414E+01        -0.23471E+01         0.00000E+00
    0.41952E+01        -0.22425E+01         0.00000E+00
    0.37752E+01        -0.21456E+01         0.00000E+00
    0.33883E+01        -0.20476E+01         0.00000E+00
    0.30361E+01        -0.19412E+01         0.00000E+00
    0.27158E+01        -0.18211E+01         0.00000E+00
    0.24224E+01        -0.16840E+01         0.00000E+00
    0.21489E+01        -0.15286E+01         0.00000E+00
    0.18878E+01        -0.13554E+01         0.00000E+00
    0.16319E+01        -0.11665E+01         0.00000E+00
    0.13749E+01        -0.96575E+00         0.00000E+00
    0.11117E+01        -0.75821E+00         0.00000E+00
    0.83999E+00        -0.55027E+00         0.00000E+00
    0.56023E+00        -0.34930E+00         0.00000E+00
    0.27707E+00        -0.16326E+00         0.00000E+00
    0.00000E+00         0.00000E+00         0.00000E+00
    0.49404E+01        -0.28384E+01         0.00000E+00
    0.44305E+01        -0.27234E+01         0.00000E+00
    0.39651E+01        -0.26155E+01         0.00000E+00
    0.35489E+01        -0.25037E+01         0.00000E+00
    0.31801E+01        -0.23795E+01         0.00000E+00
    0.28531E+01        -0.22368E+01         0.00000E+00
    0.25592E+01        -0.20721E+01         0.00000E+00
    0.22886E+01        -0.18843E+01         0.00000E+00
    0.20310E+01        -0.16742E+01         0.00000E+00
    0.17767E+01        -0.14444E+01         0.00000E+00
    0.15168E+01        -0.11993E+01         0.00000E+00
    0.12444E+01        -0.94478E+00         0.00000E+00
    0.95499E+00        -0.68820E+00         0.00000E+00
    0.64758E+00        -0.43847E+00         0.00000E+00
    0.32596E+00        -0.20560E+00         0.00000E+00
    0.00000E+00         0.00000E+00         0.00000E+00
    0.52162E+01        -0.34067E+01         0.00000E+00
    0.46379E+01        -0.32788E+01         0.00000E+00
    0.41269E+01        -0.31566E+01         0.00000E+00
    0.36841E+01        -0.30271E+01         0.00000E+00
    0.33040E+01        -0.28804E+01         0.00000E+00
    0.29763E+01        -0.27099E+01         0.00000E+00
    0.26884E+01        -0.25122E+01         0.00000E+00
    0.24270E+01        -0.22864E+01         0.00000E+00
    0.21787E+01        -0.20340E+01         0.00000E+00
    0.19310E+01        -0.17581E+01         0.00000E+00
    0.16726E+01        -0.14634E+01         0.00000E+00
    0.13938E+01        -0.11564E+01         0.00000E+00
    0.10877E+01        -0.84535E+00         0.00000E+00
    0.75077E+00        -0.54055E+00         0.00000E+00
    0.38512E+00        -0.25425E+00         0.00000E+00
    0.00000E+00         0.00000E+00         0.00000E+00
    0.54549E+01        -0.40591E+01         0.00000E+00
    0.48045E+01        -0.39146E+01         0.00000E+00
    0.42492E+01        -0.37738E+01         0.00000E+00
    0.37849E+01        -0.36214E+01         0.00000E+00
    0.34001E+01        -0.34461E+01         0.00000E+00
    0.30792E+01        -0.32412E+01         0.00000E+00
    0.28047E+01        -0.30039E+01         0.00000E+00
    0.25594E+01        -0.27341E+01         0.00000E+00
    0.23267E+01        -0.24338E+01         0.00000E+00
    0.20914E+01        -0.21067E+01         0.00000E+00
    0.18393E+01        -0.17577E+01         0.00000E+00
    0.15581E+01        -0.13934E+01         0.00000E+00
    0.12373E+01        -0.10225E+01         0.00000E+00
    0.87012E+00        -0.65653E+00         0.00000E+00
    0.45529E+00        -0.30996E+00         0.00000E+00
    0.00000E+00         0.00000E+00         0.00000E+00
    0.56384E+01        -0.48016E+01         0.00000E+00
    0.49142E+01        -0.46356E+01         0.00000E+00
    0.43185E+01        -0.44704E+01         0.00000E+00
    0.38400E+01        -0.42878E+01         0.00000E+00
    0.34594E+01        -0.40758E+01         0.00000E+00
    0.31541E+01        -0.38283E+01         0.00000E+00
    0.29012E+01        -0.35436E+01         0.00000E+00
    0.26791E+01        -0.32230E+01         0.00000E+00
    0.24684E+01        -0.28695E+01         0.00000E+00
    0.22513E+01        -0.24869E+01         0.00000E+00
    0.20112E+01        -0.20799E+01         0.00000E+00
    0.17324E+01        -0.16547E+01         0.00000E+00
    0.14007E+01        -0.12198E+01         0.00000E+00
    0.10042E+01        -0.78721E+00         0.00000E+00
    0.53637E+00        -0.37350E+00         0.00000E+00
    0.00000E+00         0.00000E+00         0.00000E+00
    0.57445E+01        -0.56389E+01         0.00000E+00
    0.49471E+01        -0.54448E+01         0.00000E+00
    0.43183E+01        -0.52470E+01         0.00000E+00
    0.38363E+01        -0.50245E+01         0.00000E+00
    0.34712E+01        -0.47652E+01         0.00000E+00
    0.31916E+01        -0.44646E+01         0.00000E+00
    0.29683E+01        -0.41234E+01         0.00000E+00
    0.27761E+01        -0.37449E+01         0.00000E+00
    0.25930E+01        -0.33330E+01         0.00000E+00
    0.23996E+01        -0.28918E+01         0.00000E+00
    0.21773E+01        -0.24251E+01         0.00000E+00
    0.19073E+01        -0.19376E+01         0.00000E+00
    0.15705E+01        -0.14364E+01         0.00000E+00
    0.11486E+01        -0.93314E+00         0.00000E+00
    0.62683E+00        -0.44575E+00         0.00000E+00
    0.00000E+00         0.00000E+00         0.00000E+00
    0.57452E+01        -0.65732E+01         0.00000E+00
    0.48790E+01        -0.63422E+01         0.00000E+00
    0.42293E+01        -0.61007E+01         0.00000E+00
    0.37588E+01        -0.58250E+01         0.00000E+00
    0.34228E+01        -0.55042E+01         0.00000E+00
    0.31794E+01        -0.51375E+01         0.00000E+00
    0.29931E+01        -0.47294E+01         0.00000E+00
    0.28358E+01        -0.42857E+01         0.00000E+00
    0.26845E+01        -0.38116E+01         0.00000E+00
    0.25192E+01        -0.33106E+01         0.00000E+00
    0.23203E+01        -0.27849E+01         0.00000E+00
    0.20665E+01        -0.22367E+01         0.00000E+00
    0.17335E+01        -0.16702E+01         0.00000E+00
    0.12945E+01        -0.10944E+01         0.00000E+00
    0.72284E+00        -0.52767E+00         0.00000E+00
    0.00000E+00         0.00000E+00         0.00000E+00
    0.56052E+01        -0.76036E+01         0.00000E+00
    0.46806E+01        -0.73236E+01         0.00000E+00
    0.40295E+01        -0.70227E+01         0.00000E+00
    0.35905E+01        -0.66751E+01         0.00000E+00
    0.32992E+01        -0.62743E+01         0.00000E+00
    0.31015E+01        -0.58260E+01         0.00000E+00
    0.29571E+01        -0.53401E+01         0.00000E+00
    0.28370E+01        -0.48251E+01         0.00000E+00
    0.27191E+01        -0.42867E+01         0.00000E+00
    0.25845E+01        -0.37273E+01         0.00000E+00
    0.24139E+01        -0.31468E+01         0.00000E+00
    0.21846E+01        -0.25435E+01         0.00000E+00
    0.18677E+01        -0.19166E+01         0.00000E+00
    0.14262E+01        -0.12704E+01         0.00000E+00
    0.81694E+00        -0.62036E+00         0.00000E+00
    0.00000E+00         0.00000E+00         0.00000E+00
    0.52790E+01        -0.87241E+01         0.00000E+00
    0.43158E+01        -0.83781E+01         0.00000E+00
    0.36933E+01        -0.79950E+01         0.00000E+00
    0.33123E+01        -0.75493E+01         0.00000E+00
    0.30813E+01        -0.70450E+01         0.00000E+00
    0.29353E+01        -0.64985E+01         0.00000E+00
    0.28333E+01        -0.59253E+01         0.00000E+00
    0.27486E+01        -0.53355E+01         0.00000E+00
    0.26624E+01        -0.47339E+01         0.00000E+00
    0.25584E+01        -0.41209E+01         0.00000E+00
    0.24194E+01        -0.34931E+01         0.00000E+00
    0.22233E+01        -0.28447E+01         0.00000E+00
    0.19382E+01        -0.21681E+01         0.00000E+00
    0.15172E+01        -0.14589E+01         0.00000E+00
    0.89565E+00        -0.72491E+00         0.00000E+00
    0.00000E+00         0.00000E+00         0.00000E+00
    0.47061E+01        -0.99210E+01         0.00000E+00
    0.37401E+01        -0.94833E+01         0.00000E+00
    0.31932E+01        -0.89827E+01         0.00000E+00
    0.29005E+01        -0.84023E+01         0.00000E+00
    0.27399E+01        -0.77683E+01         0.00000E+00
    0.26444E+01        -0.71104E+01         0.00000E+00
    0.25792E+01        -0.64463E+01         0.00000E+00
    0.25241E+01        -0.57837E+01         0.00000E+00
    0.24647E+01        -0.51244E+01         0.00000E+00
    0.23889E+01        -0.44656E+01         0.00000E+00
    0.22828E+01        -0.38012E+01         0.00000E+00
    0.21270E+01        -0.31211E+01         0.00000E+00
    0.18915E+01        -0.24111E+01         0.00000E+00
    0.15236E+01        -0.16542E+01         0.00000E+00
    0.93472E+00        -0.84212E+00         0.00000E+00
    0.00000E+00         0.00000E+00         0.00000E+00
    0.37977E+01        -0.11167E+02         0.00000E+00
    0.28988E+01        -0.10596E+02         0.00000E+00
    0.24987E+01        -0.99162E+01         0.00000E+00
    0.23164E+01        -0.91537E+01         0.00000E+00
    0.22207E+01        -0.83741E+01         0.00000E+00
    0.21647E+01        -0.76059E+01         0.00000E+00
    0.21259E+01        -0.68587E+01         0.00000E+00
    0.20915E+01        -0.61337E+01         0.00000E+00
    0.20526E+01        -0.54276E+01         0.00000E+00
    0.20012E+01        -0.47343E+01         0.00000E+00
    0.19274E+01        -0.40448E+01         0.00000E+00
    0.18172E+01        -0.33468E+01         0.00000E+00
    0.16467E+01        -0.26221E+01         0.00000E+00
    0.13710E+01        -0.18431E+01         0.00000E+00
    0.88831E+00        -0.97039E+00         0.00000E+00
    0.00000E+00         0.00000E+00         0.00000E+00
    0.23991E+01        -0.12425E+02         0.00000E+00
    0.17376E+01        -0.11602E+02         0.00000E+00
    0.15495E+01        -0.10634E+02         0.00000E+00
    0.14574E+01        -0.96803E+01         0.00000E+00
    0.14070E+01        -0.87776E+01         0.00000E+00
    0.13756E+01        -0.79261E+01         0.00000E+00
    0.13527E+01        -0.71204E+01         0.00000E+00
    0.13321E+01        -0.63534E+01         0.00000E+00
    0.13093E+01        -0.56169E+01         0.00000E+00
    0.12799E+01        -0.49022E+01         0.00000E+00
    0.12388E+01        -0.41987E+01         0.00000E+00
    0.11781E+01        -0.34931E+01         0.00000E+00
    0.10848E+01        -0.27664E+01         0.00000E+00
    0.93212E+00        -0.19889E+01         0.00000E+00
    0.65885E+00        -0.11024E+01         0.00000E+00
    0.00000E+00         0.00000E+00         0.00000E+00
    0.00000E+00        -0.13402E+02         0.00000E+00
    0.00000E+00        -0.12048E+02         0.00000E+00
    0.00000E+00        -0.10889E+02         0.00000E+00
    0.00000E+00        -0.98566E+01         0.00000E+00
    0.00000E+00        -0.89092E+01         0.00000E+00
    0.00000E+00        -0.80293E+01         0.00000E+00
    0.00000E+00        -0.72042E+01         0.00000E+00
    0.00000E+00        -0.64234E+01         0.00000E+00
    0.00000E+00        -0.56771E+01         0.00000E+00
    0.00000E+00        -0.49553E+01         0.00000E+00
    0.00000E+00        -0.42472E+01         0.00000E+00
    0.00000E+00        -0.35392E+01         0.00000E+00
    0.00000E+00        -0.28127E+01         0.00000E+00
    0.00000E+00        -0.20383E+01         0.00000E+00
    0.00000E+00        -0.11623E+01         0.00000E+00
    0.00000E+00         0.00000E+00         0.00000E+00
CELL_DATA        450
VECTORS vDarcy double 
    0.90119E-06         0.12600E-08         0.00000E+00
    0.89612E-06         0.23301E-08         0.00000E+00
    0.89576E-06         0.20079E-08         0.00000E+00
    0.89501E-06         0.18015E-08         0.00000E+00
    0.89436E-06         0.16793E-08         0.00000E+00
    0.89374E-06         0.16004E-08         0.00000E+00
    0.89317E-06         0.15382E-08         0.00000E+00
    0.89262E-06         0.14803E-08         0.00000E+00
    0.89209E-06         0.14228E-08         0.00000E+00
    0.89159E-06         0.13678E-08         0.00000E+00
    0.89111E-06         0.13231E-08         0.00000E+00
    0.89064E-06         0.13043E-08         0.00000E+00
    0.89014E-06         0.13343E-08         0.00000E+00
    0.89000E-06         0.14389E-08         0.00000E+00
    0.88692E-06         0.75723E-09         0.00000E+00
    0.45963E-06        -0.79315E-09         0.00000E+00
    0.45745E-06        -0.11347E-08         0.00000E+00
    0.45535E-06        -0.55530E-09         0.00000E+00
    0.45402E-06        -0.38097E-09         0.00000E+00
    0.45279E-06        -0.30877E-09         0.00000E+00
    0.45165E-06        -0.27579E-09         0.00000E+00
    0.45056E-06        -0.25789E-09         0.00000E+00
    0.44952E-06        -0.24671E-09         0.00000E+00
    0.44853E-06        -0.23952E-09         0.00000E+00
    0.44757E-06        -0.23680E-09         0.00000E+00
    0.44665E-06        -0.24275E-09         0.00000E+00
    0.44575E-06        -0.27094E-09         0.00000E+00
    0.44486E-06        -0.35575E-09         0.00000E+00
    0.44351E-06        -0.69657E-09         0.00000E+00
    0.44241E-06        -0.48845E-09         0.00000E+00
    0.19633E-06        -0.28891E-09         0.00000E+00
    0.19572E-06        -0.69714E-09         0.00000E+00
    0.19459E-06        -0.75057E-09         0.00000E+00
    0.19351E-06        -0.65059E-09         0.00000E+00
    0.19254E-06        -0.59720E-09         0.00000E+00
    0.19162E-06        -0.56480E-09         0.00000E+00
    0.19073E-06        -0.54156E-09         0.00000E+00
    0.18988E-06        -0.52133E-09         0.00000E+00
    0.18906E-06        -0.50217E-09         0.00000E+00
    0.18827E-06        -0.48481E-09         0.00000E+00
    0.18752E-06        -0.47283E-09         0.00000E+00
    0.18680E-06        -0.47255E-09         0.00000E+00
    0.18605E-06        -0.50037E-09         0.00000E+00
    0.18536E-06        -0.41535E-09         0.00000E+00
    0.18499E-06        -0.15296E-09         0.00000E+00
    0.74558E-07        -0.92170E-10         0.00000E+00
    0.74338E-07        -0.26720E-09         0.00000E+00
    0.73884E-07        -0.37628E-09         0.00000E+00
    0.73337E-07        -0.39766E-09         0.00000E+00
    0.72788E-07        -0.38669E-09         0.00000E+00
    0.72256E-07        -0.37461E-09         0.00000E+00
    0.71738E-07        -0.36245E-09         0.00000E+00
    0.71237E-07        -0.34959E-09         0.00000E+00
    0.70757E-07        -0.33573E-09         0.00000E+00
    0.70299E-07        -0.32126E-09         0.00000E+00
    0.69866E-07        -0.30686E-09         0.00000E+00
    0.69455E-07        -0.29244E-09         0.00000E+00
    0.69077E-07        -0.25762E-09         0.00000E+00
    0.68778E-07        -0.17775E-09         0.00000E+00
    0.68620E-07        -0.62709E-10         0.00000E+00
    0.26494E-07        -0.33624E-10         0.00000E+00
    0.26392E-07        -0.99025E-10         0.00000E+00
    0.26208E-07        -0.14919E-09         0.00000E+00
    0.25971E-07        -0.17347E-09         0.00000E+00
    0.25715E-07        -0.17925E-09         0.00000E+00
    0.25458E-07        -0.17739E-09         0.00000E+00
    0.25205E-07        -0.17309E-09         0.00000E+00
    0.24961E-07        -0.16734E-09         0.00000E+00
    0.24727E-07        -0.16042E-09         0.00000E+00
    0.24505E-07        -0.15245E-09         0.00000E+00
    0.24298E-07        -0.14315E-09         0.00000E+00
    0.24107E-07        -0.12971E-09         0.00000E+00
    0.23943E-07        -0.10702E-09         0.00000E+00
    0.23818E-07        -0.71388E-10         0.00000E+00
    0.23748E-07        -0.25015E-10         0.00000E+00
    0.95050E-08        -0.11001E-10         0.00000E+00
    0.94540E-08        -0.31181E-10         0.00000E+00
    0.93725E-08        -0.46627E-10         0.00000E+00
    0.92695E-08        -0.55939E-10         0.00000E+00
    0.91554E-08        -0.59871E-10         0.00000E+00
    0.90383E-08        -0.60626E-10         0.00000E+00
    0.89226E-08        -0.59931E-10         0.00000E+00
    0.88108E-08        -0.58500E-10         0.00000E+00
    0.87044E-08        -0.56470E-10         0.00000E+00
    0.86047E-08        -0.53801E-10         0.00000E+00
    0.85127E-08        -0.50126E-10         0.00000E+00
    0.84304E-08        -0.44623E-10         0.00000E+00
    0.83612E-08        -0.36216E-10         0.00000E+00
    0.83091E-08        -0.24257E-10         0.00000E+00
    0.82785E-08        -0.86856E-11         0.00000E+00
    0.42490E-08         0.65698E-12         0.00000E+00
    0.42187E-08         0.18089E-11         0.00000E+00
    0.41738E-08         0.23467E-11         0.00000E+00
    0.41192E-08         0.21499E-11         0.00000E+00
    0.40598E-08         0.14854E-11         0.00000E+00
    0.39991E-08         0.48889E-12         0.00000E+00
    0.39397E-08        -0.74226E-12         0.00000E+00
    0.38830E-08        -0.20452E-11         0.00000E+00
    0.38298E-08        -0.32347E-11         0.00000E+00
    0.37807E-08        -0.41618E-11         0.00000E+00
    0.37362E-08        -0.47144E-11         0.00000E+00
    0.36970E-08        -0.47805E-11         0.00000E+00
    0.36645E-08        -0.42657E-11         0.00000E+00
    0.36400E-08        -0.31133E-11         0.00000E+00
    0.36252E-08        -0.11857E-11         0.00000E+00
    0.33028E-08         0.89078E-11         0.00000E+00
    0.32750E-08         0.23960E-10         0.00000E+00
    0.32362E-08         0.33505E-10         0.00000E+00
    0.31914E-08         0.38073E-10         0.00000E+00
    0.31445E-08         0.38819E-10         0.00000E+00
    0.30982E-08         0.37014E-10         0.00000E+00
    0.30543E-08         0.33787E-10         0.00000E+00
    0.30136E-08         0.30007E-10         0.00000E+00
    0.29764E-08         0.26222E-10         0.00000E+00
    0.29427E-08         0.22663E-10         0.00000E+00
    0.29125E-08         0.19290E-10         0.00000E+00
    0.28862E-08         0.15884E-10         0.00000E+00
    0.28642E-08         0.12147E-10         0.00000E+00
    0.28474E-08         0.78066E-11         0.00000E+00
    0.28369E-08         0.27284E-11         0.00000E+00
    0.41812E-08         0.17523E-10         0.00000E+00
    0.41426E-08         0.46372E-10         0.00000E+00
    0.40920E-08         0.63528E-10         0.00000E+00
    0.40364E-08         0.70926E-10         0.00000E+00
    0.39807E-08         0.71183E-10         0.00000E+00
    0.39281E-08         0.66957E-10         0.00000E+00
    0.38801E-08         0.60530E-10         0.00000E+00
    0.38371E-08         0.53567E-10         0.00000E+00
    0.37988E-08         0.47029E-10         0.00000E+00
    0.37646E-08         0.41205E-10         0.00000E+00
    0.37340E-08         0.35835E-10         0.00000E+00
    0.37069E-08         0.30302E-10         0.00000E+00
    0.36837E-08         0.23843E-10         0.00000E+00
    0.36654E-08         0.15768E-10         0.00000E+00
    0.36533E-08         0.56245E-11         0.00000E+00
    0.62691E-08         0.29042E-10         0.00000E+00
    0.62061E-08         0.75628E-10         0.00000E+00
    0.61284E-08         0.10109E-09         0.00000E+00
    0.60468E-08         0.10983E-09         0.00000E+00
    0.59683E-08         0.10703E-09         0.00000E+00
    0.58973E-08         0.97625E-10         0.00000E+00
    0.58351E-08         0.85677E-10         0.00000E+00
    0.57813E-08         0.74025E-10         0.00000E+00
    0.57345E-08         0.64167E-10         0.00000E+00
    0.56930E-08         0.56365E-10         0.00000E+00
    0.56552E-08         0.49890E-10         0.00000E+00
    0.56208E-08         0.43374E-10         0.00000E+00
    0.55901E-08         0.35215E-10         0.00000E+00
    0.55648E-08         0.23973E-10         0.00000E+00
    0.55473E-08         0.87121E-11         0.00000E+00
    0.96796E-08         0.45576E-10         0.00000E+00
    0.95737E-08         0.11652E-09         0.00000E+00
    0.94506E-08         0.15110E-09         0.00000E+00
    0.93270E-08         0.15830E-09         0.00000E+00
    0.92138E-08         0.14777E-09         0.00000E+00
    0.91161E-08         0.12834E-09         0.00000E+00
    0.90347E-08         0.10698E-09         0.00000E+00
    0.89674E-08         0.88321E-10         0.00000E+00
    0.89104E-08         0.74594E-10         0.00000E+00
    0.88599E-08         0.65819E-10         0.00000E+00
    0.88127E-08         0.60284E-10         0.00000E+00
    0.87674E-08         0.55169E-10         0.00000E+00
    0.87247E-08         0.47262E-10         0.00000E+00
    0.86874E-08         0.33691E-10         0.00000E+00
    0.86599E-08         0.12588E-10         0.00000E+00
    0.14886E-07         0.69011E-10         0.00000E+00
    0.14710E-07         0.17250E-09         0.00000E+00
    0.14516E-07         0.21513E-09         0.00000E+00
    0.14332E-07         0.21416E-09         0.00000E+00
    0.14173E-07         0.18709E-09         0.00000E+00
    0.14044E-07         0.14922E-09         0.00000E+00
    0.13944E-07         0.11219E-09         0.00000E+00
    0.13867E-07         0.83390E-10         0.00000E+00
    0.13805E-07         0.65935E-10         0.00000E+00
    0.13750E-07         0.59168E-10         0.00000E+00
    0.13696E-07         0.59455E-10         0.00000E+00
    0.13638E-07         0.61247E-10         0.00000E+00
    0.13579E-07         0.58301E-10         0.00000E+00
    0.13524E-07         0.44988E-10         0.00000E+00
    0.13480E-07         0.17558E-10         0.00000E+00
    0.22638E-07         0.10065E-09         0.00000E+00
    0.22348E-07         0.24439E-09         0.00000E+00
    0.22051E-07         0.28872E-09         0.00000E+00
    0.21785E-07         0.26565E-09         0.00000E+00
    0.21571E-07         0.20595E-09         0.00000E+00
    0.21414E-07         0.13546E-09         0.00000E+00
    0.21308E-07         0.73125E-10         0.00000E+00
    0.21238E-07         0.30325E-10         0.00000E+00
    0.21188E-07         0.11189E-10         0.00000E+00
    0.21143E-07         0.13515E-10         0.00000E+00
    0.21091E-07         0.30120E-10         0.00000E+00
    0.21025E-07         0.50522E-10         0.00000E+00
    0.20946E-07         0.62934E-10         0.00000E+00
    0.20863E-07         0.56508E-10         0.00000E+00
    0.20791E-07         0.23680E-10         0.00000E+00
    0.33969E-07         0.14009E-09         0.00000E+00
    0.33502E-07         0.32671E-09         0.00000E+00
    0.33057E-07         0.35521E-09         0.00000E+00
    0.32689E-07         0.28295E-09         0.00000E+00
    0.32423E-07         0.16253E-09         0.00000E+00
    0.32258E-07         0.36416E-10         0.00000E+00
    0.32178E-07        -0.65530E-10         0.00000E+00
    0.32155E-07        -0.12636E-09         0.00000E+00
    0.32157E-07        -0.14109E-09         0.00000E+00
    0.32156E-07        -0.11499E-09         0.00000E+00
    0.32130E-07        -0.61450E-10         0.00000E+00
    0.32066E-07         0.50876E-12         0.00000E+00
    0.31966E-07         0.49284E-10         0.00000E+00
    0.31842E-07         0.64365E-10         0.00000E+00
    0.31724E-07         0.30556E-10         0.00000E+00
    0.50234E-07         0.18288E-09         0.00000E+00
    0.49499E-07         0.40076E-09         0.00000E+00
    0.48853E-07         0.37451E-09         0.00000E+00
    0.48371E-07         0.20374E-09         0.00000E+00
    0.48077E-07        -0.24267E-10         0.00000E+00
    0.47959E-07        -0.24189E-09         0.00000E+00
    0.47978E-07        -0.40364E-09         0.00000E+00
    0.48081E-07        -0.48543E-09         0.00000E+00
    0.48214E-07        -0.48213E-09         0.00000E+00
    0.48325E-07        -0.40458E-09         0.00000E+00
    0.48376E-07        -0.27645E-09         0.00000E+00
    0.48342E-07        -0.13085E-09         0.00000E+00
    0.48222E-07        -0.61397E-11         0.00000E+00
    0.48040E-07         0.59791E-10         0.00000E+00
    0.47841E-07         0.36777E-10         0.00000E+00
    0.73135E-07         0.21644E-09         0.00000E+00
    0.72004E-07         0.42280E-09         0.00000E+00
    0.71102E-07         0.26501E-09         0.00000E+00
    0.70520E-07        -0.89277E-10         0.00000E+00
    0.70271E-07        -0.49964E-09         0.00000E+00
    0.70313E-07        -0.86211E-09         0.00000E+00
    0.70569E-07        -0.11104E-08         0.00000E+00
    0.70948E-07        -0.12123E-08         0.00000E+00
    0.71354E-07        -0.11645E-08         0.00000E+00
    0.71702E-07        -0.98724E-09         0.00000E+00
    0.71923E-07        -0.72005E-09         0.00000E+00
    0.71976E-07        -0.41813E-09         0.00000E+00
    0.71852E-07        -0.14714E-09         0.00000E+00
    0.71584E-07         0.24722E-10         0.00000E+00
    0.71249E-07         0.38751E-10         0.00000E+00
    0.10472E-06         0.21339E-09         0.00000E+00
    0.10302E-06         0.30537E-09         0.00000E+00
    0.10182E-06        -0.12392E-09         0.00000E+00
    0.10121E-06        -0.80089E-09         0.00000E+00
    0.10116E-06        -0.15071E-08         0.00000E+00
    0.10158E-06        -0.20891E-08         0.00000E+00
    0.10232E-06        -0.24559E-08         0.00000E+00
    0.10322E-06        -0.25687E-08         0.00000E+00
    0.10415E-06        -0.24298E-08         0.00000E+00
    0.10494E-06        -0.20742E-08         0.00000E+00
    0.10550E-06        -0.15644E-08         0.00000E+00
    0.10575E-06        -0.98768E-09         0.00000E+00
    0.10565E-06        -0.45194E-09         0.00000E+00
    0.10527E-06        -0.76141E-10         0.00000E+00
    0.10470E-06         0.28324E-10         0.00000E+00
    0.14730E-06         0.12135E-09         0.00000E+00
    0.14485E-06        -0.11032E-09         0.00000E+00
    0.14336E-06        -0.10506E-08         0.00000E+00
    0.14288E-06        -0.22668E-08         0.00000E+00
    0.14332E-06        -0.34313E-08         0.00000E+00
    0.14448E-06        -0.43295E-08         0.00000E+00
    0.14611E-06        -0.48465E-08         0.00000E+00
    0.14796E-06        -0.49440E-08         0.00000E+00
    0.14978E-06        -0.46383E-08         0.00000E+00
    0.15136E-06        -0.39857E-08         0.00000E+00
    0.15254E-06        -0.30779E-08         0.00000E+00
    0.15316E-06        -0.20447E-08         0.00000E+00
    0.15318E-06        -0.10551E-08         0.00000E+00
    0.15264E-06        -0.30910E-09         0.00000E+00
    0.15170E-06        -0.11738E-10         0.00000E+00
    0.20338E-06        -0.15159E-09         0.00000E+00
    0.19995E-06        -0.10928E-08         0.00000E+00
    0.19827E-06        -0.29325E-08         0.00000E+00
    0.19828E-06        -0.50070E-08         0.00000E+00
    0.19972E-06        -0.68457E-08         0.00000E+00
    0.20222E-06        -0.81693E-08         0.00000E+00
    0.20536E-06        -0.88534E-08         0.00000E+00
    0.20876E-06        -0.88797E-08         0.00000E+00
    0.21206E-06        -0.82930E-08         0.00000E+00
    0.21495E-06        -0.71778E-08         0.00000E+00
    0.21717E-06        -0.56571E-08         0.00000E+00
    0.21849E-06        -0.39082E-08         0.00000E+00
    0.21878E-06        -0.21799E-08         0.00000E+00
    0.21805E-06        -0.79441E-09         0.00000E+00
    0.21650E-06        -0.11597E-09         0.00000E+00
    0.27532E-06        -0.75693E-09         0.00000E+00
    0.27075E-06        -0.30713E-08         0.00000E+00
    0.26917E-06        -0.64088E-08         0.00000E+00
    0.27031E-06        -0.97833E-08         0.00000E+00
    0.27359E-06        -0.12554E-07         0.00000E+00
    0.27834E-06        -0.14396E-07         0.00000E+00
    0.28390E-06        -0.15219E-07         0.00000E+00
    0.28971E-06        -0.15067E-07         0.00000E+00
    0.29530E-06        -0.14040E-07         0.00000E+00
    0.30023E-06        -0.12254E-07         0.00000E+00
    0.30413E-06        -0.98542E-08         0.00000E+00
    0.30666E-06        -0.70517E-08         0.00000E+00
    0.30752E-06        -0.41837E-08         0.00000E+00
    0.30661E-06        -0.17427E-08         0.00000E+00
    0.30415E-06        -0.35031E-09         0.00000E+00
    0.36508E-06        -0.19324E-08         0.00000E+00
    0.35932E-06        -0.67006E-08         0.00000E+00
    0.35851E-06        -0.12413E-07         0.00000E+00
    0.36187E-06        -0.17651E-07         0.00000E+00
    0.36828E-06        -0.21603E-07         0.00000E+00
    0.37659E-06        -0.23975E-07         0.00000E+00
    0.38581E-06        -0.24806E-07         0.00000E+00
    0.39518E-06        -0.24288E-07         0.00000E+00
    0.40409E-06        -0.22616E-07         0.00000E+00
    0.41204E-06        -0.19939E-07         0.00000E+00
    0.41854E-06        -0.16382E-07         0.00000E+00
    0.42303E-06        -0.12142E-07         0.00000E+00
    0.42499E-06        -0.76168E-08         0.00000E+00
    0.42404E-06        -0.35099E-08         0.00000E+00
    0.42026E-06        -0.83503E-09         0.00000E+00
    0.47367E-06        -0.40375E-08         0.00000E+00
    0.46702E-06        -0.12942E-07         0.00000E+00
    0.46825E-06        -0.22245E-07         0.00000E+00
    0.47562E-06        -0.29983E-07         0.00000E+00
    0.48707E-06        -0.35245E-07         0.00000E+00
    0.50073E-06        -0.37946E-07         0.00000E+00
    0.51517E-06        -0.38458E-07         0.00000E+00
    0.52944E-06        -0.37261E-07         0.00000E+00
    0.54292E-06        -0.34713E-07         0.00000E+00
    0.55508E-06        -0.30976E-07         0.00000E+00
    0.56536E-06        -0.26070E-07         0.00000E+00
    0.57296E-06        -0.20055E-07         0.00000E+00
    0.57692E-06        -0.13289E-07         0.00000E+00
    0.57634E-06        -0.66744E-08         0.00000E+00
    0.57082E-06        -0.17798E-08         0.00000E+00
    0.60058E-06        -0.76034E-08         0.00000E+00
    0.59400E-06        -0.23166E-07         0.00000E+00
    0.59957E-06        -0.37639E-07         0.00000E+00
    0.61377E-06        -0.48426E-07         0.00000E+00
    0.63297E-06        -0.54766E-07         0.00000E+00
    0.65425E-06        -0.57175E-07         0.00000E+00
    0.67570E-06        -0.56703E-07         0.00000E+00
    0.69631E-06        -0.54344E-07         0.00000E+00
    0.71562E-06        -0.50702E-07         0.00000E+00
    0.73329E-06        -0.45906E-07         0.00000E+00
    0.74879E-06        -0.39726E-07         0.00000E+00
    0.76108E-06        -0.31846E-07         0.00000E+00
    0.76855E-06        -0.22328E-07         0.00000E+00
    0.76928E-06        -0.12138E-07         0.00000E+00
    0.76181E-06        -0.35348E-08         0.00000E+00
    0.74298E-06        -0.13409E-07         0.00000E+00
    0.73874E-06        -0.39289E-07         0.00000E+00
    0.75264E-06        -0.60781E-07         0.00000E+00
    0.77797E-06        -0.74714E-07         0.00000E+00
    0.80857E-06        -0.81118E-07         0.00000E+00
    0.84011E-06        -0.81872E-07         0.00000E+00
    0.87033E-06        -0.79266E-07         0.00000E+00
    0.89849E-06        -0.75075E-07         0.00000E+00
    0.92465E-06        -0.70204E-07         0.00000E+00
    0.94899E-06        -0.64685E-07         0.00000E+00
    0.97127E-06        -0.57831E-07         0.00000E+00
    0.99033E-06        -0.48582E-07         0.00000E+00
    0.10037E-05        -0.36192E-07         0.00000E+00
    0.10077E-05        -0.21244E-07         0.00000E+00
    0.99868E-06        -0.66614E-08         0.00000E+00
    0.89478E-06        -0.22614E-07         0.00000E+00
    0.89754E-06        -0.63962E-07         0.00000E+00
    0.92660E-06        -0.94210E-07         0.00000E+00
    0.96946E-06        -0.11015E-06         0.00000E+00
    0.10160E-05        -0.11413E-06         0.00000E+00
    0.10604E-05        -0.11080E-06         0.00000E+00
    0.11006E-05        -0.10439E-06         0.00000E+00
    0.11369E-05        -0.97582E-07         0.00000E+00
    0.11703E-05        -0.91529E-07         0.00000E+00
    0.12019E-05        -0.86086E-07         0.00000E+00
    0.12323E-05        -0.79963E-07         0.00000E+00
    0.12606E-05        -0.70921E-07         0.00000E+00
    0.12833E-05        -0.56518E-07         0.00000E+00
    0.12944E-05        -0.35876E-07         0.00000E+00
    0.12859E-05        -0.12027E-07         0.00000E+00
    0.10452E-05        -0.37011E-07         0.00000E+00
    0.10643E-05        -0.10085E-06         0.00000E+00
    0.11201E-05        -0.14029E-06         0.00000E+00
    0.11895E-05        -0.15426E-06         0.00000E+00
    0.12567E-05        -0.15097E-06         0.00000E+00
    0.13155E-05        -0.14008E-06         0.00000E+00
    0.13658E-05        -0.12807E-06         0.00000E+00
    0.14097E-05        -0.11805E-06         0.00000E+00
    0.14497E-05        -0.11112E-06         0.00000E+00
    0.14883E-05        -0.10694E-06         0.00000E+00
    0.15273E-05        -0.10380E-06         0.00000E+00
    0.15670E-05        -0.98097E-07         0.00000E+00
    0.16040E-05        -0.84534E-07         0.00000E+00
    0.16289E-05        -0.58432E-07         0.00000E+00
    0.16265E-05        -0.20904E-07         0.00000E+00
    0.11768E-05        -0.59720E-07         0.00000E+00
    0.12308E-05        -0.15476E-06         0.00000E+00
    0.13331E-05        -0.19937E-06         0.00000E+00
    0.14403E-05        -0.20129E-06         0.00000E+00
    0.15307E-05        -0.18340E-06         0.00000E+00
    0.16026E-05        -0.16205E-06         0.00000E+00
    0.16612E-05        -0.14365E-06         0.00000E+00
    0.17111E-05        -0.13055E-06         0.00000E+00
    0.17563E-05        -0.12331E-06         0.00000E+00
    0.18003E-05        -0.12148E-06         0.00000E+00
    0.18465E-05        -0.12354E-06         0.00000E+00
    0.18981E-05        -0.12577E-06         0.00000E+00
    0.19545E-05        -0.11916E-06         0.00000E+00
    0.20044E-05        -0.91185E-07         0.00000E+00
    0.20208E-05        -0.35101E-07         0.00000E+00
    0.12614E-05        -0.95835E-07         0.00000E+00
    0.13900E-05        -0.23295E-06         0.00000E+00
    0.15727E-05        -0.26040E-06         0.00000E+00
    0.17239E-05        -0.23132E-06         0.00000E+00
    0.18312E-05        -0.19565E-06         0.00000E+00
    0.19118E-05        -0.16490E-06         0.00000E+00
    0.19757E-05        -0.14207E-06         0.00000E+00
    0.20295E-05        -0.12743E-06         0.00000E+00
    0.20779E-05        -0.12065E-06         0.00000E+00
    0.21249E-05        -0.12132E-06         0.00000E+00
    0.21750E-05        -0.12882E-06         0.00000E+00
    0.22338E-05        -0.14117E-06         0.00000E+00
    0.23110E-05        -0.15179E-06         0.00000E+00
    0.24014E-05        -0.13340E-06         0.00000E+00
    0.24642E-05        -0.55880E-07         0.00000E+00
    0.12471E-05        -0.18114E-06         0.00000E+00
    0.15610E-05        -0.31372E-06         0.00000E+00
    0.18559E-05        -0.26185E-06         0.00000E+00
    0.20218E-05        -0.20756E-06         0.00000E+00
    0.21352E-05        -0.16460E-06         0.00000E+00
    0.22185E-05        -0.13348E-06         0.00000E+00
    0.22847E-05        -0.11238E-06         0.00000E+00
    0.23405E-05        -0.99654E-07         0.00000E+00
    0.23906E-05        -0.94339E-07         0.00000E+00
    0.24385E-05        -0.96132E-07         0.00000E+00
    0.24884E-05        -0.10531E-06         0.00000E+00
    0.25473E-05        -0.12233E-06         0.00000E+00
    0.26268E-05        -0.14637E-06         0.00000E+00
    0.27698E-05        -0.16752E-06         0.00000E+00
    0.29349E-05        -0.85468E-07         0.00000E+00
    0.11072E-05        -0.38086E-07         0.00000E+00
    0.18168E-05        -0.94024E-07         0.00000E+00
    0.20914E-05        -0.75419E-07         0.00000E+00
    0.22572E-05        -0.60596E-07         0.00000E+00
    0.23684E-05        -0.48258E-07         0.00000E+00
    0.24516E-05        -0.39380E-07         0.00000E+00
    0.25187E-05        -0.33375E-07         0.00000E+00
    0.25756E-05        -0.29839E-07         0.00000E+00
    0.26265E-05        -0.28558E-07         0.00000E+00
    0.26742E-05        -0.29571E-07         0.00000E+00
    0.27223E-05        -0.33194E-07         0.00000E+00
    0.27763E-05        -0.40150E-07         0.00000E+00
    0.28491E-05        -0.51046E-07         0.00000E+00
    0.29686E-05        -0.70650E-07         0.00000E+00
    0.33467E-05        -0.44252E-07         0.00000E+00
POINT_DATA        496
VECTORS vDarcyNodal double 
    0.89876E-06         0.36929E-08         0.00000E+00
    0.89807E-06         0.48172E-08         0.00000E+00
    0.89667E-06         0.50475E-08         0.00000E+00
    0.89556E-06         0.38773E-08         0.00000E+00
    0.89478E-06         0.34461E-08         0.00000E+00
    0.89410E-06         0.32016E-08         0.00000E+00
    0.89349E-06         0.30465E-08         0.00000E+00
    0.89292E-06         0.29235E-08         0.00000E+00
    0.89238E-06         0.28118E-08         0.00000E+00
    0.89187E-06         0.27085E-08         0.00000E+00
    0.89136E-06         0.26246E-08         0.00000E+00
    0.89086E-06         0.25944E-08         0.00000E+00
    0.89034E-06         0.26675E-08         0.00000E+00
    0.88964E-06         0.32198E-08         0.00000E+00
    0.88883E-06         0.29933E-08         0.00000E+00
    0.88844E-06         0.22829E-08         0.00000E+00
    0.67937E-06        -0.11556E-08         0.00000E+00
    0.67825E-06        -0.12116E-08         0.00000E+00
    0.67640E-06        -0.70205E-09         0.00000E+00
    0.67513E-06        -0.67245E-10         0.00000E+00
    0.67409E-06         0.34411E-10         0.00000E+00
    0.67316E-06         0.77356E-10         0.00000E+00
    0.67230E-06         0.91144E-10         0.00000E+00
    0.67148E-06         0.93984E-10         0.00000E+00
    0.67071E-06         0.90321E-10         0.00000E+00
    0.66996E-06         0.81325E-10         0.00000E+00
    0.66924E-06         0.65670E-10         0.00000E+00
    0.66853E-06         0.32661E-10         0.00000E+00
    0.66782E-06        -0.28651E-10         0.00000E+00
    0.66701E-06        -0.44257E-09         0.00000E+00
    0.66593E-06        -0.79112E-09         0.00000E+00
    0.66529E-06        -0.76386E-09         0.00000E+00
    0.32823E-06        -0.44503E-09         0.00000E+00
    0.32727E-06        -0.72742E-09         0.00000E+00
    0.32562E-06        -0.99050E-09         0.00000E+00
    0.32435E-06        -0.86595E-09         0.00000E+00
    0.32321E-06        -0.72092E-09         0.00000E+00
    0.32215E-06        -0.65860E-09         0.00000E+00
    0.32114E-06        -0.62154E-09         0.00000E+00
    0.32017E-06        -0.59538E-09         0.00000E+00
    0.31925E-06        -0.57346E-09         0.00000E+00
    0.31836E-06        -0.55472E-09         0.00000E+00
    0.31751E-06        -0.54250E-09         0.00000E+00
    0.31669E-06        -0.54399E-09         0.00000E+00
    0.31588E-06        -0.59617E-09         0.00000E+00
    0.31505E-06        -0.61185E-09         0.00000E+00
    0.31408E-06        -0.39886E-09         0.00000E+00
    0.31353E-06        -0.21714E-09         0.00000E+00
    0.13554E-06        -0.13563E-09         0.00000E+00
    0.13530E-06        -0.26243E-09         0.00000E+00
    0.13462E-06        -0.46126E-09         0.00000E+00
    0.13380E-06        -0.53801E-09         0.00000E+00
    0.13303E-06        -0.52895E-09         0.00000E+00
    0.13230E-06        -0.50523E-09         0.00000E+00
    0.13158E-06        -0.48652E-09         0.00000E+00
    0.13089E-06        -0.46913E-09         0.00000E+00
    0.13023E-06        -0.45160E-09         0.00000E+00
    0.12960E-06        -0.43377E-09         0.00000E+00
    0.12899E-06        -0.41663E-09         0.00000E+00
    0.12841E-06        -0.40290E-09         0.00000E+00
    0.12786E-06        -0.37843E-09         0.00000E+00
    0.12731E-06        -0.30548E-09         0.00000E+00
    0.12690E-06        -0.17036E-09         0.00000E+00
    0.12676E-06        -0.89211E-10         0.00000E+00
    0.50555E-07        -0.49009E-10         0.00000E+00
    0.50473E-07        -0.97485E-10         0.00000E+00
    0.50220E-07        -0.18305E-09         0.00000E+00
    0.49849E-07        -0.23673E-09         0.00000E+00
    0.49449E-07        -0.25607E-09         0.00000E+00
    0.49052E-07        -0.25666E-09         0.00000E+00
    0.48662E-07        -0.25108E-09         0.00000E+00
    0.48283E-07        -0.24343E-09         0.00000E+00
    0.47919E-07        -0.23421E-09         0.00000E+00
    0.47570E-07        -0.22368E-09         0.00000E+00
    0.47241E-07        -0.21193E-09         0.00000E+00
    0.46931E-07        -0.19681E-09         0.00000E+00
    0.46642E-07        -0.17199E-09         0.00000E+00
    0.46393E-07        -0.13014E-09         0.00000E+00
    0.46224E-07        -0.70217E-10         0.00000E+00
    0.46165E-07        -0.36271E-10         0.00000E+00
    0.18011E-07        -0.18262E-10         0.00000E+00
    0.17973E-07        -0.35224E-10         0.00000E+00
    0.17865E-07        -0.65280E-10         0.00000E+00
    0.17709E-07        -0.86069E-10         0.00000E+00
    0.17528E-07        -0.96781E-10         0.00000E+00
    0.17341E-07        -0.10010E-09         0.00000E+00
    0.17155E-07        -0.99513E-10         0.00000E+00
    0.16974E-07        -0.97114E-10         0.00000E+00
    0.16799E-07        -0.93656E-10         0.00000E+00
    0.16634E-07        -0.89293E-10         0.00000E+00
    0.16479E-07        -0.83769E-10         0.00000E+00
    0.16335E-07        -0.76137E-10         0.00000E+00
    0.16207E-07        -0.64806E-10         0.00000E+00
    0.16102E-07        -0.48318E-10         0.00000E+00
    0.16031E-07        -0.26212E-10         0.00000E+00
    0.16005E-07        -0.13774E-10         0.00000E+00
    0.68828E-08        -0.37312E-11         0.00000E+00
    0.68620E-08        -0.69504E-11         0.00000E+00
    0.68087E-08        -0.12529E-10         0.00000E+00
    0.67360E-08        -0.16509E-10         0.00000E+00
    0.66518E-08        -0.19050E-10         0.00000E+00
    0.65631E-08        -0.20419E-10         0.00000E+00
    0.64744E-08        -0.21075E-10         0.00000E+00
    0.63883E-08        -0.21353E-10         0.00000E+00
    0.63062E-08        -0.21352E-10         0.00000E+00
    0.62290E-08        -0.21016E-10         0.00000E+00
    0.61575E-08        -0.20195E-10         0.00000E+00
    0.60927E-08        -0.18646E-10         0.00000E+00
    0.60363E-08        -0.16063E-10         0.00000E+00
    0.59910E-08        -0.12178E-10         0.00000E+00
    0.59598E-08        -0.67437E-11         0.00000E+00
    0.59481E-08        -0.36051E-11         0.00000E+00
    0.37800E-08         0.50563E-11         0.00000E+00
    0.37648E-08         0.94316E-11         0.00000E+00
    0.37282E-08         0.16702E-10         0.00000E+00
    0.36814E-08         0.21016E-10         0.00000E+00
    0.36291E-08         0.22686E-10         0.00000E+00
    0.35752E-08         0.22385E-10         0.00000E+00
    0.35223E-08         0.20807E-10         0.00000E+00
    0.34720E-08         0.18545E-10         0.00000E+00
    0.34250E-08         0.16049E-10         0.00000E+00
    0.33817E-08         0.13595E-10         0.00000E+00
    0.33423E-08         0.11294E-10         0.00000E+00
    0.33071E-08         0.91268E-11         0.00000E+00
    0.32769E-08         0.69950E-11         0.00000E+00
    0.32526E-08         0.47819E-11         0.00000E+00
    0.32356E-08         0.24348E-11         0.00000E+00
    0.32291E-08         0.12282E-11         0.00000E+00
    0.37463E-08         0.12772E-10         0.00000E+00
    0.37288E-08         0.23454E-10         0.00000E+00
    0.36884E-08         0.40784E-10         0.00000E+00
    0.36397E-08         0.50576E-10         0.00000E+00
    0.35882E-08         0.54210E-10         0.00000E+00
    0.35373E-08         0.53441E-10         0.00000E+00
    0.34894E-08         0.49979E-10         0.00000E+00
    0.34455E-08         0.45228E-10         0.00000E+00
    0.34058E-08         0.40157E-10         0.00000E+00
    0.33700E-08         0.35266E-10         0.00000E+00
    0.33379E-08         0.30634E-10         0.00000E+00
    0.33094E-08         0.26023E-10         0.00000E+00
    0.32846E-08         0.21014E-10         0.00000E+00
    0.32642E-08         0.15155E-10         0.00000E+00
    0.32495E-08         0.80907E-11         0.00000E+00
    0.32437E-08         0.42233E-11         0.00000E+00
    0.52309E-08         0.22290E-10         0.00000E+00
    0.52042E-08         0.40463E-10         0.00000E+00
    0.51444E-08         0.69140E-10         0.00000E+00
    0.50763E-08         0.83890E-10         0.00000E+00
    0.50073E-08         0.87897E-10         0.00000E+00
    0.49423E-08         0.84685E-10         0.00000E+00
    0.48838E-08         0.77486E-10         0.00000E+00
    0.48322E-08         0.68842E-10         0.00000E+00
    0.47871E-08         0.60410E-10         0.00000E+00
    0.47472E-08         0.52939E-10         0.00000E+00
    0.47114E-08         0.46377E-10         0.00000E+00
    0.46790E-08         0.40085E-10         0.00000E+00
    0.46499E-08         0.33104E-10         0.00000E+00
    0.46252E-08         0.24435E-10         0.00000E+00
    0.46064E-08         0.13289E-10         0.00000E+00
    0.45987E-08         0.70189E-11         0.00000E+00
    0.79825E-08         0.35818E-10         0.00000E+00
    0.79382E-08         0.64237E-10         0.00000E+00
    0.78420E-08         0.10760E-09         0.00000E+00
    0.77378E-08         0.12704E-09         0.00000E+00
    0.76371E-08         0.12895E-09         0.00000E+00
    0.75464E-08         0.11994E-09         0.00000E+00
    0.74684E-08         0.10578E-09         0.00000E+00
    0.74029E-08         0.90822E-10         0.00000E+00
    0.73474E-08         0.77744E-10         0.00000E+00
    0.72992E-08         0.67558E-10         0.00000E+00
    0.72554E-08         0.59843E-10         0.00000E+00
    0.72144E-08         0.53143E-10         0.00000E+00
    0.71758E-08         0.45449E-10         0.00000E+00
    0.71412E-08         0.34723E-10         0.00000E+00
    0.71134E-08         0.19378E-10         0.00000E+00
    0.71016E-08         0.10395E-10         0.00000E+00
    0.12295E-07         0.55364E-10         0.00000E+00
    0.12220E-07         0.97889E-10         0.00000E+00
    0.12065E-07         0.16004E-09         0.00000E+00
    0.11904E-07         0.18235E-09         0.00000E+00
    0.11757E-07         0.17707E-09         0.00000E+00
    0.11632E-07         0.15611E-09         0.00000E+00
    0.11531E-07         0.12948E-09         0.00000E+00
    0.11451E-07         0.10443E-09         0.00000E+00
    0.11387E-07         0.85137E-10         0.00000E+00
    0.11332E-07         0.72825E-10         0.00000E+00
    0.11281E-07         0.66228E-10         0.00000E+00
    0.11230E-07         0.62272E-10         0.00000E+00
    0.11179E-07         0.56938E-10         0.00000E+00
    0.11129E-07         0.46188E-10         0.00000E+00
    0.11086E-07         0.26873E-10         0.00000E+00
    0.11067E-07         0.14764E-10         0.00000E+00
    0.18778E-07         0.82688E-10         0.00000E+00
    0.18655E-07         0.14365E-09         0.00000E+00
    0.18407E-07         0.22758E-09         0.00000E+00
    0.18165E-07         0.24688E-09         0.00000E+00
    0.17957E-07         0.22409E-09         0.00000E+00
    0.17792E-07         0.18011E-09         0.00000E+00
    0.17671E-07         0.13188E-09         0.00000E+00
    0.17586E-07         0.91136E-10         0.00000E+00
    0.17524E-07         0.64199E-10         0.00000E+00
    0.17474E-07         0.52296E-10         0.00000E+00
    0.17424E-07         0.52403E-10         0.00000E+00
    0.17367E-07         0.58416E-10         0.00000E+00
    0.17301E-07         0.62571E-10         0.00000E+00
    0.17230E-07         0.57048E-10         0.00000E+00
    0.17163E-07         0.35633E-10         0.00000E+00
    0.17132E-07         0.20327E-10         0.00000E+00
    0.28323E-07         0.11863E-09         0.00000E+00
    0.28125E-07         0.20138E-09         0.00000E+00
    0.27736E-07         0.30544E-09         0.00000E+00
    0.27383E-07         0.30735E-09         0.00000E+00
    0.27102E-07         0.24738E-09         0.00000E+00
    0.26903E-07         0.16124E-09         0.00000E+00
    0.26780E-07         0.76752E-10         0.00000E+00
    0.26715E-07         0.12444E-10         0.00000E+00
    0.26686E-07        -0.22506E-10         0.00000E+00
    0.26667E-07        -0.27409E-10         0.00000E+00
    0.26639E-07        -0.86221E-11         0.00000E+00
    0.26589E-07         0.22307E-10         0.00000E+00
    0.26510E-07         0.50893E-10         0.00000E+00
    0.26410E-07         0.62347E-10         0.00000E+00
    0.26305E-07         0.44504E-10         0.00000E+00
    0.26254E-07         0.26997E-10         0.00000E+00
    0.42123E-07         0.16151E-09         0.00000E+00
    0.41809E-07         0.26531E-09         0.00000E+00
    0.41214E-07         0.37625E-09         0.00000E+00
    0.40718E-07         0.33059E-09         0.00000E+00
    0.40363E-07         0.19804E-09         0.00000E+00
    0.40156E-07         0.37881E-10         0.00000E+00
    0.40078E-07        -0.10546E-09         0.00000E+00
    0.40093E-07        -0.20375E-09         0.00000E+00
    0.40156E-07        -0.24429E-09         0.00000E+00
    0.40226E-07        -0.22804E-09         0.00000E+00
    0.40266E-07        -0.16730E-09         0.00000E+00
    0.40250E-07        -0.82896E-10         0.00000E+00
    0.40168E-07        -0.93668E-12         0.00000E+00
    0.40030E-07         0.51310E-10         0.00000E+00
    0.39864E-07         0.50364E-10         0.00000E+00
    0.39779E-07         0.34065E-10         0.00000E+00
    0.61701E-07         0.20411E-09         0.00000E+00
    0.61215E-07         0.31807E-09         0.00000E+00
    0.60332E-07         0.39868E-09         0.00000E+00
    0.59665E-07         0.24757E-09         0.00000E+00
    0.59264E-07        -0.18149E-10         0.00000E+00
    0.59118E-07        -0.30304E-09         0.00000E+00
    0.59183E-07        -0.53858E-09         0.00000E+00
    0.59389E-07        -0.68352E-09         0.00000E+00
    0.59660E-07        -0.72139E-09         0.00000E+00
    0.59924E-07        -0.65693E-09         0.00000E+00
    0.60117E-07        -0.51229E-09         0.00000E+00
    0.60194E-07        -0.32338E-09         0.00000E+00
    0.60135E-07        -0.13548E-09         0.00000E+00
    0.59951E-07         0.25291E-11         0.00000E+00
    0.59688E-07         0.46188E-10         0.00000E+00
    0.59544E-07         0.39436E-10         0.00000E+00
    0.88924E-07         0.22851E-09         0.00000E+00
    0.88192E-07         0.32080E-09         0.00000E+00
    0.86921E-07         0.28899E-09         0.00000E+00
    0.86082E-07        -0.71037E-10         0.00000E+00
    0.85715E-07        -0.56866E-09         0.00000E+00
    0.85774E-07        -0.10553E-08         0.00000E+00
    0.86163E-07        -0.14296E-08         0.00000E+00
    0.86761E-07        -0.16344E-08         0.00000E+00
    0.87441E-07        -0.16507E-08         0.00000E+00
    0.88081E-07        -0.14906E-08         0.00000E+00
    0.88578E-07        -0.11915E-08         0.00000E+00
    0.88856E-07        -0.81225E-09         0.00000E+00
    0.88874E-07        -0.42824E-09         0.00000E+00
    0.88641E-07        -0.12429E-09         0.00000E+00
    0.88223E-07         0.17408E-10         0.00000E+00
    0.87981E-07         0.38040E-10         0.00000E+00
    0.12596E-06         0.19799E-09         0.00000E+00
    0.12489E-06         0.19790E-09         0.00000E+00
    0.12314E-06        -0.10624E-09         0.00000E+00
    0.12218E-06        -0.84980E-09         0.00000E+00
    0.12203E-06        -0.17323E-08         0.00000E+00
    0.12255E-06        -0.25314E-08         0.00000E+00
    0.12358E-06        -0.31044E-08         0.00000E+00
    0.12491E-06        -0.33786E-08         0.00000E+00
    0.12632E-06        -0.33367E-08         0.00000E+00
    0.12763E-06        -0.30037E-08         0.00000E+00
    0.12869E-06        -0.24392E-08         0.00000E+00
    0.12935E-06        -0.17340E-08         0.00000E+00
    0.12955E-06        -0.10077E-08         0.00000E+00
    0.12928E-06        -0.40199E-09         0.00000E+00
    0.12862E-06        -0.64705E-10         0.00000E+00
    0.12822E-06         0.18708E-10         0.00000E+00
    0.17521E-06         0.45071E-10         0.00000E+00
    0.17369E-06        -0.18503E-09         0.00000E+00
    0.17138E-06        -0.10483E-08         0.00000E+00
    0.17048E-06        -0.24547E-08         0.00000E+00
    0.17088E-06        -0.39465E-08         0.00000E+00
    0.17233E-06        -0.52055E-08         0.00000E+00
    0.17450E-06        -0.60454E-08         0.00000E+00
    0.17707E-06        -0.63856E-08         0.00000E+00
    0.17971E-06        -0.62212E-08         0.00000E+00
    0.18216E-06        -0.55991E-08         0.00000E+00
    0.18416E-06        -0.46072E-08         0.00000E+00
    0.18552E-06        -0.33758E-08         0.00000E+00
    0.18609E-06        -0.20837E-08         0.00000E+00
    0.18583E-06        -0.95779E-09         0.00000E+00
    0.18482E-06        -0.25462E-09         0.00000E+00
    0.18415E-06        -0.41705E-10         0.00000E+00
    0.23905E-06        -0.34523E-09         0.00000E+00
    0.23700E-06        -0.10512E-08         0.00000E+00
    0.23415E-06        -0.29563E-08         0.00000E+00
    0.23367E-06        -0.54494E-08         0.00000E+00
    0.23523E-06        -0.78585E-08         0.00000E+00
    0.23833E-06        -0.97540E-08         0.00000E+00
    0.24242E-06        -0.10919E-07         0.00000E+00
    0.24698E-06        -0.11291E-07         0.00000E+00
    0.25157E-06        -0.10900E-07         0.00000E+00
    0.25581E-06        -0.98275E-08         0.00000E+00
    0.25935E-06        -0.81919E-08         0.00000E+00
    0.26188E-06        -0.61626E-08         0.00000E+00
    0.26315E-06        -0.39862E-08         0.00000E+00
    0.26301E-06        -0.20064E-08         0.00000E+00
    0.26151E-06        -0.65189E-09         0.00000E+00
    0.26044E-06        -0.18876E-09         0.00000E+00
    0.31960E-06        -0.11576E-08         0.00000E+00
    0.31698E-06        -0.27517E-08         0.00000E+00
    0.31381E-06        -0.64677E-08         0.00000E+00
    0.31447E-06        -0.10656E-07         0.00000E+00
    0.31820E-06        -0.14369E-07         0.00000E+00
    0.32406E-06        -0.17075E-07         0.00000E+00
    0.33116E-06        -0.18573E-07         0.00000E+00
    0.33875E-06        -0.18879E-07         0.00000E+00
    0.34624E-06        -0.18103E-07         0.00000E+00
    0.35315E-06        -0.16378E-07         0.00000E+00
    0.35904E-06        -0.13844E-07         0.00000E+00
    0.36347E-06        -0.10688E-07         0.00000E+00
    0.36598E-06        -0.72111E-08         0.00000E+00
    0.36622E-06        -0.38979E-08         0.00000E+00
    0.36410E-06        -0.14319E-08         0.00000E+00
    0.36245E-06        -0.50796E-09         0.00000E+00
    0.41828E-06        -0.26755E-08         0.00000E+00
    0.41518E-06        -0.58142E-08         0.00000E+00
    0.41231E-06        -0.12509E-07         0.00000E+00
    0.41539E-06        -0.19211E-07         0.00000E+00
    0.42285E-06        -0.24651E-07         0.00000E+00
    0.43307E-06        -0.28256E-07         0.00000E+00
    0.44466E-06        -0.29965E-07         0.00000E+00
    0.45659E-06        -0.29990E-07         0.00000E+00
    0.46815E-06        -0.28601E-07         0.00000E+00
    0.47883E-06        -0.26006E-07         0.00000E+00
    0.48812E-06        -0.22335E-07         0.00000E+00
    0.49545E-06        -0.17725E-07         0.00000E+00
    0.50007E-06        -0.12469E-07         0.00000E+00
    0.50123E-06        -0.71811E-08         0.00000E+00
    0.49844E-06        -0.28919E-08         0.00000E+00
    0.49603E-06        -0.11525E-08         0.00000E+00
    0.53521E-06        -0.53189E-08         0.00000E+00
    0.53201E-06        -0.11004E-07         0.00000E+00
    0.53078E-06        -0.22367E-07         0.00000E+00
    0.53844E-06        -0.32596E-07         0.00000E+00
    0.55204E-06        -0.40100E-07         0.00000E+00
    0.56882E-06        -0.44452E-07         0.00000E+00
    0.58673E-06        -0.45981E-07         0.00000E+00
    0.60449E-06        -0.45312E-07         0.00000E+00
    0.62140E-06        -0.43003E-07         0.00000E+00
    0.63705E-06        -0.39362E-07         0.00000E+00
    0.65101E-06        -0.34441E-07         0.00000E+00
    0.66258E-06        -0.28184E-07         0.00000E+00
    0.67063E-06        -0.20716E-07         0.00000E+00
    0.67373E-06        -0.12681E-07         0.00000E+00
    0.67054E-06        -0.55153E-08         0.00000E+00
    0.66723E-06        -0.23848E-08         0.00000E+00
    0.66856E-06        -0.96975E-08         0.00000E+00
    0.66618E-06        -0.19399E-07         0.00000E+00
    0.66923E-06        -0.37766E-07         0.00000E+00
    0.68505E-06        -0.52610E-07         0.00000E+00
    0.70825E-06        -0.62169E-07         0.00000E+00
    0.73441E-06        -0.66593E-07         0.00000E+00
    0.76070E-06        -0.67074E-07         0.00000E+00
    0.78575E-06        -0.65000E-07         0.00000E+00
    0.80916E-06        -0.61392E-07         0.00000E+00
    0.83091E-06        -0.56673E-07         0.00000E+00
    0.85085E-06        -0.50695E-07         0.00000E+00
    0.86832E-06        -0.42975E-07         0.00000E+00
    0.88174E-06        -0.33140E-07         0.00000E+00
    0.88860E-06        -0.21574E-07         0.00000E+00
    0.88596E-06        -0.10055E-07         0.00000E+00
    0.88189E-06        -0.46348E-08         0.00000E+00
    0.81353E-06        -0.16690E-07         0.00000E+00
    0.81396E-06        -0.32497E-07         0.00000E+00
    0.82621E-06        -0.60908E-07         0.00000E+00
    0.85595E-06        -0.81201E-07         0.00000E+00
    0.89360E-06        -0.91955E-07         0.00000E+00
    0.93240E-06        -0.94819E-07         0.00000E+00
    0.96897E-06        -0.92667E-07         0.00000E+00
    0.10024E-05        -0.88116E-07         0.00000E+00
    0.10330E-05        -0.82802E-07         0.00000E+00
    0.10616E-05        -0.77241E-07         0.00000E+00
    0.10886E-05        -0.70943E-07         0.00000E+00
    0.11137E-05        -0.62671E-07         0.00000E+00
    0.11352E-05        -0.51011E-07         0.00000E+00
    0.11489E-05        -0.35427E-07         0.00000E+00
    0.11492E-05        -0.17630E-07         0.00000E+00
    0.11452E-05        -0.85784E-08         0.00000E+00
    0.96109E-06        -0.27574E-07         0.00000E+00
    0.96839E-06        -0.52354E-07         0.00000E+00
    0.99900E-06        -0.94425E-07         0.00000E+00
    0.10517E-05        -0.11996E-06         0.00000E+00
    0.11099E-05        -0.12930E-06         0.00000E+00
    0.11644E-05        -0.12748E-06         0.00000E+00
    0.12123E-05        -0.12029E-06         0.00000E+00
    0.12543E-05        -0.11194E-06         0.00000E+00
    0.12921E-05        -0.10461E-06         0.00000E+00
    0.13274E-05        -0.98805E-07         0.00000E+00
    0.13619E-05        -0.93625E-07         0.00000E+00
    0.13962E-05        -0.86832E-07         0.00000E+00
    0.14288E-05        -0.75229E-07         0.00000E+00
    0.14545E-05        -0.56078E-07         0.00000E+00
    0.14628E-05        -0.29804E-07         0.00000E+00
    0.14611E-05        -0.15238E-07         0.00000E+00
    0.10958E-05        -0.44259E-07         0.00000E+00
    0.11185E-05        -0.81769E-07         0.00000E+00
    0.11845E-05        -0.14098E-06         0.00000E+00
    0.12739E-05        -0.16870E-06         0.00000E+00
    0.13586E-05        -0.17086E-06         0.00000E+00
    0.14298E-05        -0.15948E-06         0.00000E+00
    0.14885E-05        -0.14455E-06         0.00000E+00
    0.15382E-05        -0.13140E-06         0.00000E+00
    0.15821E-05        -0.12208E-06         0.00000E+00
    0.16233E-05        -0.11690E-06         0.00000E+00
    0.16645E-05        -0.11476E-06         0.00000E+00
    0.17080E-05        -0.11269E-06         0.00000E+00
    0.17546E-05        -0.10515E-06         0.00000E+00
    0.17992E-05        -0.85074E-07         0.00000E+00
    0.18257E-05        -0.48531E-07         0.00000E+00
    0.18317E-05        -0.26058E-07         0.00000E+00
    0.11919E-05        -0.69901E-07         0.00000E+00
    0.12481E-05        -0.12428E-06         0.00000E+00
    0.13846E-05        -0.20149E-06         0.00000E+00
    0.15267E-05        -0.22157E-06         0.00000E+00
    0.16379E-05        -0.20601E-06         0.00000E+00
    0.17230E-05        -0.18017E-06         0.00000E+00
    0.17901E-05        -0.15664E-06         0.00000E+00
    0.18455E-05        -0.13909E-06         0.00000E+00
    0.18940E-05        -0.12846E-06         0.00000E+00
    0.19394E-05        -0.12466E-06         0.00000E+00
    0.19853E-05        -0.12685E-06         0.00000E+00
    0.20358E-05        -0.13282E-06         0.00000E+00
    0.20954E-05        -0.13572E-06         0.00000E+00
    0.21666E-05        -0.12161E-06         0.00000E+00
    0.22300E-05        -0.75591E-07         0.00000E+00
    0.22550E-05        -0.43021E-07         0.00000E+00
    0.11878E-05        -0.10712E-06         0.00000E+00
    0.13532E-05        -0.18322E-06         0.00000E+00
    0.16172E-05        -0.26775E-06         0.00000E+00
    0.18052E-05        -0.25375E-06         0.00000E+00
    0.19338E-05        -0.21050E-06         0.00000E+00
    0.20271E-05        -0.17313E-06         0.00000E+00
    0.20991E-05        -0.14492E-06         0.00000E+00
    0.21583E-05        -0.12605E-06         0.00000E+00
    0.22098E-05        -0.11574E-06         0.00000E+00
    0.22578E-05        -0.11348E-06         0.00000E+00
    0.23060E-05        -0.11908E-06         0.00000E+00
    0.23594E-05        -0.13207E-06         0.00000E+00
    0.24258E-05        -0.15068E-06         0.00000E+00
    0.25188E-05        -0.15642E-06         0.00000E+00
    0.26478E-05        -0.10903E-06         0.00000E+00
    0.27189E-05        -0.66270E-07         0.00000E+00
    0.11473E-05        -0.17758E-06         0.00000E+00
    0.14455E-05        -0.24018E-06         0.00000E+00
    0.18450E-05        -0.26210E-06         0.00000E+00
    0.20579E-05        -0.19542E-06         0.00000E+00
    0.21948E-05        -0.15022E-06         0.00000E+00
    0.22921E-05        -0.11789E-06         0.00000E+00
    0.23672E-05        -0.96136E-07         0.00000E+00
    0.24291E-05        -0.82396E-07         0.00000E+00
    0.24831E-05        -0.75264E-07         0.00000E+00
    0.25327E-05        -0.74161E-07         0.00000E+00
    0.25817E-05        -0.79268E-07         0.00000E+00
    0.26349E-05        -0.91593E-07         0.00000E+00
    0.27015E-05        -0.11228E-06         0.00000E+00
    0.28016E-05        -0.14676E-06         0.00000E+00
    0.29996E-05        -0.13378E-06         0.00000E+00
    0.31305E-05        -0.98854E-07         0.00000E+00
    0.11453E-05         0.00000E+00         0.00000E+00
    0.14900E-05         0.00000E+00         0.00000E+00
    0.19448E-05        -0.61499E-20         0.00000E+00
    0.21669E-05         0.85756E-21         0.00000E+00
    0.23066E-05         0.62388E-20         0.00000E+00
    0.24056E-05         0.00000E+00         0.00000E+00
    0.24821E-05         0.00000E+00         0.00000E+00
    0.25454E-05        -0.73561E-20         0.00000E+00
    0.26004E-05        -0.72652E-20         0.00000E+00
    0.26509E-05         0.76886E-20         0.00000E+00
    0.27001E-05         0.74915E-20         0.00000E+00
    0.27528E-05        -0.80676E-20         0.00000E+00
    0.28182E-05         0.23601E-21         0.00000E+00
    0.29186E-05         0.80006E-20         0.00000E+00
    0.31444E-05         0.24768E-21         0.00000E+00
    0.33024E-05         0.00000E+00         0.00000E+00
CELL_DATA        450
TENSORS stressef double 
    0.65205E+07        -0.19640E+06         0.00000E+00
   -0.19640E+06         0.18206E+07         0.00000E+00
    0.00000E+00         0.00000E+00         0.16682E+07
 
    0.57979E+07        -0.13487E+06         0.00000E+00
   -0.13487E+06         0.15850E+07         0.00000E+00
    0.00000E+00         0.00000E+00         0.14766E+07
 
    0.54344E+07        -0.69768E+05         0.00000E+00
   -0.69768E+05         0.14216E+07         0.00000E+00
    0.00000E+00         0.00000E+00         0.13712E+07
 
    0.51274E+07        -0.31721E+05         0.00000E+00
   -0.31721E+05         0.13377E+07         0.00000E+00
    0.00000E+00         0.00000E+00         0.12930E+07
 
    0.48291E+07        -0.71284E+04         0.00000E+00
   -0.71284E+04         0.13092E+07         0.00000E+00
    0.00000E+00         0.00000E+00         0.12276E+07
 
    0.45277E+07         0.90724E+04         0.00000E+00
    0.90724E+04         0.13181E+07         0.00000E+00
    0.00000E+00         0.00000E+00         0.11692E+07
 
    0.42224E+07         0.19856E+05         0.00000E+00
    0.19856E+05         0.13525E+07         0.00000E+00
    0.00000E+00         0.00000E+00         0.11150E+07
 
    0.39155E+07         0.26954E+05         0.00000E+00
    0.26954E+05         0.14038E+07         0.00000E+00
    0.00000E+00         0.00000E+00         0.10639E+07
 
    0.36093E+07         0.31476E+05         0.00000E+00
    0.31476E+05         0.14663E+07         0.00000E+00
    0.00000E+00         0.00000E+00         0.10151E+07
 
    0.33051E+07         0.34213E+05         0.00000E+00
    0.34213E+05         0.15359E+07         0.00000E+00
    0.00000E+00         0.00000E+00         0.96820E+06
 
    0.30015E+07         0.35912E+05         0.00000E+00
    0.35912E+05         0.16100E+07         0.00000E+00
    0.00000E+00         0.00000E+00         0.92229E+06
 
    0.26917E+07         0.37675E+05         0.00000E+00
    0.37675E+05         0.16879E+07         0.00000E+00
    0.00000E+00         0.00000E+00         0.87592E+06
 
    0.23551E+07         0.42825E+05         0.00000E+00
    0.42825E+05         0.17736E+07         0.00000E+00
    0.00000E+00         0.00000E+00         0.82573E+06
 
    0.19336E+07         0.60467E+05         0.00000E+00
    0.60467E+05         0.18854E+07         0.00000E+00
    0.00000E+00         0.00000E+00         0.76381E+06
 
    0.11327E+07         0.21545E+06         0.00000E+00
    0.21545E+06         0.21248E+07         0.00000E+00
    0.00000E+00         0.00000E+00         0.65150E+06
 
    0.52086E+07        -0.18973E+06         0.00000E+00
   -0.18973E+06         0.92672E+06         0.00000E+00
    0.00000E+00         0.00000E+00         0.12271E+07
 
    0.48158E+07        -0.23907E+06         0.00000E+00
   -0.23907E+06         0.98492E+06         0.00000E+00
    0.00000E+00         0.00000E+00         0.11601E+07
 
    0.44274E+07        -0.14569E+06         0.00000E+00
   -0.14569E+06         0.97379E+06         0.00000E+00
    0.00000E+00         0.00000E+00         0.10802E+07
 
    0.40961E+07        -0.63545E+05         0.00000E+00
   -0.63545E+05         0.96295E+06         0.00000E+00
    0.00000E+00         0.00000E+00         0.10118E+07
 
    0.37783E+07        -0.38216E+04         0.00000E+00
   -0.38216E+04         0.97214E+06         0.00000E+00
    0.00000E+00         0.00000E+00         0.95009E+06
 
    0.34626E+07         0.38112E+05         0.00000E+00
    0.38112E+05         0.10019E+07         0.00000E+00
    0.00000E+00         0.00000E+00         0.89290E+06
 
    0.31465E+07         0.67044E+05         0.00000E+00
    0.67044E+05         0.10484E+07         0.00000E+00
    0.00000E+00         0.00000E+00         0.83898E+06
 
    0.28312E+07         0.86598E+05         0.00000E+00
    0.86598E+05         0.11074E+07         0.00000E+00
    0.00000E+00         0.00000E+00         0.78771E+06
 
    0.25183E+07         0.99444E+05         0.00000E+00
    0.99444E+05         0.11754E+07         0.00000E+00
    0.00000E+00         0.00000E+00         0.73875E+06
 
    0.22089E+07         0.10777E+06         0.00000E+00
    0.10777E+06         0.12500E+07         0.00000E+00
    0.00000E+00         0.00000E+00         0.69179E+06
 
    0.19021E+07         0.11392E+06         0.00000E+00
    0.11392E+06         0.13301E+07         0.00000E+00
    0.00000E+00         0.00000E+00         0.64644E+06
 
    0.15928E+07         0.12195E+06         0.00000E+00
    0.12195E+06         0.14168E+07         0.00000E+00
    0.00000E+00         0.00000E+00         0.60192E+06
 
    0.12692E+07         0.14193E+06         0.00000E+00
    0.14193E+06         0.15162E+07         0.00000E+00
    0.00000E+00         0.00000E+00         0.55710E+06
 
    0.89913E+06         0.21025E+06         0.00000E+00
    0.21025E+06         0.16455E+07         0.00000E+00
    0.00000E+00         0.00000E+00         0.50892E+06
 
    0.58758E+06         0.49143E+06         0.00000E+00
    0.49143E+06         0.18180E+07         0.00000E+00
    0.00000E+00         0.00000E+00         0.48111E+06
 
    0.44860E+07        -0.81218E+05         0.00000E+00
   -0.81218E+05         0.38909E+06         0.00000E+00
    0.00000E+00         0.00000E+00         0.97501E+06
 
    0.43110E+07        -0.14950E+06         0.00000E+00
   -0.14950E+06         0.50354E+06         0.00000E+00
    0.00000E+00         0.00000E+00         0.96290E+06
 
    0.39834E+07        -0.10717E+06         0.00000E+00
   -0.10717E+06         0.60537E+06         0.00000E+00
    0.00000E+00         0.00000E+00         0.91775E+06
 
    0.36414E+07        -0.31727E+05         0.00000E+00
   -0.31727E+05         0.67441E+06         0.00000E+00
    0.00000E+00         0.00000E+00         0.86317E+06
 
    0.33062E+07         0.36385E+05         0.00000E+00
    0.36385E+05         0.73347E+06         0.00000E+00
    0.00000E+00         0.00000E+00         0.80792E+06
 
    0.29746E+07         0.89645E+05         0.00000E+00
    0.89645E+05         0.79404E+06         0.00000E+00
    0.00000E+00         0.00000E+00         0.75373E+06
 
    0.26460E+07         0.12886E+06         0.00000E+00
    0.12886E+06         0.86004E+06         0.00000E+00
    0.00000E+00         0.00000E+00         0.70121E+06
 
    0.23211E+07         0.15670E+06         0.00000E+00
    0.15670E+06         0.93209E+06         0.00000E+00
    0.00000E+00         0.00000E+00         0.65065E+06
 
    0.20014E+07         0.17606E+06         0.00000E+00
    0.17606E+06         0.10098E+07         0.00000E+00
    0.00000E+00         0.00000E+00         0.60225E+06
 
    0.16880E+07         0.18997E+06         0.00000E+00
    0.18997E+06         0.10928E+07         0.00000E+00
    0.00000E+00         0.00000E+00         0.55617E+06
 
    0.13811E+07         0.20233E+06         0.00000E+00
    0.20233E+06         0.11817E+07         0.00000E+00
    0.00000E+00         0.00000E+00         0.51256E+06
 
    0.10799E+07         0.22002E+06         0.00000E+00
    0.22002E+06         0.12786E+07         0.00000E+00
    0.00000E+00         0.00000E+00         0.47171E+06
 
    0.78442E+06         0.25837E+06         0.00000E+00
    0.25837E+06         0.13875E+07         0.00000E+00
    0.00000E+00         0.00000E+00         0.43438E+06
 
    0.52207E+06         0.35748E+06         0.00000E+00
    0.35748E+06         0.15095E+07         0.00000E+00
    0.00000E+00         0.00000E+00         0.40631E+06
 
    0.40271E+06         0.55878E+06         0.00000E+00
    0.55878E+06         0.15855E+07         0.00000E+00
    0.00000E+00         0.00000E+00         0.39764E+06
 
    0.41932E+07        -0.46790E+04         0.00000E+00
   -0.46790E+04         0.14993E+06         0.00000E+00
    0.00000E+00         0.00000E+00         0.86862E+06
 
    0.40852E+07        -0.22089E+05         0.00000E+00
   -0.22089E+05         0.24097E+06         0.00000E+00
    0.00000E+00         0.00000E+00         0.86524E+06
 
    0.38173E+07        -0.37102E+02         0.00000E+00
   -0.37102E+02         0.35996E+06         0.00000E+00
    0.00000E+00         0.00000E+00         0.83545E+06
 
    0.34894E+07         0.53296E+05         0.00000E+00
    0.53296E+05         0.46847E+06         0.00000E+00
    0.00000E+00         0.00000E+00         0.79157E+06
 
    0.31467E+07         0.11278E+06         0.00000E+00
    0.11278E+06         0.56260E+06         0.00000E+00
    0.00000E+00         0.00000E+00         0.74186E+06
 
    0.28031E+07         0.16509E+06         0.00000E+00
    0.16509E+06         0.64919E+06         0.00000E+00
    0.00000E+00         0.00000E+00         0.69046E+06
 
    0.24630E+07         0.20669E+06         0.00000E+00
    0.20669E+06         0.73346E+06         0.00000E+00
    0.00000E+00         0.00000E+00         0.63928E+06
 
    0.21287E+07         0.23814E+06         0.00000E+00
    0.23814E+06         0.81837E+06         0.00000E+00
    0.00000E+00         0.00000E+00         0.58942E+06
 
    0.18025E+07         0.26161E+06         0.00000E+00
    0.26161E+06         0.90558E+06         0.00000E+00
    0.00000E+00         0.00000E+00         0.54162E+06
 
    0.14861E+07         0.28028E+06         0.00000E+00
    0.28028E+06         0.99624E+06         0.00000E+00
    0.00000E+00         0.00000E+00         0.49647E+06
 
    0.11817E+07         0.29875E+06         0.00000E+00
    0.29875E+06         0.10915E+07         0.00000E+00
    0.00000E+00         0.00000E+00         0.45462E+06
 
    0.89302E+06         0.32466E+06         0.00000E+00
    0.32466E+06         0.11922E+07         0.00000E+00
    0.00000E+00         0.00000E+00         0.41704E+06
 
    0.63232E+06         0.37157E+06         0.00000E+00
    0.37157E+06         0.12969E+07         0.00000E+00
    0.00000E+00         0.00000E+00         0.38584E+06
 
    0.43301E+06         0.45498E+06         0.00000E+00
    0.45498E+06         0.13902E+07         0.00000E+00
    0.00000E+00         0.00000E+00         0.36464E+06
 
    0.35712E+06         0.56776E+06         0.00000E+00
    0.56776E+06         0.14344E+07         0.00000E+00
    0.00000E+00         0.00000E+00         0.35830E+06
 
    0.41369E+07         0.40687E+05         0.00000E+00
    0.40687E+05         0.55499E+05         0.00000E+00
    0.00000E+00         0.00000E+00         0.83848E+06
 
    0.40184E+07         0.82474E+05         0.00000E+00
    0.82474E+05         0.11890E+06         0.00000E+00
    0.00000E+00         0.00000E+00         0.82745E+06
 
    0.37745E+07         0.11712E+06         0.00000E+00
    0.11712E+06         0.22046E+06         0.00000E+00
    0.00000E+00         0.00000E+00         0.79900E+06
 
    0.34610E+07         0.16181E+06         0.00000E+00
    0.16181E+06         0.33150E+06         0.00000E+00
    0.00000E+00         0.00000E+00         0.75850E+06
 
    0.31182E+07         0.21129E+06         0.00000E+00
    0.21129E+06         0.43806E+06         0.00000E+00
    0.00000E+00         0.00000E+00         0.71124E+06
 
    0.27672E+07         0.25766E+06         0.00000E+00
    0.25766E+06         0.53789E+06         0.00000E+00
    0.00000E+00         0.00000E+00         0.66103E+06
 
    0.24182E+07         0.29690E+06         0.00000E+00
    0.29690E+06         0.63307E+06         0.00000E+00
    0.00000E+00         0.00000E+00         0.61025E+06
 
    0.20760E+07         0.32843E+06         0.00000E+00
    0.32843E+06         0.72610E+06         0.00000E+00
    0.00000E+00         0.00000E+00         0.56043E+06
 
    0.17443E+07         0.35367E+06         0.00000E+00
    0.35367E+06         0.81906E+06         0.00000E+00
    0.00000E+00         0.00000E+00         0.51267E+06
 
    0.14259E+07         0.37534E+06         0.00000E+00
    0.37534E+06         0.91347E+06         0.00000E+00
    0.00000E+00         0.00000E+00         0.46788E+06
 
    0.11250E+07         0.39756E+06         0.00000E+00
    0.39756E+06         0.10100E+07         0.00000E+00
    0.00000E+00         0.00000E+00         0.42700E+06
 
    0.84845E+06         0.42620E+06         0.00000E+00
    0.42620E+06         0.11078E+07         0.00000E+00
    0.00000E+00         0.00000E+00         0.39125E+06
 
    0.61035E+06         0.46782E+06         0.00000E+00
    0.46782E+06         0.12013E+07         0.00000E+00
    0.00000E+00         0.00000E+00         0.36232E+06
 
    0.43459E+06         0.52369E+06         0.00000E+00
    0.52369E+06         0.12770E+07         0.00000E+00
    0.00000E+00         0.00000E+00         0.34232E+06
 
    0.34844E+06         0.57729E+06         0.00000E+00
    0.57729E+06         0.13159E+07         0.00000E+00
    0.00000E+00         0.00000E+00         0.33287E+06
 
    0.42012E+07         0.68565E+05         0.00000E+00
    0.68565E+05         0.20313E+05         0.00000E+00
    0.00000E+00         0.00000E+00         0.84430E+06
 
    0.40416E+07         0.15966E+06         0.00000E+00
    0.15966E+06         0.65106E+05         0.00000E+00
    0.00000E+00         0.00000E+00         0.82133E+06
 
    0.37913E+07         0.21961E+06         0.00000E+00
    0.21961E+06         0.14523E+06         0.00000E+00
    0.00000E+00         0.00000E+00         0.78731E+06
 
    0.34796E+07         0.26949E+06         0.00000E+00
    0.26949E+06         0.24319E+06         0.00000E+00
    0.00000E+00         0.00000E+00         0.74455E+06
 
    0.31355E+07         0.31536E+06         0.00000E+00
    0.31536E+06         0.34537E+06         0.00000E+00
    0.00000E+00         0.00000E+00         0.69616E+06
 
    0.27794E+07         0.35675E+06         0.00000E+00
    0.35675E+06         0.44544E+06         0.00000E+00
    0.00000E+00         0.00000E+00         0.64498E+06
 
    0.24238E+07         0.39243E+06         0.00000E+00
    0.39243E+06         0.54207E+06         0.00000E+00
    0.00000E+00         0.00000E+00         0.59317E+06
 
    0.20756E+07         0.42236E+06         0.00000E+00
    0.42236E+06         0.63616E+06         0.00000E+00
    0.00000E+00         0.00000E+00         0.54235E+06
 
    0.17396E+07         0.44768E+06         0.00000E+00
    0.44768E+06         0.72917E+06         0.00000E+00
    0.00000E+00         0.00000E+00         0.49376E+06
 
    0.14200E+07         0.47044E+06         0.00000E+00
    0.47044E+06         0.82223E+06         0.00000E+00
    0.00000E+00         0.00000E+00         0.44845E+06
 
    0.11217E+07         0.49344E+06         0.00000E+00
    0.49344E+06         0.91540E+06         0.00000E+00
    0.00000E+00         0.00000E+00         0.40743E+06
 
    0.85249E+06         0.51963E+06         0.00000E+00
    0.51963E+06         0.10066E+07         0.00000E+00
    0.00000E+00         0.00000E+00         0.37182E+06
 
    0.62373E+06         0.55043E+06         0.00000E+00
    0.55043E+06         0.10904E+07         0.00000E+00
    0.00000E+00         0.00000E+00         0.34282E+06
 
    0.44982E+06         0.58187E+06         0.00000E+00
    0.58187E+06         0.11579E+07         0.00000E+00
    0.00000E+00         0.00000E+00         0.32154E+06
 
    0.34124E+06         0.60046E+06         0.00000E+00
    0.60046E+06         0.12012E+07         0.00000E+00
    0.00000E+00         0.00000E+00         0.30849E+06
 
    0.43302E+07         0.87946E+05         0.00000E+00
    0.87946E+05         0.63769E+04         0.00000E+00
    0.00000E+00         0.00000E+00         0.86732E+06
 
    0.41188E+07         0.21701E+06         0.00000E+00
    0.21701E+06         0.39946E+05         0.00000E+00
    0.00000E+00         0.00000E+00         0.83174E+06
 
    0.38428E+07         0.30294E+06         0.00000E+00
    0.30294E+06         0.10241E+06         0.00000E+00
    0.00000E+00         0.00000E+00         0.78903E+06
 
    0.35192E+07         0.36453E+06         0.00000E+00
    0.36453E+06         0.18330E+06         0.00000E+00
    0.00000E+00         0.00000E+00         0.74049E+06
 
    0.31680E+07         0.41258E+06         0.00000E+00
    0.41258E+06         0.27235E+06         0.00000E+00
    0.00000E+00         0.00000E+00         0.68806E+06
 
    0.28059E+07         0.45204E+06         0.00000E+00
    0.45204E+06         0.36295E+06         0.00000E+00
    0.00000E+00         0.00000E+00         0.63377E+06
 
    0.24446E+07         0.48516E+06         0.00000E+00
    0.48516E+06         0.45230E+06         0.00000E+00
    0.00000E+00         0.00000E+00         0.57938E+06
 
    0.20918E+07         0.51341E+06         0.00000E+00
    0.51341E+06         0.54008E+06         0.00000E+00
    0.00000E+00         0.00000E+00         0.52638E+06
 
    0.17527E+07         0.53818E+06         0.00000E+00
    0.53818E+06         0.62699E+06         0.00000E+00
    0.00000E+00         0.00000E+00         0.47595E+06
 
    0.14319E+07         0.56094E+06         0.00000E+00
    0.56094E+06         0.71368E+06         0.00000E+00
    0.00000E+00         0.00000E+00         0.42912E+06
 
    0.11345E+07         0.58295E+06         0.00000E+00
    0.58295E+06         0.79983E+06         0.00000E+00
    0.00000E+00         0.00000E+00         0.38687E+06
 
    0.86716E+06         0.60475E+06         0.00000E+00
    0.60475E+06         0.88338E+06         0.00000E+00
    0.00000E+00         0.00000E+00         0.35011E+06
 
    0.63837E+06         0.62494E+06         0.00000E+00
    0.62494E+06         0.96019E+06         0.00000E+00
    0.00000E+00         0.00000E+00         0.31971E+06
 
    0.45663E+06         0.63860E+06         0.00000E+00
    0.63860E+06         0.10250E+07         0.00000E+00
    0.00000E+00         0.00000E+00         0.29633E+06
 
    0.32619E+06         0.63687E+06         0.00000E+00
    0.63687E+06         0.10747E+07         0.00000E+00
    0.00000E+00         0.00000E+00         0.28017E+06
 
    0.44988E+07         0.10297E+06         0.00000E+00
    0.10297E+06        -0.12722E+04         0.00000E+00
    0.00000E+00         0.00000E+00         0.89950E+06
 
    0.42305E+07         0.26087E+06         0.00000E+00
    0.26087E+06         0.24865E+05         0.00000E+00
    0.00000E+00         0.00000E+00         0.85108E+06
 
    0.39172E+07         0.36861E+06         0.00000E+00
    0.36861E+06         0.73132E+05         0.00000E+00
    0.00000E+00         0.00000E+00         0.79807E+06
 
    0.35711E+07         0.44262E+06         0.00000E+00
    0.44262E+06         0.13665E+06         0.00000E+00
    0.00000E+00         0.00000E+00         0.74155E+06
 
    0.32064E+07         0.49547E+06         0.00000E+00
    0.49547E+06         0.20831E+06         0.00000E+00
    0.00000E+00         0.00000E+00         0.68294E+06
 
    0.28357E+07         0.53542E+06         0.00000E+00
    0.53542E+06         0.28295E+06         0.00000E+00
    0.00000E+00         0.00000E+00         0.62374E+06
 
    0.24688E+07         0.56757E+06         0.00000E+00
    0.56757E+06         0.35797E+06         0.00000E+00
    0.00000E+00         0.00000E+00         0.56534E+06
 
    0.21121E+07         0.59507E+06         0.00000E+00
    0.59507E+06         0.43278E+06         0.00000E+00
    0.00000E+00         0.00000E+00         0.50898E+06
 
    0.17707E+07         0.61982E+06         0.00000E+00
    0.61982E+06         0.50784E+06         0.00000E+00
    0.00000E+00         0.00000E+00         0.45570E+06
 
    0.14484E+07         0.64281E+06         0.00000E+00
    0.64281E+06         0.58370E+06         0.00000E+00
    0.00000E+00         0.00000E+00         0.40643E+06
 
    0.11498E+07         0.66409E+06         0.00000E+00
    0.66409E+06         0.66012E+06         0.00000E+00
    0.00000E+00         0.00000E+00         0.36199E+06
 
    0.88016E+06         0.68247E+06         0.00000E+00
    0.68247E+06         0.73558E+06         0.00000E+00
    0.00000E+00         0.00000E+00         0.32315E+06
 
    0.64563E+06         0.69513E+06         0.00000E+00
    0.69513E+06         0.80727E+06         0.00000E+00
    0.00000E+00         0.00000E+00         0.29058E+06
 
    0.45195E+06         0.69740E+06         0.00000E+00
    0.69740E+06         0.87193E+06         0.00000E+00
    0.00000E+00         0.00000E+00         0.26478E+06
 
    0.30212E+06         0.68365E+06         0.00000E+00
    0.68365E+06         0.92762E+06         0.00000E+00
    0.00000E+00         0.00000E+00         0.24595E+06
 
    0.46940E+07         0.11510E+06         0.00000E+00
    0.11510E+06        -0.85246E+04         0.00000E+00
    0.00000E+00         0.00000E+00         0.93710E+06
 
    0.43648E+07         0.29445E+06         0.00000E+00
    0.29445E+06         0.11485E+05         0.00000E+00
    0.00000E+00         0.00000E+00         0.87525E+06
 
    0.40068E+07         0.41823E+06         0.00000E+00
    0.41823E+06         0.47015E+05         0.00000E+00
    0.00000E+00         0.00000E+00         0.81076E+06
 
    0.36308E+07         0.50204E+06         0.00000E+00
    0.50204E+06         0.92892E+05         0.00000E+00
    0.00000E+00         0.00000E+00         0.74474E+06
 
    0.32474E+07         0.55944E+06         0.00000E+00
    0.55944E+06         0.14444E+06         0.00000E+00
    0.00000E+00         0.00000E+00         0.67838E+06
 
    0.28657E+07         0.60079E+06         0.00000E+00
    0.60079E+06         0.19843E+06         0.00000E+00
    0.00000E+00         0.00000E+00         0.61284E+06
 
    0.24926E+07         0.63328E+06         0.00000E+00
    0.63328E+06         0.25342E+06         0.00000E+00
    0.00000E+00         0.00000E+00         0.54921E+06
 
    0.21328E+07         0.66144E+06         0.00000E+00
    0.66144E+06         0.30949E+06         0.00000E+00
    0.00000E+00         0.00000E+00         0.48846E+06
 
    0.17896E+07         0.68768E+06         0.00000E+00
    0.68768E+06         0.36755E+06         0.00000E+00
    0.00000E+00         0.00000E+00         0.43143E+06
 
    0.14658E+07         0.71265E+06         0.00000E+00
    0.71265E+06         0.42858E+06         0.00000E+00
    0.00000E+00         0.00000E+00         0.37888E+06
 
    0.11645E+07         0.73537E+06         0.00000E+00
    0.73537E+06         0.49288E+06         0.00000E+00
    0.00000E+00         0.00000E+00         0.33148E+06
 
    0.88957E+06         0.75340E+06         0.00000E+00
    0.75340E+06         0.55967E+06         0.00000E+00
    0.00000E+00         0.00000E+00         0.28985E+06
 
    0.64574E+06         0.76295E+06         0.00000E+00
    0.76295E+06         0.62707E+06         0.00000E+00
    0.00000E+00         0.00000E+00         0.25456E+06
 
    0.43781E+06         0.75943E+06         0.00000E+00
    0.75943E+06         0.69259E+06         0.00000E+00
    0.00000E+00         0.00000E+00         0.22608E+06
 
    0.26964E+06         0.73873E+06         0.00000E+00
    0.73873E+06         0.75403E+06         0.00000E+00
    0.00000E+00         0.00000E+00         0.20473E+06
 
    0.49073E+07         0.12451E+06         0.00000E+00
    0.12451E+06        -0.18232E+05         0.00000E+00
    0.00000E+00         0.00000E+00         0.97782E+06
 
    0.45122E+07         0.31849E+06         0.00000E+00
    0.31849E+06        -0.44849E+04         0.00000E+00
    0.00000E+00         0.00000E+00         0.90154E+06
 
    0.41042E+07         0.45192E+06         0.00000E+00
    0.45192E+06         0.17962E+05         0.00000E+00
    0.00000E+00         0.00000E+00         0.82444E+06
 
    0.36936E+07         0.54112E+06         0.00000E+00
    0.54112E+06         0.44899E+05         0.00000E+00
    0.00000E+00         0.00000E+00         0.74769E+06
 
    0.32883E+07         0.60088E+06         0.00000E+00
    0.60088E+06         0.73558E+05         0.00000E+00
    0.00000E+00         0.00000E+00         0.67236E+06
 
    0.28942E+07         0.64319E+06         0.00000E+00
    0.64319E+06         0.10271E+06         0.00000E+00
    0.00000E+00         0.00000E+00         0.59938E+06
 
    0.25151E+07         0.67677E+06         0.00000E+00
    0.67677E+06         0.13262E+06         0.00000E+00
    0.00000E+00         0.00000E+00         0.52955E+06
 
    0.21532E+07         0.70722E+06         0.00000E+00
    0.70722E+06         0.16473E+06         0.00000E+00
    0.00000E+00         0.00000E+00         0.46358E+06
 
    0.18093E+07         0.73731E+06         0.00000E+00
    0.73731E+06         0.20106E+06         0.00000E+00
    0.00000E+00         0.00000E+00         0.40208E+06
 
    0.14843E+07         0.76728E+06         0.00000E+00
    0.76728E+06         0.24352E+06         0.00000E+00
    0.00000E+00         0.00000E+00         0.34557E+06
 
    0.11796E+07         0.79524E+06         0.00000E+00
    0.79524E+06         0.29332E+06         0.00000E+00
    0.00000E+00         0.00000E+00         0.29458E+06
 
    0.89742E+06         0.81753E+06         0.00000E+00
    0.81753E+06         0.35049E+06         0.00000E+00
    0.00000E+00         0.00000E+00         0.24958E+06
 
    0.64164E+06         0.82926E+06         0.00000E+00
    0.82926E+06         0.41379E+06         0.00000E+00
    0.00000E+00         0.00000E+00         0.21109E+06
 
    0.41710E+06         0.82527E+06         0.00000E+00
    0.82527E+06         0.48082E+06         0.00000E+00
    0.00000E+00         0.00000E+00         0.17959E+06
 
    0.22939E+06         0.80151E+06         0.00000E+00
    0.80151E+06         0.54840E+06         0.00000E+00
    0.00000E+00         0.00000E+00         0.15556E+06
 
    0.51304E+07         0.13078E+06         0.00000E+00
    0.13078E+06        -0.32614E+05         0.00000E+00
    0.00000E+00         0.00000E+00         0.10195E+07
 
    0.46636E+07         0.33221E+06         0.00000E+00
    0.33221E+06        -0.26103E+05         0.00000E+00
    0.00000E+00         0.00000E+00         0.92750E+06
 
    0.42015E+07         0.46830E+06         0.00000E+00
    0.46830E+06        -0.18418E+05         0.00000E+00
    0.00000E+00         0.00000E+00         0.83662E+06
 
    0.37534E+07         0.55740E+06         0.00000E+00
    0.55740E+06        -0.12920E+05         0.00000E+00
    0.00000E+00         0.00000E+00         0.74810E+06
 
    0.33250E+07         0.61606E+06         0.00000E+00
    0.61606E+06        -0.10651E+05         0.00000E+00
    0.00000E+00         0.00000E+00         0.66287E+06
 
    0.29189E+07         0.65787E+06         0.00000E+00
    0.65787E+06        -0.10764E+05         0.00000E+00
    0.00000E+00         0.00000E+00         0.58162E+06
 
    0.25355E+07         0.69287E+06         0.00000E+00
    0.69287E+06        -0.10934E+05         0.00000E+00
    0.00000E+00         0.00000E+00         0.50491E+06
 
    0.21735E+07         0.72742E+06         0.00000E+00
    0.72742E+06        -0.78674E+04         0.00000E+00
    0.00000E+00         0.00000E+00         0.43313E+06
 
    0.18310E+07         0.76442E+06         0.00000E+00
    0.76442E+06         0.20771E+04         0.00000E+00
    0.00000E+00         0.00000E+00         0.36662E+06
 
    0.15061E+07         0.80360E+06         0.00000E+00
    0.80360E+06         0.22230E+05         0.00000E+00
    0.00000E+00         0.00000E+00         0.30567E+06
 
    0.11979E+07         0.84196E+06         0.00000E+00
    0.84196E+06         0.54992E+05         0.00000E+00
    0.00000E+00         0.00000E+00         0.25058E+06
 
    0.90725E+06         0.87442E+06         0.00000E+00
    0.87442E+06         0.10134E+06         0.00000E+00
    0.00000E+00         0.00000E+00         0.20172E+06
 
    0.63707E+06         0.89455E+06         0.00000E+00
    0.89455E+06         0.16051E+06         0.00000E+00
    0.00000E+00         0.00000E+00         0.15952E+06
 
    0.39268E+06         0.89577E+06         0.00000E+00
    0.89577E+06         0.22986E+06         0.00000E+00
    0.00000E+00         0.00000E+00         0.12451E+06
 
    0.18177E+06         0.87282E+06         0.00000E+00
    0.87282E+06         0.30491E+06         0.00000E+00
    0.00000E+00         0.00000E+00         0.97336E+05
 
    0.53533E+07         0.13318E+06         0.00000E+00
    0.13318E+06        -0.54268E+05         0.00000E+00
    0.00000E+00         0.00000E+00         0.10598E+07
 
    0.48089E+07         0.33380E+06         0.00000E+00
    0.33380E+06        -0.56523E+05         0.00000E+00
    0.00000E+00         0.00000E+00         0.95047E+06
 
    0.42895E+07         0.46472E+06         0.00000E+00
    0.46472E+06        -0.66263E+05         0.00000E+00
    0.00000E+00         0.00000E+00         0.84464E+06
 
    0.38030E+07         0.54734E+06         0.00000E+00
    0.54734E+06        -0.85795E+05         0.00000E+00
    0.00000E+00         0.00000E+00         0.74344E+06
 
    0.33523E+07         0.60059E+06         0.00000E+00
    0.60059E+06        -0.11432E+06         0.00000E+00
    0.00000E+00         0.00000E+00         0.64761E+06
 
    0.29366E+07         0.63984E+06         0.00000E+00
    0.63984E+06        -0.14872E+06         0.00000E+00
    0.00000E+00         0.00000E+00         0.55758E+06
 
    0.25522E+07         0.67634E+06         0.00000E+00
    0.67634E+06        -0.18433E+06         0.00000E+00
    0.00000E+00         0.00000E+00         0.47358E+06
 
    0.21940E+07         0.71703E+06         0.00000E+00
    0.71703E+06        -0.21559E+06         0.00000E+00
    0.00000E+00         0.00000E+00         0.39567E+06
 
    0.18562E+07         0.76471E+06         0.00000E+00
    0.76471E+06        -0.23683E+06         0.00000E+00
    0.00000E+00         0.00000E+00         0.32387E+06
 
    0.15338E+07         0.81833E+06         0.00000E+00
    0.81833E+06        -0.24291E+06         0.00000E+00
    0.00000E+00         0.00000E+00         0.25818E+06
 
    0.12232E+07         0.87355E+06         0.00000E+00
    0.87355E+06        -0.22993E+06         0.00000E+00
    0.00000E+00         0.00000E+00         0.19865E+06
 
    0.92327E+06         0.92341E+06         0.00000E+00
    0.92341E+06        -0.19581E+06         0.00000E+00
    0.00000E+00         0.00000E+00         0.14549E+06
 
    0.63603E+06         0.95935E+06         0.00000E+00
    0.95935E+06        -0.14081E+06         0.00000E+00
    0.00000E+00         0.00000E+00         0.99045E+05
 
    0.36729E+06         0.97240E+06         0.00000E+00
    0.97240E+06        -0.67883E+05         0.00000E+00
    0.00000E+00         0.00000E+00         0.59882E+05
 
    0.12696E+06         0.95492E+06         0.00000E+00
    0.95492E+06         0.17076E+05         0.00000E+00
    0.00000E+00         0.00000E+00         0.28808E+05
 
    0.55640E+07         0.13071E+06         0.00000E+00
    0.13071E+06        -0.86729E+05         0.00000E+00
    0.00000E+00         0.00000E+00         0.10954E+07
 
    0.49357E+07         0.32073E+06         0.00000E+00
    0.32073E+06        -0.99712E+05         0.00000E+00
    0.00000E+00         0.00000E+00         0.96720E+06
 
    0.43569E+07         0.43752E+06         0.00000E+00
    0.43752E+06        -0.13034E+06         0.00000E+00
    0.00000E+00         0.00000E+00         0.84531E+06
 
    0.38330E+07         0.50643E+06         0.00000E+00
    0.50643E+06        -0.17944E+06         0.00000E+00
    0.00000E+00         0.00000E+00         0.73071E+06
 
    0.33634E+07         0.54931E+06         0.00000E+00
    0.54931E+06        -0.24404E+06         0.00000E+00
    0.00000E+00         0.00000E+00         0.62387E+06
 
    0.29428E+07         0.58355E+06         0.00000E+00
    0.58355E+06        -0.31849E+06         0.00000E+00
    0.00000E+00         0.00000E+00         0.52486E+06
 
    0.25630E+07         0.62160E+06         0.00000E+00
    0.62160E+06        -0.39542E+06         0.00000E+00
    0.00000E+00         0.00000E+00         0.43351E+06
 
    0.22141E+07         0.67082E+06         0.00000E+00
    0.67082E+06        -0.46669E+06         0.00000E+00
    0.00000E+00         0.00000E+00         0.34948E+06
 
    0.18862E+07         0.73365E+06         0.00000E+00
    0.73365E+06        -0.52420E+06         0.00000E+00
    0.00000E+00         0.00000E+00         0.27240E+06
 
    0.15702E+07         0.80802E+06         0.00000E+00
    0.80802E+06        -0.56069E+06         0.00000E+00
    0.00000E+00         0.00000E+00         0.20190E+06
 
    0.12593E+07         0.88783E+06         0.00000E+00
    0.88783E+06        -0.57046E+06         0.00000E+00
    0.00000E+00         0.00000E+00         0.13776E+06
 
    0.94985E+06         0.96381E+06         0.00000E+00
    0.96381E+06        -0.55011E+06         0.00000E+00
    0.00000E+00         0.00000E+00         0.79949E+05
 
    0.64265E+06         0.10244E+07         0.00000E+00
    0.10244E+07        -0.49918E+06         0.00000E+00
    0.00000E+00         0.00000E+00         0.28694E+05
 
    0.34369E+06         0.10575E+07         0.00000E+00
    0.10575E+07        -0.42084E+06         0.00000E+00
    0.00000E+00         0.00000E+00        -0.15430E+05
 
    0.65027E+05         0.10515E+07         0.00000E+00
    0.10515E+07        -0.32237E+06         0.00000E+00
    0.00000E+00         0.00000E+00        -0.51469E+05
 
    0.57465E+07         0.12217E+06         0.00000E+00
    0.12217E+06        -0.13494E+06         0.00000E+00
    0.00000E+00         0.00000E+00         0.11223E+07
 
    0.50290E+07         0.28988E+06         0.00000E+00
    0.28988E+06        -0.16100E+06         0.00000E+00
    0.00000E+00         0.00000E+00         0.97359E+06
 
    0.43902E+07         0.38222E+06         0.00000E+00
    0.38222E+06        -0.21665E+06         0.00000E+00
    0.00000E+00         0.00000E+00         0.83471E+06
 
    0.38321E+07         0.42928E+06         0.00000E+00
    0.42928E+06        -0.30068E+06         0.00000E+00
    0.00000E+00         0.00000E+00         0.70628E+06
 
    0.33493E+07         0.45630E+06         0.00000E+00
    0.45630E+06        -0.40747E+06         0.00000E+00
    0.00000E+00         0.00000E+00         0.58836E+06
 
    0.29311E+07         0.48290E+06         0.00000E+00
    0.48290E+06        -0.52839E+06         0.00000E+00
    0.00000E+00         0.00000E+00         0.48055E+06
 
    0.25639E+07         0.52268E+06         0.00000E+00
    0.52268E+06        -0.65304E+06         0.00000E+00
    0.00000E+00         0.00000E+00         0.38218E+06
 
    0.22325E+07         0.58326E+06         0.00000E+00
    0.58326E+06        -0.77036E+06         0.00000E+00
    0.00000E+00         0.00000E+00         0.29243E+06
 
    0.19216E+07         0.66652E+06         0.00000E+00
    0.66652E+06        -0.86954E+06         0.00000E+00
    0.00000E+00         0.00000E+00         0.21041E+06
 
    0.16176E+07         0.76899E+06         0.00000E+00
    0.76899E+06        -0.94089E+06         0.00000E+00
    0.00000E+00         0.00000E+00         0.13535E+06
 
    0.13098E+07         0.88250E+06         0.00000E+00
    0.88250E+06        -0.97662E+06         0.00000E+00
    0.00000E+00         0.00000E+00         0.66627E+05
 
    0.99126E+06         0.99488E+06         0.00000E+00
    0.99488E+06        -0.97165E+06         0.00000E+00
    0.00000E+00         0.00000E+00         0.39220E+04
 
    0.66097E+06         0.10910E+07         0.00000E+00
    0.10910E+07        -0.92453E+06         0.00000E+00
    0.00000E+00         0.00000E+00        -0.52712E+05
 
    0.32458E+06         0.11541E+07         0.00000E+00
    0.11541E+07        -0.83834E+06         0.00000E+00
    0.00000E+00         0.00000E+00        -0.10275E+06
 
   -0.40956E+04         0.11678E+07         0.00000E+00
    0.11678E+07        -0.72156E+06         0.00000E+00
    0.00000E+00         0.00000E+00        -0.14513E+06
 
    0.58807E+07         0.10617E+06         0.00000E+00
    0.10617E+06        -0.20576E+06         0.00000E+00
    0.00000E+00         0.00000E+00         0.11350E+07
 
    0.50698E+07         0.23761E+06         0.00000E+00
    0.23761E+06        -0.24762E+06         0.00000E+00
    0.00000E+00         0.00000E+00         0.96443E+06
 
    0.43726E+07         0.29364E+06         0.00000E+00
    0.29364E+06        -0.33303E+06         0.00000E+00
    0.00000E+00         0.00000E+00         0.80792E+06
 
    0.37861E+07         0.30978E+06         0.00000E+00
    0.30978E+06        -0.45806E+06         0.00000E+00
    0.00000E+00         0.00000E+00         0.66561E+06
 
    0.32987E+07         0.31505E+06         0.00000E+00
    0.31505E+06        -0.61380E+06         0.00000E+00
    0.00000E+00         0.00000E+00         0.53699E+06
 
    0.28933E+07         0.33137E+06         0.00000E+00
    0.33137E+06        -0.78812E+06         0.00000E+00
    0.00000E+00         0.00000E+00         0.42104E+06
 
    0.25496E+07         0.37338E+06         0.00000E+00
    0.37338E+06        -0.96723E+06         0.00000E+00
    0.00000E+00         0.00000E+00         0.31648E+06
 
    0.22460E+07         0.44874E+06         0.00000E+00
    0.44874E+06        -0.11368E+07         0.00000E+00
    0.00000E+00         0.00000E+00         0.22183E+06
 
    0.19615E+07         0.55845E+06         0.00000E+00
    0.55845E+06        -0.12832E+07         0.00000E+00
    0.00000E+00         0.00000E+00         0.13566E+06
 
    0.16771E+07         0.69746E+06         0.00000E+00
    0.69746E+06        -0.13941E+07         0.00000E+00
    0.00000E+00         0.00000E+00         0.56612E+05
 
    0.13772E+07         0.85514E+06         0.00000E+00
    0.85514E+06        -0.14591E+07         0.00000E+00
    0.00000E+00         0.00000E+00        -0.16384E+05
 
    0.10510E+07         0.10160E+07         0.00000E+00
    0.10160E+07        -0.14713E+07         0.00000E+00
    0.00000E+00         0.00000E+00        -0.84044E+05
 
    0.69468E+06         0.11604E+07         0.00000E+00
    0.11604E+07        -0.14276E+07         0.00000E+00
    0.00000E+00         0.00000E+00        -0.14659E+06
 
    0.31251E+06         0.12663E+07         0.00000E+00
    0.12663E+07        -0.13306E+07         0.00000E+00
    0.00000E+00         0.00000E+00        -0.20362E+06
 
   -0.80623E+05         0.13107E+07         0.00000E+00
    0.13107E+07        -0.11895E+07         0.00000E+00
    0.00000E+00         0.00000E+00        -0.25402E+06
 
    0.59414E+07         0.81116E+05         0.00000E+00
    0.81116E+05        -0.30854E+06         0.00000E+00
    0.00000E+00         0.00000E+00         0.11266E+07
 
    0.50347E+07         0.15980E+06         0.00000E+00
    0.15980E+06        -0.36928E+06         0.00000E+00
    0.00000E+00         0.00000E+00         0.93309E+06
 
    0.42837E+07         0.16604E+06         0.00000E+00
    0.16604E+06        -0.48977E+06         0.00000E+00
    0.00000E+00         0.00000E+00         0.75878E+06
 
    0.36778E+07         0.14136E+06         0.00000E+00
    0.14136E+06        -0.66242E+06         0.00000E+00
    0.00000E+00         0.00000E+00         0.60307E+06
 
    0.31978E+07         0.11877E+06         0.00000E+00
    0.11877E+06        -0.87428E+06         0.00000E+00
    0.00000E+00         0.00000E+00         0.46470E+06
 
    0.28185E+07         0.12238E+06         0.00000E+00
    0.12238E+06        -0.11092E+07         0.00000E+00
    0.00000E+00         0.00000E+00         0.34186E+06
 
    0.25118E+07         0.16761E+06         0.00000E+00
    0.16761E+06        -0.13494E+07         0.00000E+00
    0.00000E+00         0.00000E+00         0.23248E+06
 
    0.22492E+07         0.26180E+06         0.00000E+00
    0.26180E+06        -0.15775E+07         0.00000E+00
    0.00000E+00         0.00000E+00         0.13434E+06
 
    0.20028E+07         0.40482E+06         0.00000E+00
    0.40482E+06        -0.17765E+07         0.00000E+00
    0.00000E+00         0.00000E+00         0.45257E+05
 
    0.17475E+07         0.58975E+06         0.00000E+00
    0.58975E+06        -0.19313E+07         0.00000E+00
    0.00000E+00         0.00000E+00        -0.36752E+05
 
    0.14622E+07         0.80334E+06         0.00000E+00
    0.80334E+06        -0.20291E+07         0.00000E+00
    0.00000E+00         0.00000E+00        -0.11336E+06
 
    0.11312E+07         0.10264E+07         0.00000E+00
    0.10264E+07        -0.20602E+07         0.00000E+00
    0.00000E+00         0.00000E+00        -0.18580E+06
 
    0.74639E+06         0.12346E+07         0.00000E+00
    0.12346E+07        -0.20197E+07         0.00000E+00
    0.00000E+00         0.00000E+00        -0.25467E+06
 
    0.30945E+06         0.13990E+07         0.00000E+00
    0.13990E+07        -0.19086E+07         0.00000E+00
    0.00000E+00         0.00000E+00        -0.31983E+06
 
   -0.16507E+06         0.14887E+07         0.00000E+00
    0.14887E+07        -0.17360E+07         0.00000E+00
    0.00000E+00         0.00000E+00        -0.38022E+06
 
    0.58968E+07         0.45229E+05         0.00000E+00
    0.45229E+05        -0.45586E+06         0.00000E+00
    0.00000E+00         0.00000E+00         0.10882E+07
 
    0.48952E+07         0.51977E+05         0.00000E+00
    0.51977E+05        -0.53891E+06         0.00000E+00
    0.00000E+00         0.00000E+00         0.87125E+06
 
    0.40982E+07        -0.66784E+04         0.00000E+00
   -0.66784E+04        -0.70027E+06         0.00000E+00
    0.00000E+00         0.00000E+00         0.67958E+06
 
    0.34859E+07        -0.82715E+05         0.00000E+00
   -0.82715E+05        -0.92759E+06         0.00000E+00
    0.00000E+00         0.00000E+00         0.51165E+06
 
    0.30288E+07        -0.13917E+06         0.00000E+00
   -0.13917E+06        -0.12029E+07         0.00000E+00
    0.00000E+00         0.00000E+00         0.36519E+06
 
    0.26923E+07        -0.15013E+06         0.00000E+00
   -0.15013E+06        -0.15052E+07         0.00000E+00
    0.00000E+00         0.00000E+00         0.23741E+06
 
    0.24392E+07        -0.99957E+05         0.00000E+00
   -0.99957E+05        -0.18128E+07         0.00000E+00
    0.00000E+00         0.00000E+00         0.12527E+06
 
    0.22329E+07         0.17836E+05         0.00000E+00
    0.17836E+05        -0.21047E+07         0.00000E+00
    0.00000E+00         0.00000E+00         0.25641E+05
 
    0.20384E+07         0.20165E+06         0.00000E+00
    0.20165E+06        -0.23609E+07         0.00000E+00
    0.00000E+00         0.00000E+00        -0.64503E+05
 
    0.18241E+07         0.44260E+06         0.00000E+00
    0.44260E+06        -0.25638E+07         0.00000E+00
    0.00000E+00         0.00000E+00        -0.14794E+06
 
    0.15623E+07         0.72482E+06         0.00000E+00
    0.72482E+06        -0.26976E+07         0.00000E+00
    0.00000E+00         0.00000E+00        -0.22707E+06
 
    0.12311E+07         0.10255E+07         0.00000E+00
    0.10255E+07        -0.27499E+07         0.00000E+00
    0.00000E+00         0.00000E+00        -0.30376E+06
 
    0.81673E+06         0.13151E+07         0.00000E+00
    0.13151E+07        -0.27126E+07         0.00000E+00
    0.00000E+00         0.00000E+00        -0.37917E+06
 
    0.31619E+06         0.15574E+07         0.00000E+00
    0.15574E+07        -0.25840E+07         0.00000E+00
    0.00000E+00         0.00000E+00        -0.45357E+06
 
   -0.25847E+06         0.17115E+07         0.00000E+00
    0.17115E+07        -0.23722E+07         0.00000E+00
    0.00000E+00         0.00000E+00        -0.52613E+06
 
    0.57076E+07        -0.34330E+04         0.00000E+00
   -0.34330E+04        -0.66426E+06         0.00000E+00
    0.00000E+00         0.00000E+00         0.10087E+07
 
    0.46161E+07        -0.90650E+05         0.00000E+00
   -0.90650E+05        -0.77344E+06         0.00000E+00
    0.00000E+00         0.00000E+00         0.76853E+06
 
    0.37860E+07        -0.23074E+06         0.00000E+00
   -0.23074E+06        -0.98196E+06         0.00000E+00
    0.00000E+00         0.00000E+00         0.56080E+06
 
    0.31847E+07        -0.36888E+06         0.00000E+00
   -0.36888E+06        -0.12712E+07         0.00000E+00
    0.00000E+00         0.00000E+00         0.38269E+06
 
    0.27703E+07        -0.46455E+06         0.00000E+00
   -0.46455E+06        -0.16170E+07         0.00000E+00
    0.00000E+00         0.00000E+00         0.23067E+06
 
    0.24964E+07        -0.49086E+06         0.00000E+00
   -0.49086E+06        -0.19928E+07         0.00000E+00
    0.00000E+00         0.00000E+00         0.10073E+06
 
    0.23158E+07        -0.43295E+06         0.00000E+00
   -0.43295E+06        -0.23725E+07         0.00000E+00
    0.00000E+00         0.00000E+00        -0.11344E+05
 
    0.21832E+07        -0.28600E+06         0.00000E+00
   -0.28600E+06        -0.27319E+07         0.00000E+00
    0.00000E+00         0.00000E+00        -0.10973E+06
 
    0.20564E+07        -0.53496E+05         0.00000E+00
   -0.53496E+05        -0.30486E+07         0.00000E+00
    0.00000E+00         0.00000E+00        -0.19845E+06
 
    0.18966E+07         0.25374E+06         0.00000E+00
    0.25374E+06        -0.33025E+07         0.00000E+00
    0.00000E+00         0.00000E+00        -0.28118E+06
 
    0.16694E+07         0.61769E+06         0.00000E+00
    0.61769E+06        -0.34754E+07         0.00000E+00
    0.00000E+00         0.00000E+00        -0.36119E+06
 
    0.13454E+07         0.10125E+07         0.00000E+00
    0.10125E+07        -0.35511E+07         0.00000E+00
    0.00000E+00         0.00000E+00        -0.44115E+06
 
    0.90283E+06         0.14035E+07         0.00000E+00
    0.14035E+07        -0.35176E+07         0.00000E+00
    0.00000E+00         0.00000E+00        -0.52296E+06
 
    0.33135E+06         0.17468E+07         0.00000E+00
    0.17468E+07        -0.33691E+07         0.00000E+00
    0.00000E+00         0.00000E+00        -0.60754E+06
 
   -0.36279E+06         0.19902E+07         0.00000E+00
    0.19902E+07        -0.31099E+07         0.00000E+00
    0.00000E+00         0.00000E+00        -0.69455E+06
 
    0.53264E+07        -0.66964E+05         0.00000E+00
   -0.66964E+05        -0.95521E+06         0.00000E+00
    0.00000E+00         0.00000E+00         0.87423E+06
 
    0.41555E+07        -0.27306E+06         0.00000E+00
   -0.27306E+06        -0.10948E+07         0.00000E+00
    0.00000E+00         0.00000E+00         0.61213E+06
 
    0.33109E+07        -0.51219E+06         0.00000E+00
   -0.51219E+06        -0.13573E+07         0.00000E+00
    0.00000E+00         0.00000E+00         0.39072E+06
 
    0.27437E+07        -0.72267E+06         0.00000E+00
   -0.72267E+06        -0.17158E+07         0.00000E+00
    0.00000E+00         0.00000E+00         0.20557E+06
 
    0.23960E+07        -0.86134E+06         0.00000E+00
   -0.86134E+06        -0.21382E+07         0.00000E+00
    0.00000E+00         0.00000E+00         0.51554E+05
 
    0.22076E+07        -0.90189E+06         0.00000E+00
   -0.90189E+06        -0.25917E+07         0.00000E+00
    0.00000E+00         0.00000E+00        -0.76834E+05
 
    0.21201E+07        -0.83190E+06         0.00000E+00
   -0.83190E+06        -0.30458E+07         0.00000E+00
    0.00000E+00         0.00000E+00        -0.18515E+06
 
    0.20796E+07        -0.64945E+06         0.00000E+00
   -0.64945E+06        -0.34735E+07         0.00000E+00
    0.00000E+00         0.00000E+00        -0.27879E+06
 
    0.20369E+07        -0.36044E+06         0.00000E+00
   -0.36044E+06        -0.38513E+07         0.00000E+00
    0.00000E+00         0.00000E+00        -0.36287E+06
 
    0.19469E+07         0.22713E+05         0.00000E+00
    0.22713E+05        -0.41574E+07         0.00000E+00
    0.00000E+00         0.00000E+00        -0.44209E+06
 
    0.17678E+07         0.48077E+06         0.00000E+00
    0.48077E+06        -0.43714E+07         0.00000E+00
    0.00000E+00         0.00000E+00        -0.52071E+06
 
    0.14616E+07         0.98611E+06         0.00000E+00
    0.98611E+06        -0.44734E+07         0.00000E+00
    0.00000E+00         0.00000E+00        -0.60235E+06
 
    0.99627E+06         0.15003E+07         0.00000E+00
    0.15003E+07        -0.44458E+07         0.00000E+00
    0.00000E+00         0.00000E+00        -0.68990E+06
 
    0.35001E+06         0.19720E+07         0.00000E+00
    0.19720E+07        -0.42761E+07         0.00000E+00
    0.00000E+00         0.00000E+00        -0.78523E+06
 
   -0.48143E+06         0.23362E+07         0.00000E+00
    0.23362E+07        -0.39626E+07         0.00000E+00
    0.00000E+00         0.00000E+00        -0.88881E+06
 
    0.46954E+07        -0.14762E+06         0.00000E+00
   -0.14762E+06        -0.13561E+07         0.00000E+00
    0.00000E+00         0.00000E+00         0.66785E+06
 
    0.34633E+07        -0.50034E+06         0.00000E+00
   -0.50034E+06        -0.15312E+07         0.00000E+00
    0.00000E+00         0.00000E+00         0.38642E+06
 
    0.26306E+07        -0.85654E+06         0.00000E+00
   -0.85654E+06        -0.18551E+07         0.00000E+00
    0.00000E+00         0.00000E+00         0.15509E+06
 
    0.21269E+07        -0.11479E+07         0.00000E+00
   -0.11479E+07        -0.22901E+07         0.00000E+00
    0.00000E+00         0.00000E+00        -0.32640E+05
 
    0.18745E+07        -0.13304E+07         0.00000E+00
   -0.13304E+07        -0.27939E+07         0.00000E+00
    0.00000E+00         0.00000E+00        -0.18389E+06
 
    0.17966E+07        -0.13810E+07         0.00000E+00
   -0.13810E+07        -0.33262E+07         0.00000E+00
    0.00000E+00         0.00000E+00        -0.30593E+06
 
    0.18232E+07        -0.12923E+07         0.00000E+00
   -0.12923E+07        -0.38526E+07         0.00000E+00
    0.00000E+00         0.00000E+00        -0.40587E+06
 
    0.18926E+07        -0.10673E+07         0.00000E+00
   -0.10673E+07        -0.43449E+07         0.00000E+00
    0.00000E+00         0.00000E+00        -0.49045E+06
 
    0.19501E+07        -0.71474E+06         0.00000E+00
   -0.71474E+06        -0.47798E+07         0.00000E+00
    0.00000E+00         0.00000E+00        -0.56594E+06
 
    0.19454E+07        -0.24808E+06         0.00000E+00
   -0.24808E+06        -0.51361E+07         0.00000E+00
    0.00000E+00         0.00000E+00        -0.63814E+06
 
    0.18303E+07         0.31412E+06         0.00000E+00
    0.31412E+06        -0.53921E+07         0.00000E+00
    0.00000E+00         0.00000E+00        -0.71234E+06
 
    0.15571E+07         0.94492E+06         0.00000E+00
    0.94492E+06        -0.55238E+07         0.00000E+00
    0.00000E+00         0.00000E+00        -0.79333E+06
 
    0.10803E+07         0.16045E+07         0.00000E+00
    0.16045E+07        -0.55063E+07         0.00000E+00
    0.00000E+00         0.00000E+00        -0.88522E+06
 
    0.36173E+06         0.22355E+07         0.00000E+00
    0.22355E+07        -0.53176E+07         0.00000E+00
    0.00000E+00         0.00000E+00        -0.99118E+06
 
   -0.62005E+06         0.27601E+07         0.00000E+00
    0.27601E+07        -0.49451E+07         0.00000E+00
    0.00000E+00         0.00000E+00        -0.11130E+07
 
    0.37458E+07        -0.24788E+06         0.00000E+00
   -0.24788E+06        -0.19018E+07         0.00000E+00
    0.00000E+00         0.00000E+00         0.36880E+06
 
    0.24804E+07        -0.77775E+06         0.00000E+00
   -0.77775E+06        -0.21184E+07         0.00000E+00
    0.00000E+00         0.00000E+00         0.72405E+05
 
    0.16959E+07        -0.12683E+07         0.00000E+00
   -0.12683E+07        -0.25125E+07         0.00000E+00
    0.00000E+00         0.00000E+00        -0.16333E+06
 
    0.12930E+07        -0.16455E+07         0.00000E+00
   -0.16455E+07        -0.30309E+07         0.00000E+00
    0.00000E+00         0.00000E+00        -0.34757E+06
 
    0.11687E+07        -0.18676E+07         0.00000E+00
   -0.18676E+07        -0.36180E+07         0.00000E+00
    0.00000E+00         0.00000E+00        -0.48987E+06
 
    0.12273E+07        -0.19192E+07         0.00000E+00
   -0.19192E+07        -0.42253E+07         0.00000E+00
    0.00000E+00         0.00000E+00        -0.59961E+06
 
    0.13872E+07        -0.18022E+07         0.00000E+00
   -0.18022E+07        -0.48154E+07         0.00000E+00
    0.00000E+00         0.00000E+00        -0.68563E+06
 
    0.15811E+07        -0.15268E+07         0.00000E+00
   -0.15268E+07        -0.53613E+07         0.00000E+00
    0.00000E+00         0.00000E+00        -0.75605E+06
 
    0.17518E+07        -0.11057E+07         0.00000E+00
   -0.11057E+07        -0.58433E+07         0.00000E+00
    0.00000E+00         0.00000E+00        -0.81830E+06
 
    0.18471E+07        -0.55185E+06         0.00000E+00
   -0.55185E+06        -0.62432E+07         0.00000E+00
    0.00000E+00         0.00000E+00        -0.87921E+06
 
    0.18138E+07         0.11961E+06         0.00000E+00
    0.11961E+06        -0.65397E+07         0.00000E+00
    0.00000E+00         0.00000E+00        -0.94519E+06
 
    0.15940E+07         0.88660E+06         0.00000E+00
    0.88660E+06        -0.67054E+07         0.00000E+00
    0.00000E+00         0.00000E+00        -0.10223E+07
 
    0.11258E+07         0.17123E+07         0.00000E+00
    0.17123E+07        -0.67060E+07         0.00000E+00
    0.00000E+00         0.00000E+00        -0.11160E+07
 
    0.34798E+06         0.25367E+07         0.00000E+00
    0.25367E+07        -0.65053E+07         0.00000E+00
    0.00000E+00         0.00000E+00        -0.12315E+07
 
   -0.78756E+06         0.32696E+07         0.00000E+00
    0.32696E+07        -0.60741E+07         0.00000E+00
    0.00000E+00         0.00000E+00        -0.13723E+07
 
    0.23952E+07        -0.37066E+06         0.00000E+00
   -0.37066E+06        -0.26361E+07         0.00000E+00
    0.00000E+00         0.00000E+00        -0.48171E+05
 
    0.11379E+07        -0.11108E+07         0.00000E+00
   -0.11108E+07        -0.29024E+07         0.00000E+00
    0.00000E+00         0.00000E+00        -0.35291E+06
 
    0.45057E+06        -0.17506E+07         0.00000E+00
   -0.17506E+07        -0.33773E+07         0.00000E+00
    0.00000E+00         0.00000E+00        -0.58535E+06
 
    0.19509E+06        -0.22117E+07         0.00000E+00
   -0.22117E+07        -0.39853E+07         0.00000E+00
    0.00000E+00         0.00000E+00        -0.75805E+06
 
    0.23550E+06        -0.24609E+07         0.00000E+00
   -0.24609E+07        -0.46535E+07         0.00000E+00
    0.00000E+00         0.00000E+00        -0.88360E+06
 
    0.45497E+06        -0.24976E+07         0.00000E+00
   -0.24976E+07        -0.53242E+07         0.00000E+00
    0.00000E+00         0.00000E+00        -0.97385E+06
 
    0.76209E+06        -0.23387E+07         0.00000E+00
   -0.23387E+07        -0.59595E+07         0.00000E+00
    0.00000E+00         0.00000E+00        -0.10395E+07
 
    0.10882E+07        -0.20050E+07         0.00000E+00
   -0.20050E+07        -0.65381E+07         0.00000E+00
    0.00000E+00         0.00000E+00        -0.10900E+07
 
    0.13793E+07        -0.15137E+07         0.00000E+00
   -0.15137E+07        -0.70479E+07         0.00000E+00
    0.00000E+00         0.00000E+00        -0.11337E+07
 
    0.15858E+07        -0.87569E+06         0.00000E+00
   -0.87569E+06        -0.74780E+07         0.00000E+00
    0.00000E+00         0.00000E+00        -0.11784E+07
 
    0.16530E+07        -0.98104E+05         0.00000E+00
   -0.98104E+05        -0.78107E+07         0.00000E+00
    0.00000E+00         0.00000E+00        -0.12315E+07
 
    0.15139E+07         0.80787E+06         0.00000E+00
    0.80787E+06        -0.80154E+07         0.00000E+00
    0.00000E+00         0.00000E+00        -0.13003E+07
 
    0.10865E+07         0.18155E+07         0.00000E+00
    0.18155E+07        -0.80471E+07         0.00000E+00
    0.00000E+00         0.00000E+00        -0.13921E+07
 
    0.27853E+06         0.28684E+07         0.00000E+00
    0.28684E+07        -0.78498E+07         0.00000E+00
    0.00000E+00         0.00000E+00        -0.15143E+07
 
   -0.99760E+06         0.38672E+07         0.00000E+00
    0.38672E+07        -0.73688E+07         0.00000E+00
    0.00000E+00         0.00000E+00        -0.16733E+07
 
    0.54425E+06        -0.51972E+06         0.00000E+00
   -0.51972E+06        -0.36146E+07         0.00000E+00
    0.00000E+00         0.00000E+00        -0.61408E+06
 
   -0.64525E+06        -0.15056E+07         0.00000E+00
   -0.15056E+07        -0.39426E+07         0.00000E+00
    0.00000E+00         0.00000E+00        -0.91756E+06
 
   -0.11687E+07        -0.23036E+07         0.00000E+00
   -0.23036E+07        -0.45117E+07         0.00000E+00
    0.00000E+00         0.00000E+00        -0.11361E+07
 
   -0.12195E+07        -0.28355E+07         0.00000E+00
   -0.28355E+07        -0.52141E+07         0.00000E+00
    0.00000E+00         0.00000E+00        -0.12867E+07
 
   -0.97573E+06        -0.30868E+07         0.00000E+00
   -0.30868E+07        -0.59535E+07         0.00000E+00
    0.00000E+00         0.00000E+00        -0.13858E+07
 
   -0.57671E+06        -0.30829E+07         0.00000E+00
   -0.30829E+07        -0.66640E+07         0.00000E+00
    0.00000E+00         0.00000E+00        -0.14481E+07
 
   -0.11860E+06        -0.28640E+07         0.00000E+00
   -0.28640E+07        -0.73123E+07         0.00000E+00
    0.00000E+00         0.00000E+00        -0.14862E+07
 
    0.33635E+06        -0.24652E+07         0.00000E+00
   -0.24652E+07        -0.78888E+07         0.00000E+00
    0.00000E+00         0.00000E+00        -0.15105E+07
 
    0.74495E+06        -0.19081E+07         0.00000E+00
   -0.19081E+07        -0.83955E+07         0.00000E+00
    0.00000E+00         0.00000E+00        -0.15301E+07
 
    0.10675E+07        -0.11985E+07         0.00000E+00
   -0.11985E+07        -0.88338E+07         0.00000E+00
    0.00000E+00         0.00000E+00        -0.15532E+07
 
    0.12536E+07        -0.33043E+06         0.00000E+00
   -0.33043E+06        -0.91933E+07         0.00000E+00
    0.00000E+00         0.00000E+00        -0.15879E+07
 
    0.12296E+07         0.70421E+06         0.00000E+00
    0.70421E+06        -0.94433E+07         0.00000E+00
    0.00000E+00         0.00000E+00        -0.16427E+07
 
    0.89153E+06         0.18997E+07         0.00000E+00
    0.18997E+07        -0.95262E+07         0.00000E+00
    0.00000E+00         0.00000E+00        -0.17269E+07
 
    0.10635E+06         0.32140E+07         0.00000E+00
    0.32140E+07        -0.93598E+07         0.00000E+00
    0.00000E+00         0.00000E+00        -0.18507E+07
 
   -0.12706E+07         0.45456E+07         0.00000E+00
    0.45456E+07        -0.88516E+07         0.00000E+00
    0.00000E+00         0.00000E+00        -0.20244E+07
 
   -0.19291E+07        -0.70039E+06         0.00000E+00
   -0.70039E+06        -0.49095E+07         0.00000E+00
    0.00000E+00         0.00000E+00        -0.13677E+07
 
   -0.29641E+07        -0.19693E+07         0.00000E+00
   -0.19693E+07        -0.53170E+07         0.00000E+00
    0.00000E+00         0.00000E+00        -0.16562E+07
 
   -0.32330E+07        -0.29231E+07         0.00000E+00
   -0.29231E+07        -0.59984E+07         0.00000E+00
    0.00000E+00         0.00000E+00        -0.18463E+07
 
   -0.30100E+07        -0.34931E+07         0.00000E+00
   -0.34931E+07        -0.67954E+07         0.00000E+00
    0.00000E+00         0.00000E+00        -0.19611E+07
 
   -0.25269E+07        -0.37031E+07         0.00000E+00
   -0.37031E+07        -0.75825E+07         0.00000E+00
    0.00000E+00         0.00000E+00        -0.20219E+07
 
   -0.19421E+07        -0.36220E+07         0.00000E+00
   -0.36220E+07        -0.82907E+07         0.00000E+00
    0.00000E+00         0.00000E+00        -0.20466E+07
 
   -0.13456E+07        -0.33219E+07         0.00000E+00
   -0.33219E+07        -0.89009E+07         0.00000E+00
    0.00000E+00         0.00000E+00        -0.20493E+07
 
   -0.78149E+06        -0.28548E+07         0.00000E+00
   -0.28548E+07        -0.94244E+07         0.00000E+00
    0.00000E+00         0.00000E+00        -0.20412E+07
 
   -0.27192E+06        -0.22447E+07         0.00000E+00
   -0.22447E+07        -0.98835E+07         0.00000E+00
    0.00000E+00         0.00000E+00        -0.20311E+07
 
    0.16193E+06        -0.14890E+07         0.00000E+00
   -0.14890E+07        -0.10297E+08         0.00000E+00
    0.00000E+00         0.00000E+00        -0.20270E+07
 
    0.48189E+06        -0.56304E+06         0.00000E+00
   -0.56304E+06        -0.10667E+08         0.00000E+00
    0.00000E+00         0.00000E+00        -0.20371E+07
 
    0.61466E+06         0.57038E+06         0.00000E+00
    0.57038E+06        -0.10968E+08         0.00000E+00
    0.00000E+00         0.00000E+00        -0.20707E+07
 
    0.43514E+06         0.19418E+07         0.00000E+00
    0.19418E+07        -0.11131E+08         0.00000E+00
    0.00000E+00         0.00000E+00        -0.21392E+07
 
   -0.24025E+06         0.35423E+07         0.00000E+00
    0.35423E+07        -0.11041E+08         0.00000E+00
    0.00000E+00         0.00000E+00        -0.22562E+07
 
   -0.16372E+07         0.52823E+07         0.00000E+00
    0.52823E+07        -0.10549E+08         0.00000E+00
    0.00000E+00         0.00000E+00        -0.24373E+07
 
   -0.51799E+07        -0.92113E+06         0.00000E+00
   -0.92113E+06        -0.66171E+07         0.00000E+00
    0.00000E+00         0.00000E+00        -0.23594E+07
 
   -0.59323E+07        -0.25106E+07         0.00000E+00
   -0.25106E+07        -0.71330E+07         0.00000E+00
    0.00000E+00         0.00000E+00        -0.26131E+07
 
   -0.58223E+07        -0.35942E+07         0.00000E+00
   -0.35942E+07        -0.79494E+07         0.00000E+00
    0.00000E+00         0.00000E+00        -0.27543E+07
 
   -0.52470E+07        -0.41376E+07         0.00000E+00
   -0.41376E+07        -0.88287E+07         0.00000E+00
    0.00000E+00         0.00000E+00        -0.28151E+07
 
   -0.45014E+07        -0.42394E+07         0.00000E+00
   -0.42394E+07        -0.96142E+07         0.00000E+00
    0.00000E+00         0.00000E+00        -0.28231E+07
 
   -0.37479E+07        -0.40354E+07         0.00000E+00
   -0.40354E+07        -0.10250E+08         0.00000E+00
    0.00000E+00         0.00000E+00        -0.27995E+07
 
   -0.30491E+07        -0.36358E+07         0.00000E+00
   -0.36358E+07        -0.10748E+08         0.00000E+00
    0.00000E+00         0.00000E+00        -0.27594E+07
 
   -0.24149E+07        -0.31055E+07         0.00000E+00
   -0.31055E+07        -0.11151E+08         0.00000E+00
    0.00000E+00         0.00000E+00        -0.27131E+07
 
   -0.18365E+07        -0.24665E+07         0.00000E+00
   -0.24665E+07        -0.11505E+08         0.00000E+00
    0.00000E+00         0.00000E+00        -0.26684E+07
 
   -0.13086E+07        -0.17046E+07         0.00000E+00
   -0.17046E+07        -0.11850E+08         0.00000E+00
    0.00000E+00         0.00000E+00        -0.26318E+07
 
   -0.84696E+06        -0.77314E+06         0.00000E+00
   -0.77314E+06        -0.12206E+08         0.00000E+00
    0.00000E+00         0.00000E+00        -0.26106E+07
 
   -0.51194E+06         0.40268E+06         0.00000E+00
    0.40268E+06        -0.12559E+08         0.00000E+00
    0.00000E+00         0.00000E+00        -0.26142E+07
 
   -0.43992E+06         0.19091E+07         0.00000E+00
    0.19091E+07        -0.12839E+08         0.00000E+00
    0.00000E+00         0.00000E+00        -0.26557E+07
 
   -0.87088E+06         0.38009E+07         0.00000E+00
    0.38009E+07        -0.12893E+08         0.00000E+00
    0.00000E+00         0.00000E+00        -0.27527E+07
 
   -0.21434E+07         0.60296E+07         0.00000E+00
    0.60296E+07        -0.12495E+08         0.00000E+00
    0.00000E+00         0.00000E+00        -0.29276E+07
 
   -0.94162E+07        -0.11964E+07         0.00000E+00
   -0.11964E+07        -0.88741E+07         0.00000E+00
    0.00000E+00         0.00000E+00        -0.36581E+07
 
   -0.96885E+07        -0.31379E+07         0.00000E+00
   -0.31379E+07        -0.95474E+07         0.00000E+00
    0.00000E+00         0.00000E+00        -0.38472E+07
 
   -0.90298E+07        -0.42767E+07         0.00000E+00
   -0.42767E+07        -0.10521E+08         0.00000E+00
    0.00000E+00         0.00000E+00        -0.39101E+07
 
   -0.80279E+07        -0.46780E+07         0.00000E+00
   -0.46780E+07        -0.11435E+08         0.00000E+00
    0.00000E+00         0.00000E+00        -0.38926E+07
 
   -0.70321E+07        -0.45817E+07         0.00000E+00
   -0.45817E+07        -0.12120E+08         0.00000E+00
    0.00000E+00         0.00000E+00        -0.38305E+07
 
   -0.61647E+07        -0.42133E+07         0.00000E+00
   -0.42133E+07        -0.12574E+08         0.00000E+00
    0.00000E+00         0.00000E+00        -0.37477E+07
 
   -0.54267E+07        -0.37118E+07         0.00000E+00
   -0.37118E+07        -0.12864E+08         0.00000E+00
    0.00000E+00         0.00000E+00        -0.36582E+07
 
   -0.47784E+07        -0.31399E+07         0.00000E+00
   -0.31399E+07        -0.13070E+08         0.00000E+00
    0.00000E+00         0.00000E+00        -0.35696E+07
 
   -0.41760E+07        -0.25092E+07         0.00000E+00
   -0.25092E+07        -0.13257E+08         0.00000E+00
    0.00000E+00         0.00000E+00        -0.34866E+07
 
   -0.35838E+07        -0.17929E+07         0.00000E+00
   -0.17929E+07        -0.13482E+08         0.00000E+00
    0.00000E+00         0.00000E+00        -0.34132E+07
 
   -0.29855E+07        -0.92554E+06         0.00000E+00
   -0.92554E+06        -0.13785E+08         0.00000E+00
    0.00000E+00         0.00000E+00        -0.33542E+07
 
   -0.24077E+07         0.20545E+06         0.00000E+00
    0.20545E+06        -0.14179E+08         0.00000E+00
    0.00000E+00         0.00000E+00        -0.33174E+07
 
   -0.19701E+07         0.17607E+07         0.00000E+00
    0.17607E+07        -0.14611E+08         0.00000E+00
    0.00000E+00         0.00000E+00        -0.33163E+07
 
   -0.19582E+07         0.39075E+07         0.00000E+00
    0.39075E+07        -0.14906E+08         0.00000E+00
    0.00000E+00         0.00000E+00        -0.33729E+07
 
   -0.28623E+07         0.67002E+07         0.00000E+00
    0.67002E+07        -0.14729E+08         0.00000E+00
    0.00000E+00         0.00000E+00        -0.35182E+07
 
   -0.14940E+08        -0.15541E+07         0.00000E+00
   -0.15541E+07        -0.11898E+08         0.00000E+00
    0.00000E+00         0.00000E+00        -0.53676E+07
 
   -0.14409E+08        -0.38485E+07         0.00000E+00
   -0.38485E+07        -0.12808E+08         0.00000E+00
    0.00000E+00         0.00000E+00        -0.54435E+07
 
   -0.12982E+08        -0.48624E+07         0.00000E+00
   -0.48624E+07        -0.13933E+08         0.00000E+00
    0.00000E+00         0.00000E+00        -0.53832E+07
 
   -0.11530E+08        -0.49359E+07         0.00000E+00
   -0.49359E+07        -0.14740E+08         0.00000E+00
    0.00000E+00         0.00000E+00        -0.52538E+07
 
   -0.10371E+08        -0.45574E+07         0.00000E+00
   -0.45574E+07        -0.15138E+08         0.00000E+00
    0.00000E+00         0.00000E+00        -0.51018E+07
 
   -0.94922E+07        -0.40237E+07         0.00000E+00
   -0.40237E+07        -0.15262E+08         0.00000E+00
    0.00000E+00         0.00000E+00        -0.49509E+07
 
   -0.87959E+07        -0.34552E+07         0.00000E+00
   -0.34552E+07        -0.15245E+08         0.00000E+00
    0.00000E+00         0.00000E+00        -0.48081E+07
 
   -0.81936E+07        -0.28876E+07         0.00000E+00
   -0.28876E+07        -0.15183E+08         0.00000E+00
    0.00000E+00         0.00000E+00        -0.46753E+07
 
   -0.76125E+07        -0.23144E+07         0.00000E+00
   -0.23144E+07        -0.15151E+08         0.00000E+00
    0.00000E+00         0.00000E+00        -0.45526E+07
 
   -0.69915E+07        -0.16989E+07         0.00000E+00
   -0.16989E+07        -0.15208E+08         0.00000E+00
    0.00000E+00         0.00000E+00        -0.44399E+07
 
   -0.62786E+07        -0.96933E+06         0.00000E+00
   -0.96933E+06        -0.15409E+08         0.00000E+00
    0.00000E+00         0.00000E+00        -0.43376E+07
 
   -0.54404E+07         0.51993E+04         0.00000E+00
    0.51993E+04        -0.15803E+08         0.00000E+00
    0.00000E+00         0.00000E+00        -0.42488E+07
 
   -0.45215E+07         0.14604E+07         0.00000E+00
    0.14604E+07        -0.16402E+08         0.00000E+00
    0.00000E+00         0.00000E+00        -0.41846E+07
 
   -0.37904E+07         0.37411E+07         0.00000E+00
    0.37411E+07        -0.17053E+08         0.00000E+00
    0.00000E+00         0.00000E+00        -0.41686E+07
 
   -0.39188E+07         0.71382E+07         0.00000E+00
    0.71382E+07        -0.17303E+08         0.00000E+00
    0.00000E+00         0.00000E+00        -0.42443E+07
 
   -0.22242E+08        -0.20551E+07         0.00000E+00
   -0.20551E+07        -0.16069E+08         0.00000E+00
    0.00000E+00         0.00000E+00        -0.76622E+07
 
   -0.20342E+08        -0.45784E+07         0.00000E+00
   -0.45784E+07        -0.17379E+08         0.00000E+00
    0.00000E+00         0.00000E+00        -0.75440E+07
 
   -0.17937E+08        -0.50417E+07         0.00000E+00
   -0.50417E+07        -0.18472E+08         0.00000E+00
    0.00000E+00         0.00000E+00        -0.72817E+07
 
   -0.16186E+08        -0.45874E+07         0.00000E+00
   -0.45874E+07        -0.18772E+08         0.00000E+00
    0.00000E+00         0.00000E+00        -0.69917E+07
 
   -0.15060E+08        -0.39574E+07         0.00000E+00
   -0.39574E+07        -0.18620E+08         0.00000E+00
    0.00000E+00         0.00000E+00        -0.67359E+07
 
   -0.14287E+08        -0.33494E+07         0.00000E+00
   -0.33494E+07        -0.18274E+08         0.00000E+00
    0.00000E+00         0.00000E+00        -0.65122E+07
 
   -0.13698E+08        -0.28035E+07         0.00000E+00
   -0.28035E+07        -0.17879E+08         0.00000E+00
    0.00000E+00         0.00000E+00        -0.63154E+07
 
   -0.13178E+08        -0.23126E+07         0.00000E+00
   -0.23126E+07        -0.17517E+08         0.00000E+00
    0.00000E+00         0.00000E+00        -0.61391E+07
 
   -0.12643E+08        -0.18523E+07         0.00000E+00
   -0.18523E+07        -0.17244E+08         0.00000E+00
    0.00000E+00         0.00000E+00        -0.59774E+07
 
   -0.12017E+08        -0.13845E+07         0.00000E+00
   -0.13845E+07        -0.17107E+08         0.00000E+00
    0.00000E+00         0.00000E+00        -0.58248E+07
 
   -0.11219E+08        -0.84775E+06         0.00000E+00
   -0.84775E+06        -0.17161E+08         0.00000E+00
    0.00000E+00         0.00000E+00        -0.56759E+07
 
   -0.10147E+08        -0.12780E+06         0.00000E+00
   -0.12780E+06        -0.17481E+08         0.00000E+00
    0.00000E+00         0.00000E+00        -0.55257E+07
 
   -0.86811E+07         0.10157E+07         0.00000E+00
    0.10157E+07        -0.18168E+08         0.00000E+00
    0.00000E+00         0.00000E+00        -0.53699E+07
 
   -0.68915E+07         0.31431E+07         0.00000E+00
    0.31431E+07        -0.19274E+08         0.00000E+00
    0.00000E+00         0.00000E+00        -0.52330E+07
 
   -0.55504E+07         0.70614E+07         0.00000E+00
    0.70614E+07        -0.20268E+08         0.00000E+00
    0.00000E+00         0.00000E+00        -0.51637E+07
 
   -0.32316E+08        -0.29333E+07         0.00000E+00
   -0.29333E+07        -0.22607E+08         0.00000E+00
    0.00000E+00         0.00000E+00        -0.10985E+08
 
   -0.28024E+08        -0.47307E+07         0.00000E+00
   -0.47307E+07        -0.24165E+08         0.00000E+00
    0.00000E+00         0.00000E+00        -0.10438E+08
 
   -0.24857E+08        -0.40408E+07         0.00000E+00
   -0.40408E+07        -0.24089E+08         0.00000E+00
    0.00000E+00         0.00000E+00        -0.97892E+07
 
   -0.23258E+08        -0.32667E+07         0.00000E+00
   -0.32667E+07        -0.23339E+08         0.00000E+00
    0.00000E+00         0.00000E+00        -0.93193E+07
 
   -0.22308E+08        -0.26516E+07         0.00000E+00
   -0.26516E+07        -0.22449E+08         0.00000E+00
    0.00000E+00         0.00000E+00        -0.89515E+07
 
   -0.21672E+08        -0.21676E+07         0.00000E+00
   -0.21676E+07        -0.21594E+08         0.00000E+00
    0.00000E+00         0.00000E+00        -0.86533E+07
 
   -0.21173E+08        -0.17769E+07         0.00000E+00
   -0.17769E+07        -0.20836E+08         0.00000E+00
    0.00000E+00         0.00000E+00        -0.84017E+07
 
   -0.20704E+08        -0.14474E+07         0.00000E+00
   -0.14474E+07        -0.20202E+08         0.00000E+00
    0.00000E+00         0.00000E+00        -0.81812E+07
 
   -0.20185E+08        -0.11520E+07         0.00000E+00
   -0.11520E+07        -0.19713E+08         0.00000E+00
    0.00000E+00         0.00000E+00        -0.79796E+07
 
   -0.19535E+08        -0.86214E+06         0.00000E+00
   -0.86214E+06        -0.19393E+08         0.00000E+00
    0.00000E+00         0.00000E+00        -0.77857E+07
 
   -0.18652E+08        -0.53874E+06         0.00000E+00
   -0.53874E+06        -0.19284E+08         0.00000E+00
    0.00000E+00         0.00000E+00        -0.75873E+07
 
   -0.17376E+08        -0.11139E+06         0.00000E+00
   -0.11139E+06        -0.19463E+08         0.00000E+00
    0.00000E+00         0.00000E+00        -0.73678E+07
 
   -0.15443E+08         0.57645E+06         0.00000E+00
    0.57645E+06        -0.20074E+08         0.00000E+00
    0.00000E+00         0.00000E+00        -0.71033E+07
 
   -0.12312E+08         0.19920E+07         0.00000E+00
    0.19920E+07        -0.21403E+08         0.00000E+00
    0.00000E+00         0.00000E+00        -0.67431E+07
 
   -0.83074E+07         0.58963E+07         0.00000E+00
    0.58963E+07        -0.23669E+08         0.00000E+00
    0.00000E+00         0.00000E+00        -0.63952E+07
 
   -0.52013E+08        -0.31731E+07         0.00000E+00
   -0.31731E+07        -0.35689E+08         0.00000E+00
    0.00000E+00         0.00000E+00        -0.17541E+08
 
   -0.42432E+08        -0.21365E+07         0.00000E+00
   -0.21365E+07        -0.32764E+08         0.00000E+00
    0.00000E+00         0.00000E+00        -0.15039E+08
 
   -0.38926E+08        -0.14122E+07         0.00000E+00
   -0.14122E+07        -0.30414E+08         0.00000E+00
    0.00000E+00         0.00000E+00        -0.13868E+08
 
   -0.36966E+08        -0.10729E+07         0.00000E+00
   -0.10729E+07        -0.28513E+08         0.00000E+00
    0.00000E+00         0.00000E+00        -0.13096E+08
 
   -0.35728E+08        -0.84741E+06         0.00000E+00
   -0.84741E+06        -0.26968E+08         0.00000E+00
    0.00000E+00         0.00000E+00        -0.12539E+08
 
   -0.34845E+08        -0.68375E+06         0.00000E+00
   -0.68375E+06        -0.25699E+08         0.00000E+00
    0.00000E+00         0.00000E+00        -0.12109E+08
 
   -0.34131E+08        -0.55513E+06         0.00000E+00
   -0.55513E+06        -0.24657E+08         0.00000E+00
    0.00000E+00         0.00000E+00        -0.11758E+08
 
   -0.33468E+08        -0.44708E+06         0.00000E+00
   -0.44708E+06        -0.23812E+08         0.00000E+00
    0.00000E+00         0.00000E+00        -0.11456E+08
 
   -0.32759E+08        -0.34920E+06         0.00000E+00
   -0.34920E+06        -0.23153E+08         0.00000E+00
    0.00000E+00         0.00000E+00        -0.11182E+08
 
   -0.31906E+08        -0.25162E+06         0.00000E+00
   -0.25162E+06        -0.22681E+08         0.00000E+00
    0.00000E+00         0.00000E+00        -0.10918E+08
 
   -0.30781E+08        -0.14137E+06         0.00000E+00
   -0.14137E+06        -0.22421E+08         0.00000E+00
    0.00000E+00         0.00000E+00        -0.10640E+08
 
   -0.29180E+08         0.37232E+04         0.00000E+00
    0.37232E+04        -0.22431E+08         0.00000E+00
    0.00000E+00         0.00000E+00        -0.10322E+08
 
   -0.26721E+08         0.23745E+06         0.00000E+00
    0.23745E+06        -0.22846E+08         0.00000E+00
    0.00000E+00         0.00000E+00        -0.99135E+07
 
   -0.22573E+08         0.68354E+06         0.00000E+00
    0.68354E+06        -0.24003E+08         0.00000E+00
    0.00000E+00         0.00000E+00        -0.93152E+07
 
   -0.13611E+08         0.24958E+07         0.00000E+00
    0.24958E+07        -0.26994E+08         0.00000E+00
    0.00000E+00         0.00000E+00        -0.81210E+07
 
TENSORS stresstot double 
   -0.55421E+08        -0.19640E+06         0.00000E+00
   -0.19640E+06        -0.60121E+08         0.00000E+00
    0.00000E+00         0.00000E+00        -0.60273E+08
 
   -0.56146E+08        -0.13487E+06         0.00000E+00
   -0.13487E+06        -0.60359E+08         0.00000E+00
    0.00000E+00         0.00000E+00        -0.60467E+08
 
   -0.56513E+08        -0.69768E+05         0.00000E+00
   -0.69768E+05        -0.60526E+08         0.00000E+00
    0.00000E+00         0.00000E+00        -0.60576E+08
 
   -0.56823E+08        -0.31721E+05         0.00000E+00
   -0.31721E+05        -0.60613E+08         0.00000E+00
    0.00000E+00         0.00000E+00        -0.60657E+08
 
   -0.57124E+08        -0.71284E+04         0.00000E+00
   -0.71284E+04        -0.60644E+08         0.00000E+00
    0.00000E+00         0.00000E+00        -0.60726E+08
 
   -0.57428E+08         0.90724E+04         0.00000E+00
    0.90724E+04        -0.60638E+08         0.00000E+00
    0.00000E+00         0.00000E+00        -0.60787E+08
 
   -0.57736E+08         0.19856E+05         0.00000E+00
    0.19856E+05        -0.60606E+08         0.00000E+00
    0.00000E+00         0.00000E+00        -0.60843E+08
 
   -0.58045E+08         0.26954E+05         0.00000E+00
    0.26954E+05        -0.60557E+08         0.00000E+00
    0.00000E+00         0.00000E+00        -0.60897E+08
 
   -0.58354E+08         0.31476E+05         0.00000E+00
    0.31476E+05        -0.60497E+08         0.00000E+00
    0.00000E+00         0.00000E+00        -0.60948E+08
 
   -0.58660E+08         0.34213E+05         0.00000E+00
    0.34213E+05        -0.60430E+08         0.00000E+00
    0.00000E+00         0.00000E+00        -0.60997E+08
 
   -0.58966E+08         0.35912E+05         0.00000E+00
    0.35912E+05        -0.60358E+08         0.00000E+00
    0.00000E+00         0.00000E+00        -0.61045E+08
 
   -0.59278E+08         0.37675E+05         0.00000E+00
    0.37675E+05        -0.60282E+08         0.00000E+00
    0.00000E+00         0.00000E+00        -0.61094E+08
 
   -0.59617E+08         0.42825E+05         0.00000E+00
    0.42825E+05        -0.60198E+08         0.00000E+00
    0.00000E+00         0.00000E+00        -0.61146E+08
 
   -0.60041E+08         0.60467E+05         0.00000E+00
    0.60467E+05        -0.60089E+08         0.00000E+00
    0.00000E+00         0.00000E+00        -0.61210E+08
 
   -0.60843E+08         0.21545E+06         0.00000E+00
    0.21545E+06        -0.59851E+08         0.00000E+00
    0.00000E+00         0.00000E+00        -0.61325E+08
 
   -0.55663E+08        -0.18973E+06         0.00000E+00
   -0.18973E+06        -0.59944E+08         0.00000E+00
    0.00000E+00         0.00000E+00        -0.59644E+08
 
   -0.56054E+08        -0.23907E+06         0.00000E+00
   -0.23907E+06        -0.59885E+08         0.00000E+00
    0.00000E+00         0.00000E+00        -0.59709E+08
 
   -0.56441E+08        -0.14569E+06         0.00000E+00
   -0.14569E+06        -0.59894E+08         0.00000E+00
    0.00000E+00         0.00000E+00        -0.59788E+08
 
   -0.56771E+08        -0.63545E+05         0.00000E+00
   -0.63545E+05        -0.59905E+08         0.00000E+00
    0.00000E+00         0.00000E+00        -0.59856E+08
 
   -0.57089E+08        -0.38216E+04         0.00000E+00
   -0.38216E+04        -0.59895E+08         0.00000E+00
    0.00000E+00         0.00000E+00        -0.59917E+08
 
   -0.57404E+08         0.38112E+05         0.00000E+00
    0.38112E+05        -0.59865E+08         0.00000E+00
    0.00000E+00         0.00000E+00        -0.59974E+08
 
   -0.57719E+08         0.67044E+05         0.00000E+00
    0.67044E+05        -0.59818E+08         0.00000E+00
    0.00000E+00         0.00000E+00        -0.60027E+08
 
   -0.58034E+08         0.86598E+05         0.00000E+00
    0.86598E+05        -0.59758E+08         0.00000E+00
    0.00000E+00         0.00000E+00        -0.60078E+08
 
   -0.58347E+08         0.99444E+05         0.00000E+00
    0.99444E+05        -0.59690E+08         0.00000E+00
    0.00000E+00         0.00000E+00        -0.60126E+08
 
   -0.58656E+08         0.10777E+06         0.00000E+00
    0.10777E+06        -0.59615E+08         0.00000E+00
    0.00000E+00         0.00000E+00        -0.60173E+08
 
   -0.58962E+08         0.11392E+06         0.00000E+00
    0.11392E+06        -0.59534E+08         0.00000E+00
    0.00000E+00         0.00000E+00        -0.60218E+08
 
   -0.59271E+08         0.12195E+06         0.00000E+00
    0.12195E+06        -0.59447E+08         0.00000E+00
    0.00000E+00         0.00000E+00        -0.60262E+08
 
   -0.59594E+08         0.14193E+06         0.00000E+00
    0.14193E+06        -0.59347E+08         0.00000E+00
    0.00000E+00         0.00000E+00        -0.60306E+08
 
   -0.59963E+08         0.21025E+06         0.00000E+00
    0.21025E+06        -0.59217E+08         0.00000E+00
    0.00000E+00         0.00000E+00        -0.60354E+08
 
   -0.60274E+08         0.49143E+06         0.00000E+00
    0.49143E+06        -0.59044E+08         0.00000E+00
    0.00000E+00         0.00000E+00        -0.60380E+08
 
   -0.55857E+08        -0.81218E+05         0.00000E+00
   -0.81218E+05        -0.59954E+08         0.00000E+00
    0.00000E+00         0.00000E+00        -0.59368E+08
 
   -0.56031E+08        -0.14950E+06         0.00000E+00
   -0.14950E+06        -0.59838E+08         0.00000E+00
    0.00000E+00         0.00000E+00        -0.59379E+08
 
   -0.56357E+08        -0.10717E+06         0.00000E+00
   -0.10717E+06        -0.59735E+08         0.00000E+00
    0.00000E+00         0.00000E+00        -0.59423E+08
 
   -0.56698E+08        -0.31727E+05         0.00000E+00
   -0.31727E+05        -0.59665E+08         0.00000E+00
    0.00000E+00         0.00000E+00        -0.59477E+08
 
   -0.57033E+08         0.36385E+05         0.00000E+00
    0.36385E+05        -0.59605E+08         0.00000E+00
    0.00000E+00         0.00000E+00        -0.59531E+08
 
   -0.57363E+08         0.89645E+05         0.00000E+00
    0.89645E+05        -0.59544E+08         0.00000E+00
    0.00000E+00         0.00000E+00        -0.59584E+08
 
   -0.57691E+08         0.12886E+06         0.00000E+00
    0.12886E+06        -0.59477E+08         0.00000E+00
    0.00000E+00         0.00000E+00        -0.59636E+08
 
   -0.58015E+08         0.15670E+06         0.00000E+00
    0.15670E+06        -0.59404E+08         0.00000E+00
    0.00000E+00         0.00000E+00        -0.59685E+08
 
   -0.58334E+08         0.17606E+06         0.00000E+00
    0.17606E+06        -0.59325E+08         0.00000E+00
    0.00000E+00         0.00000E+00        -0.59733E+08
 
   -0.58646E+08         0.18997E+06         0.00000E+00
    0.18997E+06        -0.59241E+08         0.00000E+00
    0.00000E+00         0.00000E+00        -0.59778E+08
 
   -0.58952E+08         0.20233E+06         0.00000E+00
    0.20233E+06        -0.59152E+08         0.00000E+00
    0.00000E+00         0.00000E+00        -0.59821E+08
 
   -0.59253E+08         0.22002E+06         0.00000E+00
    0.22002E+06        -0.59054E+08         0.00000E+00
    0.00000E+00         0.00000E+00        -0.59861E+08
 
   -0.59547E+08         0.25837E+06         0.00000E+00
    0.25837E+06        -0.58944E+08         0.00000E+00
    0.00000E+00         0.00000E+00        -0.59897E+08
 
   -0.59809E+08         0.35748E+06         0.00000E+00
    0.35748E+06        -0.58822E+08         0.00000E+00
    0.00000E+00         0.00000E+00        -0.59925E+08
 
   -0.59928E+08         0.55878E+06         0.00000E+00
    0.55878E+06        -0.58745E+08         0.00000E+00
    0.00000E+00         0.00000E+00        -0.59933E+08
 
   -0.55929E+08        -0.46790E+04         0.00000E+00
   -0.46790E+04        -0.59972E+08         0.00000E+00
    0.00000E+00         0.00000E+00        -0.59254E+08
 
   -0.56037E+08        -0.22089E+05         0.00000E+00
   -0.22089E+05        -0.59881E+08         0.00000E+00
    0.00000E+00         0.00000E+00        -0.59257E+08
 
   -0.56304E+08        -0.37102E+02         0.00000E+00
   -0.37102E+02        -0.59761E+08         0.00000E+00
    0.00000E+00         0.00000E+00        -0.59286E+08
 
   -0.56631E+08         0.53296E+05         0.00000E+00
    0.53296E+05        -0.59652E+08         0.00000E+00
    0.00000E+00         0.00000E+00        -0.59329E+08
 
   -0.56973E+08         0.11278E+06         0.00000E+00
    0.11278E+06        -0.59557E+08         0.00000E+00
    0.00000E+00         0.00000E+00        -0.59378E+08
 
   -0.57316E+08         0.16509E+06         0.00000E+00
    0.16509E+06        -0.59470E+08         0.00000E+00
    0.00000E+00         0.00000E+00        -0.59429E+08
 
   -0.57656E+08         0.20669E+06         0.00000E+00
    0.20669E+06        -0.59385E+08         0.00000E+00
    0.00000E+00         0.00000E+00        -0.59480E+08
 
   -0.57989E+08         0.23814E+06         0.00000E+00
    0.23814E+06        -0.59300E+08         0.00000E+00
    0.00000E+00         0.00000E+00        -0.59529E+08
 
   -0.58315E+08         0.26161E+06         0.00000E+00
    0.26161E+06        -0.59212E+08         0.00000E+00
    0.00000E+00         0.00000E+00        -0.59576E+08
 
   -0.58631E+08         0.28028E+06         0.00000E+00
    0.28028E+06        -0.59121E+08         0.00000E+00
    0.00000E+00         0.00000E+00        -0.59621E+08
 
   -0.58935E+08         0.29875E+06         0.00000E+00
    0.29875E+06        -0.59025E+08         0.00000E+00
    0.00000E+00         0.00000E+00        -0.59662E+08
 
   -0.59223E+08         0.32466E+06         0.00000E+00
    0.32466E+06        -0.58924E+08         0.00000E+00
    0.00000E+00         0.00000E+00        -0.59699E+08
 
   -0.59483E+08         0.37157E+06         0.00000E+00
    0.37157E+06        -0.58819E+08         0.00000E+00
    0.00000E+00         0.00000E+00        -0.59730E+08
 
   -0.59682E+08         0.45498E+06         0.00000E+00
    0.45498E+06        -0.58725E+08         0.00000E+00
    0.00000E+00         0.00000E+00        -0.59751E+08
 
   -0.59758E+08         0.56776E+06         0.00000E+00
    0.56776E+06        -0.58681E+08         0.00000E+00
    0.00000E+00         0.00000E+00        -0.59757E+08
 
   -0.55903E+08         0.40687E+05         0.00000E+00
    0.40687E+05        -0.59984E+08         0.00000E+00
    0.00000E+00         0.00000E+00        -0.59201E+08
 
   -0.56021E+08         0.82474E+05         0.00000E+00
    0.82474E+05        -0.59921E+08         0.00000E+00
    0.00000E+00         0.00000E+00        -0.59212E+08
 
   -0.56265E+08         0.11712E+06         0.00000E+00
    0.11712E+06        -0.59819E+08         0.00000E+00
    0.00000E+00         0.00000E+00        -0.59240E+08
 
   -0.56578E+08         0.16181E+06         0.00000E+00
    0.16181E+06        -0.59708E+08         0.00000E+00
    0.00000E+00         0.00000E+00        -0.59281E+08
 
   -0.56921E+08         0.21129E+06         0.00000E+00
    0.21129E+06        -0.59601E+08         0.00000E+00
    0.00000E+00         0.00000E+00        -0.59327E+08
 
   -0.57271E+08         0.25766E+06         0.00000E+00
    0.25766E+06        -0.59501E+08         0.00000E+00
    0.00000E+00         0.00000E+00        -0.59377E+08
 
   -0.57620E+08         0.29690E+06         0.00000E+00
    0.29690E+06        -0.59405E+08         0.00000E+00
    0.00000E+00         0.00000E+00        -0.59428E+08
 
   -0.57962E+08         0.32843E+06         0.00000E+00
    0.32843E+06        -0.59312E+08         0.00000E+00
    0.00000E+00         0.00000E+00        -0.59477E+08
 
   -0.58293E+08         0.35367E+06         0.00000E+00
    0.35367E+06        -0.59219E+08         0.00000E+00
    0.00000E+00         0.00000E+00        -0.59525E+08
 
   -0.58611E+08         0.37534E+06         0.00000E+00
    0.37534E+06        -0.59124E+08         0.00000E+00
    0.00000E+00         0.00000E+00        -0.59569E+08
 
   -0.58912E+08         0.39756E+06         0.00000E+00
    0.39756E+06        -0.59027E+08         0.00000E+00
    0.00000E+00         0.00000E+00        -0.59610E+08
 
   -0.59188E+08         0.42620E+06         0.00000E+00
    0.42620E+06        -0.58929E+08         0.00000E+00
    0.00000E+00         0.00000E+00        -0.59646E+08
 
   -0.59426E+08         0.46782E+06         0.00000E+00
    0.46782E+06        -0.58835E+08         0.00000E+00
    0.00000E+00         0.00000E+00        -0.59674E+08
 
   -0.59602E+08         0.52369E+06         0.00000E+00
    0.52369E+06        -0.58759E+08         0.00000E+00
    0.00000E+00         0.00000E+00        -0.59694E+08
 
   -0.59688E+08         0.57729E+06         0.00000E+00
    0.57729E+06        -0.58720E+08         0.00000E+00
    0.00000E+00         0.00000E+00        -0.59704E+08
 
   -0.55809E+08         0.68565E+05         0.00000E+00
    0.68565E+05        -0.59990E+08         0.00000E+00
    0.00000E+00         0.00000E+00        -0.59166E+08
 
   -0.55969E+08         0.15966E+06         0.00000E+00
    0.15966E+06        -0.59945E+08         0.00000E+00
    0.00000E+00         0.00000E+00        -0.59189E+08
 
   -0.56219E+08         0.21961E+06         0.00000E+00
    0.21961E+06        -0.59865E+08         0.00000E+00
    0.00000E+00         0.00000E+00        -0.59223E+08
 
   -0.56530E+08         0.26949E+06         0.00000E+00
    0.26949E+06        -0.59767E+08         0.00000E+00
    0.00000E+00         0.00000E+00        -0.59265E+08
 
   -0.56874E+08         0.31536E+06         0.00000E+00
    0.31536E+06        -0.59665E+08         0.00000E+00
    0.00000E+00         0.00000E+00        -0.59314E+08
 
   -0.57230E+08         0.35675E+06         0.00000E+00
    0.35675E+06        -0.59564E+08         0.00000E+00
    0.00000E+00         0.00000E+00        -0.59365E+08
 
   -0.57586E+08         0.39243E+06         0.00000E+00
    0.39243E+06        -0.59468E+08         0.00000E+00
    0.00000E+00         0.00000E+00        -0.59417E+08
 
   -0.57934E+08         0.42236E+06         0.00000E+00
    0.42236E+06        -0.59373E+08         0.00000E+00
    0.00000E+00         0.00000E+00        -0.59467E+08
 
   -0.58270E+08         0.44768E+06         0.00000E+00
    0.44768E+06        -0.59280E+08         0.00000E+00
    0.00000E+00         0.00000E+00        -0.59516E+08
 
   -0.58589E+08         0.47044E+06         0.00000E+00
    0.47044E+06        -0.59187E+08         0.00000E+00
    0.00000E+00         0.00000E+00        -0.59561E+08
 
   -0.58888E+08         0.49344E+06         0.00000E+00
    0.49344E+06        -0.59094E+08         0.00000E+00
    0.00000E+00         0.00000E+00        -0.59602E+08
 
   -0.59157E+08         0.51963E+06         0.00000E+00
    0.51963E+06        -0.59003E+08         0.00000E+00
    0.00000E+00         0.00000E+00        -0.59637E+08
 
   -0.59385E+08         0.55043E+06         0.00000E+00
    0.55043E+06        -0.58919E+08         0.00000E+00
    0.00000E+00         0.00000E+00        -0.59666E+08
 
   -0.59559E+08         0.58187E+06         0.00000E+00
    0.58187E+06        -0.58851E+08         0.00000E+00
    0.00000E+00         0.00000E+00        -0.59688E+08
 
   -0.59668E+08         0.60046E+06         0.00000E+00
    0.60046E+06        -0.58808E+08         0.00000E+00
    0.00000E+00         0.00000E+00        -0.59701E+08
 
   -0.55669E+08         0.87946E+05         0.00000E+00
    0.87946E+05        -0.59993E+08         0.00000E+00
    0.00000E+00         0.00000E+00        -0.59132E+08
 
   -0.55880E+08         0.21701E+06         0.00000E+00
    0.21701E+06        -0.59959E+08         0.00000E+00
    0.00000E+00         0.00000E+00        -0.59167E+08
 
   -0.56156E+08         0.30294E+06         0.00000E+00
    0.30294E+06        -0.59897E+08         0.00000E+00
    0.00000E+00         0.00000E+00        -0.59210E+08
 
   -0.56480E+08         0.36453E+06         0.00000E+00
    0.36453E+06        -0.59816E+08         0.00000E+00
    0.00000E+00         0.00000E+00        -0.59258E+08
 
   -0.56831E+08         0.41258E+06         0.00000E+00
    0.41258E+06        -0.59727E+08         0.00000E+00
    0.00000E+00         0.00000E+00        -0.59311E+08
 
   -0.57193E+08         0.45204E+06         0.00000E+00
    0.45204E+06        -0.59636E+08         0.00000E+00
    0.00000E+00         0.00000E+00        -0.59365E+08
 
   -0.57554E+08         0.48516E+06         0.00000E+00
    0.48516E+06        -0.59547E+08         0.00000E+00
    0.00000E+00         0.00000E+00        -0.59420E+08
 
   -0.57907E+08         0.51341E+06         0.00000E+00
    0.51341E+06        -0.59459E+08         0.00000E+00
    0.00000E+00         0.00000E+00        -0.59473E+08
 
   -0.58246E+08         0.53818E+06         0.00000E+00
    0.53818E+06        -0.59372E+08         0.00000E+00
    0.00000E+00         0.00000E+00        -0.59523E+08
 
   -0.58567E+08         0.56094E+06         0.00000E+00
    0.56094E+06        -0.59285E+08         0.00000E+00
    0.00000E+00         0.00000E+00        -0.59570E+08
 
   -0.58864E+08         0.58295E+06         0.00000E+00
    0.58295E+06        -0.59199E+08         0.00000E+00
    0.00000E+00         0.00000E+00        -0.59612E+08
 
   -0.59132E+08         0.60475E+06         0.00000E+00
    0.60475E+06        -0.59116E+08         0.00000E+00
    0.00000E+00         0.00000E+00        -0.59649E+08
 
   -0.59361E+08         0.62494E+06         0.00000E+00
    0.62494E+06        -0.59039E+08         0.00000E+00
    0.00000E+00         0.00000E+00        -0.59679E+08
 
   -0.59542E+08         0.63860E+06         0.00000E+00
    0.63860E+06        -0.58974E+08         0.00000E+00
    0.00000E+00         0.00000E+00        -0.59703E+08
 
   -0.59673E+08         0.63687E+06         0.00000E+00
    0.63687E+06        -0.58924E+08         0.00000E+00
    0.00000E+00         0.00000E+00        -0.59719E+08
 
   -0.55494E+08         0.10297E+06         0.00000E+00
    0.10297E+06        -0.59994E+08         0.00000E+00
    0.00000E+00         0.00000E+00        -0.59093E+08
 
   -0.55762E+08         0.26087E+06         0.00000E+00
    0.26087E+06        -0.59968E+08         0.00000E+00
    0.00000E+00         0.00000E+00        -0.59142E+08
 
   -0.56076E+08         0.36861E+06         0.00000E+00
    0.36861E+06        -0.59920E+08         0.00000E+00
    0.00000E+00         0.00000E+00        -0.59195E+08
 
   -0.56422E+08         0.44262E+06         0.00000E+00
    0.44262E+06        -0.59856E+08         0.00000E+00
    0.00000E+00         0.00000E+00        -0.59251E+08
 
   -0.56787E+08         0.49547E+06         0.00000E+00
    0.49547E+06        -0.59785E+08         0.00000E+00
    0.00000E+00         0.00000E+00        -0.59310E+08
 
   -0.57157E+08         0.53542E+06         0.00000E+00
    0.53542E+06        -0.59710E+08         0.00000E+00
    0.00000E+00         0.00000E+00        -0.59369E+08
 
   -0.57524E+08         0.56757E+06         0.00000E+00
    0.56757E+06        -0.59635E+08         0.00000E+00
    0.00000E+00         0.00000E+00        -0.59428E+08
 
   -0.57881E+08         0.59507E+06         0.00000E+00
    0.59507E+06        -0.59560E+08         0.00000E+00
    0.00000E+00         0.00000E+00        -0.59484E+08
 
   -0.58223E+08         0.61982E+06         0.00000E+00
    0.61982E+06        -0.59485E+08         0.00000E+00
    0.00000E+00         0.00000E+00        -0.59538E+08
 
   -0.58545E+08         0.64281E+06         0.00000E+00
    0.64281E+06        -0.59410E+08         0.00000E+00
    0.00000E+00         0.00000E+00        -0.59587E+08
 
   -0.58843E+08         0.66409E+06         0.00000E+00
    0.66409E+06        -0.59333E+08         0.00000E+00
    0.00000E+00         0.00000E+00        -0.59631E+08
 
   -0.59113E+08         0.68247E+06         0.00000E+00
    0.68247E+06        -0.59258E+08         0.00000E+00
    0.00000E+00         0.00000E+00        -0.59670E+08
 
   -0.59348E+08         0.69513E+06         0.00000E+00
    0.69513E+06        -0.59186E+08         0.00000E+00
    0.00000E+00         0.00000E+00        -0.59703E+08
 
   -0.59541E+08         0.69740E+06         0.00000E+00
    0.69740E+06        -0.59121E+08         0.00000E+00
    0.00000E+00         0.00000E+00        -0.59729E+08
 
   -0.59691E+08         0.68365E+06         0.00000E+00
    0.68365E+06        -0.59066E+08         0.00000E+00
    0.00000E+00         0.00000E+00        -0.59747E+08
 
   -0.55293E+08         0.11510E+06         0.00000E+00
    0.11510E+06        -0.59995E+08         0.00000E+00
    0.00000E+00         0.00000E+00        -0.59050E+08
 
   -0.55622E+08         0.29445E+06         0.00000E+00
    0.29445E+06        -0.59975E+08         0.00000E+00
    0.00000E+00         0.00000E+00        -0.59112E+08
 
   -0.55980E+08         0.41823E+06         0.00000E+00
    0.41823E+06        -0.59940E+08         0.00000E+00
    0.00000E+00         0.00000E+00        -0.59176E+08
 
   -0.56356E+08         0.50204E+06         0.00000E+00
    0.50204E+06        -0.59894E+08         0.00000E+00
    0.00000E+00         0.00000E+00        -0.59242E+08
 
   -0.56740E+08         0.55944E+06         0.00000E+00
    0.55944E+06        -0.59843E+08         0.00000E+00
    0.00000E+00         0.00000E+00        -0.59309E+08
 
   -0.57121E+08         0.60079E+06         0.00000E+00
    0.60079E+06        -0.59789E+08         0.00000E+00
    0.00000E+00         0.00000E+00        -0.59374E+08
 
   -0.57495E+08         0.63328E+06         0.00000E+00
    0.63328E+06        -0.59734E+08         0.00000E+00
    0.00000E+00         0.00000E+00        -0.59438E+08
 
   -0.57855E+08         0.66144E+06         0.00000E+00
    0.66144E+06        -0.59678E+08         0.00000E+00
    0.00000E+00         0.00000E+00        -0.59499E+08
 
   -0.58198E+08         0.68768E+06         0.00000E+00
    0.68768E+06        -0.59620E+08         0.00000E+00
    0.00000E+00         0.00000E+00        -0.59556E+08
 
   -0.58522E+08         0.71265E+06         0.00000E+00
    0.71265E+06        -0.59559E+08         0.00000E+00
    0.00000E+00         0.00000E+00        -0.59609E+08
 
   -0.58823E+08         0.73537E+06         0.00000E+00
    0.73537E+06        -0.59495E+08         0.00000E+00
    0.00000E+00         0.00000E+00        -0.59656E+08
 
   -0.59098E+08         0.75340E+06         0.00000E+00
    0.75340E+06        -0.59428E+08         0.00000E+00
    0.00000E+00         0.00000E+00        -0.59698E+08
 
   -0.59342E+08         0.76295E+06         0.00000E+00
    0.76295E+06        -0.59361E+08         0.00000E+00
    0.00000E+00         0.00000E+00        -0.59733E+08
 
   -0.59550E+08         0.75943E+06         0.00000E+00
    0.75943E+06        -0.59295E+08         0.00000E+00
    0.00000E+00         0.00000E+00        -0.59762E+08
 
   -0.59718E+08         0.73873E+06         0.00000E+00
    0.73873E+06        -0.59234E+08         0.00000E+00
    0.00000E+00         0.00000E+00        -0.59783E+08
 
   -0.55071E+08         0.12451E+06         0.00000E+00
    0.12451E+06        -0.59997E+08         0.00000E+00
    0.00000E+00         0.00000E+00        -0.59000E+08
 
   -0.55466E+08         0.31849E+06         0.00000E+00
    0.31849E+06        -0.59983E+08         0.00000E+00
    0.00000E+00         0.00000E+00        -0.59077E+08
 
   -0.55874E+08         0.45192E+06         0.00000E+00
    0.45192E+06        -0.59961E+08         0.00000E+00
    0.00000E+00         0.00000E+00        -0.59154E+08
 
   -0.56285E+08         0.54112E+06         0.00000E+00
    0.54112E+06        -0.59934E+08         0.00000E+00
    0.00000E+00         0.00000E+00        -0.59231E+08
 
   -0.56691E+08         0.60088E+06         0.00000E+00
    0.60088E+06        -0.59905E+08         0.00000E+00
    0.00000E+00         0.00000E+00        -0.59306E+08
 
   -0.57085E+08         0.64319E+06         0.00000E+00
    0.64319E+06        -0.59876E+08         0.00000E+00
    0.00000E+00         0.00000E+00        -0.59380E+08
 
   -0.57464E+08         0.67677E+06         0.00000E+00
    0.67677E+06        -0.59847E+08         0.00000E+00
    0.00000E+00         0.00000E+00        -0.59450E+08
 
   -0.57826E+08         0.70722E+06         0.00000E+00
    0.70722E+06        -0.59815E+08         0.00000E+00
    0.00000E+00         0.00000E+00        -0.59516E+08
 
   -0.58170E+08         0.73731E+06         0.00000E+00
    0.73731E+06        -0.59778E+08         0.00000E+00
    0.00000E+00         0.00000E+00        -0.59577E+08
 
   -0.58495E+08         0.76728E+06         0.00000E+00
    0.76728E+06        -0.59736E+08         0.00000E+00
    0.00000E+00         0.00000E+00        -0.59634E+08
 
   -0.58800E+08         0.79524E+06         0.00000E+00
    0.79524E+06        -0.59686E+08         0.00000E+00
    0.00000E+00         0.00000E+00        -0.59685E+08
 
   -0.59082E+08         0.81753E+06         0.00000E+00
    0.81753E+06        -0.59629E+08         0.00000E+00
    0.00000E+00         0.00000E+00        -0.59730E+08
 
   -0.59338E+08         0.82926E+06         0.00000E+00
    0.82926E+06        -0.59566E+08         0.00000E+00
    0.00000E+00         0.00000E+00        -0.59769E+08
 
   -0.59563E+08         0.82527E+06         0.00000E+00
    0.82527E+06        -0.59499E+08         0.00000E+00
    0.00000E+00         0.00000E+00        -0.59800E+08
 
   -0.59750E+08         0.80151E+06         0.00000E+00
    0.80151E+06        -0.59431E+08         0.00000E+00
    0.00000E+00         0.00000E+00        -0.59824E+08
 
   -0.54835E+08         0.13078E+06         0.00000E+00
    0.13078E+06        -0.59998E+08         0.00000E+00
    0.00000E+00         0.00000E+00        -0.58946E+08
 
   -0.55302E+08         0.33221E+06         0.00000E+00
    0.33221E+06        -0.59992E+08         0.00000E+00
    0.00000E+00         0.00000E+00        -0.59038E+08
 
   -0.55764E+08         0.46830E+06         0.00000E+00
    0.46830E+06        -0.59984E+08         0.00000E+00
    0.00000E+00         0.00000E+00        -0.59129E+08
 
   -0.56213E+08         0.55740E+06         0.00000E+00
    0.55740E+06        -0.59979E+08         0.00000E+00
    0.00000E+00         0.00000E+00        -0.59218E+08
 
   -0.56641E+08         0.61606E+06         0.00000E+00
    0.61606E+06        -0.59977E+08         0.00000E+00
    0.00000E+00         0.00000E+00        -0.59303E+08
 
   -0.57048E+08         0.65787E+06         0.00000E+00
    0.65787E+06        -0.59977E+08         0.00000E+00
    0.00000E+00         0.00000E+00        -0.59385E+08
 
   -0.57431E+08         0.69287E+06         0.00000E+00
    0.69287E+06        -0.59978E+08         0.00000E+00
    0.00000E+00         0.00000E+00        -0.59462E+08
 
   -0.57793E+08         0.72742E+06         0.00000E+00
    0.72742E+06        -0.59975E+08         0.00000E+00
    0.00000E+00         0.00000E+00        -0.59534E+08
 
   -0.58136E+08         0.76442E+06         0.00000E+00
    0.76442E+06        -0.59965E+08         0.00000E+00
    0.00000E+00         0.00000E+00        -0.59600E+08
 
   -0.58461E+08         0.80360E+06         0.00000E+00
    0.80360E+06        -0.59945E+08         0.00000E+00
    0.00000E+00         0.00000E+00        -0.59661E+08
 
   -0.58769E+08         0.84196E+06         0.00000E+00
    0.84196E+06        -0.59912E+08         0.00000E+00
    0.00000E+00         0.00000E+00        -0.59717E+08
 
   -0.59060E+08         0.87442E+06         0.00000E+00
    0.87442E+06        -0.59866E+08         0.00000E+00
    0.00000E+00         0.00000E+00        -0.59766E+08
 
   -0.59330E+08         0.89455E+06         0.00000E+00
    0.89455E+06        -0.59807E+08         0.00000E+00
    0.00000E+00         0.00000E+00        -0.59808E+08
 
   -0.59575E+08         0.89577E+06         0.00000E+00
    0.89577E+06        -0.59738E+08         0.00000E+00
    0.00000E+00         0.00000E+00        -0.59843E+08
 
   -0.59786E+08         0.87282E+06         0.00000E+00
    0.87282E+06        -0.59663E+08         0.00000E+00
    0.00000E+00         0.00000E+00        -0.59870E+08
 
   -0.54592E+08         0.13318E+06         0.00000E+00
    0.13318E+06        -0.60000E+08         0.00000E+00
    0.00000E+00         0.00000E+00        -0.58886E+08
 
   -0.55137E+08         0.33380E+06         0.00000E+00
    0.33380E+06        -0.60002E+08         0.00000E+00
    0.00000E+00         0.00000E+00        -0.58995E+08
 
   -0.55657E+08         0.46472E+06         0.00000E+00
    0.46472E+06        -0.60012E+08         0.00000E+00
    0.00000E+00         0.00000E+00        -0.59102E+08
 
   -0.56144E+08         0.54734E+06         0.00000E+00
    0.54734E+06        -0.60032E+08         0.00000E+00
    0.00000E+00         0.00000E+00        -0.59203E+08
 
   -0.56595E+08         0.60059E+06         0.00000E+00
    0.60059E+06        -0.60061E+08         0.00000E+00
    0.00000E+00         0.00000E+00        -0.59299E+08
 
   -0.57011E+08         0.63984E+06         0.00000E+00
    0.63984E+06        -0.60096E+08         0.00000E+00
    0.00000E+00         0.00000E+00        -0.59390E+08
 
   -0.57395E+08         0.67634E+06         0.00000E+00
    0.67634E+06        -0.60132E+08         0.00000E+00
    0.00000E+00         0.00000E+00        -0.59474E+08
 
   -0.57754E+08         0.71703E+06         0.00000E+00
    0.71703E+06        -0.60163E+08         0.00000E+00
    0.00000E+00         0.00000E+00        -0.59552E+08
 
   -0.58092E+08         0.76471E+06         0.00000E+00
    0.76471E+06        -0.60185E+08         0.00000E+00
    0.00000E+00         0.00000E+00        -0.59624E+08
 
   -0.58414E+08         0.81833E+06         0.00000E+00
    0.81833E+06        -0.60191E+08         0.00000E+00
    0.00000E+00         0.00000E+00        -0.59690E+08
 
   -0.58725E+08         0.87355E+06         0.00000E+00
    0.87355E+06        -0.60178E+08         0.00000E+00
    0.00000E+00         0.00000E+00        -0.59749E+08
 
   -0.59025E+08         0.92341E+06         0.00000E+00
    0.92341E+06        -0.60144E+08         0.00000E+00
    0.00000E+00         0.00000E+00        -0.59803E+08
 
   -0.59312E+08         0.95935E+06         0.00000E+00
    0.95935E+06        -0.60089E+08         0.00000E+00
    0.00000E+00         0.00000E+00        -0.59849E+08
 
   -0.59581E+08         0.97240E+06         0.00000E+00
    0.97240E+06        -0.60016E+08         0.00000E+00
    0.00000E+00         0.00000E+00        -0.59888E+08
 
   -0.59821E+08         0.95492E+06         0.00000E+00
    0.95492E+06        -0.59931E+08         0.00000E+00
    0.00000E+00         0.00000E+00        -0.59919E+08
 
   -0.54352E+08         0.13071E+06         0.00000E+00
    0.13071E+06        -0.60002E+08         0.00000E+00
    0.00000E+00         0.00000E+00        -0.58820E+08
 
   -0.54980E+08         0.32073E+06         0.00000E+00
    0.32073E+06        -0.60016E+08         0.00000E+00
    0.00000E+00         0.00000E+00        -0.58949E+08
 
   -0.55560E+08         0.43752E+06         0.00000E+00
    0.43752E+06        -0.60047E+08         0.00000E+00
    0.00000E+00         0.00000E+00        -0.59071E+08
 
   -0.56084E+08         0.50643E+06         0.00000E+00
    0.50643E+06        -0.60096E+08         0.00000E+00
    0.00000E+00         0.00000E+00        -0.59186E+08
 
   -0.56554E+08         0.54931E+06         0.00000E+00
    0.54931E+06        -0.60161E+08         0.00000E+00
    0.00000E+00         0.00000E+00        -0.59293E+08
 
   -0.56975E+08         0.58355E+06         0.00000E+00
    0.58355E+06        -0.60236E+08         0.00000E+00
    0.00000E+00         0.00000E+00        -0.59393E+08
 
   -0.57355E+08         0.62160E+06         0.00000E+00
    0.62160E+06        -0.60313E+08         0.00000E+00
    0.00000E+00         0.00000E+00        -0.59484E+08
 
   -0.57704E+08         0.67082E+06         0.00000E+00
    0.67082E+06        -0.60384E+08         0.00000E+00
    0.00000E+00         0.00000E+00        -0.59568E+08
 
   -0.58032E+08         0.73365E+06         0.00000E+00
    0.73365E+06        -0.60442E+08         0.00000E+00
    0.00000E+00         0.00000E+00        -0.59645E+08
 
   -0.58348E+08         0.80802E+06         0.00000E+00
    0.80802E+06        -0.60479E+08         0.00000E+00
    0.00000E+00         0.00000E+00        -0.59716E+08
 
   -0.58659E+08         0.88783E+06         0.00000E+00
    0.88783E+06        -0.60488E+08         0.00000E+00
    0.00000E+00         0.00000E+00        -0.59780E+08
 
   -0.58968E+08         0.96381E+06         0.00000E+00
    0.96381E+06        -0.60468E+08         0.00000E+00
    0.00000E+00         0.00000E+00        -0.59838E+08
 
   -0.59275E+08         0.10244E+07         0.00000E+00
    0.10244E+07        -0.60417E+08         0.00000E+00
    0.00000E+00         0.00000E+00        -0.59889E+08
 
   -0.59574E+08         0.10575E+07         0.00000E+00
    0.10575E+07        -0.60339E+08         0.00000E+00
    0.00000E+00         0.00000E+00        -0.59934E+08
 
   -0.59853E+08         0.10515E+07         0.00000E+00
    0.10515E+07        -0.60241E+08         0.00000E+00
    0.00000E+00         0.00000E+00        -0.59970E+08
 
   -0.54124E+08         0.12217E+06         0.00000E+00
    0.12217E+06        -0.60005E+08         0.00000E+00
    0.00000E+00         0.00000E+00        -0.58748E+08
 
   -0.54842E+08         0.28988E+06         0.00000E+00
    0.28988E+06        -0.60032E+08         0.00000E+00
    0.00000E+00         0.00000E+00        -0.58897E+08
 
   -0.55481E+08         0.38222E+06         0.00000E+00
    0.38222E+06        -0.60088E+08         0.00000E+00
    0.00000E+00         0.00000E+00        -0.59037E+08
 
   -0.56040E+08         0.42928E+06         0.00000E+00
    0.42928E+06        -0.60173E+08         0.00000E+00
    0.00000E+00         0.00000E+00        -0.59166E+08
 
   -0.56523E+08         0.45630E+06         0.00000E+00
    0.45630E+06        -0.60280E+08         0.00000E+00
    0.00000E+00         0.00000E+00        -0.59284E+08
 
   -0.56941E+08         0.48290E+06         0.00000E+00
    0.48290E+06        -0.60401E+08         0.00000E+00
    0.00000E+00         0.00000E+00        -0.59392E+08
 
   -0.57309E+08         0.52268E+06         0.00000E+00
    0.52268E+06        -0.60525E+08         0.00000E+00
    0.00000E+00         0.00000E+00        -0.59490E+08
 
   -0.57640E+08         0.58326E+06         0.00000E+00
    0.58326E+06        -0.60643E+08         0.00000E+00
    0.00000E+00         0.00000E+00        -0.59580E+08
 
   -0.57950E+08         0.66652E+06         0.00000E+00
    0.66652E+06        -0.60742E+08         0.00000E+00
    0.00000E+00         0.00000E+00        -0.59662E+08
 
   -0.58254E+08         0.76899E+06         0.00000E+00
    0.76899E+06        -0.60813E+08         0.00000E+00
    0.00000E+00         0.00000E+00        -0.59736E+08
 
   -0.58562E+08         0.88250E+06         0.00000E+00
    0.88250E+06        -0.60848E+08         0.00000E+00
    0.00000E+00         0.00000E+00        -0.59805E+08
 
   -0.58880E+08         0.99488E+06         0.00000E+00
    0.99488E+06        -0.60843E+08         0.00000E+00
    0.00000E+00         0.00000E+00        -0.59868E+08
 
   -0.59211E+08         0.10910E+07         0.00000E+00
    0.10910E+07        -0.60796E+08         0.00000E+00
    0.00000E+00         0.00000E+00        -0.59924E+08
 
   -0.59547E+08         0.11541E+07         0.00000E+00
    0.11541E+07        -0.60710E+08         0.00000E+00
    0.00000E+00         0.00000E+00        -0.59975E+08
 
   -0.59876E+08         0.11678E+07         0.00000E+00
    0.11678E+07        -0.60593E+08         0.00000E+00
    0.00000E+00         0.00000E+00        -0.60017E+08
 
   -0.53923E+08         0.10617E+06         0.00000E+00
    0.10617E+06        -0.60009E+08         0.00000E+00
    0.00000E+00         0.00000E+00        -0.58668E+08
 
   -0.54734E+08         0.23761E+06         0.00000E+00
    0.23761E+06        -0.60051E+08         0.00000E+00
    0.00000E+00         0.00000E+00        -0.58839E+08
 
   -0.55432E+08         0.29364E+06         0.00000E+00
    0.29364E+06        -0.60138E+08         0.00000E+00
    0.00000E+00         0.00000E+00        -0.58997E+08
 
   -0.56019E+08         0.30978E+06         0.00000E+00
    0.30978E+06        -0.60263E+08         0.00000E+00
    0.00000E+00         0.00000E+00        -0.59139E+08
 
   -0.56506E+08         0.31505E+06         0.00000E+00
    0.31505E+06        -0.60419E+08         0.00000E+00
    0.00000E+00         0.00000E+00        -0.59268E+08
 
   -0.56912E+08         0.33137E+06         0.00000E+00
    0.33137E+06        -0.60593E+08         0.00000E+00
    0.00000E+00         0.00000E+00        -0.59384E+08
 
   -0.57255E+08         0.37338E+06         0.00000E+00
    0.37338E+06        -0.60772E+08         0.00000E+00
    0.00000E+00         0.00000E+00        -0.59488E+08
 
   -0.57558E+08         0.44874E+06         0.00000E+00
    0.44874E+06        -0.60940E+08         0.00000E+00
    0.00000E+00         0.00000E+00        -0.59582E+08
 
   -0.57841E+08         0.55845E+06         0.00000E+00
    0.55845E+06        -0.61086E+08         0.00000E+00
    0.00000E+00         0.00000E+00        -0.59667E+08
 
   -0.58125E+08         0.69746E+06         0.00000E+00
    0.69746E+06        -0.61196E+08         0.00000E+00
    0.00000E+00         0.00000E+00        -0.59745E+08
 
   -0.58424E+08         0.85514E+06         0.00000E+00
    0.85514E+06        -0.61260E+08         0.00000E+00
    0.00000E+00         0.00000E+00        -0.59818E+08
 
   -0.58750E+08         0.10160E+07         0.00000E+00
    0.10160E+07        -0.61272E+08         0.00000E+00
    0.00000E+00         0.00000E+00        -0.59885E+08
 
   -0.59106E+08         0.11604E+07         0.00000E+00
    0.11604E+07        -0.61228E+08         0.00000E+00
    0.00000E+00         0.00000E+00        -0.59947E+08
 
   -0.59488E+08         0.12663E+07         0.00000E+00
    0.12663E+07        -0.61132E+08         0.00000E+00
    0.00000E+00         0.00000E+00        -0.60005E+08
 
   -0.59882E+08         0.13107E+07         0.00000E+00
    0.13107E+07        -0.60990E+08         0.00000E+00
    0.00000E+00         0.00000E+00        -0.60055E+08
 
   -0.53764E+08         0.81116E+05         0.00000E+00
    0.81116E+05        -0.60014E+08         0.00000E+00
    0.00000E+00         0.00000E+00        -0.58578E+08
 
   -0.54671E+08         0.15980E+06         0.00000E+00
    0.15980E+06        -0.60075E+08         0.00000E+00
    0.00000E+00         0.00000E+00        -0.58772E+08
 
   -0.55422E+08         0.16604E+06         0.00000E+00
    0.16604E+06        -0.60196E+08         0.00000E+00
    0.00000E+00         0.00000E+00        -0.58947E+08
 
   -0.56028E+08         0.14136E+06         0.00000E+00
    0.14136E+06        -0.60369E+08         0.00000E+00
    0.00000E+00         0.00000E+00        -0.59103E+08
 
   -0.56508E+08         0.11877E+06         0.00000E+00
    0.11877E+06        -0.60580E+08         0.00000E+00
    0.00000E+00         0.00000E+00        -0.59241E+08
 
   -0.56886E+08         0.12238E+06         0.00000E+00
    0.12238E+06        -0.60814E+08         0.00000E+00
    0.00000E+00         0.00000E+00        -0.59363E+08
 
   -0.57191E+08         0.16761E+06         0.00000E+00
    0.16761E+06        -0.61052E+08         0.00000E+00
    0.00000E+00         0.00000E+00        -0.59470E+08
 
   -0.57452E+08         0.26180E+06         0.00000E+00
    0.26180E+06        -0.61278E+08         0.00000E+00
    0.00000E+00         0.00000E+00        -0.59567E+08
 
   -0.57696E+08         0.40482E+06         0.00000E+00
    0.40482E+06        -0.61475E+08         0.00000E+00
    0.00000E+00         0.00000E+00        -0.59654E+08
 
   -0.57949E+08         0.58975E+06         0.00000E+00
    0.58975E+06        -0.61628E+08         0.00000E+00
    0.00000E+00         0.00000E+00        -0.59734E+08
 
   -0.58233E+08         0.80334E+06         0.00000E+00
    0.80334E+06        -0.61725E+08         0.00000E+00
    0.00000E+00         0.00000E+00        -0.59809E+08
 
   -0.58563E+08         0.10264E+07         0.00000E+00
    0.10264E+07        -0.61755E+08         0.00000E+00
    0.00000E+00         0.00000E+00        -0.59880E+08
 
   -0.58948E+08         0.12346E+07         0.00000E+00
    0.12346E+07        -0.61714E+08         0.00000E+00
    0.00000E+00         0.00000E+00        -0.59949E+08
 
   -0.59384E+08         0.13990E+07         0.00000E+00
    0.13990E+07        -0.61602E+08         0.00000E+00
    0.00000E+00         0.00000E+00        -0.60014E+08
 
   -0.59859E+08         0.14887E+07         0.00000E+00
    0.14887E+07        -0.61430E+08         0.00000E+00
    0.00000E+00         0.00000E+00        -0.60074E+08
 
   -0.53666E+08         0.45229E+05         0.00000E+00
    0.45229E+05        -0.60019E+08         0.00000E+00
    0.00000E+00         0.00000E+00        -0.58475E+08
 
   -0.54668E+08         0.51977E+05         0.00000E+00
    0.51977E+05        -0.60102E+08         0.00000E+00
    0.00000E+00         0.00000E+00        -0.58692E+08
 
   -0.55465E+08        -0.66784E+04         0.00000E+00
   -0.66784E+04        -0.60264E+08         0.00000E+00
    0.00000E+00         0.00000E+00        -0.58884E+08
 
   -0.56077E+08        -0.82715E+05         0.00000E+00
   -0.82715E+05        -0.60490E+08         0.00000E+00
    0.00000E+00         0.00000E+00        -0.59051E+08
 
   -0.56532E+08        -0.13917E+06         0.00000E+00
   -0.13917E+06        -0.60764E+08         0.00000E+00
    0.00000E+00         0.00000E+00        -0.59196E+08
 
   -0.56866E+08        -0.15013E+06         0.00000E+00
   -0.15013E+06        -0.61063E+08         0.00000E+00
    0.00000E+00         0.00000E+00        -0.59320E+08
 
   -0.57115E+08        -0.99957E+05         0.00000E+00
   -0.99957E+05        -0.61367E+08         0.00000E+00
    0.00000E+00         0.00000E+00        -0.59429E+08
 
   -0.57317E+08         0.17836E+05         0.00000E+00
    0.17836E+05        -0.61654E+08         0.00000E+00
    0.00000E+00         0.00000E+00        -0.59524E+08
 
   -0.57507E+08         0.20165E+06         0.00000E+00
    0.20165E+06        -0.61906E+08         0.00000E+00
    0.00000E+00         0.00000E+00        -0.59610E+08
 
   -0.57717E+08         0.44260E+06         0.00000E+00
    0.44260E+06        -0.62105E+08         0.00000E+00
    0.00000E+00         0.00000E+00        -0.59689E+08
 
   -0.57976E+08         0.72482E+06         0.00000E+00
    0.72482E+06        -0.62236E+08         0.00000E+00
    0.00000E+00         0.00000E+00        -0.59765E+08
 
   -0.58305E+08         0.10255E+07         0.00000E+00
    0.10255E+07        -0.62286E+08         0.00000E+00
    0.00000E+00         0.00000E+00        -0.59839E+08
 
   -0.58718E+08         0.13151E+07         0.00000E+00
    0.13151E+07        -0.62247E+08         0.00000E+00
    0.00000E+00         0.00000E+00        -0.59914E+08
 
   -0.59218E+08         0.15574E+07         0.00000E+00
    0.15574E+07        -0.62118E+08         0.00000E+00
    0.00000E+00         0.00000E+00        -0.59988E+08
 
   -0.59792E+08         0.17115E+07         0.00000E+00
    0.17115E+07        -0.61906E+08         0.00000E+00
    0.00000E+00         0.00000E+00        -0.60060E+08
 
   -0.53653E+08        -0.34330E+04         0.00000E+00
   -0.34330E+04        -0.60025E+08         0.00000E+00
    0.00000E+00         0.00000E+00        -0.58352E+08
 
   -0.54745E+08        -0.90650E+05         0.00000E+00
   -0.90650E+05        -0.60134E+08         0.00000E+00
    0.00000E+00         0.00000E+00        -0.58592E+08
 
   -0.55574E+08        -0.23074E+06         0.00000E+00
   -0.23074E+06        -0.60342E+08         0.00000E+00
    0.00000E+00         0.00000E+00        -0.58799E+08
 
   -0.56173E+08        -0.36888E+06         0.00000E+00
   -0.36888E+06        -0.60628E+08         0.00000E+00
    0.00000E+00         0.00000E+00        -0.58975E+08
 
   -0.56582E+08        -0.46455E+06         0.00000E+00
   -0.46455E+06        -0.60969E+08         0.00000E+00
    0.00000E+00         0.00000E+00        -0.59122E+08
 
   -0.56849E+08        -0.49086E+06         0.00000E+00
   -0.49086E+06        -0.61338E+08         0.00000E+00
    0.00000E+00         0.00000E+00        -0.59245E+08
 
   -0.57022E+08        -0.43295E+06         0.00000E+00
   -0.43295E+06        -0.61710E+08         0.00000E+00
    0.00000E+00         0.00000E+00        -0.59349E+08
 
   -0.57146E+08        -0.28600E+06         0.00000E+00
   -0.28600E+06        -0.62061E+08         0.00000E+00
    0.00000E+00         0.00000E+00        -0.59439E+08
 
   -0.57264E+08        -0.53496E+05         0.00000E+00
   -0.53496E+05        -0.62369E+08         0.00000E+00
    0.00000E+00         0.00000E+00        -0.59519E+08
 
   -0.57416E+08         0.25374E+06         0.00000E+00
    0.25374E+06        -0.62615E+08         0.00000E+00
    0.00000E+00         0.00000E+00        -0.59594E+08
 
   -0.57637E+08         0.61769E+06         0.00000E+00
    0.61769E+06        -0.62782E+08         0.00000E+00
    0.00000E+00         0.00000E+00        -0.59668E+08
 
   -0.57957E+08         0.10125E+07         0.00000E+00
    0.10125E+07        -0.62853E+08         0.00000E+00
    0.00000E+00         0.00000E+00        -0.59743E+08
 
   -0.58396E+08         0.14035E+07         0.00000E+00
    0.14035E+07        -0.62817E+08         0.00000E+00
    0.00000E+00         0.00000E+00        -0.59822E+08
 
   -0.58967E+08         0.17468E+07         0.00000E+00
    0.17468E+07        -0.62667E+08         0.00000E+00
    0.00000E+00         0.00000E+00        -0.59905E+08
 
   -0.59660E+08         0.19902E+07         0.00000E+00
    0.19902E+07        -0.62408E+08         0.00000E+00
    0.00000E+00         0.00000E+00        -0.59992E+08
 
   -0.53751E+08        -0.66964E+05         0.00000E+00
   -0.66964E+05        -0.60033E+08         0.00000E+00
    0.00000E+00         0.00000E+00        -0.58203E+08
 
   -0.54921E+08        -0.27306E+06         0.00000E+00
   -0.27306E+06        -0.60171E+08         0.00000E+00
    0.00000E+00         0.00000E+00        -0.58464E+08
 
   -0.55762E+08        -0.51219E+06         0.00000E+00
   -0.51219E+06        -0.60430E+08         0.00000E+00
    0.00000E+00         0.00000E+00        -0.58682E+08
 
   -0.56322E+08        -0.72267E+06         0.00000E+00
   -0.72267E+06        -0.60782E+08         0.00000E+00
    0.00000E+00         0.00000E+00        -0.58861E+08
 
   -0.56660E+08        -0.86134E+06         0.00000E+00
   -0.86134E+06        -0.61194E+08         0.00000E+00
    0.00000E+00         0.00000E+00        -0.59004E+08
 
   -0.56835E+08        -0.90189E+06         0.00000E+00
   -0.90189E+06        -0.61634E+08         0.00000E+00
    0.00000E+00         0.00000E+00        -0.59120E+08
 
   -0.56908E+08        -0.83190E+06         0.00000E+00
   -0.83190E+06        -0.62073E+08         0.00000E+00
    0.00000E+00         0.00000E+00        -0.59213E+08
 
   -0.56932E+08        -0.64945E+06         0.00000E+00
   -0.64945E+06        -0.62485E+08         0.00000E+00
    0.00000E+00         0.00000E+00        -0.59291E+08
 
   -0.56960E+08        -0.36044E+06         0.00000E+00
   -0.36044E+06        -0.62848E+08         0.00000E+00
    0.00000E+00         0.00000E+00        -0.59359E+08
 
   -0.57036E+08         0.22713E+05         0.00000E+00
    0.22713E+05        -0.63140E+08         0.00000E+00
    0.00000E+00         0.00000E+00        -0.59425E+08
 
   -0.57203E+08         0.48077E+06         0.00000E+00
    0.48077E+06        -0.63342E+08         0.00000E+00
    0.00000E+00         0.00000E+00        -0.59492E+08
 
   -0.57500E+08         0.98611E+06         0.00000E+00
    0.98611E+06        -0.63435E+08         0.00000E+00
    0.00000E+00         0.00000E+00        -0.59564E+08
 
   -0.57960E+08         0.15003E+07         0.00000E+00
    0.15003E+07        -0.63402E+08         0.00000E+00
    0.00000E+00         0.00000E+00        -0.59646E+08
 
   -0.58604E+08         0.19720E+07         0.00000E+00
    0.19720E+07        -0.63230E+08         0.00000E+00
    0.00000E+00         0.00000E+00        -0.59739E+08
 
   -0.59434E+08         0.23362E+07         0.00000E+00
    0.23362E+07        -0.62915E+08         0.00000E+00
    0.00000E+00         0.00000E+00        -0.59842E+08
 
   -0.53989E+08        -0.14762E+06         0.00000E+00
   -0.14762E+06        -0.60041E+08         0.00000E+00
    0.00000E+00         0.00000E+00        -0.58017E+08
 
   -0.55218E+08        -0.50034E+06         0.00000E+00
   -0.50034E+06        -0.60213E+08         0.00000E+00
    0.00000E+00         0.00000E+00        -0.58295E+08
 
   -0.56043E+08        -0.85654E+06         0.00000E+00
   -0.85654E+06        -0.60529E+08         0.00000E+00
    0.00000E+00         0.00000E+00        -0.58518E+08
 
   -0.56532E+08        -0.11479E+07         0.00000E+00
   -0.11479E+07        -0.60949E+08         0.00000E+00
    0.00000E+00         0.00000E+00        -0.58692E+08
 
   -0.56765E+08        -0.13304E+07         0.00000E+00
   -0.13304E+07        -0.61434E+08         0.00000E+00
    0.00000E+00         0.00000E+00        -0.58824E+08
 
   -0.56819E+08        -0.13810E+07         0.00000E+00
   -0.13810E+07        -0.61942E+08         0.00000E+00
    0.00000E+00         0.00000E+00        -0.58922E+08
 
   -0.56766E+08        -0.12923E+07         0.00000E+00
   -0.12923E+07        -0.62442E+08         0.00000E+00
    0.00000E+00         0.00000E+00        -0.58995E+08
 
   -0.56669E+08        -0.10673E+07         0.00000E+00
   -0.10673E+07        -0.62906E+08         0.00000E+00
    0.00000E+00         0.00000E+00        -0.59052E+08
 
   -0.56585E+08        -0.71474E+06         0.00000E+00
   -0.71474E+06        -0.63315E+08         0.00000E+00
    0.00000E+00         0.00000E+00        -0.59101E+08
 
   -0.56565E+08        -0.24808E+06         0.00000E+00
   -0.24808E+06        -0.63647E+08         0.00000E+00
    0.00000E+00         0.00000E+00        -0.59149E+08
 
   -0.56660E+08         0.31412E+06         0.00000E+00
    0.31412E+06        -0.63882E+08         0.00000E+00
    0.00000E+00         0.00000E+00        -0.59203E+08
 
   -0.56918E+08         0.94492E+06         0.00000E+00
    0.94492E+06        -0.63998E+08         0.00000E+00
    0.00000E+00         0.00000E+00        -0.59268E+08
 
   -0.57384E+08         0.16045E+07         0.00000E+00
    0.16045E+07        -0.63970E+08         0.00000E+00
    0.00000E+00         0.00000E+00        -0.59349E+08
 
   -0.58097E+08         0.22355E+07         0.00000E+00
    0.22355E+07        -0.63776E+08         0.00000E+00
    0.00000E+00         0.00000E+00        -0.59450E+08
 
   -0.59077E+08         0.27601E+07         0.00000E+00
    0.27601E+07        -0.63402E+08         0.00000E+00
    0.00000E+00         0.00000E+00        -0.59570E+08
 
   -0.54403E+08        -0.24788E+06         0.00000E+00
   -0.24788E+06        -0.60051E+08         0.00000E+00
    0.00000E+00         0.00000E+00        -0.57780E+08
 
   -0.55661E+08        -0.77775E+06         0.00000E+00
   -0.77775E+06        -0.60260E+08         0.00000E+00
    0.00000E+00         0.00000E+00        -0.58069E+08
 
   -0.56429E+08        -0.12683E+07         0.00000E+00
   -0.12683E+07        -0.60637E+08         0.00000E+00
    0.00000E+00         0.00000E+00        -0.58288E+08
 
   -0.56805E+08        -0.16455E+07         0.00000E+00
   -0.16455E+07        -0.61129E+08         0.00000E+00
    0.00000E+00         0.00000E+00        -0.58445E+08
 
   -0.56894E+08        -0.18676E+07         0.00000E+00
   -0.18676E+07        -0.61680E+08         0.00000E+00
    0.00000E+00         0.00000E+00        -0.58552E+08
 
   -0.56793E+08        -0.19192E+07         0.00000E+00
   -0.19192E+07        -0.62246E+08         0.00000E+00
    0.00000E+00         0.00000E+00        -0.58620E+08
 
   -0.56588E+08        -0.18022E+07         0.00000E+00
   -0.18022E+07        -0.62791E+08         0.00000E+00
    0.00000E+00         0.00000E+00        -0.58661E+08
 
   -0.56349E+08        -0.15268E+07         0.00000E+00
   -0.15268E+07        -0.63291E+08         0.00000E+00
    0.00000E+00         0.00000E+00        -0.58686E+08
 
   -0.56135E+08        -0.11057E+07         0.00000E+00
   -0.11057E+07        -0.63730E+08         0.00000E+00
    0.00000E+00         0.00000E+00        -0.58705E+08
 
   -0.55999E+08        -0.55185E+06         0.00000E+00
   -0.55185E+06        -0.64090E+08         0.00000E+00
    0.00000E+00         0.00000E+00        -0.58726E+08
 
   -0.55998E+08         0.11961E+06         0.00000E+00
    0.11961E+06        -0.64352E+08         0.00000E+00
    0.00000E+00         0.00000E+00        -0.58757E+08
 
   -0.56191E+08         0.88660E+06         0.00000E+00
    0.88660E+06        -0.64490E+08         0.00000E+00
    0.00000E+00         0.00000E+00        -0.58807E+08
 
   -0.56640E+08         0.17123E+07         0.00000E+00
    0.17123E+07        -0.64472E+08         0.00000E+00
    0.00000E+00         0.00000E+00        -0.58882E+08
 
   -0.57407E+08         0.25367E+07         0.00000E+00
    0.25367E+07        -0.64261E+08         0.00000E+00
    0.00000E+00         0.00000E+00        -0.58987E+08
 
   -0.58539E+08         0.32696E+07         0.00000E+00
    0.32696E+07        -0.63825E+08         0.00000E+00
    0.00000E+00         0.00000E+00        -0.59124E+08
 
   -0.55031E+08        -0.37066E+06         0.00000E+00
   -0.37066E+06        -0.60062E+08         0.00000E+00
    0.00000E+00         0.00000E+00        -0.57474E+08
 
   -0.56273E+08        -0.11108E+07         0.00000E+00
   -0.11108E+07        -0.60313E+08         0.00000E+00
    0.00000E+00         0.00000E+00        -0.57764E+08
 
   -0.56928E+08        -0.17506E+07         0.00000E+00
   -0.17506E+07        -0.60756E+08         0.00000E+00
    0.00000E+00         0.00000E+00        -0.57964E+08
 
   -0.57135E+08        -0.22117E+07         0.00000E+00
   -0.22117E+07        -0.61316E+08         0.00000E+00
    0.00000E+00         0.00000E+00        -0.58088E+08
 
   -0.57034E+08        -0.24609E+07         0.00000E+00
   -0.24609E+07        -0.61923E+08         0.00000E+00
    0.00000E+00         0.00000E+00        -0.58153E+08
 
   -0.56745E+08        -0.24976E+07         0.00000E+00
   -0.24976E+07        -0.62524E+08         0.00000E+00
    0.00000E+00         0.00000E+00        -0.58174E+08
 
   -0.56365E+08        -0.23387E+07         0.00000E+00
   -0.23387E+07        -0.63087E+08         0.00000E+00
    0.00000E+00         0.00000E+00        -0.58167E+08
 
   -0.55967E+08        -0.20050E+07         0.00000E+00
   -0.20050E+07        -0.63593E+08         0.00000E+00
    0.00000E+00         0.00000E+00        -0.58145E+08
 
   -0.55607E+08        -0.15137E+07         0.00000E+00
   -0.15137E+07        -0.64034E+08         0.00000E+00
    0.00000E+00         0.00000E+00        -0.58120E+08
 
   -0.55337E+08        -0.87569E+06         0.00000E+00
   -0.87569E+06        -0.64401E+08         0.00000E+00
    0.00000E+00         0.00000E+00        -0.58101E+08
 
   -0.55215E+08        -0.98104E+05         0.00000E+00
   -0.98104E+05        -0.64678E+08         0.00000E+00
    0.00000E+00         0.00000E+00        -0.58099E+08
 
   -0.55309E+08         0.80787E+06         0.00000E+00
    0.80787E+06        -0.64838E+08         0.00000E+00
    0.00000E+00         0.00000E+00        -0.58123E+08
 
   -0.55704E+08         0.18155E+07         0.00000E+00
    0.18155E+07        -0.64837E+08         0.00000E+00
    0.00000E+00         0.00000E+00        -0.58182E+08
 
   -0.56492E+08         0.28684E+07         0.00000E+00
    0.28684E+07        -0.64620E+08         0.00000E+00
    0.00000E+00         0.00000E+00        -0.58285E+08
 
   -0.57760E+08         0.38672E+07         0.00000E+00
    0.38672E+07        -0.64131E+08         0.00000E+00
    0.00000E+00         0.00000E+00        -0.58435E+08
 
   -0.55916E+08        -0.51972E+06         0.00000E+00
   -0.51972E+06        -0.60075E+08         0.00000E+00
    0.00000E+00         0.00000E+00        -0.57075E+08
 
   -0.57077E+08        -0.15056E+07         0.00000E+00
   -0.15056E+07        -0.60374E+08         0.00000E+00
    0.00000E+00         0.00000E+00        -0.57349E+08
 
   -0.57542E+08        -0.23036E+07         0.00000E+00
   -0.23036E+07        -0.60885E+08         0.00000E+00
    0.00000E+00         0.00000E+00        -0.57510E+08
 
   -0.57510E+08        -0.28355E+07         0.00000E+00
   -0.28355E+07        -0.61505E+08         0.00000E+00
    0.00000E+00         0.00000E+00        -0.57577E+08
 
   -0.57165E+08        -0.30868E+07         0.00000E+00
   -0.30868E+07        -0.62143E+08         0.00000E+00
    0.00000E+00         0.00000E+00        -0.57575E+08
 
   -0.56656E+08        -0.30829E+07         0.00000E+00
   -0.30829E+07        -0.62743E+08         0.00000E+00
    0.00000E+00         0.00000E+00        -0.57527E+08
 
   -0.56085E+08        -0.28640E+07         0.00000E+00
   -0.28640E+07        -0.63279E+08         0.00000E+00
    0.00000E+00         0.00000E+00        -0.57453E+08
 
   -0.55520E+08        -0.24652E+07         0.00000E+00
   -0.24652E+07        -0.63745E+08         0.00000E+00
    0.00000E+00         0.00000E+00        -0.57367E+08
 
   -0.55007E+08        -0.19081E+07         0.00000E+00
   -0.19081E+07        -0.64147E+08         0.00000E+00
    0.00000E+00         0.00000E+00        -0.57282E+08
 
   -0.54588E+08        -0.11985E+07         0.00000E+00
   -0.11985E+07        -0.64489E+08         0.00000E+00
    0.00000E+00         0.00000E+00        -0.57209E+08
 
   -0.54317E+08        -0.33043E+06         0.00000E+00
   -0.33043E+06        -0.64763E+08         0.00000E+00
    0.00000E+00         0.00000E+00        -0.57158E+08
 
   -0.54269E+08         0.70421E+06         0.00000E+00
    0.70421E+06        -0.64942E+08         0.00000E+00
    0.00000E+00         0.00000E+00        -0.57141E+08
 
   -0.54552E+08         0.18997E+07         0.00000E+00
    0.18997E+07        -0.64970E+08         0.00000E+00
    0.00000E+00         0.00000E+00        -0.57171E+08
 
   -0.55302E+08         0.32140E+07         0.00000E+00
    0.32140E+07        -0.64768E+08         0.00000E+00
    0.00000E+00         0.00000E+00        -0.57259E+08
 
   -0.56663E+08         0.45456E+07         0.00000E+00
    0.45456E+07        -0.64244E+08         0.00000E+00
    0.00000E+00         0.00000E+00        -0.57417E+08
 
   -0.57111E+08        -0.70039E+06         0.00000E+00
   -0.70039E+06        -0.60092E+08         0.00000E+00
    0.00000E+00         0.00000E+00        -0.56550E+08
 
   -0.58094E+08        -0.19693E+07         0.00000E+00
   -0.19693E+07        -0.60447E+08         0.00000E+00
    0.00000E+00         0.00000E+00        -0.56786E+08
 
   -0.58261E+08        -0.29231E+07         0.00000E+00
   -0.29231E+07        -0.61026E+08         0.00000E+00
    0.00000E+00         0.00000E+00        -0.56874E+08
 
   -0.57899E+08        -0.34931E+07         0.00000E+00
   -0.34931E+07        -0.61684E+08         0.00000E+00
    0.00000E+00         0.00000E+00        -0.56850E+08
 
   -0.57254E+08        -0.37031E+07         0.00000E+00
   -0.37031E+07        -0.62309E+08         0.00000E+00
    0.00000E+00         0.00000E+00        -0.56749E+08
 
   -0.56499E+08        -0.36220E+07         0.00000E+00
   -0.36220E+07        -0.62848E+08         0.00000E+00
    0.00000E+00         0.00000E+00        -0.56604E+08
 
   -0.55735E+08        -0.33219E+07         0.00000E+00
   -0.33219E+07        -0.63290E+08         0.00000E+00
    0.00000E+00         0.00000E+00        -0.56439E+08
 
   -0.55010E+08        -0.28548E+07         0.00000E+00
   -0.28548E+07        -0.63653E+08         0.00000E+00
    0.00000E+00         0.00000E+00        -0.56270E+08
 
   -0.54349E+08        -0.22447E+07         0.00000E+00
   -0.22447E+07        -0.63961E+08         0.00000E+00
    0.00000E+00         0.00000E+00        -0.56108E+08
 
   -0.53775E+08        -0.14890E+07         0.00000E+00
   -0.14890E+07        -0.64234E+08         0.00000E+00
    0.00000E+00         0.00000E+00        -0.55964E+08
 
   -0.53327E+08        -0.56304E+06         0.00000E+00
   -0.56304E+06        -0.64477E+08         0.00000E+00
    0.00000E+00         0.00000E+00        -0.55846E+08
 
   -0.53083E+08         0.57038E+06         0.00000E+00
    0.57038E+06        -0.64666E+08         0.00000E+00
    0.00000E+00         0.00000E+00        -0.55769E+08
 
   -0.53174E+08         0.19418E+07         0.00000E+00
    0.19418E+07        -0.64740E+08         0.00000E+00
    0.00000E+00         0.00000E+00        -0.55748E+08
 
   -0.53789E+08         0.35423E+07         0.00000E+00
    0.35423E+07        -0.64589E+08         0.00000E+00
    0.00000E+00         0.00000E+00        -0.55805E+08
 
   -0.55156E+08         0.52823E+07         0.00000E+00
    0.52823E+07        -0.64068E+08         0.00000E+00
    0.00000E+00         0.00000E+00        -0.55956E+08
 
   -0.58676E+08        -0.92113E+06         0.00000E+00
   -0.92113E+06        -0.60114E+08         0.00000E+00
    0.00000E+00         0.00000E+00        -0.55856E+08
 
   -0.59334E+08        -0.25106E+07         0.00000E+00
   -0.25106E+07        -0.60535E+08         0.00000E+00
    0.00000E+00         0.00000E+00        -0.56015E+08
 
   -0.59049E+08        -0.35942E+07         0.00000E+00
   -0.35942E+07        -0.61177E+08         0.00000E+00
    0.00000E+00         0.00000E+00        -0.55982E+08
 
   -0.58246E+08        -0.41376E+07         0.00000E+00
   -0.41376E+07        -0.61828E+08         0.00000E+00
    0.00000E+00         0.00000E+00        -0.55814E+08
 
   -0.57249E+08        -0.42394E+07         0.00000E+00
   -0.42394E+07        -0.62362E+08         0.00000E+00
    0.00000E+00         0.00000E+00        -0.55571E+08
 
   -0.56244E+08        -0.40354E+07         0.00000E+00
   -0.40354E+07        -0.62746E+08         0.00000E+00
    0.00000E+00         0.00000E+00        -0.55296E+08
 
   -0.55305E+08        -0.36358E+07         0.00000E+00
   -0.36358E+07        -0.63004E+08         0.00000E+00
    0.00000E+00         0.00000E+00        -0.55016E+08
 
   -0.54447E+08        -0.31055E+07         0.00000E+00
   -0.31055E+07        -0.63183E+08         0.00000E+00
    0.00000E+00         0.00000E+00        -0.54745E+08
 
   -0.53659E+08        -0.24665E+07         0.00000E+00
   -0.24665E+07        -0.63328E+08         0.00000E+00
    0.00000E+00         0.00000E+00        -0.54491E+08
 
   -0.52935E+08        -0.17046E+07         0.00000E+00
   -0.17046E+07        -0.63477E+08         0.00000E+00
    0.00000E+00         0.00000E+00        -0.54259E+08
 
   -0.52291E+08        -0.77314E+06         0.00000E+00
   -0.77314E+06        -0.63650E+08         0.00000E+00
    0.00000E+00         0.00000E+00        -0.54055E+08
 
   -0.51790E+08         0.40268E+06         0.00000E+00
    0.40268E+06        -0.63838E+08         0.00000E+00
    0.00000E+00         0.00000E+00        -0.53893E+08
 
   -0.51578E+08         0.19091E+07         0.00000E+00
    0.19091E+07        -0.63977E+08         0.00000E+00
    0.00000E+00         0.00000E+00        -0.53794E+08
 
   -0.51907E+08         0.38009E+07         0.00000E+00
    0.38009E+07        -0.63929E+08         0.00000E+00
    0.00000E+00         0.00000E+00        -0.53789E+08
 
   -0.53126E+08         0.60296E+07         0.00000E+00
    0.60296E+07        -0.63477E+08         0.00000E+00
    0.00000E+00         0.00000E+00        -0.53910E+08
 
   -0.60687E+08        -0.11964E+07         0.00000E+00
   -0.11964E+07        -0.60145E+08         0.00000E+00
    0.00000E+00         0.00000E+00        -0.54929E+08
 
   -0.60790E+08        -0.31379E+07         0.00000E+00
   -0.31379E+07        -0.60649E+08         0.00000E+00
    0.00000E+00         0.00000E+00        -0.54948E+08
 
   -0.59832E+08        -0.42767E+07         0.00000E+00
   -0.42767E+07        -0.61323E+08         0.00000E+00
    0.00000E+00         0.00000E+00        -0.54712E+08
 
   -0.58463E+08        -0.46780E+07         0.00000E+00
   -0.46780E+07        -0.61871E+08         0.00000E+00
    0.00000E+00         0.00000E+00        -0.54328E+08
 
   -0.57089E+08        -0.45817E+07         0.00000E+00
   -0.45817E+07        -0.62178E+08         0.00000E+00
    0.00000E+00         0.00000E+00        -0.53888E+08
 
   -0.55864E+08        -0.42133E+07         0.00000E+00
   -0.42133E+07        -0.62273E+08         0.00000E+00
    0.00000E+00         0.00000E+00        -0.53447E+08
 
   -0.54799E+08        -0.37118E+07         0.00000E+00
   -0.37118E+07        -0.62236E+08         0.00000E+00
    0.00000E+00         0.00000E+00        -0.53030E+08
 
   -0.53853E+08        -0.31399E+07         0.00000E+00
   -0.31399E+07        -0.62144E+08         0.00000E+00
    0.00000E+00         0.00000E+00        -0.52644E+08
 
   -0.52975E+08        -0.25092E+07         0.00000E+00
   -0.25092E+07        -0.62057E+08         0.00000E+00
    0.00000E+00         0.00000E+00        -0.52286E+08
 
   -0.52124E+08        -0.17929E+07         0.00000E+00
   -0.17929E+07        -0.62022E+08         0.00000E+00
    0.00000E+00         0.00000E+00        -0.51953E+08
 
   -0.51276E+08        -0.92554E+06         0.00000E+00
   -0.92554E+06        -0.62076E+08         0.00000E+00
    0.00000E+00         0.00000E+00        -0.51645E+08
 
   -0.50461E+08         0.20545E+06         0.00000E+00
    0.20545E+06        -0.62233E+08         0.00000E+00
    0.00000E+00         0.00000E+00        -0.51371E+08
 
   -0.49809E+08         0.17607E+07         0.00000E+00
    0.17607E+07        -0.62450E+08         0.00000E+00
    0.00000E+00         0.00000E+00        -0.51155E+08
 
   -0.49629E+08         0.39075E+07         0.00000E+00
    0.39075E+07        -0.62577E+08         0.00000E+00
    0.00000E+00         0.00000E+00        -0.51043E+08
 
   -0.50439E+08         0.67002E+07         0.00000E+00
    0.67002E+07        -0.62305E+08         0.00000E+00
    0.00000E+00         0.00000E+00        -0.51095E+08
 
   -0.63240E+08        -0.15541E+07         0.00000E+00
   -0.15541E+07        -0.60199E+08         0.00000E+00
    0.00000E+00         0.00000E+00        -0.53668E+08
 
   -0.62397E+08        -0.38485E+07         0.00000E+00
   -0.38485E+07        -0.60797E+08         0.00000E+00
    0.00000E+00         0.00000E+00        -0.53432E+08
 
   -0.60455E+08        -0.48624E+07         0.00000E+00
   -0.48624E+07        -0.61406E+08         0.00000E+00
    0.00000E+00         0.00000E+00        -0.52856E+08
 
   -0.58425E+08        -0.49359E+07         0.00000E+00
   -0.49359E+07        -0.61635E+08         0.00000E+00
    0.00000E+00         0.00000E+00        -0.52149E+08
 
   -0.56720E+08        -0.45574E+07         0.00000E+00
   -0.45574E+07        -0.61487E+08         0.00000E+00
    0.00000E+00         0.00000E+00        -0.51451E+08
 
   -0.55358E+08        -0.40237E+07         0.00000E+00
   -0.40237E+07        -0.61129E+08         0.00000E+00
    0.00000E+00         0.00000E+00        -0.50817E+08
 
   -0.54241E+08        -0.34552E+07         0.00000E+00
   -0.34552E+07        -0.60690E+08         0.00000E+00
    0.00000E+00         0.00000E+00        -0.50253E+08
 
   -0.53267E+08        -0.28876E+07         0.00000E+00
   -0.28876E+07        -0.60256E+08         0.00000E+00
    0.00000E+00         0.00000E+00        -0.49749E+08
 
   -0.52346E+08        -0.23144E+07         0.00000E+00
   -0.23144E+07        -0.59884E+08         0.00000E+00
    0.00000E+00         0.00000E+00        -0.49286E+08
 
   -0.51402E+08        -0.16989E+07         0.00000E+00
   -0.16989E+07        -0.59618E+08         0.00000E+00
    0.00000E+00         0.00000E+00        -0.48850E+08
 
   -0.50369E+08        -0.96933E+06         0.00000E+00
   -0.96933E+06        -0.59499E+08         0.00000E+00
    0.00000E+00         0.00000E+00        -0.48428E+08
 
   -0.49208E+08         0.51993E+04         0.00000E+00
    0.51993E+04        -0.59571E+08         0.00000E+00
    0.00000E+00         0.00000E+00        -0.48016E+08
 
   -0.47974E+08         0.14604E+07         0.00000E+00
    0.14604E+07        -0.59854E+08         0.00000E+00
    0.00000E+00         0.00000E+00        -0.47637E+08
 
   -0.46974E+08         0.37411E+07         0.00000E+00
    0.37411E+07        -0.60236E+08         0.00000E+00
    0.00000E+00         0.00000E+00        -0.47352E+08
 
   -0.46941E+08         0.71382E+07         0.00000E+00
    0.71382E+07        -0.60325E+08         0.00000E+00
    0.00000E+00         0.00000E+00        -0.47266E+08
 
   -0.66462E+08        -0.20551E+07         0.00000E+00
   -0.20551E+07        -0.60290E+08         0.00000E+00
    0.00000E+00         0.00000E+00        -0.51883E+08
 
   -0.63948E+08        -0.45784E+07         0.00000E+00
   -0.45784E+07        -0.60985E+08         0.00000E+00
    0.00000E+00         0.00000E+00        -0.51151E+08
 
   -0.60641E+08        -0.50417E+07         0.00000E+00
   -0.50417E+07        -0.61176E+08         0.00000E+00
    0.00000E+00         0.00000E+00        -0.49986E+08
 
   -0.58019E+08        -0.45874E+07         0.00000E+00
   -0.45874E+07        -0.60605E+08         0.00000E+00
    0.00000E+00         0.00000E+00        -0.48824E+08
 
   -0.56159E+08        -0.39574E+07         0.00000E+00
   -0.39574E+07        -0.59719E+08         0.00000E+00
    0.00000E+00         0.00000E+00        -0.47835E+08
 
   -0.54785E+08        -0.33494E+07         0.00000E+00
   -0.33494E+07        -0.58771E+08         0.00000E+00
    0.00000E+00         0.00000E+00        -0.47009E+08
 
   -0.53695E+08        -0.28035E+07         0.00000E+00
   -0.28035E+07        -0.57876E+08         0.00000E+00
    0.00000E+00         0.00000E+00        -0.46313E+08
 
   -0.52745E+08        -0.23126E+07         0.00000E+00
   -0.23126E+07        -0.57085E+08         0.00000E+00
    0.00000E+00         0.00000E+00        -0.45706E+08
 
   -0.51822E+08        -0.18523E+07         0.00000E+00
   -0.18523E+07        -0.56423E+08         0.00000E+00
    0.00000E+00         0.00000E+00        -0.45157E+08
 
   -0.50825E+08        -0.13845E+07         0.00000E+00
   -0.13845E+07        -0.55914E+08         0.00000E+00
    0.00000E+00         0.00000E+00        -0.44632E+08
 
   -0.49649E+08        -0.84775E+06         0.00000E+00
   -0.84775E+06        -0.55590E+08         0.00000E+00
    0.00000E+00         0.00000E+00        -0.44106E+08
 
   -0.48175E+08        -0.12780E+06         0.00000E+00
   -0.12780E+06        -0.55510E+08         0.00000E+00
    0.00000E+00         0.00000E+00        -0.43554E+08
 
   -0.46281E+08         0.10157E+07         0.00000E+00
    0.10157E+07        -0.55769E+08         0.00000E+00
    0.00000E+00         0.00000E+00        -0.42970E+08
 
   -0.44081E+08         0.31431E+07         0.00000E+00
    0.31431E+07        -0.56463E+08         0.00000E+00
    0.00000E+00         0.00000E+00        -0.42423E+08
 
   -0.42470E+08         0.70614E+07         0.00000E+00
    0.70614E+07        -0.57188E+08         0.00000E+00
    0.00000E+00         0.00000E+00        -0.42083E+08
 
   -0.70465E+08        -0.29333E+07         0.00000E+00
   -0.29333E+07        -0.60755E+08         0.00000E+00
    0.00000E+00         0.00000E+00        -0.49133E+08
 
   -0.64778E+08        -0.47307E+07         0.00000E+00
   -0.47307E+07        -0.60919E+08         0.00000E+00
    0.00000E+00         0.00000E+00        -0.47192E+08
 
   -0.60100E+08        -0.40408E+07         0.00000E+00
   -0.40408E+07        -0.59332E+08         0.00000E+00
    0.00000E+00         0.00000E+00        -0.45032E+08
 
   -0.57363E+08        -0.32667E+07         0.00000E+00
   -0.32667E+07        -0.57444E+08         0.00000E+00
    0.00000E+00         0.00000E+00        -0.43424E+08
 
   -0.55562E+08        -0.26516E+07         0.00000E+00
   -0.26516E+07        -0.55703E+08         0.00000E+00
    0.00000E+00         0.00000E+00        -0.42205E+08
 
   -0.54274E+08        -0.21676E+07         0.00000E+00
   -0.21676E+07        -0.54195E+08         0.00000E+00
    0.00000E+00         0.00000E+00        -0.41255E+08
 
   -0.53256E+08        -0.17769E+07         0.00000E+00
   -0.17769E+07        -0.52919E+08         0.00000E+00
    0.00000E+00         0.00000E+00        -0.40485E+08
 
   -0.52353E+08        -0.14474E+07         0.00000E+00
   -0.14474E+07        -0.51851E+08         0.00000E+00
    0.00000E+00         0.00000E+00        -0.39830E+08
 
   -0.51448E+08        -0.11520E+07         0.00000E+00
   -0.11520E+07        -0.50976E+08         0.00000E+00
    0.00000E+00         0.00000E+00        -0.39243E+08
 
   -0.50428E+08        -0.86214E+06         0.00000E+00
   -0.86214E+06        -0.50287E+08         0.00000E+00
    0.00000E+00         0.00000E+00        -0.38679E+08
 
   -0.49164E+08        -0.53874E+06         0.00000E+00
   -0.53874E+06        -0.49796E+08         0.00000E+00
    0.00000E+00         0.00000E+00        -0.38099E+08
 
   -0.47468E+08        -0.11139E+06         0.00000E+00
   -0.11139E+06        -0.49554E+08         0.00000E+00
    0.00000E+00         0.00000E+00        -0.37460E+08
 
   -0.45053E+08         0.57645E+06         0.00000E+00
    0.57645E+06        -0.49684E+08         0.00000E+00
    0.00000E+00         0.00000E+00        -0.36714E+08
 
   -0.41380E+08         0.19920E+07         0.00000E+00
    0.19920E+07        -0.50471E+08         0.00000E+00
    0.00000E+00         0.00000E+00        -0.35811E+08
 
   -0.36953E+08         0.58963E+07         0.00000E+00
    0.58963E+07        -0.52314E+08         0.00000E+00
    0.00000E+00         0.00000E+00        -0.35041E+08
 
   -0.74453E+08        -0.31731E+07         0.00000E+00
   -0.31731E+07        -0.58129E+08         0.00000E+00
    0.00000E+00         0.00000E+00        -0.39980E+08
 
   -0.63887E+08        -0.21365E+07         0.00000E+00
   -0.21365E+07        -0.54219E+08         0.00000E+00
    0.00000E+00         0.00000E+00        -0.36494E+08
 
   -0.59446E+08        -0.14122E+07         0.00000E+00
   -0.14122E+07        -0.50934E+08         0.00000E+00
    0.00000E+00         0.00000E+00        -0.34388E+08
 
   -0.56868E+08        -0.10729E+07         0.00000E+00
   -0.10729E+07        -0.48415E+08         0.00000E+00
    0.00000E+00         0.00000E+00        -0.32998E+08
 
   -0.55191E+08        -0.84741E+06         0.00000E+00
   -0.84741E+06        -0.46431E+08         0.00000E+00
    0.00000E+00         0.00000E+00        -0.32002E+08
 
   -0.53984E+08        -0.68375E+06         0.00000E+00
   -0.68375E+06        -0.44838E+08         0.00000E+00
    0.00000E+00         0.00000E+00        -0.31248E+08
 
   -0.53018E+08        -0.55513E+06         0.00000E+00
   -0.55513E+06        -0.43543E+08         0.00000E+00
    0.00000E+00         0.00000E+00        -0.30645E+08
 
   -0.52147E+08        -0.44708E+06         0.00000E+00
   -0.44708E+06        -0.42492E+08         0.00000E+00
    0.00000E+00         0.00000E+00        -0.30135E+08
 
   -0.51255E+08        -0.34920E+06         0.00000E+00
   -0.34920E+06        -0.41649E+08         0.00000E+00
    0.00000E+00         0.00000E+00        -0.29678E+08
 
   -0.50227E+08        -0.25162E+06         0.00000E+00
   -0.25162E+06        -0.41002E+08         0.00000E+00
    0.00000E+00         0.00000E+00        -0.29238E+08
 
   -0.48921E+08        -0.14137E+06         0.00000E+00
   -0.14137E+06        -0.40560E+08         0.00000E+00
    0.00000E+00         0.00000E+00        -0.28780E+08
 
   -0.47117E+08         0.37232E+04         0.00000E+00
    0.37232E+04        -0.40368E+08         0.00000E+00
    0.00000E+00         0.00000E+00        -0.28259E+08
 
   -0.44419E+08         0.23745E+06         0.00000E+00
    0.23745E+06        -0.40544E+08         0.00000E+00
    0.00000E+00         0.00000E+00        -0.27611E+08
 
   -0.39975E+08         0.68354E+06         0.00000E+00
    0.68354E+06        -0.41404E+08         0.00000E+00
    0.00000E+00         0.00000E+00        -0.26717E+08
 
   -0.30758E+08         0.24958E+07         0.00000E+00
    0.24958E+07        -0.44140E+08         0.00000E+00
    0.00000E+00         0.00000E+00        -0.25268E+08
 
SCALARS stresss double 
LOOKUP_TABLE default
  -58604728.6287219     
  -58990768.1053062     
  -59204996.1223671     
  -59364375.5810410     
  -59497898.6721784     
  -59617503.4808839     
  -59728391.2770327     
  -59833058.9652386     
  -59932892.0783549     
  -60029027.8549164     
  -60123051.7928675     
  -60217957.1973916     
  -60320504.4753465     
  -60446638.2839574     
  -60673084.3007753     
  -58417034.7116119     
  -58549328.1976394     
  -58707774.5087238     
  -58843878.4475466     
  -58966764.7098631     
  -59080664.4213316     
  -59188058.8952379     
  -59290181.1126076     
  -59387714.8986112     
  -59481228.8202643     
  -59571533.9136366     
  -59660138.5400071     
  -59749262.5846609     
  -59844732.0146118     
  -59899347.3960459     
  -58392790.9439899     
  -58416208.3509296     
  -58505333.7539475     
  -58613348.2825162     
  -58722806.7989026     
  -58830240.3473199     
  -58934365.4637557     
  -59034602.5731954     
  -59130546.7435362     
  -59221875.0576448     
  -59308293.7719598     
  -59389200.5016610     
  -59463023.6539768     
  -59518400.1752886     
  -59535247.6319007     
  -58384921.6945769     
  -58391395.9574912     
  -58450445.3101279     
  -58537564.0093447     
  -58636339.4939873     
  -58738515.8656322     
  -58840259.0157122     
  -58939381.1644564     
  -59034419.0340602     
  -59124169.4366276     
  -59207327.8679301     
  -59281985.3915190     
  -59343917.8550540     
  -59385948.3031208     
  -59398422.8136379     
  -58362612.3095376     
  -58384564.4560441     
  -58441267.1429411     
  -58522008.4234209     
  -58616226.3271789     
  -58716360.8881226     
  -58817631.2907014     
  -58916982.4091206     
  -59012227.4131551     
  -59101539.7049975     
  -59183047.4790092     
  -59254312.3903850     
  -59311977.2852072     
  -59351836.3853013     
  -59370637.1983800     
  -58321564.8656049     
  -58367458.5571415     
  -58435438.9546771     
  -58520874.0609904     
  -58617552.2198831     
  -58719831.5412447     
  -58823350.2972524     
  -58924886.6121230     
  -59021969.2283520     
  -59112502.3338686     
  -59194447.1960337     
  -59265594.6848200     
  -59323519.4064092     
  -59366017.6921024     
  -59392089.0202510     
  -58264298.5633445     
  -58335460.3475933     
  -58420880.4738965     
  -58517962.6254933     
  -58622822.3023050     
  -58731417.0085686     
  -58840183.0258765     
  -58946194.1999227     
  -59047052.5562947     
  -59140691.8416703     
  -59225197.5266131     
  -59298709.2703494     
  -59359493.4178823     
  -59406241.0954441     
  -59438563.7884079     
  -58193797.8390472     
  -58290669.0817198     
  -58396734.5312704     
  -58509822.1091919     
  -58627103.2820083     
  -58745573.9716688     
  -58862424.5534145     
  -58975202.0947179     
  -59081805.4510883     
  -59180398.0468491     
  -59269314.7739260     
  -59347023.6054854     
  -59412183.1142474     
  -59463806.7247678     
  -59501475.0526176     
  -58112524.8332539     
  -58236270.1121695     
  -58365341.7805571     
  -58497489.2422501     
  -58630339.6452458     
  -58761539.3013340     
  -58888903.8104103     
  -59010497.4110764     
  -59124631.5667840     
  -59229813.2757832     
  -59324685.3840744     
  -59407995.6388480     
  -59478616.5774424     
  -59535613.0018182     
  -59578323.8742762     
  -58022638.7229285     
  -58175285.2670687     
  -58329635.8122260     
  -58483294.2768518     
  -58634135.4593404     
  -58780277.1474662     
  -58920083.2019099     
  -59052152.8163817     
  -59175279.8218488     
  -59288389.8330255     
  -59390474.5743037     
  -59480542.9519148     
  -59557600.3238772     
  -59620654.7196924     
  -59668736.2009615     
  -57926334.2725630     
  -58110558.2397263     
  -58292541.0976730     
  -58469833.5607954     
  -58640554.7573582     
  -58803270.7920519     
  -58956899.3883279     
  -59100620.5844623     
  -59233782.8297377     
  -59355805.0314605     
  -59466082.3923163     
  -59563905.5992615     
  -59648400.1737337     
  -59718487.9412654     
  -59772869.1292068     
  -57826083.3688498     
  -58044958.6831936     
  -58256945.6843231     
  -58459700.4685405     
  -58651694.2278944     
  -58832025.4544279     
  -59000250.1860799     
  -59156224.3725466     
  -59299953.6332729     
  -59431449.5884180     
  -59550595.4628461     
  -59657025.4105277     
  -59750022.1521253     
  -59828437.2752060     
  -59890639.5140014     
  -57724788.7502046     
  -57981548.3259029     
  -58225769.7146919     
  -58455417.6626041     
  -58669496.5351269     
  -58867800.9464164     
  -59050679.9288713     
  -59218816.0312878     
  -59373018.5263897     
  -59514029.8364568     
  -59642345.2002080     
  -59758046.9021963     
  -59860656.0770148     
  -59949007.5787503     
  -60021157.1314976     
  -57625881.2551154     
  -57923671.8694640     
  -58201995.2533227     
  -58459376.0571892     
  -58695596.2114234     
  -58911378.7851871     
  -59108085.5328455     
  -59287433.5137803     
  -59451232.0052959     
  -59601138.1535188     
  -59738428.6680864     
  -59863785.5854215     
  -59977096.8231932     
  -60077276.8630346     
  -60162119.1378509     
  -57533378.8392707     
  -57874979.6243212     
  -58188627.1534705     
  -58473716.3709362     
  -58731117.2749219     
  -58962781.5166238     
  -59171367.4085581     
  -59359892.0681542     
  -59531412.8176340     
  -59688734.1217438     
  -59834132.8538678     
  -59969094.6353643     
  -60094057.7284285     
  -60208168.0424327     
  -60309058.2537376     
  -57451913.0291454     
  -57839389.7981097     
  -58188579.0999872     
  -58500129.8207103     
  -58776386.6834338     
  -59020903.7591137     
  -59237986.2028595     
  -59432274.0737414     
  -59608370.8289708     
  -59770508.2132597     
  -59922232.1489935     
  -60066093.0458381     
  -60203329.2337711     
  -60333542.9973922     
  -60454382.9647444     
  -57386721.6898383     
  -57820992.9533811     
  -58204480.9077043     
  -58539563.5161238     
  -58830540.3738151     
  -59083027.6825911     
  -59303398.9593196     
  -59498295.1241766     
  -59674206.9961941     
  -59837113.2777278     
  -59992143.9130154     
  -60143235.8076435     
  -60292755.9051687     
  -60441083.5612260     
  -60586166.3728522     
  -57343605.0125520     
  -57823896.9278093     
  -58238398.6044485     
  -58591812.4625617     
  -58890996.3576690     
  -59144195.1250783     
  -59360350.1877744     
  -59548529.0200561     
  -59717477.4111062     
  -59875261.3651016     
  -60028942.2997701     
  -60184224.0341255     
  -60345023.0411161     
  -60512940.9709271     
  -60686654.2176639     
  -57328843.4031429     
  -57852006.4914897     
  -58291448.6286080     
  -58654965.7162187     
  -58952754.0884070     
  -59196395.8705496     
  -59397986.0928105     
  -59569474.2880437     
  -59722220.0181189     
  -59866698.0018757     
  -60012250.2507387     
  -60166775.2529496     
  -60336266.1483575     
  -60524154.9844105     
  -60730479.1670993     
  -57349080.7906758     
  -57908724.0906087     
  -58363265.3214464     
  -58724641.8666694     
  -59007443.8072380     
  -59227500.3019639     
  -59400738.5514593     
  -59542435.6707970     
  -59666846.3460733     
  -59787081.1726075     
  -59915052.9287427     
  -60061301.2844545     
  -60234542.8517114     
  -60440865.8885975     
  -60682586.2208037     
  -57411183.9246723     
  -57996538.6096043     
  -58451233.3939444     
  -58792882.1382386     
  -59041977.6425569     
  -59219800.9017350     
  -59346878.2709938     
  -59442166.6042632     
  -59522892.6006202     
  -59604801.3003306     
  -59702497.6688789     
  -59829568.9940738     
  -59998232.8134471     
  -60218360.3908519     
  -60495883.2964540     
  -57522094.8968891     
  -58116423.6278370     
  -58549297.0833758     
  -58846436.0035540     
  -59036516.2921253     
  -59147907.8693382     
  -59206546.3206246     
  -59235157.7642621     
  -59253589.8081980     
  -59279767.6029819     
  -59330754.1450572     
  -59423439.0716574     
  -59574448.0199926     
  -59798993.0640027     
  -60108611.6842618     
  -57688696.3169485     
  -58266860.2576508     
  -58645947.4903209     
  -58863907.4761195     
  -58961206.8276569     
  -58975532.5837346     
  -58938913.5656931     
  -58877336.7939538     
  -58812122.3512597     
  -58762124.9880260     
  -58745980.8388374     
  -58783773.7208978     
  -58897532.6584142     
  -59109989.1122996     
  -59441349.6348923     
  -57917680.4011800     
  -58442057.7129083     
  -58720518.6652599     
  -58810684.4935493     
  -58770661.9800336     
  -58650327.4122852     
  -58487848.7562623     
  -58310714.7173656     
  -58139229.6620012     
  -57990684.8023478     
  -57883318.3983501     
  -57839551.1495417     
  -57887690.8563457     
  -58061044.8140116     
  -58393361.2784649     
  -58215382.9592831     
  -58628273.5459281     
  -58735834.7046655     
  -58629375.0359234     
  -58394215.7903279     
  -58095342.8619098     
  -57775004.8291817     
  -57458052.3174690     
  -57159295.6681937     
  -56890341.0092646     
  -56665472.6807429     
  -56507008.0566012     
  -56449718.7148575     
  -56541452.8869626     
  -56837607.4643976     
  -58586977.8867294     
  -58795595.5878874     
  -58622179.6656748     
  -58220689.7884760     
  -57718231.1660702     
  -57194511.1341036     
  -56688372.5502447     
  -56213500.0983585     
  -55772732.3463319     
  -55366441.6544699     
  -54999225.4664093     
  -54688133.1652812     
  -54471477.8453644     
  -54416369.4204930     
  -54612865.4002984     
  -59035761.0290059     
  -58875115.7733455     
  -58239102.9930767     
  -57402956.6481748     
  -56552548.9173376     
  -55767885.5440685     
  -55061473.2899680     
  -54423999.6540377     
  -53839021.9254689     
  -53289999.0213370     
  -52765175.3800614     
  -52264805.9267779     
  -51821973.1991549     
  -51520826.6885995     
  -51510420.4079580     
  -59544929.9912510     
  -58694852.5984362     
  -57267969.5331540     
  -55815976.5116984     
  -54571049.3928070     
  -53521718.6790078     
  -52627922.1510218     
  -51845475.6952249     
  -51134047.7457215     
  -50457166.0196635     
  -49781539.4941133     
  -49079784.9509476     
  -48340016.8327667     
  -47655649.5238650     
  -47247000.8494543     
  -60117826.3206628     
  -57629814.2185491     
  -54821553.6067181     
  -52743657.2710289     
  -51156467.9822094     
  -49907964.6831346     
  -48886256.9581141     
  -48011624.3136035     
  -47222269.2940195     
  -46464798.0311368     
  -45686472.0710174     
  -44827372.5149462     
  -43816950.3566084     
  -42554319.3610408     
  -41435745.7006721     
  -57520446.4688310     
  -51533661.9481327     
  -48256161.0192477     
  -46093363.4224361     
  -44541510.4852548     
  -43356509.4234250     
  -42402183.9988932     
  -41591444.1226607     
  -40860791.4991779     
  -40155864.1833376     
  -39420147.5023435     
  -38581311.0456744     
  -37524735.7286691     
  -36031804.4743528     
  -33388587.8057381     
SCALARS 2waySource double 
LOOKUP_TABLE default
  0.000000000000000E+000
  0.000000000000000E+000
  0.000000000000000E+000
  0.000000000000000E+000
  0.000000000000000E+000
  0.000000000000000E+000
  0.000000000000000E+000
  0.000000000000000E+000
  0.000000000000000E+000
  0.000000000000000E+000
  0.000000000000000E+000
  0.000000000000000E+000
  0.000000000000000E+000
  0.000000000000000E+000
  0.000000000000000E+000
  0.000000000000000E+000
  0.000000000000000E+000
  0.000000000000000E+000
  0.000000000000000E+000
  0.000000000000000E+000
  0.000000000000000E+000
  0.000000000000000E+000
  0.000000000000000E+000
  0.000000000000000E+000
  0.000000000000000E+000
  0.000000000000000E+000
  0.000000000000000E+000
  0.000000000000000E+000
  0.000000000000000E+000
  0.000000000000000E+000
  0.000000000000000E+000
  0.000000000000000E+000
  0.000000000000000E+000
  0.000000000000000E+000
  0.000000000000000E+000
  0.000000000000000E+000
  0.000000000000000E+000
  0.000000000000000E+000
  0.000000000000000E+000
  0.000000000000000E+000
  0.000000000000000E+000
  0.000000000000000E+000
  0.000000000000000E+000
  0.000000000000000E+000
  0.000000000000000E+000
  0.000000000000000E+000
  0.000000000000000E+000
  0.000000000000000E+000
  0.000000000000000E+000
  0.000000000000000E+000
  0.000000000000000E+000
  0.000000000000000E+000
  0.000000000000000E+000
  0.000000000000000E+000
  0.000000000000000E+000
  0.000000000000000E+000
  0.000000000000000E+000
  0.000000000000000E+000
  0.000000000000000E+000
  0.000000000000000E+000
  0.000000000000000E+000
  0.000000000000000E+000
  0.000000000000000E+000
  0.000000000000000E+000
  0.000000000000000E+000
  0.000000000000000E+000
  0.000000000000000E+000
  0.000000000000000E+000
  0.000000000000000E+000
  0.000000000000000E+000
  0.000000000000000E+000
  0.000000000000000E+000
  0.000000000000000E+000
  0.000000000000000E+000
  0.000000000000000E+000
  0.000000000000000E+000
  0.000000000000000E+000
  0.000000000000000E+000
  0.000000000000000E+000
  0.000000000000000E+000
  0.000000000000000E+000
  0.000000000000000E+000
  0.000000000000000E+000
  0.000000000000000E+000
  0.000000000000000E+000
  0.000000000000000E+000
  0.000000000000000E+000
  0.000000000000000E+000
  0.000000000000000E+000
  0.000000000000000E+000
  0.000000000000000E+000
  0.000000000000000E+000
  0.000000000000000E+000
  0.000000000000000E+000
  0.000000000000000E+000
  0.000000000000000E+000
  0.000000000000000E+000
  0.000000000000000E+000
  0.000000000000000E+000
  0.000000000000000E+000
  0.000000000000000E+000
  0.000000000000000E+000
  0.000000000000000E+000
  0.000000000000000E+000
  0.000000000000000E+000
  0.000000000000000E+000
  0.000000000000000E+000
  0.000000000000000E+000
  0.000000000000000E+000
  0.000000000000000E+000
  0.000000000000000E+000
  0.000000000000000E+000
  0.000000000000000E+000
  0.000000000000000E+000
  0.000000000000000E+000
  0.000000000000000E+000
  0.000000000000000E+000
  0.000000000000000E+000
  0.000000000000000E+000
  0.000000000000000E+000
  0.000000000000000E+000
  0.000000000000000E+000
  0.000000000000000E+000
  0.000000000000000E+000
  0.000000000000000E+000
  0.000000000000000E+000
  0.000000000000000E+000
  0.000000000000000E+000
  0.000000000000000E+000
  0.000000000000000E+000
  0.000000000000000E+000
  0.000000000000000E+000
  0.000000000000000E+000
  0.000000000000000E+000
  0.000000000000000E+000
  0.000000000000000E+000
  0.000000000000000E+000
  0.000000000000000E+000
  0.000000000000000E+000
  0.000000000000000E+000
  0.000000000000000E+000
  0.000000000000000E+000
  0.000000000000000E+000
  0.000000000000000E+000
  0.000000000000000E+000
  0.000000000000000E+000
  0.000000000000000E+000
  0.000000000000000E+000
  0.000000000000000E+000
  0.000000000000000E+000
  0.000000000000000E+000
  0.000000000000000E+000
  0.000000000000000E+000
  0.000000000000000E+000
  0.000000000000000E+000
  0.000000000000000E+000
  0.000000000000000E+000
  0.000000000000000E+000
  0.000000000000000E+000
  0.000000000000000E+000
  0.000000000000000E+000
  0.000000000000000E+000
  0.000000000000000E+000
  0.000000000000000E+000
  0.000000000000000E+000
  0.000000000000000E+000
  0.000000000000000E+000
  0.000000000000000E+000
  0.000000000000000E+000
  0.000000000000000E+000
  0.000000000000000E+000
  0.000000000000000E+000
  0.000000000000000E+000
  0.000000000000000E+000
  0.000000000000000E+000
  0.000000000000000E+000
  0.000000000000000E+000
  0.000000000000000E+000
  0.000000000000000E+000
  0.000000000000000E+000
  0.000000000000000E+000
  0.000000000000000E+000
  0.000000000000000E+000
  0.000000000000000E+000
  0.000000000000000E+000
  0.000000000000000E+000
  0.000000000000000E+000
  0.000000000000000E+000
  0.000000000000000E+000
  0.000000000000000E+000
  0.000000000000000E+000
  0.000000000000000E+000
  0.000000000000000E+000
  0.000000000000000E+000
  0.000000000000000E+000
  0.000000000000000E+000
  0.000000000000000E+000
  0.000000000000000E+000
  0.000000000000000E+000
  0.000000000000000E+000
  0.000000000000000E+000
  0.000000000000000E+000
  0.000000000000000E+000
  0.000000000000000E+000
  0.000000000000000E+000
  0.000000000000000E+000
  0.000000000000000E+000
  0.000000000000000E+000
  0.000000000000000E+000
  0.000000000000000E+000
  0.000000000000000E+000
  0.000000000000000E+000
  0.000000000000000E+000
  0.000000000000000E+000
  0.000000000000000E+000
  0.000000000000000E+000
  0.000000000000000E+000
  0.000000000000000E+000
  0.000000000000000E+000
  0.000000000000000E+000
  0.000000000000000E+000
  0.000000000000000E+000
  0.000000000000000E+000
  0.000000000000000E+000
  0.000000000000000E+000
  0.000000000000000E+000
  0.000000000000000E+000
  0.000000000000000E+000
  0.000000000000000E+000
  0.000000000000000E+000
  0.000000000000000E+000
  0.000000000000000E+000
  0.000000000000000E+000
  0.000000000000000E+000
  0.000000000000000E+000
  0.000000000000000E+000
  0.000000000000000E+000
  0.000000000000000E+000
  0.000000000000000E+000
  0.000000000000000E+000
  0.000000000000000E+000
  0.000000000000000E+000
  0.000000000000000E+000
  0.000000000000000E+000
  0.000000000000000E+000
  0.000000000000000E+000
  0.000000000000000E+000
  0.000000000000000E+000
  0.000000000000000E+000
  0.000000000000000E+000
  0.000000000000000E+000
  0.000000000000000E+000
  0.000000000000000E+000
  0.000000000000000E+000
  0.000000000000000E+000
  0.000000000000000E+000
  0.000000000000000E+000
  0.000000000000000E+000
  0.000000000000000E+000
  0.000000000000000E+000
  0.000000000000000E+000
  0.000000000000000E+000
  0.000000000000000E+000
  0.000000000000000E+000
  0.000000000000000E+000
  0.000000000000000E+000
  0.000000000000000E+000
  0.000000000000000E+000
  0.000000000000000E+000
  0.000000000000000E+000
  0.000000000000000E+000
  0.000000000000000E+000
  0.000000000000000E+000
  0.000000000000000E+000
  0.000000000000000E+000
  0.000000000000000E+000
  0.000000000000000E+000
  0.000000000000000E+000
  0.000000000000000E+000
  0.000000000000000E+000
  0.000000000000000E+000
  0.000000000000000E+000
  0.000000000000000E+000
  0.000000000000000E+000
  0.000000000000000E+000
  0.000000000000000E+000
  0.000000000000000E+000
  0.000000000000000E+000
  0.000000000000000E+000
  0.000000000000000E+000
  0.000000000000000E+000
  0.000000000000000E+000
  0.000000000000000E+000
  0.000000000000000E+000
  0.000000000000000E+000
  0.000000000000000E+000
  0.000000000000000E+000
  0.000000000000000E+000
  0.000000000000000E+000
  0.000000000000000E+000
  0.000000000000000E+000
  0.000000000000000E+000
  0.000000000000000E+000
  0.000000000000000E+000
  0.000000000000000E+000
  0.000000000000000E+000
  0.000000000000000E+000
  0.000000000000000E+000
  0.000000000000000E+000
  0.000000000000000E+000
  0.000000000000000E+000
  0.000000000000000E+000
  0.000000000000000E+000
  0.000000000000000E+000
  0.000000000000000E+000
  0.000000000000000E+000
  0.000000000000000E+000
  0.000000000000000E+000
  0.000000000000000E+000
  0.000000000000000E+000
  0.000000000000000E+000
  0.000000000000000E+000
  0.000000000000000E+000
  0.000000000000000E+000
  0.000000000000000E+000
  0.000000000000000E+000
  0.000000000000000E+000
  0.000000000000000E+000
  0.000000000000000E+000
  0.000000000000000E+000
  0.000000000000000E+000
  0.000000000000000E+000
  0.000000000000000E+000
  0.000000000000000E+000
  0.000000000000000E+000
  0.000000000000000E+000
  0.000000000000000E+000
  0.000000000000000E+000
  0.000000000000000E+000
  0.000000000000000E+000
  0.000000000000000E+000
  0.000000000000000E+000
  0.000000000000000E+000
  0.000000000000000E+000
  0.000000000000000E+000
  0.000000000000000E+000
  0.000000000000000E+000
  0.000000000000000E+000
  0.000000000000000E+000
  0.000000000000000E+000
  0.000000000000000E+000
  0.000000000000000E+000
  0.000000000000000E+000
  0.000000000000000E+000
  0.000000000000000E+000
  0.000000000000000E+000
  0.000000000000000E+000
  0.000000000000000E+000
  0.000000000000000E+000
  0.000000000000000E+000
  0.000000000000000E+000
  0.000000000000000E+000
  0.000000000000000E+000
  0.000000000000000E+000
  0.000000000000000E+000
  0.000000000000000E+000
  0.000000000000000E+000
  0.000000000000000E+000
  0.000000000000000E+000
  0.000000000000000E+000
  0.000000000000000E+000
  0.000000000000000E+000
  0.000000000000000E+000
  0.000000000000000E+000
  0.000000000000000E+000
  0.000000000000000E+000
  0.000000000000000E+000
  0.000000000000000E+000
  0.000000000000000E+000
  0.000000000000000E+000
  0.000000000000000E+000
  0.000000000000000E+000
  0.000000000000000E+000
  0.000000000000000E+000
  0.000000000000000E+000
  0.000000000000000E+000
  0.000000000000000E+000
  0.000000000000000E+000
  0.000000000000000E+000
  0.000000000000000E+000
  0.000000000000000E+000
  0.000000000000000E+000
  0.000000000000000E+000
  0.000000000000000E+000
  0.000000000000000E+000
  0.000000000000000E+000
  0.000000000000000E+000
  0.000000000000000E+000
  0.000000000000000E+000
  0.000000000000000E+000
  0.000000000000000E+000
  0.000000000000000E+000
  0.000000000000000E+000
  0.000000000000000E+000
  0.000000000000000E+000
  0.000000000000000E+000
  0.000000000000000E+000
  0.000000000000000E+000
  0.000000000000000E+000
  0.000000000000000E+000
  0.000000000000000E+000
  0.000000000000000E+000
  0.000000000000000E+000
  0.000000000000000E+000
  0.000000000000000E+000
  0.000000000000000E+000
  0.000000000000000E+000
  0.000000000000000E+000
  0.000000000000000E+000
  0.000000000000000E+000
  0.000000000000000E+000
  0.000000000000000E+000
  0.000000000000000E+000
  0.000000000000000E+000
  0.000000000000000E+000
  0.000000000000000E+000
  0.000000000000000E+000
  0.000000000000000E+000
  0.000000000000000E+000
  0.000000000000000E+000
  0.000000000000000E+000
  0.000000000000000E+000
  0.000000000000000E+000
  0.000000000000000E+000
  0.000000000000000E+000
  0.000000000000000E+000
  0.000000000000000E+000
  0.000000000000000E+000
  0.000000000000000E+000
  0.000000000000000E+000
  0.000000000000000E+000
  0.000000000000000E+000
  0.000000000000000E+000
  0.000000000000000E+000
  0.000000000000000E+000
  0.000000000000000E+000
  0.000000000000000E+000
  0.000000000000000E+000
  0.000000000000000E+000
  0.000000000000000E+000
SCALARS elementIsPlast double 
LOOKUP_TABLE default
  0.000000000000000E+000
  0.000000000000000E+000
  0.000000000000000E+000
  0.000000000000000E+000
  0.000000000000000E+000
  0.000000000000000E+000
  0.000000000000000E+000
  0.000000000000000E+000
  0.000000000000000E+000
  0.000000000000000E+000
  0.000000000000000E+000
  0.000000000000000E+000
  0.000000000000000E+000
  0.000000000000000E+000
  0.000000000000000E+000
  0.000000000000000E+000
  0.000000000000000E+000
  0.000000000000000E+000
  0.000000000000000E+000
  0.000000000000000E+000
  0.000000000000000E+000
  0.000000000000000E+000
  0.000000000000000E+000
  0.000000000000000E+000
  0.000000000000000E+000
  0.000000000000000E+000
  0.000000000000000E+000
  0.000000000000000E+000
  0.000000000000000E+000
  0.000000000000000E+000
  0.000000000000000E+000
  0.000000000000000E+000
  0.000000000000000E+000
  0.000000000000000E+000
  0.000000000000000E+000
  0.000000000000000E+000
  0.000000000000000E+000
  0.000000000000000E+000
  0.000000000000000E+000
  0.000000000000000E+000
  0.000000000000000E+000
  0.000000000000000E+000
  0.000000000000000E+000
  0.000000000000000E+000
  0.000000000000000E+000
  0.000000000000000E+000
  0.000000000000000E+000
  0.000000000000000E+000
  0.000000000000000E+000
  0.000000000000000E+000
  0.000000000000000E+000
  0.000000000000000E+000
  0.000000000000000E+000
  0.000000000000000E+000
  0.000000000000000E+000
  0.000000000000000E+000
  0.000000000000000E+000
  0.000000000000000E+000
  0.000000000000000E+000
  0.000000000000000E+000
  0.000000000000000E+000
  0.000000000000000E+000
  0.000000000000000E+000
  0.000000000000000E+000
  0.000000000000000E+000
  0.000000000000000E+000
  0.000000000000000E+000
  0.000000000000000E+000
  0.000000000000000E+000
  0.000000000000000E+000
  0.000000000000000E+000
  0.000000000000000E+000
  0.000000000000000E+000
  0.000000000000000E+000
  0.000000000000000E+000
  0.000000000000000E+000
  0.000000000000000E+000
  0.000000000000000E+000
  0.000000000000000E+000
  0.000000000000000E+000
  0.000000000000000E+000
  0.000000000000000E+000
  0.000000000000000E+000
  0.000000000000000E+000
  0.000000000000000E+000
  0.000000000000000E+000
  0.000000000000000E+000
  0.000000000000000E+000
  0.000000000000000E+000
  0.000000000000000E+000
  0.000000000000000E+000
  0.000000000000000E+000
  0.000000000000000E+000
  0.000000000000000E+000
  0.000000000000000E+000
  0.000000000000000E+000
  0.000000000000000E+000
  0.000000000000000E+000
  0.000000000000000E+000
  0.000000000000000E+000
  0.000000000000000E+000
  0.000000000000000E+000
  0.000000000000000E+000
  0.000000000000000E+000
  0.000000000000000E+000
  0.000000000000000E+000
  0.000000000000000E+000
  0.000000000000000E+000
  0.000000000000000E+000
  0.000000000000000E+000
  0.000000000000000E+000
  0.000000000000000E+000
  0.000000000000000E+000
  0.000000000000000E+000
  0.000000000000000E+000
  0.000000000000000E+000
  0.000000000000000E+000
  0.000000000000000E+000
  0.000000000000000E+000
  0.000000000000000E+000
  0.000000000000000E+000
  0.000000000000000E+000
  0.000000000000000E+000
  0.000000000000000E+000
  0.000000000000000E+000
  0.000000000000000E+000
  0.000000000000000E+000
  0.000000000000000E+000
  0.000000000000000E+000
  0.000000000000000E+000
  0.000000000000000E+000
  0.000000000000000E+000
  0.000000000000000E+000
  0.000000000000000E+000
  0.000000000000000E+000
  0.000000000000000E+000
  0.000000000000000E+000
  0.000000000000000E+000
  0.000000000000000E+000
  0.000000000000000E+000
  0.000000000000000E+000
  0.000000000000000E+000
  0.000000000000000E+000
  0.000000000000000E+000
  0.000000000000000E+000
  0.000000000000000E+000
  0.000000000000000E+000
  0.000000000000000E+000
  0.000000000000000E+000
  0.000000000000000E+000
  0.000000000000000E+000
  0.000000000000000E+000
  0.000000000000000E+000
  0.000000000000000E+000
  0.000000000000000E+000
  0.000000000000000E+000
  0.000000000000000E+000
  0.000000000000000E+000
  0.000000000000000E+000
  0.000000000000000E+000
  0.000000000000000E+000
  0.000000000000000E+000
  0.000000000000000E+000
  0.000000000000000E+000
  0.000000000000000E+000
  0.000000000000000E+000
  0.000000000000000E+000
  0.000000000000000E+000
  0.000000000000000E+000
  0.000000000000000E+000
  0.000000000000000E+000
  0.000000000000000E+000
  0.000000000000000E+000
  0.000000000000000E+000
  0.000000000000000E+000
  0.000000000000000E+000
  0.000000000000000E+000
  0.000000000000000E+000
  0.000000000000000E+000
  0.000000000000000E+000
  0.000000000000000E+000
  0.000000000000000E+000
  0.000000000000000E+000
  0.000000000000000E+000
  0.000000000000000E+000
  0.000000000000000E+000
  0.000000000000000E+000
  0.000000000000000E+000
  0.000000000000000E+000
  0.000000000000000E+000
  0.000000000000000E+000
  0.000000000000000E+000
  0.000000000000000E+000
  0.000000000000000E+000
  0.000000000000000E+000
  0.000000000000000E+000
  0.000000000000000E+000
  0.000000000000000E+000
  0.000000000000000E+000
  0.000000000000000E+000
  0.000000000000000E+000
  0.000000000000000E+000
  0.000000000000000E+000
  0.000000000000000E+000
  0.000000000000000E+000
  0.000000000000000E+000
  0.000000000000000E+000
  0.000000000000000E+000
  0.000000000000000E+000
  0.000000000000000E+000
  0.000000000000000E+000
  0.000000000000000E+000
  0.000000000000000E+000
  0.000000000000000E+000
  0.000000000000000E+000
  0.000000000000000E+000
  0.000000000000000E+000
  0.000000000000000E+000
  0.000000000000000E+000
  0.000000000000000E+000
  0.000000000000000E+000
  0.000000000000000E+000
  0.000000000000000E+000
  0.000000000000000E+000
  0.000000000000000E+000
  0.000000000000000E+000
  0.000000000000000E+000
  0.000000000000000E+000
  0.000000000000000E+000
  0.000000000000000E+000
  0.000000000000000E+000
  0.000000000000000E+000
  0.000000000000000E+000
  0.000000000000000E+000
  0.000000000000000E+000
  0.000000000000000E+000
  0.000000000000000E+000
  0.000000000000000E+000
  0.000000000000000E+000
  0.000000000000000E+000
  0.000000000000000E+000
  0.000000000000000E+000
  0.000000000000000E+000
  0.000000000000000E+000
  0.000000000000000E+000
  0.000000000000000E+000
  0.000000000000000E+000
  0.000000000000000E+000
  0.000000000000000E+000
  0.000000000000000E+000
  0.000000000000000E+000
  0.000000000000000E+000
  0.000000000000000E+000
  0.000000000000000E+000
  0.000000000000000E+000
  0.000000000000000E+000
  0.000000000000000E+000
  0.000000000000000E+000
  0.000000000000000E+000
  0.000000000000000E+000
  0.000000000000000E+000
  0.000000000000000E+000
  0.000000000000000E+000
  0.000000000000000E+000
  0.000000000000000E+000
  0.000000000000000E+000
  0.000000000000000E+000
  0.000000000000000E+000
  0.000000000000000E+000
  0.000000000000000E+000
  0.000000000000000E+000
  0.000000000000000E+000
  0.000000000000000E+000
  0.000000000000000E+000
  0.000000000000000E+000
  0.000000000000000E+000
  0.000000000000000E+000
  0.000000000000000E+000
  0.000000000000000E+000
  0.000000000000000E+000
  0.000000000000000E+000
  0.000000000000000E+000
  0.000000000000000E+000
  0.000000000000000E+000
  0.000000000000000E+000
  0.000000000000000E+000
  0.000000000000000E+000
  0.000000000000000E+000
  0.000000000000000E+000
  0.000000000000000E+000
  0.000000000000000E+000
  0.000000000000000E+000
  0.000000000000000E+000
  0.000000000000000E+000
  0.000000000000000E+000
  0.000000000000000E+000
  0.000000000000000E+000
  0.000000000000000E+000
  0.000000000000000E+000
  0.000000000000000E+000
  0.000000000000000E+000
  0.000000000000000E+000
  0.000000000000000E+000
  0.000000000000000E+000
  0.000000000000000E+000
  0.000000000000000E+000
  0.000000000000000E+000
  0.000000000000000E+000
  0.000000000000000E+000
  0.000000000000000E+000
  0.000000000000000E+000
  0.000000000000000E+000
  0.000000000000000E+000
  0.000000000000000E+000
  0.000000000000000E+000
  0.000000000000000E+000
  0.000000000000000E+000
  0.000000000000000E+000
  0.000000000000000E+000
  0.000000000000000E+000
  0.000000000000000E+000
  0.000000000000000E+000
  0.000000000000000E+000
  0.000000000000000E+000
  0.000000000000000E+000
  0.000000000000000E+000
  0.000000000000000E+000
  0.000000000000000E+000
  0.000000000000000E+000
  0.000000000000000E+000
  0.000000000000000E+000
  0.000000000000000E+000
  0.000000000000000E+000
  0.000000000000000E+000
  0.000000000000000E+000
  0.000000000000000E+000
  0.000000000000000E+000
  0.000000000000000E+000
  0.000000000000000E+000
  0.000000000000000E+000
  0.000000000000000E+000
  0.000000000000000E+000
  0.000000000000000E+000
  0.000000000000000E+000
  0.000000000000000E+000
  0.000000000000000E+000
  0.000000000000000E+000
  0.000000000000000E+000
  0.000000000000000E+000
  0.000000000000000E+000
  0.000000000000000E+000
  0.000000000000000E+000
  0.000000000000000E+000
  0.000000000000000E+000
  0.000000000000000E+000
  0.000000000000000E+000
  0.000000000000000E+000
  0.000000000000000E+000
  0.000000000000000E+000
  0.000000000000000E+000
  0.000000000000000E+000
  0.000000000000000E+000
  0.000000000000000E+000
  0.000000000000000E+000
  0.000000000000000E+000
  0.000000000000000E+000
  0.000000000000000E+000
  0.000000000000000E+000
  0.000000000000000E+000
  0.000000000000000E+000
  0.000000000000000E+000
  0.000000000000000E+000
  0.000000000000000E+000
  0.000000000000000E+000
  0.000000000000000E+000
  0.000000000000000E+000
  0.000000000000000E+000
  0.000000000000000E+000
  0.000000000000000E+000
  0.000000000000000E+000
  0.000000000000000E+000
  0.000000000000000E+000
  0.000000000000000E+000
  0.000000000000000E+000
  0.000000000000000E+000
  0.000000000000000E+000
  0.000000000000000E+000
  0.000000000000000E+000
  0.000000000000000E+000
  0.000000000000000E+000
  0.000000000000000E+000
  0.000000000000000E+000
  0.000000000000000E+000
  0.000000000000000E+000
  0.000000000000000E+000
  0.000000000000000E+000
  0.000000000000000E+000
  0.000000000000000E+000
  0.000000000000000E+000
  0.000000000000000E+000
  0.000000000000000E+000
  0.000000000000000E+000
  0.000000000000000E+000
  0.000000000000000E+000
  0.000000000000000E+000
  0.000000000000000E+000
  0.000000000000000E+000
  0.000000000000000E+000
  0.000000000000000E+000
  0.000000000000000E+000
  0.000000000000000E+000
  0.000000000000000E+000
  0.000000000000000E+000
  0.000000000000000E+000
  0.000000000000000E+000
  0.000000000000000E+000
  0.000000000000000E+000
  0.000000000000000E+000
  0.000000000000000E+000
  0.000000000000000E+000
  0.000000000000000E+000
  0.000000000000000E+000
  0.000000000000000E+000
  0.000000000000000E+000
  0.000000000000000E+000
  0.000000000000000E+000
  0.000000000000000E+000
  0.000000000000000E+000
  0.000000000000000E+000
  0.000000000000000E+000
  0.000000000000000E+000
  0.000000000000000E+000
  0.000000000000000E+000
  0.000000000000000E+000
  0.000000000000000E+000
  0.000000000000000E+000
  0.000000000000000E+000
  0.000000000000000E+000
  0.000000000000000E+000
  0.000000000000000E+000
  0.000000000000000E+000
  0.000000000000000E+000
  0.000000000000000E+000
  0.000000000000000E+000
  0.000000000000000E+000
  0.000000000000000E+000
  0.000000000000000E+000
  0.000000000000000E+000
  0.000000000000000E+000
  0.000000000000000E+000
SCALARS poroL double 
LOOKUP_TABLE default
  0.265013854087176     
  0.263289350061461     
  0.262340753132502     
  0.261637178151476     
  0.261048842895911     
  0.260522468594608     
  0.260034857168330     
  0.259574842938271     
  0.259136203506697     
  0.258713827616321     
  0.258300623606912     
  0.257883252554600     
  0.257431568742659     
  0.256874285473675     
  0.255863488905796     
  0.261043632688489     
  0.260441338322600     
  0.259722196577166     
  0.259106312465277     
  0.258550795490609     
  0.258036094206324     
  0.257550845742801     
  0.257089422595725     
  0.256648708726913     
  0.256226114681695     
  0.255817941979095     
  0.255417286607069     
  0.255013860182036     
  0.254580256424517     
  0.254329984368889     
  0.258775084021672     
  0.258666094120188     
  0.258259717585306     
  0.257768493707258     
  0.257271317997272     
  0.256783554260936     
  0.256310868486813     
  0.255855825253836     
  0.255420233121146     
  0.255005536014884     
  0.254613030201321     
  0.254245363030811     
  0.253909456317117     
  0.253656768987979     
  0.253578784677119     
  0.257817604019111     
  0.257787147584581     
  0.257519054114461     
  0.257124160030203     
  0.256676761795007     
  0.256214134136176     
  0.255753535400333     
  0.255304814298945     
  0.254874562980065     
  0.254468202993655     
  0.254091607906983     
  0.253753369127682     
  0.253472574813852     
  0.253281773641511     
  0.253224718044300     
  0.257546352083515     
  0.257447078878173     
  0.257191000885650     
  0.256826471214923     
  0.256401181020679     
  0.255949246248964     
  0.255492217967637     
  0.255043859046463     
  0.254614020490499     
  0.254210930970515     
  0.253843023319779     
  0.253521291745966     
  0.253260895555224     
  0.253080846795282     
  0.252995873676581     
  0.257598678417461     
  0.257392001562914     
  0.257085802710511     
  0.256700965122911     
  0.256265483205829     
  0.255804776862091     
  0.255338490985721     
  0.254881132232108     
  0.254443826417116     
  0.254036009571066     
  0.253666862490965     
  0.253346337373563     
  0.253085366949906     
  0.252893892889723     
  0.252776445464247     
  0.257805881919268     
  0.257485662951156     
  0.257101287698206     
  0.256664434647394     
  0.256192579600101     
  0.255703910779646     
  0.255214462742054     
  0.254737401956646     
  0.254283519387321     
  0.253862114528986     
  0.253481805137749     
  0.253150966010686     
  0.252877402686268     
  0.252667009801248     
  0.252521541147611     
  0.258095486236937     
  0.257659686164044     
  0.257182603151619     
  0.256673973672959     
  0.256146493995537     
  0.255613658907956     
  0.255088096790823     
  0.254580838199830     
  0.254101335890675     
  0.253657854990474     
  0.253257889770129     
  0.252908334682008     
  0.252615224521639     
  0.252382995076463     
  0.252213528224208     
  0.258433903787781     
  0.257877283760298     
  0.257296865103680     
  0.256702698173365     
  0.256105399100656     
  0.255515516410419     
  0.254942854624773     
  0.254396113857665     
  0.253882891504886     
  0.253409909817371     
  0.252983279923947     
  0.252608637616476     
  0.252291051872380     
  0.252034720882754     
  0.251842604703569     
  0.258800383676343     
  0.258113856144439     
  0.257419926973387     
  0.256729242323434     
  0.256051262286353     
  0.255394389233897     
  0.254765950770079     
  0.254172240970651     
  0.253618694397894     
  0.253110159473998     
  0.252651185589012     
  0.252246236958821     
  0.251899782403010     
  0.251616266943371     
  0.251400027186525     
  0.259175944735179     
  0.258347526820017     
  0.257529584140341     
  0.256732909177884     
  0.255965800483439     
  0.255234610694471     
  0.254544167552224     
  0.253898161641632     
  0.253299551977115     
  0.252750989689759     
  0.252255226760674     
  0.251815468485488     
  0.251435640227928     
  0.251120560274476     
  0.250876025428813     
  0.259538325773718     
  0.258554263784886     
  0.257601740104453     
  0.256690926314811     
  0.255828445354100     
  0.255018213879607     
  0.254262188214606     
  0.253561046774039     
  0.252914835522627     
  0.252323584455123     
  0.251787886306975     
  0.251309420077664     
  0.250891400696528     
  0.250538936606204     
  0.250259271782059     
  0.259859003356487     
  0.258704835684697     
  0.257607787655333     
  0.256576416125197     
  0.255614815381083     
  0.254723725878121     
  0.253901558643843     
  0.253145339822987     
  0.252451587617542     
  0.251817132102302     
  0.251239882511723     
  0.250719539670243     
  0.250258243169529     
  0.249861131383398     
  0.249536774809897     
  0.260100722754880     
  0.258762354576615     
  0.257512390971101     
  0.256356532567861     
  0.255295201443093     
  0.254324926795150     
  0.253439634300430     
  0.252631833143273     
  0.251893708825317     
  0.251218137891574     
  0.250599642465668     
  0.250035297785786     
  0.249525594091374     
  0.249075234359495     
  0.248693821453781     
  0.260214966114423     
  0.258679874768257     
  0.257271295938668     
  0.255990531640511     
  0.254832894930461     
  0.253789395439752     
  0.252848292796264     
  0.251996509505597     
  0.251220914836668     
  0.250509508193637     
  0.249852539628294     
  0.249243603432011     
  0.248680726388938     
  0.248167444904675     
  0.247713826220560     
  0.260139164668838     
  0.258397835669421     
  0.256829003082123     
  0.255427669880202     
  0.254182288862436     
  0.253076774592620     
  0.252092322681261     
  0.251209026215186     
  0.250407309670353     
  0.249669230211065     
  0.248979715468942     
  0.248327809724269     
  0.247707984061201     
  0.247121530501836     
  0.246578008040962     
  0.259793610953501     
  0.257841275310465     
  0.256116236469635     
  0.254604885611798     
  0.253286721925037     
  0.252136724554769     
  0.251127439913810     
  0.250230766607782     
  0.249419471653137     
  0.248668521944611     
  0.247956349180891     
  0.247266176091050     
  0.246587513458513     
  0.245917891934537     
  0.245264824529235     
  0.259078071645773     
  0.256916790110641     
  0.255047183373474     
  0.253444247235032     
  0.252076056018686     
  0.250906550750464     
  0.249897900741601     
  0.249012402119779     
  0.248213967271779     
  0.247469342710255     
  0.246749248932558     
  0.246029654348388     
  0.245293374067197     
  0.244532125856233     
  0.243749087271149     
  0.257868067314326     
  0.255509198121729     
  0.253516474052362     
  0.251850154691598     
  0.250463982537258     
  0.249308496163686     
  0.248333684017422     
  0.247490911094475     
  0.246734208828636     
  0.246021152127291     
  0.245313631331952     
  0.244578854201268     
  0.243790885779492     
  0.242932958286708     
  0.242000668066573     
  0.256010650629609     
  0.253477765447591     
  0.251395808475338     
  0.249706242266461     
  0.248345027345426     
  0.247246667479343     
  0.246347192105118     
  0.245585972646863     
  0.244906539885500     
  0.244256769981656     
  0.243588917843240     
  0.242860005209813     
  0.242033033082210     
  0.241079389971468     
  0.239982677881983     
  0.253319229244066     
  0.250651645504389     
  0.248529992072146     
  0.246871829991788     
  0.245591142747316     
  0.244603483155360     
  0.243829330577733     
  0.243195554799207     
  0.242635324756584     
  0.242087075802486     
  0.241493261032976     
  0.240799620604251     
  0.239955646896958     
  0.238916813463049     
  0.237648936955475     
  0.249566458285397     
  0.246823796333219     
  0.244731873184902     
  0.243177567158316     
  0.242047590213749     
  0.241235333161665     
  0.240644603175557     
  0.240190269844093     
  0.239796555847404     
  0.239394011772686     
  0.238916231951580     
  0.238297291372560     
  0.237470836648806     
  0.236371663457620     
  0.234940416273520     
  0.244473288333816     
  0.241741966655698     
  0.239775189143139     
  0.238419529443715     
  0.237527433124946     
  0.236966700530970     
  0.236624360189808     
  0.236405532615731     
  0.236228933382702     
  0.236020775062163     
  0.235708494477155     
  0.235215433895606     
  0.234457579604885     
  0.233343716704220     
  0.231780041208587     
  0.237690531526284     
  0.235094038011247     
  0.233383450598646     
  0.232350269773158     
  0.231803137177088     
  0.231581022123236     
  0.231556235492896     
  0.231629425130654     
  0.231720245959669     
  0.231756927353248     
  0.231666096695932     
  0.231363532073344     
  0.230747182430862     
  0.229694166155236     
  0.228064673102095     
  0.228765353560285     
  0.226482527743024     
  0.225211025915458     
  0.224663714635411     
  0.224591874195016     
  0.224804178151639     
  0.225165315811336     
  0.225581684700239     
  0.225984530057388     
  0.226313903499722     
  0.226504487018669     
  0.226471881919039     
  0.226098588363096     
  0.225225524256221     
  0.223651797519246     
  0.217077345742314     
  0.215375422567237     
  0.214808709251088     
  0.214966677233919     
  0.215525619521717     
  0.216270675618592     
  0.217076004282613     
  0.217873493285003     
  0.218620348944298     
  0.219281106537883     
  0.219812532195689     
  0.220143410921677     
  0.220153086407496     
  0.219643650058600     
  0.218336025744744     
  0.201691187764906     
  0.201008360565862     
  0.201551583948865     
  0.202715722164007     
  0.204083671369126     
  0.205441633527621     
  0.206727297529215     
  0.207922436982947     
  0.209026235387288     
  0.210040953864275     
  0.210961588200232     
  0.211761222089271     
  0.212338244232670     
  0.212482298966506     
  0.211800916343162     
  0.181039949580750     
  0.182103611669208     
  0.184464281544907     
  0.187074740958353     
  0.189377236207039     
  0.191390021484093     
  0.193161326455005     
  0.194748422330471     
  0.196203748889949     
  0.197576689351341     
  0.198916468375412     
  0.200268999755282     
  0.201671142031555     
  0.202902794071159     
  0.203527087627125     
  0.151137838508505     
  0.156058619764629     
  0.161897341414545     
  0.166126174673191     
  0.169436504316676     
  0.172120665843436     
  0.174384914933483     
  0.176369400566182     
  0.178183953948948     
  0.179928877976788     
  0.181714593001969     
  0.183689990642343     
  0.186069999271092     
  0.189311943603444     
  0.192442985157719     
  9.213478530661387E-002
  0.114646773269560     
  0.125188481784301     
  0.132137994023461     
  0.137147740128876     
  0.141021624385816     
  0.144181622731841     
  0.146895046665605     
  0.149357769290301     
  0.151742144926377     
  0.154236694894955     
  0.157099345462495     
  0.160778731390131     
  0.166163397329612     
  0.176910766276336     
