# vtk DataFile Version 3.0
vtk output
ASCII
DATASET UNSTRUCTURED_GRID
POINTS       496 double 
  0.00000000E+00  3.00000000E+02  0.00000000E+00
  0.00000000E+00  2.80000000E+02  0.00000000E+00
  0.00000000E+00  2.60000000E+02  0.00000000E+00
  0.00000000E+00  2.40000000E+02  0.00000000E+00
  0.00000000E+00  2.20000000E+02  0.00000000E+00
  0.00000000E+00  2.00000000E+02  0.00000000E+00
  0.00000000E+00  1.80000000E+02  0.00000000E+00
  0.00000000E+00  1.60000000E+02  0.00000000E+00
  0.00000000E+00  1.40000000E+02  0.00000000E+00
  0.00000000E+00  1.20000000E+02  0.00000000E+00
  0.00000000E+00  1.00000000E+02  0.00000000E+00
  0.00000000E+00  8.00000000E+01  0.00000000E+00
  0.00000000E+00  6.00000000E+01  0.00000000E+00
  0.00000000E+00  4.00000000E+01  0.00000000E+00
  0.00000000E+00  2.00000000E+01  0.00000000E+00
  0.00000000E+00  4.99600361E-14  0.00000000E+00
  2.00000000E+01  3.00000000E+02  0.00000000E+00
  2.00000000E+01  2.80000000E+02  0.00000000E+00
  2.00000000E+01  2.60000000E+02  0.00000000E+00
  2.00000000E+01  2.40000000E+02  0.00000000E+00
  2.00000000E+01  2.20000000E+02  0.00000000E+00
  2.00000000E+01  2.00000000E+02  0.00000000E+00
  2.00000000E+01  1.80000000E+02  0.00000000E+00
  2.00000000E+01  1.60000000E+02  0.00000000E+00
  2.00000000E+01  1.40000000E+02  0.00000000E+00
  2.00000000E+01  1.20000000E+02  0.00000000E+00
  2.00000000E+01  1.00000000E+02  0.00000000E+00
  2.00000000E+01  8.00000000E+01  0.00000000E+00
  2.00000000E+01  6.00000000E+01  0.00000000E+00
  2.00000000E+01  4.00000000E+01  0.00000000E+00
  2.00000000E+01  2.00000000E+01  0.00000000E+00
  2.00000000E+01  4.99600361E-14  0.00000000E+00
  4.00000000E+01  3.00000000E+02  0.00000000E+00
  4.00000000E+01  2.80000000E+02  0.00000000E+00
  4.00000000E+01  2.60000000E+02  0.00000000E+00
  4.00000000E+01  2.40000000E+02  0.00000000E+00
  4.00000000E+01  2.20000000E+02  0.00000000E+00
  4.00000000E+01  2.00000000E+02  0.00000000E+00
  4.00000000E+01  1.80000000E+02  0.00000000E+00
  4.00000000E+01  1.60000000E+02  0.00000000E+00
  4.00000000E+01  1.40000000E+02  0.00000000E+00
  4.00000000E+01  1.20000000E+02  0.00000000E+00
  4.00000000E+01  1.00000000E+02  0.00000000E+00
  4.00000000E+01  8.00000000E+01  0.00000000E+00
  4.00000000E+01  6.00000000E+01  0.00000000E+00
  4.00000000E+01  4.00000000E+01  0.00000000E+00
  4.00000000E+01  2.00000000E+01  0.00000000E+00
  4.00000000E+01  4.99600361E-14  0.00000000E+00
  6.00000000E+01  3.00000000E+02  0.00000000E+00
  6.00000000E+01  2.80000000E+02  0.00000000E+00
  6.00000000E+01  2.60000000E+02  0.00000000E+00
  6.00000000E+01  2.40000000E+02  0.00000000E+00
  6.00000000E+01  2.20000000E+02  0.00000000E+00
  6.00000000E+01  2.00000000E+02  0.00000000E+00
  6.00000000E+01  1.80000000E+02  0.00000000E+00
  6.00000000E+01  1.60000000E+02  0.00000000E+00
  6.00000000E+01  1.40000000E+02  0.00000000E+00
  6.00000000E+01  1.20000000E+02  0.00000000E+00
  6.00000000E+01  1.00000000E+02  0.00000000E+00
  6.00000000E+01  8.00000000E+01  0.00000000E+00
  6.00000000E+01  6.00000000E+01  0.00000000E+00
  6.00000000E+01  4.00000000E+01  0.00000000E+00
  6.00000000E+01  2.00000000E+01  0.00000000E+00
  6.00000000E+01  4.99600361E-14  0.00000000E+00
  8.00000000E+01  3.00000000E+02  0.00000000E+00
  8.00000000E+01  2.80000000E+02  0.00000000E+00
  8.00000000E+01  2.60000000E+02  0.00000000E+00
  8.00000000E+01  2.40000000E+02  0.00000000E+00
  8.00000000E+01  2.20000000E+02  0.00000000E+00
  8.00000000E+01  2.00000000E+02  0.00000000E+00
  8.00000000E+01  1.80000000E+02  0.00000000E+00
  8.00000000E+01  1.60000000E+02  0.00000000E+00
  8.00000000E+01  1.40000000E+02  0.00000000E+00
  8.00000000E+01  1.20000000E+02  0.00000000E+00
  8.00000000E+01  1.00000000E+02  0.00000000E+00
  8.00000000E+01  8.00000000E+01  0.00000000E+00
  8.00000000E+01  6.00000000E+01  0.00000000E+00
  8.00000000E+01  4.00000000E+01  0.00000000E+00
  8.00000000E+01  2.00000000E+01  0.00000000E+00
  8.00000000E+01  4.99600361E-14  0.00000000E+00
  1.00000000E+02  3.00000000E+02  0.00000000E+00
  1.00000000E+02  2.80000000E+02  0.00000000E+00
  1.00000000E+02  2.60000000E+02  0.00000000E+00
  1.00000000E+02  2.40000000E+02  0.00000000E+00
  1.00000000E+02  2.20000000E+02  0.00000000E+00
  1.00000000E+02  2.00000000E+02  0.00000000E+00
  1.00000000E+02  1.80000000E+02  0.00000000E+00
  1.00000000E+02  1.60000000E+02  0.00000000E+00
  1.00000000E+02  1.40000000E+02  0.00000000E+00
  1.00000000E+02  1.20000000E+02  0.00000000E+00
  1.00000000E+02  1.00000000E+02  0.00000000E+00
  1.00000000E+02  8.00000000E+01  0.00000000E+00
  1.00000000E+02  6.00000000E+01  0.00000000E+00
  1.00000000E+02  4.00000000E+01  0.00000000E+00
  1.00000000E+02  2.00000000E+01  0.00000000E+00
  1.00000000E+02  4.99600361E-14  0.00000000E+00
  1.20000000E+02  3.00000000E+02  0.00000000E+00
  1.20000000E+02  2.80000000E+02  0.00000000E+00
  1.20000000E+02  2.60000000E+02  0.00000000E+00
  1.20000000E+02  2.40000000E+02  0.00000000E+00
  1.20000000E+02  2.20000000E+02  0.00000000E+00
  1.20000000E+02  2.00000000E+02  0.00000000E+00
  1.20000000E+02  1.80000000E+02  0.00000000E+00
  1.20000000E+02  1.60000000E+02  0.00000000E+00
  1.20000000E+02  1.40000000E+02  0.00000000E+00
  1.20000000E+02  1.20000000E+02  0.00000000E+00
  1.20000000E+02  1.00000000E+02  0.00000000E+00
  1.20000000E+02  8.00000000E+01  0.00000000E+00
  1.20000000E+02  6.00000000E+01  0.00000000E+00
  1.20000000E+02  4.00000000E+01  0.00000000E+00
  1.20000000E+02  2.00000000E+01  0.00000000E+00
  1.20000000E+02  4.99600361E-14  0.00000000E+00
  1.40000000E+02  3.00000000E+02  0.00000000E+00
  1.40000000E+02  2.80000000E+02  0.00000000E+00
  1.40000000E+02  2.60000000E+02  0.00000000E+00
  1.40000000E+02  2.40000000E+02  0.00000000E+00
  1.40000000E+02  2.20000000E+02  0.00000000E+00
  1.40000000E+02  2.00000000E+02  0.00000000E+00
  1.40000000E+02  1.80000000E+02  0.00000000E+00
  1.40000000E+02  1.60000000E+02  0.00000000E+00
  1.40000000E+02  1.40000000E+02  0.00000000E+00
  1.40000000E+02  1.20000000E+02  0.00000000E+00
  1.40000000E+02  1.00000000E+02  0.00000000E+00
  1.40000000E+02  8.00000000E+01  0.00000000E+00
  1.40000000E+02  6.00000000E+01  0.00000000E+00
  1.40000000E+02  4.00000000E+01  0.00000000E+00
  1.40000000E+02  2.00000000E+01  0.00000000E+00
  1.40000000E+02  4.99600361E-14  0.00000000E+00
  1.60000000E+02  3.00000000E+02  0.00000000E+00
  1.60000000E+02  2.80000000E+02  0.00000000E+00
  1.60000000E+02  2.60000000E+02  0.00000000E+00
  1.60000000E+02  2.40000000E+02  0.00000000E+00
  1.60000000E+02  2.20000000E+02  0.00000000E+00
  1.60000000E+02  2.00000000E+02  0.00000000E+00
  1.60000000E+02  1.80000000E+02  0.00000000E+00
  1.60000000E+02  1.60000000E+02  0.00000000E+00
  1.60000000E+02  1.40000000E+02  0.00000000E+00
  1.60000000E+02  1.20000000E+02  0.00000000E+00
  1.60000000E+02  1.00000000E+02  0.00000000E+00
  1.60000000E+02  8.00000000E+01  0.00000000E+00
  1.60000000E+02  6.00000000E+01  0.00000000E+00
  1.60000000E+02  4.00000000E+01  0.00000000E+00
  1.60000000E+02  2.00000000E+01  0.00000000E+00
  1.60000000E+02  4.99600361E-14  0.00000000E+00
  1.80000000E+02  3.00000000E+02  0.00000000E+00
  1.80000000E+02  2.80000000E+02  0.00000000E+00
  1.80000000E+02  2.60000000E+02  0.00000000E+00
  1.80000000E+02  2.40000000E+02  0.00000000E+00
  1.80000000E+02  2.20000000E+02  0.00000000E+00
  1.80000000E+02  2.00000000E+02  0.00000000E+00
  1.80000000E+02  1.80000000E+02  0.00000000E+00
  1.80000000E+02  1.60000000E+02  0.00000000E+00
  1.80000000E+02  1.40000000E+02  0.00000000E+00
  1.80000000E+02  1.20000000E+02  0.00000000E+00
  1.80000000E+02  1.00000000E+02  0.00000000E+00
  1.80000000E+02  8.00000000E+01  0.00000000E+00
  1.80000000E+02  6.00000000E+01  0.00000000E+00
  1.80000000E+02  4.00000000E+01  0.00000000E+00
  1.80000000E+02  2.00000000E+01  0.00000000E+00
  1.80000000E+02  4.99600361E-14  0.00000000E+00
  2.00000000E+02  3.00000000E+02  0.00000000E+00
  2.00000000E+02  2.80000000E+02  0.00000000E+00
  2.00000000E+02  2.60000000E+02  0.00000000E+00
  2.00000000E+02  2.40000000E+02  0.00000000E+00
  2.00000000E+02  2.20000000E+02  0.00000000E+00
  2.00000000E+02  2.00000000E+02  0.00000000E+00
  2.00000000E+02  1.80000000E+02  0.00000000E+00
  2.00000000E+02  1.60000000E+02  0.00000000E+00
  2.00000000E+02  1.40000000E+02  0.00000000E+00
  2.00000000E+02  1.20000000E+02  0.00000000E+00
  2.00000000E+02  1.00000000E+02  0.00000000E+00
  2.00000000E+02  8.00000000E+01  0.00000000E+00
  2.00000000E+02  6.00000000E+01  0.00000000E+00
  2.00000000E+02  4.00000000E+01  0.00000000E+00
  2.00000000E+02  2.00000000E+01  0.00000000E+00
  2.00000000E+02  4.99600361E-14  0.00000000E+00
  2.20000000E+02  3.00000000E+02  0.00000000E+00
  2.20000000E+02  2.80000000E+02  0.00000000E+00
  2.20000000E+02  2.60000000E+02  0.00000000E+00
  2.20000000E+02  2.40000000E+02  0.00000000E+00
  2.20000000E+02  2.20000000E+02  0.00000000E+00
  2.20000000E+02  2.00000000E+02  0.00000000E+00
  2.20000000E+02  1.80000000E+02  0.00000000E+00
  2.20000000E+02  1.60000000E+02  0.00000000E+00
  2.20000000E+02  1.40000000E+02  0.00000000E+00
  2.20000000E+02  1.20000000E+02  0.00000000E+00
  2.20000000E+02  1.00000000E+02  0.00000000E+00
  2.20000000E+02  8.00000000E+01  0.00000000E+00
  2.20000000E+02  6.00000000E+01  0.00000000E+00
  2.20000000E+02  4.00000000E+01  0.00000000E+00
  2.20000000E+02  2.00000000E+01  0.00000000E+00
  2.20000000E+02  4.99600361E-14  0.00000000E+00
  2.40000000E+02  3.00000000E+02  0.00000000E+00
  2.40000000E+02  2.80000000E+02  0.00000000E+00
  2.40000000E+02  2.60000000E+02  0.00000000E+00
  2.40000000E+02  2.40000000E+02  0.00000000E+00
  2.40000000E+02  2.20000000E+02  0.00000000E+00
  2.40000000E+02  2.00000000E+02  0.00000000E+00
  2.40000000E+02  1.80000000E+02  0.00000000E+00
  2.40000000E+02  1.60000000E+02  0.00000000E+00
  2.40000000E+02  1.40000000E+02  0.00000000E+00
  2.40000000E+02  1.20000000E+02  0.00000000E+00
  2.40000000E+02  1.00000000E+02  0.00000000E+00
  2.40000000E+02  8.00000000E+01  0.00000000E+00
  2.40000000E+02  6.00000000E+01  0.00000000E+00
  2.40000000E+02  4.00000000E+01  0.00000000E+00
  2.40000000E+02  2.00000000E+01  0.00000000E+00
  2.40000000E+02  4.99600361E-14  0.00000000E+00
  2.60000000E+02  3.00000000E+02  0.00000000E+00
  2.60000000E+02  2.80000000E+02  0.00000000E+00
  2.60000000E+02  2.60000000E+02  0.00000000E+00
  2.60000000E+02  2.40000000E+02  0.00000000E+00
  2.60000000E+02  2.20000000E+02  0.00000000E+00
  2.60000000E+02  2.00000000E+02  0.00000000E+00
  2.60000000E+02  1.80000000E+02  0.00000000E+00
  2.60000000E+02  1.60000000E+02  0.00000000E+00
  2.60000000E+02  1.40000000E+02  0.00000000E+00
  2.60000000E+02  1.20000000E+02  0.00000000E+00
  2.60000000E+02  1.00000000E+02  0.00000000E+00
  2.60000000E+02  8.00000000E+01  0.00000000E+00
  2.60000000E+02  6.00000000E+01  0.00000000E+00
  2.60000000E+02  4.00000000E+01  0.00000000E+00
  2.60000000E+02  2.00000000E+01  0.00000000E+00
  2.60000000E+02  4.99600361E-14  0.00000000E+00
  2.80000000E+02  3.00000000E+02  0.00000000E+00
  2.80000000E+02  2.80000000E+02  0.00000000E+00
  2.80000000E+02  2.60000000E+02  0.00000000E+00
  2.80000000E+02  2.40000000E+02  0.00000000E+00
  2.80000000E+02  2.20000000E+02  0.00000000E+00
  2.80000000E+02  2.00000000E+02  0.00000000E+00
  2.80000000E+02  1.80000000E+02  0.00000000E+00
  2.80000000E+02  1.60000000E+02  0.00000000E+00
  2.80000000E+02  1.40000000E+02  0.00000000E+00
  2.80000000E+02  1.20000000E+02  0.00000000E+00
  2.80000000E+02  1.00000000E+02  0.00000000E+00
  2.80000000E+02  8.00000000E+01  0.00000000E+00
  2.80000000E+02  6.00000000E+01  0.00000000E+00
  2.80000000E+02  4.00000000E+01  0.00000000E+00
  2.80000000E+02  2.00000000E+01  0.00000000E+00
  2.80000000E+02  4.99600361E-14  0.00000000E+00
  3.00000000E+02  3.00000000E+02  0.00000000E+00
  3.00000000E+02  2.80000000E+02  0.00000000E+00
  3.00000000E+02  2.60000000E+02  0.00000000E+00
  3.00000000E+02  2.40000000E+02  0.00000000E+00
  3.00000000E+02  2.20000000E+02  0.00000000E+00
  3.00000000E+02  2.00000000E+02  0.00000000E+00
  3.00000000E+02  1.80000000E+02  0.00000000E+00
  3.00000000E+02  1.60000000E+02  0.00000000E+00
  3.00000000E+02  1.40000000E+02  0.00000000E+00
  3.00000000E+02  1.20000000E+02  0.00000000E+00
  3.00000000E+02  1.00000000E+02  0.00000000E+00
  3.00000000E+02  8.00000000E+01  0.00000000E+00
  3.00000000E+02  6.00000000E+01  0.00000000E+00
  3.00000000E+02  4.00000000E+01  0.00000000E+00
  3.00000000E+02  2.00000000E+01  0.00000000E+00
  3.00000000E+02  4.99600361E-14  0.00000000E+00
  3.20000000E+02  3.00000000E+02  0.00000000E+00
  3.20000000E+02  2.80000000E+02  0.00000000E+00
  3.20000000E+02  2.60000000E+02  0.00000000E+00
  3.20000000E+02  2.40000000E+02  0.00000000E+00
  3.20000000E+02  2.20000000E+02  0.00000000E+00
  3.20000000E+02  2.00000000E+02  0.00000000E+00
  3.20000000E+02  1.80000000E+02  0.00000000E+00
  3.20000000E+02  1.60000000E+02  0.00000000E+00
  3.20000000E+02  1.40000000E+02  0.00000000E+00
  3.20000000E+02  1.20000000E+02  0.00000000E+00
  3.20000000E+02  1.00000000E+02  0.00000000E+00
  3.20000000E+02  8.00000000E+01  0.00000000E+00
  3.20000000E+02  6.00000000E+01  0.00000000E+00
  3.20000000E+02  4.00000000E+01  0.00000000E+00
  3.20000000E+02  2.00000000E+01  0.00000000E+00
  3.20000000E+02  4.99600361E-14  0.00000000E+00
  3.40000000E+02  3.00000000E+02  0.00000000E+00
  3.40000000E+02  2.80000000E+02  0.00000000E+00
  3.40000000E+02  2.60000000E+02  0.00000000E+00
  3.40000000E+02  2.40000000E+02  0.00000000E+00
  3.40000000E+02  2.20000000E+02  0.00000000E+00
  3.40000000E+02  2.00000000E+02  0.00000000E+00
  3.40000000E+02  1.80000000E+02  0.00000000E+00
  3.40000000E+02  1.60000000E+02  0.00000000E+00
  3.40000000E+02  1.40000000E+02  0.00000000E+00
  3.40000000E+02  1.20000000E+02  0.00000000E+00
  3.40000000E+02  1.00000000E+02  0.00000000E+00
  3.40000000E+02  8.00000000E+01  0.00000000E+00
  3.40000000E+02  6.00000000E+01  0.00000000E+00
  3.40000000E+02  4.00000000E+01  0.00000000E+00
  3.40000000E+02  2.00000000E+01  0.00000000E+00
  3.40000000E+02  4.99600361E-14  0.00000000E+00
  3.60000000E+02  3.00000000E+02  0.00000000E+00
  3.60000000E+02  2.80000000E+02  0.00000000E+00
  3.60000000E+02  2.60000000E+02  0.00000000E+00
  3.60000000E+02  2.40000000E+02  0.00000000E+00
  3.60000000E+02  2.20000000E+02  0.00000000E+00
  3.60000000E+02  2.00000000E+02  0.00000000E+00
  3.60000000E+02  1.80000000E+02  0.00000000E+00
  3.60000000E+02  1.60000000E+02  0.00000000E+00
  3.60000000E+02  1.40000000E+02  0.00000000E+00
  3.60000000E+02  1.20000000E+02  0.00000000E+00
  3.60000000E+02  1.00000000E+02  0.00000000E+00
  3.60000000E+02  8.00000000E+01  0.00000000E+00
  3.60000000E+02  6.00000000E+01  0.00000000E+00
  3.60000000E+02  4.00000000E+01  0.00000000E+00
  3.60000000E+02  2.00000000E+01  0.00000000E+00
  3.60000000E+02  4.99600361E-14  0.00000000E+00
  3.80000000E+02  3.00000000E+02  0.00000000E+00
  3.80000000E+02  2.80000000E+02  0.00000000E+00
  3.80000000E+02  2.60000000E+02  0.00000000E+00
  3.80000000E+02  2.40000000E+02  0.00000000E+00
  3.80000000E+02  2.20000000E+02  0.00000000E+00
  3.80000000E+02  2.00000000E+02  0.00000000E+00
  3.80000000E+02  1.80000000E+02  0.00000000E+00
  3.80000000E+02  1.60000000E+02  0.00000000E+00
  3.80000000E+02  1.40000000E+02  0.00000000E+00
  3.80000000E+02  1.20000000E+02  0.00000000E+00
  3.80000000E+02  1.00000000E+02  0.00000000E+00
  3.80000000E+02  8.00000000E+01  0.00000000E+00
  3.80000000E+02  6.00000000E+01  0.00000000E+00
  3.80000000E+02  4.00000000E+01  0.00000000E+00
  3.80000000E+02  2.00000000E+01  0.00000000E+00
  3.80000000E+02  4.99600361E-14  0.00000000E+00
  4.00000000E+02  3.00000000E+02  0.00000000E+00
  4.00000000E+02  2.80000000E+02  0.00000000E+00
  4.00000000E+02  2.60000000E+02  0.00000000E+00
  4.00000000E+02  2.40000000E+02  0.00000000E+00
  4.00000000E+02  2.20000000E+02  0.00000000E+00
  4.00000000E+02  2.00000000E+02  0.00000000E+00
  4.00000000E+02  1.80000000E+02  0.00000000E+00
  4.00000000E+02  1.60000000E+02  0.00000000E+00
  4.00000000E+02  1.40000000E+02  0.00000000E+00
  4.00000000E+02  1.20000000E+02  0.00000000E+00
  4.00000000E+02  1.00000000E+02  0.00000000E+00
  4.00000000E+02  8.00000000E+01  0.00000000E+00
  4.00000000E+02  6.00000000E+01  0.00000000E+00
  4.00000000E+02  4.00000000E+01  0.00000000E+00
  4.00000000E+02  2.00000000E+01  0.00000000E+00
  4.00000000E+02  4.99600361E-14  0.00000000E+00
  4.20000000E+02  3.00000000E+02  0.00000000E+00
  4.20000000E+02  2.80000000E+02  0.00000000E+00
  4.20000000E+02  2.60000000E+02  0.00000000E+00
  4.20000000E+02  2.40000000E+02  0.00000000E+00
  4.20000000E+02  2.20000000E+02  0.00000000E+00
  4.20000000E+02  2.00000000E+02  0.00000000E+00
  4.20000000E+02  1.80000000E+02  0.00000000E+00
  4.20000000E+02  1.60000000E+02  0.00000000E+00
  4.20000000E+02  1.40000000E+02  0.00000000E+00
  4.20000000E+02  1.20000000E+02  0.00000000E+00
  4.20000000E+02  1.00000000E+02  0.00000000E+00
  4.20000000E+02  8.00000000E+01  0.00000000E+00
  4.20000000E+02  6.00000000E+01  0.00000000E+00
  4.20000000E+02  4.00000000E+01  0.00000000E+00
  4.20000000E+02  2.00000000E+01  0.00000000E+00
  4.20000000E+02  4.99600361E-14  0.00000000E+00
  4.40000000E+02  3.00000000E+02  0.00000000E+00
  4.40000000E+02  2.80000000E+02  0.00000000E+00
  4.40000000E+02  2.60000000E+02  0.00000000E+00
  4.40000000E+02  2.40000000E+02  0.00000000E+00
  4.40000000E+02  2.20000000E+02  0.00000000E+00
  4.40000000E+02  2.00000000E+02  0.00000000E+00
  4.40000000E+02  1.80000000E+02  0.00000000E+00
  4.40000000E+02  1.60000000E+02  0.00000000E+00
  4.40000000E+02  1.40000000E+02  0.00000000E+00
  4.40000000E+02  1.20000000E+02  0.00000000E+00
  4.40000000E+02  1.00000000E+02  0.00000000E+00
  4.40000000E+02  8.00000000E+01  0.00000000E+00
  4.40000000E+02  6.00000000E+01  0.00000000E+00
  4.40000000E+02  4.00000000E+01  0.00000000E+00
  4.40000000E+02  2.00000000E+01  0.00000000E+00
  4.40000000E+02  4.99600361E-14  0.00000000E+00
  4.60000000E+02  3.00000000E+02  0.00000000E+00
  4.60000000E+02  2.80000000E+02  0.00000000E+00
  4.60000000E+02  2.60000000E+02  0.00000000E+00
  4.60000000E+02  2.40000000E+02  0.00000000E+00
  4.60000000E+02  2.20000000E+02  0.00000000E+00
  4.60000000E+02  2.00000000E+02  0.00000000E+00
  4.60000000E+02  1.80000000E+02  0.00000000E+00
  4.60000000E+02  1.60000000E+02  0.00000000E+00
  4.60000000E+02  1.40000000E+02  0.00000000E+00
  4.60000000E+02  1.20000000E+02  0.00000000E+00
  4.60000000E+02  1.00000000E+02  0.00000000E+00
  4.60000000E+02  8.00000000E+01  0.00000000E+00
  4.60000000E+02  6.00000000E+01  0.00000000E+00
  4.60000000E+02  4.00000000E+01  0.00000000E+00
  4.60000000E+02  2.00000000E+01  0.00000000E+00
  4.60000000E+02  4.99600361E-14  0.00000000E+00
  4.80000000E+02  3.00000000E+02  0.00000000E+00
  4.80000000E+02  2.80000000E+02  0.00000000E+00
  4.80000000E+02  2.60000000E+02  0.00000000E+00
  4.80000000E+02  2.40000000E+02  0.00000000E+00
  4.80000000E+02  2.20000000E+02  0.00000000E+00
  4.80000000E+02  2.00000000E+02  0.00000000E+00
  4.80000000E+02  1.80000000E+02  0.00000000E+00
  4.80000000E+02  1.60000000E+02  0.00000000E+00
  4.80000000E+02  1.40000000E+02  0.00000000E+00
  4.80000000E+02  1.20000000E+02  0.00000000E+00
  4.80000000E+02  1.00000000E+02  0.00000000E+00
  4.80000000E+02  8.00000000E+01  0.00000000E+00
  4.80000000E+02  6.00000000E+01  0.00000000E+00
  4.80000000E+02  4.00000000E+01  0.00000000E+00
  4.80000000E+02  2.00000000E+01  0.00000000E+00
  4.80000000E+02  4.99600361E-14  0.00000000E+00
  5.00000000E+02  3.00000000E+02  0.00000000E+00
  5.00000000E+02  2.80000000E+02  0.00000000E+00
  5.00000000E+02  2.60000000E+02  0.00000000E+00
  5.00000000E+02  2.40000000E+02  0.00000000E+00
  5.00000000E+02  2.20000000E+02  0.00000000E+00
  5.00000000E+02  2.00000000E+02  0.00000000E+00
  5.00000000E+02  1.80000000E+02  0.00000000E+00
  5.00000000E+02  1.60000000E+02  0.00000000E+00
  5.00000000E+02  1.40000000E+02  0.00000000E+00
  5.00000000E+02  1.20000000E+02  0.00000000E+00
  5.00000000E+02  1.00000000E+02  0.00000000E+00
  5.00000000E+02  8.00000000E+01  0.00000000E+00
  5.00000000E+02  6.00000000E+01  0.00000000E+00
  5.00000000E+02  4.00000000E+01  0.00000000E+00
  5.00000000E+02  2.00000000E+01  0.00000000E+00
  5.00000000E+02  4.99600361E-14  0.00000000E+00
  5.20000000E+02  3.00000000E+02  0.00000000E+00
  5.20000000E+02  2.80000000E+02  0.00000000E+00
  5.20000000E+02  2.60000000E+02  0.00000000E+00
  5.20000000E+02  2.40000000E+02  0.00000000E+00
  5.20000000E+02  2.20000000E+02  0.00000000E+00
  5.20000000E+02  2.00000000E+02  0.00000000E+00
  5.20000000E+02  1.80000000E+02  0.00000000E+00
  5.20000000E+02  1.60000000E+02  0.00000000E+00
  5.20000000E+02  1.40000000E+02  0.00000000E+00
  5.20000000E+02  1.20000000E+02  0.00000000E+00
  5.20000000E+02  1.00000000E+02  0.00000000E+00
  5.20000000E+02  8.00000000E+01  0.00000000E+00
  5.20000000E+02  6.00000000E+01  0.00000000E+00
  5.20000000E+02  4.00000000E+01  0.00000000E+00
  5.20000000E+02  2.00000000E+01  0.00000000E+00
  5.20000000E+02  4.99600361E-14  0.00000000E+00
  5.40000000E+02  3.00000000E+02  0.00000000E+00
  5.40000000E+02  2.80000000E+02  0.00000000E+00
  5.40000000E+02  2.60000000E+02  0.00000000E+00
  5.40000000E+02  2.40000000E+02  0.00000000E+00
  5.40000000E+02  2.20000000E+02  0.00000000E+00
  5.40000000E+02  2.00000000E+02  0.00000000E+00
  5.40000000E+02  1.80000000E+02  0.00000000E+00
  5.40000000E+02  1.60000000E+02  0.00000000E+00
  5.40000000E+02  1.40000000E+02  0.00000000E+00
  5.40000000E+02  1.20000000E+02  0.00000000E+00
  5.40000000E+02  1.00000000E+02  0.00000000E+00
  5.40000000E+02  8.00000000E+01  0.00000000E+00
  5.40000000E+02  6.00000000E+01  0.00000000E+00
  5.40000000E+02  4.00000000E+01  0.00000000E+00
  5.40000000E+02  2.00000000E+01  0.00000000E+00
  5.40000000E+02  4.99600361E-14  0.00000000E+00
  5.60000000E+02  3.00000000E+02  0.00000000E+00
  5.60000000E+02  2.80000000E+02  0.00000000E+00
  5.60000000E+02  2.60000000E+02  0.00000000E+00
  5.60000000E+02  2.40000000E+02  0.00000000E+00
  5.60000000E+02  2.20000000E+02  0.00000000E+00
  5.60000000E+02  2.00000000E+02  0.00000000E+00
  5.60000000E+02  1.80000000E+02  0.00000000E+00
  5.60000000E+02  1.60000000E+02  0.00000000E+00
  5.60000000E+02  1.40000000E+02  0.00000000E+00
  5.60000000E+02  1.20000000E+02  0.00000000E+00
  5.60000000E+02  1.00000000E+02  0.00000000E+00
  5.60000000E+02  8.00000000E+01  0.00000000E+00
  5.60000000E+02  6.00000000E+01  0.00000000E+00
  5.60000000E+02  4.00000000E+01  0.00000000E+00
  5.60000000E+02  2.00000000E+01  0.00000000E+00
  5.60000000E+02  4.99600361E-14  0.00000000E+00
  5.80000000E+02  3.00000000E+02  0.00000000E+00
  5.80000000E+02  2.80000000E+02  0.00000000E+00
  5.80000000E+02  2.60000000E+02  0.00000000E+00
  5.80000000E+02  2.40000000E+02  0.00000000E+00
  5.80000000E+02  2.20000000E+02  0.00000000E+00
  5.80000000E+02  2.00000000E+02  0.00000000E+00
  5.80000000E+02  1.80000000E+02  0.00000000E+00
  5.80000000E+02  1.60000000E+02  0.00000000E+00
  5.80000000E+02  1.40000000E+02  0.00000000E+00
  5.80000000E+02  1.20000000E+02  0.00000000E+00
  5.80000000E+02  1.00000000E+02  0.00000000E+00
  5.80000000E+02  8.00000000E+01  0.00000000E+00
  5.80000000E+02  6.00000000E+01  0.00000000E+00
  5.80000000E+02  4.00000000E+01  0.00000000E+00
  5.80000000E+02  2.00000000E+01  0.00000000E+00
  5.80000000E+02  4.99600361E-14  0.00000000E+00
  6.00000000E+02  3.00000000E+02  0.00000000E+00
  6.00000000E+02  2.80000000E+02  0.00000000E+00
  6.00000000E+02  2.60000000E+02  0.00000000E+00
  6.00000000E+02  2.40000000E+02  0.00000000E+00
  6.00000000E+02  2.20000000E+02  0.00000000E+00
  6.00000000E+02  2.00000000E+02  0.00000000E+00
  6.00000000E+02  1.80000000E+02  0.00000000E+00
  6.00000000E+02  1.60000000E+02  0.00000000E+00
  6.00000000E+02  1.40000000E+02  0.00000000E+00
  6.00000000E+02  1.20000000E+02  0.00000000E+00
  6.00000000E+02  1.00000000E+02  0.00000000E+00
  6.00000000E+02  8.00000000E+01  0.00000000E+00
  6.00000000E+02  6.00000000E+01  0.00000000E+00
  6.00000000E+02  4.00000000E+01  0.00000000E+00
  6.00000000E+02  2.00000000E+01  0.00000000E+00
  6.00000000E+02  4.99600361E-14  0.00000000E+00
CELLS       450      2250
         4           0           1          17          16
         4           1           2          18          17
         4           2           3          19          18
         4           3           4          20          19
         4           4           5          21          20
         4           5           6          22          21
         4           6           7          23          22
         4           7           8          24          23
         4           8           9          25          24
         4           9          10          26          25
         4          10          11          27          26
         4          11          12          28          27
         4          12          13          29          28
         4          13          14          30          29
         4          14          15          31          30
         4          16          17          33          32
         4          17          18          34          33
         4          18          19          35          34
         4          19          20          36          35
         4          20          21          37          36
         4          21          22          38          37
         4          22          23          39          38
         4          23          24          40          39
         4          24          25          41          40
         4          25          26          42          41
         4          26          27          43          42
         4          27          28          44          43
         4          28          29          45          44
         4          29          30          46          45
         4          30          31          47          46
         4          32          33          49          48
         4          33          34          50          49
         4          34          35          51          50
         4          35          36          52          51
         4          36          37          53          52
         4          37          38          54          53
         4          38          39          55          54
         4          39          40          56          55
         4          40          41          57          56
         4          41          42          58          57
         4          42          43          59          58
         4          43          44          60          59
         4          44          45          61          60
         4          45          46          62          61
         4          46          47          63          62
         4          48          49          65          64
         4          49          50          66          65
         4          50          51          67          66
         4          51          52          68          67
         4          52          53          69          68
         4          53          54          70          69
         4          54          55          71          70
         4          55          56          72          71
         4          56          57          73          72
         4          57          58          74          73
         4          58          59          75          74
         4          59          60          76          75
         4          60          61          77          76
         4          61          62          78          77
         4          62          63          79          78
         4          64          65          81          80
         4          65          66          82          81
         4          66          67          83          82
         4          67          68          84          83
         4          68          69          85          84
         4          69          70          86          85
         4          70          71          87          86
         4          71          72          88          87
         4          72          73          89          88
         4          73          74          90          89
         4          74          75          91          90
         4          75          76          92          91
         4          76          77          93          92
         4          77          78          94          93
         4          78          79          95          94
         4          80          81          97          96
         4          81          82          98          97
         4          82          83          99          98
         4          83          84         100          99
         4          84          85         101         100
         4          85          86         102         101
         4          86          87         103         102
         4          87          88         104         103
         4          88          89         105         104
         4          89          90         106         105
         4          90          91         107         106
         4          91          92         108         107
         4          92          93         109         108
         4          93          94         110         109
         4          94          95         111         110
         4          96          97         113         112
         4          97          98         114         113
         4          98          99         115         114
         4          99         100         116         115
         4         100         101         117         116
         4         101         102         118         117
         4         102         103         119         118
         4         103         104         120         119
         4         104         105         121         120
         4         105         106         122         121
         4         106         107         123         122
         4         107         108         124         123
         4         108         109         125         124
         4         109         110         126         125
         4         110         111         127         126
         4         112         113         129         128
         4         113         114         130         129
         4         114         115         131         130
         4         115         116         132         131
         4         116         117         133         132
         4         117         118         134         133
         4         118         119         135         134
         4         119         120         136         135
         4         120         121         137         136
         4         121         122         138         137
         4         122         123         139         138
         4         123         124         140         139
         4         124         125         141         140
         4         125         126         142         141
         4         126         127         143         142
         4         128         129         145         144
         4         129         130         146         145
         4         130         131         147         146
         4         131         132         148         147
         4         132         133         149         148
         4         133         134         150         149
         4         134         135         151         150
         4         135         136         152         151
         4         136         137         153         152
         4         137         138         154         153
         4         138         139         155         154
         4         139         140         156         155
         4         140         141         157         156
         4         141         142         158         157
         4         142         143         159         158
         4         144         145         161         160
         4         145         146         162         161
         4         146         147         163         162
         4         147         148         164         163
         4         148         149         165         164
         4         149         150         166         165
         4         150         151         167         166
         4         151         152         168         167
         4         152         153         169         168
         4         153         154         170         169
         4         154         155         171         170
         4         155         156         172         171
         4         156         157         173         172
         4         157         158         174         173
         4         158         159         175         174
         4         160         161         177         176
         4         161         162         178         177
         4         162         163         179         178
         4         163         164         180         179
         4         164         165         181         180
         4         165         166         182         181
         4         166         167         183         182
         4         167         168         184         183
         4         168         169         185         184
         4         169         170         186         185
         4         170         171         187         186
         4         171         172         188         187
         4         172         173         189         188
         4         173         174         190         189
         4         174         175         191         190
         4         176         177         193         192
         4         177         178         194         193
         4         178         179         195         194
         4         179         180         196         195
         4         180         181         197         196
         4         181         182         198         197
         4         182         183         199         198
         4         183         184         200         199
         4         184         185         201         200
         4         185         186         202         201
         4         186         187         203         202
         4         187         188         204         203
         4         188         189         205         204
         4         189         190         206         205
         4         190         191         207         206
         4         192         193         209         208
         4         193         194         210         209
         4         194         195         211         210
         4         195         196         212         211
         4         196         197         213         212
         4         197         198         214         213
         4         198         199         215         214
         4         199         200         216         215
         4         200         201         217         216
         4         201         202         218         217
         4         202         203         219         218
         4         203         204         220         219
         4         204         205         221         220
         4         205         206         222         221
         4         206         207         223         222
         4         208         209         225         224
         4         209         210         226         225
         4         210         211         227         226
         4         211         212         228         227
         4         212         213         229         228
         4         213         214         230         229
         4         214         215         231         230
         4         215         216         232         231
         4         216         217         233         232
         4         217         218         234         233
         4         218         219         235         234
         4         219         220         236         235
         4         220         221         237         236
         4         221         222         238         237
         4         222         223         239         238
         4         224         225         241         240
         4         225         226         242         241
         4         226         227         243         242
         4         227         228         244         243
         4         228         229         245         244
         4         229         230         246         245
         4         230         231         247         246
         4         231         232         248         247
         4         232         233         249         248
         4         233         234         250         249
         4         234         235         251         250
         4         235         236         252         251
         4         236         237         253         252
         4         237         238         254         253
         4         238         239         255         254
         4         240         241         257         256
         4         241         242         258         257
         4         242         243         259         258
         4         243         244         260         259
         4         244         245         261         260
         4         245         246         262         261
         4         246         247         263         262
         4         247         248         264         263
         4         248         249         265         264
         4         249         250         266         265
         4         250         251         267         266
         4         251         252         268         267
         4         252         253         269         268
         4         253         254         270         269
         4         254         255         271         270
         4         256         257         273         272
         4         257         258         274         273
         4         258         259         275         274
         4         259         260         276         275
         4         260         261         277         276
         4         261         262         278         277
         4         262         263         279         278
         4         263         264         280         279
         4         264         265         281         280
         4         265         266         282         281
         4         266         267         283         282
         4         267         268         284         283
         4         268         269         285         284
         4         269         270         286         285
         4         270         271         287         286
         4         272         273         289         288
         4         273         274         290         289
         4         274         275         291         290
         4         275         276         292         291
         4         276         277         293         292
         4         277         278         294         293
         4         278         279         295         294
         4         279         280         296         295
         4         280         281         297         296
         4         281         282         298         297
         4         282         283         299         298
         4         283         284         300         299
         4         284         285         301         300
         4         285         286         302         301
         4         286         287         303         302
         4         288         289         305         304
         4         289         290         306         305
         4         290         291         307         306
         4         291         292         308         307
         4         292         293         309         308
         4         293         294         310         309
         4         294         295         311         310
         4         295         296         312         311
         4         296         297         313         312
         4         297         298         314         313
         4         298         299         315         314
         4         299         300         316         315
         4         300         301         317         316
         4         301         302         318         317
         4         302         303         319         318
         4         304         305         321         320
         4         305         306         322         321
         4         306         307         323         322
         4         307         308         324         323
         4         308         309         325         324
         4         309         310         326         325
         4         310         311         327         326
         4         311         312         328         327
         4         312         313         329         328
         4         313         314         330         329
         4         314         315         331         330
         4         315         316         332         331
         4         316         317         333         332
         4         317         318         334         333
         4         318         319         335         334
         4         320         321         337         336
         4         321         322         338         337
         4         322         323         339         338
         4         323         324         340         339
         4         324         325         341         340
         4         325         326         342         341
         4         326         327         343         342
         4         327         328         344         343
         4         328         329         345         344
         4         329         330         346         345
         4         330         331         347         346
         4         331         332         348         347
         4         332         333         349         348
         4         333         334         350         349
         4         334         335         351         350
         4         336         337         353         352
         4         337         338         354         353
         4         338         339         355         354
         4         339         340         356         355
         4         340         341         357         356
         4         341         342         358         357
         4         342         343         359         358
         4         343         344         360         359
         4         344         345         361         360
         4         345         346         362         361
         4         346         347         363         362
         4         347         348         364         363
         4         348         349         365         364
         4         349         350         366         365
         4         350         351         367         366
         4         352         353         369         368
         4         353         354         370         369
         4         354         355         371         370
         4         355         356         372         371
         4         356         357         373         372
         4         357         358         374         373
         4         358         359         375         374
         4         359         360         376         375
         4         360         361         377         376
         4         361         362         378         377
         4         362         363         379         378
         4         363         364         380         379
         4         364         365         381         380
         4         365         366         382         381
         4         366         367         383         382
         4         368         369         385         384
         4         369         370         386         385
         4         370         371         387         386
         4         371         372         388         387
         4         372         373         389         388
         4         373         374         390         389
         4         374         375         391         390
         4         375         376         392         391
         4         376         377         393         392
         4         377         378         394         393
         4         378         379         395         394
         4         379         380         396         395
         4         380         381         397         396
         4         381         382         398         397
         4         382         383         399         398
         4         384         385         401         400
         4         385         386         402         401
         4         386         387         403         402
         4         387         388         404         403
         4         388         389         405         404
         4         389         390         406         405
         4         390         391         407         406
         4         391         392         408         407
         4         392         393         409         408
         4         393         394         410         409
         4         394         395         411         410
         4         395         396         412         411
         4         396         397         413         412
         4         397         398         414         413
         4         398         399         415         414
         4         400         401         417         416
         4         401         402         418         417
         4         402         403         419         418
         4         403         404         420         419
         4         404         405         421         420
         4         405         406         422         421
         4         406         407         423         422
         4         407         408         424         423
         4         408         409         425         424
         4         409         410         426         425
         4         410         411         427         426
         4         411         412         428         427
         4         412         413         429         428
         4         413         414         430         429
         4         414         415         431         430
         4         416         417         433         432
         4         417         418         434         433
         4         418         419         435         434
         4         419         420         436         435
         4         420         421         437         436
         4         421         422         438         437
         4         422         423         439         438
         4         423         424         440         439
         4         424         425         441         440
         4         425         426         442         441
         4         426         427         443         442
         4         427         428         444         443
         4         428         429         445         444
         4         429         430         446         445
         4         430         431         447         446
         4         432         433         449         448
         4         433         434         450         449
         4         434         435         451         450
         4         435         436         452         451
         4         436         437         453         452
         4         437         438         454         453
         4         438         439         455         454
         4         439         440         456         455
         4         440         441         457         456
         4         441         442         458         457
         4         442         443         459         458
         4         443         444         460         459
         4         444         445         461         460
         4         445         446         462         461
         4         446         447         463         462
         4         448         449         465         464
         4         449         450         466         465
         4         450         451         467         466
         4         451         452         468         467
         4         452         453         469         468
         4         453         454         470         469
         4         454         455         471         470
         4         455         456         472         471
         4         456         457         473         472
         4         457         458         474         473
         4         458         459         475         474
         4         459         460         476         475
         4         460         461         477         476
         4         461         462         478         477
         4         462         463         479         478
         4         464         465         481         480
         4         465         466         482         481
         4         466         467         483         482
         4         467         468         484         483
         4         468         469         485         484
         4         469         470         486         485
         4         470         471         487         486
         4         471         472         488         487
         4         472         473         489         488
         4         473         474         490         489
         4         474         475         491         490
         4         475         476         492         491
         4         476         477         493         492
         4         477         478         494         493
         4         478         479         495         494
CELL_TYPES        450
9
9
9
9
9
9
9
9
9
9
9
9
9
9
9
9
9
9
9
9
9
9
9
9
9
9
9
9
9
9
9
9
9
9
9
9
9
9
9
9
9
9
9
9
9
9
9
9
9
9
9
9
9
9
9
9
9
9
9
9
9
9
9
9
9
9
9
9
9
9
9
9
9
9
9
9
9
9
9
9
9
9
9
9
9
9
9
9
9
9
9
9
9
9
9
9
9
9
9
9
9
9
9
9
9
9
9
9
9
9
9
9
9
9
9
9
9
9
9
9
9
9
9
9
9
9
9
9
9
9
9
9
9
9
9
9
9
9
9
9
9
9
9
9
9
9
9
9
9
9
9
9
9
9
9
9
9
9
9
9
9
9
9
9
9
9
9
9
9
9
9
9
9
9
9
9
9
9
9
9
9
9
9
9
9
9
9
9
9
9
9
9
9
9
9
9
9
9
9
9
9
9
9
9
9
9
9
9
9
9
9
9
9
9
9
9
9
9
9
9
9
9
9
9
9
9
9
9
9
9
9
9
9
9
9
9
9
9
9
9
9
9
9
9
9
9
9
9
9
9
9
9
9
9
9
9
9
9
9
9
9
9
9
9
9
9
9
9
9
9
9
9
9
9
9
9
9
9
9
9
9
9
9
9
9
9
9
9
9
9
9
9
9
9
9
9
9
9
9
9
9
9
9
9
9
9
9
9
9
9
9
9
9
9
9
9
9
9
9
9
9
9
9
9
9
9
9
9
9
9
9
9
9
9
9
9
9
9
9
9
9
9
9
9
9
9
9
9
9
9
9
9
9
9
9
9
9
9
9
9
9
9
9
9
9
9
9
9
9
9
9
9
9
9
9
9
9
9
9
9
9
9
9
9
9
9
9
9
9
9
9
9
9
9
9
9
9
9
9
9
9
9
9
9
9
9
9
9
9
9
9
9
9
9
9
9
9
9
9
9
9
9
9
9
9
9
9
9
9
9
9
9
9
9
9
9
9
9
9
9
9
9
9
9
9
9
9
9
9
9
POINT_DATA       496
SCALARS p double 
LOOKUP_TABLE default
   75573953.7366632     
   75619774.3191809     
   75718175.1069698     
   75825978.5730679     
   75942806.1439130     
   76065268.2956394     
   76190175.1102277     
   76314812.4707405     
   76436788.1977820     
   76553936.2203699     
   76664217.8193678     
   76765608.6905120     
   76855942.9678719     
   76932491.2500138     
   76991851.9248651     
   77017037.5863196     
   74511272.9146724     
   74523954.6849500     
   74568225.6909164     
   74641004.9118115     
   74728874.6925226     
   74825707.0705621     
   74927379.5226867     
   75030580.3518825     
   75132495.1076590     
   75230593.2076660     
   75322473.8602138     
   75405705.3105927     
   75477583.3725448     
   75534794.2388907     
   75571608.1229800     
   75584019.7801669     
   73367377.2238837     
   73376493.9421135     
   73405145.8162383     
   73452917.6158239     
   73516340.9285147     
   73590289.2802863     
   73670507.6663053     
   73753539.8312384     
   73836397.5849805     
   73916382.4652708     
   73990934.5197601     
   74057487.5270226     
   74113322.8656946     
   74155334.8846650     
   74180891.9892936     
   74189392.6422371     
   72196470.0851859     
   72202440.6113148     
   72221650.7494472     
   72254650.0919494     
   72299996.9172724     
   72355013.7346960     
   72416498.8578613     
   72481369.6191500     
   72546807.1395165     
   72610200.7285914     
   72669075.6662323     
   72721028.5982713     
   72763701.3358159     
   72795011.6130565     
   72813670.0841788     
   72819819.2758743     
   71005212.5985512     
   71009235.0374088     
   71022127.4915884     
   71044906.4561406     
   71077073.4267695     
   71117094.7606003     
   71162828.8661926     
   71211885.7303860     
   71261874.8570327     
   71310500.9641434     
   71355583.9998576     
   71395078.6877733     
   71427163.6594242     
   71450441.7344376     
   71464236.0657768     
   71468814.6558701     
   69797991.8652939     
   69800689.8294818     
   69809244.0830047     
   69824612.6411589     
   69846774.4592689     
   69874892.5736820     
   69907572.0054893     
   69943098.5137076     
   69979629.6642993     
   70015325.1072512     
   70048428.0192139     
   70077338.6651218     
   70100716.8262748     
   70117624.3240162     
   70127666.4295196     
   70131045.4949299     
   68577827.8755572     
   68579567.7031383     
   68584942.6484070     
   68594696.3921436     
   68608994.9252594     
   68627443.1262043     
   68649203.0817281     
   68673142.0093771     
   68697970.1430871     
   68722355.3231232     
   68745016.1393923     
   68764806.1880132     
   68780801.9393026     
   68792389.7649778     
   68799323.7518134     
   68801709.8715236     
   67346772.4035991     
   67347756.1278411     
   67350610.4190145     
   67355833.0843713     
   67363645.5237138     
   67373940.0975831     
   67386310.0891926     
   67400123.2801688     
   67414608.8458418     
   67428941.6871072     
   67442319.2401372     
   67454031.2500189     
   67463521.8768075     
   67470435.9190089     
   67474631.1370834     
   67476135.2644516     
   66106053.2646881     
   66106369.5730690     
   66107018.9459559     
   66108275.0010624     
   66110369.6472526     
   66113405.3323368     
   66117329.3301073     
   66121950.8776227     
   66126981.1550199     
   66132081.8770772     
   66136914.2281746     
   66141183.0634799     
   66144671.0130959     
   66147254.2406853     
   66148888.9000355     
   66149558.5017977     
   64856122.9508159     
   64855773.1692047     
   64854271.9589113     
   64851716.7461504     
   64848355.0111884     
   64844474.7101901     
   64840341.2129184     
   64836171.3676101     
   64832132.3456094     
   64828354.0969659     
   64824946.7731563     
   64822016.2342304     
   64819671.1337436     
   64818014.6922640     
   64817114.6076974     
   64816947.2249475     
   63596654.0446532     
   63595565.4461642     
   63591748.7096752     
   63585190.2959121     
   63576190.0003019     
   63565234.2578143     
   63552904.9090265     
   63539818.8648537     
   63526591.2232843     
   63513813.7064330     
   63502040.8548130     
   63491777.2228202     
   63483459.4629773     
   63477427.9573978     
   63473884.2434580     
   63472833.4935061     
   62326503.0599249     
   62324535.3734605     
   62318039.7270689     
   62306971.2729387     
   62291742.5595014     
   62273080.5847180     
   62251911.3858785     
   62229270.2455604     
   62206233.2416836     
   62183864.5145867     
   62163173.1871928     
   62145074.0511474     
   62130346.7785502     
   62119589.6554739     
   62113165.9038124     
   62111143.6708653     
   61043654.6466472     
   61040602.2490084     
   61030873.3333715     
   61014485.7414176     
   60992046.2238053     
   60964589.9075240     
   60933441.4825284     
   60900098.1341607     
   60866132.2381281     
   60833110.1445130     
   60802522.3253473     
   60775719.8666141     
   60753852.8154986     
   60737807.3123848     
   60728140.7515973     
   60725017.2618691     
   59745151.1414659     
   59740741.7405991     
   59727031.1835484     
   59704209.9760076     
   59673182.1031638     
   59635383.5493985     
   59592618.3277757     
   59546914.1030427     
   59500397.3882708     
   59455186.1171257     
   59413295.7137995     
   59376554.0086224     
   59346520.7133534     
   59324408.7347956     
   59311007.2327224     
   59306609.6638919     
   58427007.3800156     
   58420897.0033019     
   58402248.8897114     
   58371555.6942324     
   58330146.5452287     
   58279978.5886995     
   58223443.4578710     
   58163193.4682316     
   58101989.5149907     
   58042569.4854720     
   57987533.3631325     
   57939239.7795492     
   57899708.9559820     
   57870528.8227523     
   57852764.3434896     
   57846874.1489979     
   57084105.9559738     
   57075869.3383242     
   57051094.2062499     
   57010730.6784837     
   56956692.2791187     
   56891610.4987909     
   56818603.9059577     
   56741070.5426224     
   56662507.8600310     
   56586359.4130106     
   56515883.2972076     
   56454034.9317507     
   56403356.8104579     
   56365870.2816137     
   56342968.8086601     
   56335317.6834721     
   55710062.8453579     
   55699177.5741330     
   55666810.0389627     
   55614559.6916769     
   55545126.0235770     
   55462009.9644267     
   55369233.0321045     
   55271088.9015046     
   55171934.3777491     
   55076018.3758464     
   54987340.6419361     
   54909528.1574173     
   54845717.1277704     
   54798432.0355163     
   54769459.6496001     
   54759723.8930506     
   54297046.6026819     
   54282868.3452620     
   54241101.9107492     
   54174242.3858053     
   54086037.0782802     
   53981107.7612020     
   53864600.1444487     
   53741884.3920442     
   53618316.8542670     
   53499059.0103199     
   53388938.5821636     
   53292332.0658381     
   53213048.1649894     
   53154197.2625272     
   53118041.8251599     
   53105834.6847800     
   52835524.8919365     
   52817249.3121468     
   52763837.8399692     
   52679011.7150128     
   52567917.4458874     
   52436627.8628504     
   52291691.4461211     
   52139767.9515080     
   51987363.6018185     
   51840655.1247852     
   51705374.6631698     
   51586719.6847603     
   51489253.4203785     
   51416770.5907679     
   51372118.2060364     
   51356979.5496578     
   51313897.7080402     
   51290501.5733198     
   51222609.7185526     
   51115634.5649817     
   50976610.8332928     
   50813506.3789087     
   50634624.6464255     
   50448158.4713291     
   50261909.2851976     
   50083145.5723853     
   49918548.8798495     
   49774186.5098768     
   49655454.6259374     
   49566950.5192992     
   49512255.5291708     
   49493637.8242134     
   49717953.0721860     
   49688101.1976563     
   49602073.0150047     
   49467658.7518213     
   49294488.3029780     
   49093036.2153508     
   48873806.5872818     
   48646788.9210087     
   48421190.3328833     
   48205383.7913215     
   48006978.3766757     
   47832911.6876782     
   47689476.5382496     
   47582217.3061733     
   47515663.9715968     
   47492912.9774252     
   48030039.9002706     
   47991933.0915214     
   47882923.2554511     
   47714242.7939312     
   47499178.5077681     
   47251572.8653546     
   46984688.4289947     
   46710564.5993196     
   46439833.2528879     
   46181858.3079086     
   45945032.4451178     
   45737075.9867193     
   45565209.8396145     
   45436105.8364035     
   45355559.2193729     
   45327886.9614576     
   46227776.6764751     
   46178892.1651897     
   46040255.6992052     
   45828276.4489440     
   45561552.5529509     
   45258523.7165421     
   44935880.1734248     
   44607877.6865188     
   44286397.8741006     
   43981458.4212456     
   43701889.8117230     
   43455961.6425239     
   43251793.4402299     
   43097412.1677294     
   43000355.8646675     
   42966802.4249957     
   44281964.1608842     
   44218588.3884661     
   44040825.0489480     
   43773242.7798413     
   43442419.7950665     
   43073139.9348029     
   42686225.8782082     
   42298051.8980099     
   41921204.0952189     
   41565657.7125630     
   41240032.4094124     
   40952688.9737721     
   40712504.5514996     
   40529140.9701038     
   40412603.1516055     
   40371982.9258539     
   42153051.6330029     
   42069381.5919847     
   41838213.8847957     
   41497724.4404267     
   41086905.1244155     
   40639254.1340538     
   40180154.2573554     
   39727349.8443387     
   39292945.3440016     
   38885672.2568744     
   38512896.0486623     
   38182286.8236200     
   37903129.0410508     
   37687016.5311612     
   37547501.8044795     
   37498331.6874619     
   39784757.2839807     
   39671028.3957215     
   39363687.8096097     
   38925196.8445939     
   38414469.6026037     
   37876385.7509317     
   37340073.6823840     
   36822484.8977389     
   36333102.2458825     
   35877670.2405948     
   35460850.9969696     
   35088426.1368844     
   34769317.0357080     
   34517199.7621867     
   34350702.9293615     
   34291115.8969943     
   37091527.9781484     
   36929637.9781731     
   36507126.2580206     
   35933658.8364026     
   35300316.1797394     
   34664186.3536238     
   34053392.8281043     
   33479403.5485223     
   32946027.7121448     
   32453979.3347856     
   32003631.2972978     
   31597222.1925282     
   31241773.4419776     
   30952441.7332196     
   30754798.2882995     
   30682516.3885676     
   33930395.3069123     
   33681938.0027270     
   33072124.1430803     
   32310904.0713170     
   31539109.4489240     
   30813864.5561627     
   30148280.6604095     
   29541898.0674425     
   28989618.0837029     
   28485525.1134830     
   28024593.0913740     
   27604165.9404525     
   27226236.5985879     
   26904822.4617673     
   26673383.5090868     
   26585788.8892708     
   30024400.5631180     
   29593260.0227590     
   28644035.4241055     
   27649143.8208731     
   26770981.0911235     
   26006901.4026604     
   25340738.3397244     
   24754471.6426080     
   24232770.7935739     
   23763123.3694633     
   23335542.4833262     
   22942460.5623290     
   22579915.1563911     
   22249696.9894773     
   21989415.4567206     
   21886143.1858920     
   24704391.6232461     
   23628644.6471548     
   22149086.9510256     
   21091434.6097490     
   20274807.6918431     
   19623857.0077716     
   19087926.2234686     
   18635148.5719786     
   18243937.2724229     
   17898924.9910511     
   17588563.8822243     
   17303766.0807678     
   17036963.3492360     
   16783777.8567878     
   16534284.7572805     
   16415076.5594692     
   10000000.0000000     
   10000000.0000000     
   10000000.0000000     
   10000000.0000000     
   10000000.0000000     
   10000000.0000000     
   10000000.0000000     
   10000000.0000000     
   10000000.0000000     
   10000000.0000000     
   10000000.0000000     
   10000000.0000000     
   10000000.0000000     
  10000000.00000000     
   10000000.0000000     
   10000000.0000000     
VECTORS u double 
    0.00000E+00         0.74054E+01         0.00000E+00
    0.00000E+00         0.69808E+01         0.00000E+00
    0.00000E+00         0.65511E+01         0.00000E+00
    0.00000E+00         0.61139E+01         0.00000E+00
    0.00000E+00         0.56763E+01         0.00000E+00
    0.00000E+00         0.52361E+01         0.00000E+00
    0.00000E+00         0.47914E+01         0.00000E+00
    0.00000E+00         0.43400E+01         0.00000E+00
    0.00000E+00         0.38792E+01         0.00000E+00
    0.00000E+00         0.34061E+01         0.00000E+00
    0.00000E+00         0.29170E+01         0.00000E+00
    0.00000E+00         0.24075E+01         0.00000E+00
    0.00000E+00         0.18719E+01         0.00000E+00
    0.00000E+00         0.13024E+01         0.00000E+00
    0.00000E+00         0.68746E+00         0.00000E+00
    0.00000E+00         0.00000E+00         0.00000E+00
    0.13328E+01         0.72567E+01         0.00000E+00
    0.10860E+01         0.68693E+01         0.00000E+00
    0.94289E+00         0.64649E+01         0.00000E+00
    0.85355E+00         0.60453E+01         0.00000E+00
    0.78102E+00         0.56182E+01         0.00000E+00
    0.71775E+00         0.51858E+01         0.00000E+00
    0.66006E+00         0.47472E+01         0.00000E+00
    0.60561E+00         0.43010E+01         0.00000E+00
    0.55262E+00         0.38449E+01         0.00000E+00
    0.49944E+00         0.33760E+01         0.00000E+00
    0.44437E+00         0.28909E+01         0.00000E+00
    0.38541E+00         0.23851E+01         0.00000E+00
    0.31977E+00         0.18530E+01         0.00000E+00
    0.24296E+00         0.12871E+01         0.00000E+00
    0.14629E+00         0.67571E+00         0.00000E+00
    0.00000E+00         0.00000E+00         0.00000E+00
    0.24032E+01         0.69463E+01         0.00000E+00
    0.20834E+01         0.65995E+01         0.00000E+00
    0.18423E+01         0.62354E+01         0.00000E+00
    0.16614E+01         0.58508E+01         0.00000E+00
    0.15142E+01         0.54503E+01         0.00000E+00
    0.13858E+01         0.50386E+01         0.00000E+00
    0.12690E+01         0.46175E+01         0.00000E+00
    0.11590E+01         0.41864E+01         0.00000E+00
    0.10522E+01         0.37439E+01         0.00000E+00
    0.94527E+00         0.32876E+01         0.00000E+00
    0.83480E+00         0.28143E+01         0.00000E+00
    0.71690E+00         0.23199E+01         0.00000E+00
    0.58632E+00         0.17990E+01         0.00000E+00
    0.43507E+00         0.12447E+01         0.00000E+00
    0.24844E+00         0.64772E+00         0.00000E+00
    0.00000E+00         0.00000E+00         0.00000E+00
    0.34214E+01         0.65441E+01         0.00000E+00
    0.30165E+01         0.62324E+01         0.00000E+00
    0.26900E+01         0.59019E+01         0.00000E+00
    0.24251E+01         0.55525E+01         0.00000E+00
    0.22030E+01         0.51854E+01         0.00000E+00
    0.20086E+01         0.48033E+01         0.00000E+00
    0.18317E+01         0.44083E+01         0.00000E+00
    0.16655E+01         0.40009E+01         0.00000E+00
    0.15043E+01         0.35801E+01         0.00000E+00
    0.13435E+01         0.31444E+01         0.00000E+00
    0.11779E+01         0.26907E+01         0.00000E+00
    0.10021E+01         0.22156E+01         0.00000E+00
    0.80890E+00         0.17144E+01         0.00000E+00
    0.58842E+00         0.11815E+01         0.00000E+00
    0.32575E+00         0.61125E+00         0.00000E+00
    0.00000E+00         0.00000E+00         0.00000E+00
    0.43753E+01         0.60503E+01         0.00000E+00
    0.38880E+01         0.57752E+01         0.00000E+00
    0.34828E+01         0.54810E+01         0.00000E+00
    0.31416E+01         0.51681E+01         0.00000E+00
    0.28481E+01         0.48373E+01         0.00000E+00
    0.25885E+01         0.44899E+01         0.00000E+00
    0.23517E+01         0.41274E+01         0.00000E+00
    0.21291E+01         0.37505E+01         0.00000E+00
    0.19139E+01         0.33588E+01         0.00000E+00
    0.16996E+01         0.29509E+01         0.00000E+00
    0.14799E+01         0.25246E+01         0.00000E+00
    0.12482E+01         0.20768E+01         0.00000E+00
    0.99624E+00         0.16040E+01         0.00000E+00
    0.71362E+00         0.11022E+01         0.00000E+00
    0.38697E+00         0.56791E+00         0.00000E+00
    0.00000E+00         0.00000E+00         0.00000E+00
    0.52596E+01         0.54768E+01         0.00000E+00
    0.46985E+01         0.52393E+01         0.00000E+00
    0.42208E+01         0.49835E+01         0.00000E+00
    0.38092E+01         0.47093E+01         0.00000E+00
    0.34489E+01         0.44173E+01         0.00000E+00
    0.31266E+01         0.41082E+01         0.00000E+00
    0.28313E+01         0.37830E+01         0.00000E+00
    0.25534E+01         0.34422E+01         0.00000E+00
    0.22850E+01         0.30856E+01         0.00000E+00
    0.20185E+01         0.27123E+01         0.00000E+00
    0.17468E+01         0.23205E+01         0.00000E+00
    0.14621E+01         0.19078E+01         0.00000E+00
    0.11558E+01         0.14716E+01         0.00000E+00
    0.81797E+00         0.10091E+01         0.00000E+00
    0.43699E+00         0.51865E+00         0.00000E+00
    0.00000E+00         0.00000E+00         0.00000E+00
    0.60741E+01         0.48344E+01         0.00000E+00
    0.54476E+01         0.46353E+01         0.00000E+00
    0.49039E+01         0.44192E+01         0.00000E+00
    0.44277E+01         0.41856E+01         0.00000E+00
    0.40050E+01         0.39346E+01         0.00000E+00
    0.36235E+01         0.36666E+01         0.00000E+00
    0.32721E+01         0.33825E+01         0.00000E+00
    0.29409E+01         0.30824E+01         0.00000E+00
    0.26212E+01         0.27663E+01         0.00000E+00
    0.23047E+01         0.24336E+01         0.00000E+00
    0.19834E+01         0.20828E+01         0.00000E+00
    0.16492E+01         0.17122E+01         0.00000E+00
    0.12933E+01         0.13199E+01         0.00000E+00
    0.90657E+00         0.90422E+00         0.00000E+00
    0.47888E+00         0.46410E+00         0.00000E+00
    0.00000E+00         0.00000E+00         0.00000E+00
    0.68198E+01         0.41320E+01         0.00000E+00
    0.61353E+01         0.39721E+01         0.00000E+00
    0.55321E+01         0.37968E+01         0.00000E+00
    0.49966E+01         0.36051E+01         0.00000E+00
    0.45163E+01         0.33968E+01         0.00000E+00
    0.40795E+01         0.31725E+01         0.00000E+00
    0.36753E+01         0.29324E+01         0.00000E+00
    0.32936E+01         0.26770E+01         0.00000E+00
    0.29254E+01         0.24061E+01         0.00000E+00
    0.25616E+01         0.21192E+01         0.00000E+00
    0.21940E+01         0.18154E+01         0.00000E+00
    0.18140E+01         0.14932E+01         0.00000E+00
    0.14133E+01         0.11514E+01         0.00000E+00
    0.98307E+00         0.78871E+00         0.00000E+00
    0.51474E+00         0.40472E+00         0.00000E+00
    0.00000E+00         0.00000E+00         0.00000E+00
    0.74985E+01         0.33767E+01         0.00000E+00
    0.67623E+01         0.32568E+01         0.00000E+00
    0.61052E+01         0.31230E+01         0.00000E+00
    0.55159E+01         0.29743E+01         0.00000E+00
    0.49828E+01         0.28104E+01         0.00000E+00
    0.44949E+01         0.26316E+01         0.00000E+00
    0.40418E+01         0.24384E+01         0.00000E+00
    0.36133E+01         0.22310E+01         0.00000E+00
    0.31998E+01         0.20094E+01         0.00000E+00
    0.27923E+01         0.17731E+01         0.00000E+00
    0.23819E+01         0.15214E+01         0.00000E+00
    0.19603E+01         0.12533E+01         0.00000E+00
    0.15190E+01         0.96764E+00         0.00000E+00
    0.10501E+01         0.66361E+00         0.00000E+00
    0.54606E+00         0.34090E+00         0.00000E+00
    0.00000E+00         0.00000E+00         0.00000E+00
    0.81121E+01         0.25741E+01         0.00000E+00
    0.73292E+01         0.24950E+01         0.00000E+00
    0.66235E+01         0.24035E+01         0.00000E+00
    0.59853E+01         0.22986E+01         0.00000E+00
    0.54043E+01         0.21803E+01         0.00000E+00
    0.48701E+01         0.20490E+01         0.00000E+00
    0.43723E+01         0.19050E+01         0.00000E+00
    0.39010E+01         0.17487E+01         0.00000E+00
    0.34463E+01         0.15799E+01         0.00000E+00
    0.29989E+01         0.13985E+01         0.00000E+00
    0.25499E+01         0.12036E+01         0.00000E+00
    0.20906E+01         0.99450E+00         0.00000E+00
    0.16131E+01         0.77013E+00         0.00000E+00
    0.11097E+01         0.52974E+00         0.00000E+00
    0.57393E+00         0.27294E+00         0.00000E+00
    0.00000E+00         0.00000E+00         0.00000E+00
    0.86621E+01         0.17285E+01         0.00000E+00
    0.78367E+01         0.16910E+01         0.00000E+00
    0.70871E+01         0.16424E+01         0.00000E+00
    0.64049E+01         0.15822E+01         0.00000E+00
    0.57808E+01         0.15108E+01         0.00000E+00
    0.52050E+01         0.14285E+01         0.00000E+00
    0.46674E+01         0.13359E+01         0.00000E+00
    0.41578E+01         0.12333E+01         0.00000E+00
    0.36664E+01         0.11207E+01         0.00000E+00
    0.31835E+01         0.99784E+00         0.00000E+00
    0.27000E+01         0.86405E+00         0.00000E+00
    0.22073E+01         0.71842E+00         0.00000E+00
    0.16975E+01         0.55994E+00         0.00000E+00
    0.11634E+01         0.38770E+00         0.00000E+00
    0.59919E+00         0.20109E+00         0.00000E+00
    0.00000E+00         0.00000E+00         0.00000E+00
    0.91498E+01         0.84320E+00         0.00000E+00
    0.82852E+01         0.84790E+00         0.00000E+00
    0.74957E+01         0.84284E+00         0.00000E+00
    0.67742E+01         0.82822E+00         0.00000E+00
    0.61120E+01         0.80465E+00         0.00000E+00
    0.54997E+01         0.77291E+00         0.00000E+00
    0.49272E+01         0.73365E+00         0.00000E+00
    0.43844E+01         0.68731E+00         0.00000E+00
    0.38611E+01         0.63392E+00         0.00000E+00
    0.33474E+01         0.57315E+00         0.00000E+00
    0.28339E+01         0.50426E+00         0.00000E+00
    0.23120E+01         0.42623E+00         0.00000E+00
    0.17738E+01         0.33787E+00         0.00000E+00
    0.12124E+01         0.23798E+00         0.00000E+00
    0.62251E+00         0.12557E+00         0.00000E+00
    0.00000E+00         0.00000E+00         0.00000E+00
    0.95760E+01        -0.79433E-01         0.00000E+00
    0.86747E+01        -0.31907E-01         0.00000E+00
    0.78491E+01         0.72181E-02         0.00000E+00
    0.70927E+01         0.38884E-01         0.00000E+00
    0.63974E+01         0.64261E-01         0.00000E+00
    0.57538E+01         0.84487E-01         0.00000E+00
    0.51519E+01         0.10046E+00         0.00000E+00
    0.45812E+01         0.11272E+00         0.00000E+00
    0.40312E+01         0.12132E+00         0.00000E+00
    0.34917E+01         0.12586E+00         0.00000E+00
    0.29530E+01         0.12545E+00         0.00000E+00
    0.24061E+01         0.11884E+00         0.00000E+00
    0.18432E+01         0.10454E+00         0.00000E+00
    0.12577E+01         0.80932E-01         0.00000E+00
    0.64443E+00         0.46499E-01         0.00000E+00
    0.00000E+00         0.00000E+00         0.00000E+00
    0.99406E+01        -0.10378E+01         0.00000E+00
    0.90049E+01        -0.94686E+00         0.00000E+00
    0.81465E+01        -0.86294E+00         0.00000E+00
    0.73597E+01        -0.78421E+00         0.00000E+00
    0.66363E+01        -0.70884E+00         0.00000E+00
    0.59670E+01        -0.63523E+00         0.00000E+00
    0.53413E+01        -0.56220E+00         0.00000E+00
    0.47484E+01        -0.48910E+00         0.00000E+00
    0.41773E+01        -0.41584E+00         0.00000E+00
    0.36172E+01        -0.34295E+00         0.00000E+00
    0.30581E+01        -0.27152E+00         0.00000E+00
    0.24906E+01        -0.20310E+00         0.00000E+00
    0.19068E+01        -0.13962E+00         0.00000E+00
    0.13001E+01        -0.83197E-01         0.00000E+00
    0.66543E+00        -0.35999E-01         0.00000E+00
    0.00000E+00         0.00000E+00         0.00000E+00
    0.10243E+02        -0.20308E+01         0.00000E+00
    0.92744E+01        -0.18959E+01         0.00000E+00
    0.83867E+01        -0.17666E+01         0.00000E+00
    0.75738E+01        -0.16400E+01         0.00000E+00
    0.68276E+01        -0.15135E+01         0.00000E+00
    0.61383E+01        -0.13851E+01         0.00000E+00
    0.54949E+01        -0.12532E+01         0.00000E+00
    0.48859E+01        -0.11171E+01         0.00000E+00
    0.42995E+01        -0.97660E+00         0.00000E+00
    0.37245E+01        -0.83245E+00         0.00000E+00
    0.31501E+01        -0.68597E+00         0.00000E+00
    0.25666E+01        -0.53911E+00         0.00000E+00
    0.19655E+01        -0.39427E+00         0.00000E+00
    0.13403E+01        -0.25421E+00         0.00000E+00
    0.68595E+00        -0.12185E+00         0.00000E+00
    0.00000E+00         0.00000E+00         0.00000E+00
    0.10481E+02        -0.30578E+01         0.00000E+00
    0.94814E+01        -0.28783E+01         0.00000E+00
    0.85675E+01        -0.27029E+01         0.00000E+00
    0.77333E+01        -0.25276E+01         0.00000E+00
    0.69698E+01        -0.23490E+01         0.00000E+00
    0.62666E+01        -0.21642E+01         0.00000E+00
    0.56119E+01        -0.19717E+01         0.00000E+00
    0.49931E+01        -0.17703E+01         0.00000E+00
    0.43978E+01        -0.15601E+01         0.00000E+00
    0.38138E+01        -0.13419E+01         0.00000E+00
    0.32294E+01        -0.11173E+01         0.00000E+00
    0.26345E+01        -0.88873E+00         0.00000E+00
    0.20200E+01        -0.65913E+00         0.00000E+00
    0.13789E+01        -0.43196E+00         0.00000E+00
    0.70638E+00        -0.21098E+00         0.00000E+00
    0.00000E+00         0.00000E+00         0.00000E+00
    0.10652E+02        -0.41182E+01         0.00000E+00
    0.96231E+01        -0.38936E+01         0.00000E+00
    0.86866E+01        -0.36714E+01         0.00000E+00
    0.78358E+01        -0.34464E+01         0.00000E+00
    0.70610E+01        -0.32143E+01         0.00000E+00
    0.63504E+01        -0.29717E+01         0.00000E+00
    0.56911E+01        -0.27165E+01         0.00000E+00
    0.50695E+01        -0.24478E+01         0.00000E+00
    0.44718E+01        -0.21654E+01         0.00000E+00
    0.38849E+01        -0.18704E+01         0.00000E+00
    0.32963E+01        -0.15649E+01         0.00000E+00
    0.26948E+01        -0.12515E+01         0.00000E+00
    0.20707E+01        -0.93387E+00         0.00000E+00
    0.14166E+01        -0.61626E+00         0.00000E+00
    0.72708E+00        -0.30333E+00         0.00000E+00
    0.00000E+00         0.00000E+00         0.00000E+00
    0.10752E+02        -0.52114E+01         0.00000E+00
    0.96956E+01        -0.49411E+01         0.00000E+00
    0.87404E+01        -0.46712E+01         0.00000E+00
    0.78784E+01        -0.43954E+01         0.00000E+00
    0.70986E+01        -0.41084E+01         0.00000E+00
    0.63876E+01        -0.38062E+01         0.00000E+00
    0.57310E+01        -0.34865E+01         0.00000E+00
    0.51137E+01        -0.31481E+01         0.00000E+00
    0.45207E+01        -0.27912E+01         0.00000E+00
    0.39376E+01        -0.24170E+01         0.00000E+00
    0.33506E+01        -0.20277E+01         0.00000E+00
    0.27476E+01        -0.16267E+01         0.00000E+00
    0.21181E+01        -0.12181E+01         0.00000E+00
    0.14535E+01        -0.80688E+00         0.00000E+00
    0.74835E+00        -0.39881E+00         0.00000E+00
    0.00000E+00         0.00000E+00         0.00000E+00
    0.10776E+02        -0.63367E+01         0.00000E+00
    0.96942E+01        -0.60197E+01         0.00000E+00
    0.87246E+01        -0.57012E+01         0.00000E+00
    0.78574E+01        -0.53733E+01         0.00000E+00
    0.70795E+01        -0.50297E+01         0.00000E+00
    0.63757E+01        -0.46660E+01         0.00000E+00
    0.57295E+01        -0.42796E+01         0.00000E+00
    0.51242E+01        -0.38694E+01         0.00000E+00
    0.45432E+01        -0.34356E+01         0.00000E+00
    0.39706E+01        -0.29798E+01         0.00000E+00
    0.33916E+01        -0.25044E+01         0.00000E+00
    0.27926E+01        -0.20133E+01         0.00000E+00
    0.21618E+01        -0.15110E+01         0.00000E+00
    0.14900E+01        -0.10035E+01         0.00000E+00
    0.77037E+00        -0.49728E+00         0.00000E+00
    0.00000E+00         0.00000E+00         0.00000E+00
    0.10717E+02        -0.74926E+01         0.00000E+00
    0.96127E+01        -0.71281E+01         0.00000E+00
    0.86340E+01        -0.67597E+01         0.00000E+00
    0.77684E+01        -0.63779E+01         0.00000E+00
    0.70002E+01        -0.59757E+01         0.00000E+00
    0.63117E+01        -0.55483E+01         0.00000E+00
    0.56841E+01        -0.50929E+01         0.00000E+00
    0.50987E+01        -0.46086E+01         0.00000E+00
    0.45373E+01        -0.40959E+01         0.00000E+00
    0.39825E+01        -0.35564E+01         0.00000E+00
    0.34178E+01        -0.29931E+01         0.00000E+00
    0.28286E+01        -0.24098E+01         0.00000E+00
    0.22015E+01        -0.18118E+01         0.00000E+00
    0.15256E+01        -0.12055E+01         0.00000E+00
    0.79316E+00        -0.59855E+00         0.00000E+00
    0.00000E+00         0.00000E+00         0.00000E+00
    0.10567E+02        -0.86772E+01         0.00000E+00
    0.94441E+01        -0.82639E+01         0.00000E+00
    0.84624E+01        -0.78437E+01         0.00000E+00
    0.76062E+01        -0.74060E+01         0.00000E+00
    0.68563E+01        -0.69428E+01         0.00000E+00
    0.61918E+01        -0.64490E+01         0.00000E+00
    0.55915E+01        -0.59221E+01         0.00000E+00
    0.50343E+01        -0.53614E+01         0.00000E+00
    0.45002E+01        -0.47678E+01         0.00000E+00
    0.39703E+01        -0.41432E+01         0.00000E+00
    0.34269E+01        -0.34906E+01         0.00000E+00
    0.28536E+01        -0.28141E+01         0.00000E+00
    0.22354E+01        -0.21190E+01         0.00000E+00
    0.15597E+01        -0.14122E+01         0.00000E+00
    0.81646E+00        -0.70234E+00         0.00000E+00
    0.00000E+00         0.00000E+00         0.00000E+00
    0.10316E+02        -0.98872E+01         0.00000E+00
    0.91795E+01        -0.94234E+01         0.00000E+00
    0.82027E+01        -0.89494E+01         0.00000E+00
    0.73650E+01        -0.84529E+01         0.00000E+00
    0.66430E+01        -0.79255E+01         0.00000E+00
    0.60120E+01        -0.73621E+01         0.00000E+00
    0.54477E+01        -0.67608E+01         0.00000E+00
    0.49269E+01        -0.61214E+01         0.00000E+00
    0.44279E+01        -0.54454E+01         0.00000E+00
    0.39302E+01        -0.47348E+01         0.00000E+00
    0.34151E+01        -0.39926E+01         0.00000E+00
    0.28643E+01        -0.32228E+01         0.00000E+00
    0.22612E+01        -0.24303E+01         0.00000E+00
    0.15905E+01        -0.16224E+01         0.00000E+00
    0.83955E+00        -0.80826E+00         0.00000E+00
    0.00000E+00         0.00000E+00         0.00000E+00
    0.99513E+01        -0.11118E+02         0.00000E+00
    0.88090E+01        -0.10602E+02         0.00000E+00
    0.78465E+01        -0.10071E+02         0.00000E+00
    0.70380E+01        -0.95118E+01         0.00000E+00
    0.63547E+01        -0.89161E+01         0.00000E+00
    0.57673E+01        -0.82792E+01         0.00000E+00
    0.52480E+01        -0.76002E+01         0.00000E+00
    0.47716E+01        -0.68799E+01         0.00000E+00
    0.43148E+01        -0.61205E+01         0.00000E+00
    0.38564E+01        -0.53241E+01         0.00000E+00
    0.33764E+01        -0.44934E+01         0.00000E+00
    0.28554E+01        -0.36316E+01         0.00000E+00
    0.22744E+01        -0.27431E+01         0.00000E+00
    0.16150E+01        -0.18347E+01         0.00000E+00
    0.86108E+00        -0.91579E+00         0.00000E+00
    0.00000E+00         0.00000E+00         0.00000E+00
    0.94602E+01        -0.12364E+02         0.00000E+00
    0.83208E+01        -0.11792E+02         0.00000E+00
    0.73846E+01        -0.11200E+02         0.00000E+00
    0.66181E+01        -0.10573E+02         0.00000E+00
    0.59855E+01        -0.99037E+01         0.00000E+00
    0.54519E+01        -0.91884E+01         0.00000E+00
    0.49863E+01        -0.84281E+01         0.00000E+00
    0.45614E+01        -0.76251E+01         0.00000E+00
    0.41533E+01        -0.67821E+01         0.00000E+00
    0.37406E+01        -0.59014E+01         0.00000E+00
    0.33027E+01        -0.49849E+01         0.00000E+00
    0.28189E+01        -0.40347E+01         0.00000E+00
    0.22682E+01        -0.30536E+01         0.00000E+00
    0.16286E+01        -0.20470E+01         0.00000E+00
    0.87873E+00        -0.10243E+01         0.00000E+00
    0.00000E+00         0.00000E+00         0.00000E+00
    0.88255E+01        -0.13617E+02         0.00000E+00
    0.77011E+01        -0.12984E+02         0.00000E+00
    0.68065E+01        -0.12325E+02         0.00000E+00
    0.60974E+01        -0.11624E+02         0.00000E+00
    0.55287E+01        -0.10874E+02         0.00000E+00
    0.50593E+01        -0.10074E+02         0.00000E+00
    0.46549E+01        -0.92283E+01         0.00000E+00
    0.42873E+01        -0.83413E+01         0.00000E+00
    0.39330E+01        -0.74160E+01         0.00000E+00
    0.35712E+01        -0.64544E+01         0.00000E+00
    0.31816E+01        -0.54572E+01         0.00000E+00
    0.27433E+01        -0.44244E+01         0.00000E+00
    0.22328E+01        -0.33566E+01         0.00000E+00
    0.16240E+01        -0.22569E+01         0.00000E+00
    0.88876E+00        -0.11330E+01         0.00000E+00
    0.00000E+00         0.00000E+00         0.00000E+00
    0.80268E+01        -0.14865E+02         0.00000E+00
    0.69339E+01        -0.14166E+02         0.00000E+00
    0.61008E+01        -0.13432E+02         0.00000E+00
    0.54677E+01        -0.12646E+02         0.00000E+00
    0.49769E+01        -0.11805E+02         0.00000E+00
    0.45808E+01        -0.10914E+02         0.00000E+00
    0.42432E+01        -0.99800E+01         0.00000E+00
    0.39366E+01        -0.90090E+01         0.00000E+00
    0.36393E+01        -0.80045E+01         0.00000E+00
    0.33323E+01        -0.69676E+01         0.00000E+00
    0.29967E+01        -0.58973E+01         0.00000E+00
    0.26120E+01        -0.47910E+01         0.00000E+00
    0.21533E+01        -0.36459E+01         0.00000E+00
    0.15900E+01        -0.24609E+01         0.00000E+00
    0.88534E+00        -0.12408E+01         0.00000E+00
    0.00000E+00         0.00000E+00         0.00000E+00
    0.70384E+01        -0.16093E+02         0.00000E+00
    0.59999E+01        -0.15318E+02         0.00000E+00
    0.52553E+01        -0.14496E+02         0.00000E+00
    0.47201E+01        -0.13612E+02         0.00000E+00
    0.43207E+01        -0.12669E+02         0.00000E+00
    0.40045E+01        -0.11681E+02         0.00000E+00
    0.37361E+01        -0.10657E+02         0.00000E+00
    0.34915E+01        -0.96046E+01         0.00000E+00
    0.32522E+01        -0.85269E+01         0.00000E+00
    0.30022E+01        -0.74232E+01         0.00000E+00
    0.27253E+01        -0.62903E+01         0.00000E+00
    0.24024E+01        -0.51226E+01         0.00000E+00
    0.20088E+01        -0.39130E+01         0.00000E+00
    0.15100E+01        -0.26548E+01         0.00000E+00
    0.85936E+00        -0.13468E+01         0.00000E+00
    0.00000E+00         0.00000E+00         0.00000E+00
    0.58259E+01        -0.17281E+02         0.00000E+00
    0.48763E+01        -0.16416E+02         0.00000E+00
    0.42574E+01        -0.15486E+02         0.00000E+00
    0.38438E+01        -0.14483E+02         0.00000E+00
    0.35453E+01        -0.13427E+02         0.00000E+00
    0.33105E+01        -0.12338E+02         0.00000E+00
    0.31104E+01        -0.11228E+02         0.00000E+00
    0.29262E+01        -0.10102E+02         0.00000E+00
    0.27441E+01        -0.89608E+01         0.00000E+00
    0.25521E+01        -0.78016E+01         0.00000E+00
    0.23372E+01        -0.66189E+01         0.00000E+00
    0.20839E+01        -0.54044E+01         0.00000E+00
    0.17695E+01        -0.41469E+01         0.00000E+00
    0.13592E+01        -0.28323E+01         0.00000E+00
    0.79634E+00        -0.14491E+01         0.00000E+00
    0.00000E+00         0.00000E+00         0.00000E+00
    0.43383E+01        -0.18397E+02         0.00000E+00
    0.35355E+01        -0.17417E+02         0.00000E+00
    0.30935E+01        -0.16344E+02         0.00000E+00
    0.28192E+01        -0.15199E+02         0.00000E+00
    0.26215E+01        -0.14027E+02         0.00000E+00
    0.24643E+01        -0.12845E+02         0.00000E+00
    0.23284E+01        -0.11661E+02         0.00000E+00
    0.22020E+01        -0.10475E+02         0.00000E+00
    0.20761E+01        -0.92842E+01         0.00000E+00
    0.19428E+01        -0.80836E+01         0.00000E+00
    0.17932E+01        -0.68656E+01         0.00000E+00
    0.16161E+01        -0.56200E+01         0.00000E+00
    0.13945E+01        -0.43327E+01         0.00000E+00
    0.10995E+01        -0.29837E+01         0.00000E+00
    0.67202E+00        -0.15448E+01         0.00000E+00
    0.00000E+00         0.00000E+00         0.00000E+00
    0.24843E+01        -0.19394E+02         0.00000E+00
    0.19509E+01        -0.18229E+02         0.00000E+00
    0.17322E+01        -0.16956E+02         0.00000E+00
    0.15907E+01        -0.15675E+02         0.00000E+00
    0.14865E+01        -0.14410E+02         0.00000E+00
    0.14022E+01        -0.13161E+02         0.00000E+00
    0.13285E+01        -0.11927E+02         0.00000E+00
    0.12599E+01        -0.10702E+02         0.00000E+00
    0.11918E+01        -0.94803E+01         0.00000E+00
    0.11201E+01        -0.82545E+01         0.00000E+00
    0.10403E+01        -0.70160E+01         0.00000E+00
    0.94651E+00        -0.57535E+01         0.00000E+00
    0.82948E+00        -0.44521E+01         0.00000E+00
    0.67261E+00        -0.30897E+01         0.00000E+00
    0.44075E+00        -0.16282E+01         0.00000E+00
    0.00000E+00         0.00000E+00         0.00000E+00
    0.00000E+00        -0.20049E+02         0.00000E+00
    0.00000E+00        -0.18565E+02         0.00000E+00
    0.00000E+00        -0.17169E+02         0.00000E+00
    0.00000E+00        -0.15833E+02         0.00000E+00
    0.00000E+00        -0.14534E+02         0.00000E+00
    0.00000E+00        -0.13262E+02         0.00000E+00
    0.00000E+00        -0.12011E+02         0.00000E+00
    0.00000E+00        -0.10774E+02         0.00000E+00
    0.00000E+00        -0.95420E+01         0.00000E+00
    0.00000E+00        -0.83083E+01         0.00000E+00
    0.00000E+00        -0.70634E+01         0.00000E+00
    0.00000E+00        -0.57959E+01         0.00000E+00
    0.00000E+00        -0.44909E+01         0.00000E+00
    0.00000E+00        -0.31261E+01         0.00000E+00
    0.00000E+00        -0.16642E+01         0.00000E+00
    0.00000E+00         0.00000E+00         0.00000E+00
CELL_DATA        450
VECTORS vDarcy double 
    0.11704E-05         0.31721E-07         0.00000E+00
    0.11434E-05         0.72642E-07         0.00000E+00
    0.11458E-05         0.88617E-07         0.00000E+00
    0.11452E-05         0.97722E-07         0.00000E+00
    0.11445E-05         0.10229E-06         0.00000E+00
    0.11439E-05         0.10357E-06         0.00000E+00
    0.11434E-05         0.10228E-06         0.00000E+00
    0.11430E-05         0.98866E-07         0.00000E+00
    0.11427E-05         0.93607E-07         0.00000E+00
    0.11424E-05         0.86657E-07         0.00000E+00
    0.11420E-05         0.78041E-07         0.00000E+00
    0.11415E-05         0.67620E-07         0.00000E+00
    0.11405E-05         0.54955E-07         0.00000E+00
    0.11392E-05         0.38880E-07         0.00000E+00
    0.11295E-05         0.14884E-07         0.00000E+00
    0.11543E-05         0.10981E-07         0.00000E+00
    0.11363E-05         0.35862E-07         0.00000E+00
    0.11249E-05         0.57679E-07         0.00000E+00
    0.11192E-05         0.70537E-07         0.00000E+00
    0.11158E-05         0.77840E-07         0.00000E+00
    0.11133E-05         0.81250E-07         0.00000E+00
    0.11115E-05         0.81690E-07         0.00000E+00
    0.11101E-05         0.79711E-07         0.00000E+00
    0.11088E-05         0.75646E-07         0.00000E+00
    0.11076E-05         0.69673E-07         0.00000E+00
    0.11061E-05         0.61827E-07         0.00000E+00
    0.11042E-05         0.51990E-07         0.00000E+00
    0.11012E-05         0.39823E-07         0.00000E+00
    0.10951E-05         0.24657E-07         0.00000E+00
    0.10843E-05         0.81410E-08         0.00000E+00
    0.11418E-05         0.73465E-08         0.00000E+00
    0.11207E-05         0.22751E-07         0.00000E+00
    0.11057E-05         0.37498E-07         0.00000E+00
    0.10955E-05         0.49347E-07         0.00000E+00
    0.10887E-05         0.57272E-07         0.00000E+00
    0.10841E-05         0.61713E-07         0.00000E+00
    0.10807E-05         0.63273E-07         0.00000E+00
    0.10780E-05         0.62404E-07         0.00000E+00
    0.10757E-05         0.59417E-07         0.00000E+00
    0.10734E-05         0.54499E-07         0.00000E+00
    0.10709E-05         0.47740E-07         0.00000E+00
    0.10676E-05         0.39154E-07         0.00000E+00
    0.10629E-05         0.28759E-07         0.00000E+00
    0.10559E-05         0.17118E-07         0.00000E+00
    0.10464E-05         0.56013E-08         0.00000E+00
    0.11205E-05         0.46961E-08         0.00000E+00
    0.10994E-05         0.14751E-07         0.00000E+00
    0.10832E-05         0.25078E-07         0.00000E+00
    0.10711E-05         0.34129E-07         0.00000E+00
    0.10622E-05         0.41022E-07         0.00000E+00
    0.10557E-05         0.45429E-07         0.00000E+00
    0.10508E-05         0.47447E-07         0.00000E+00
    0.10469E-05         0.47308E-07         0.00000E+00
    0.10436E-05         0.45230E-07         0.00000E+00
    0.10404E-05         0.41388E-07         0.00000E+00
    0.10369E-05         0.35925E-07         0.00000E+00
    0.10327E-05         0.28997E-07         0.00000E+00
    0.10274E-05         0.20918E-07         0.00000E+00
    0.10206E-05         0.12295E-07         0.00000E+00
    0.10126E-05         0.40225E-08         0.00000E+00
    0.10934E-05         0.30418E-08         0.00000E+00
    0.10740E-05         0.95121E-08         0.00000E+00
    0.10579E-05         0.16586E-07         0.00000E+00
    0.10451E-05         0.23170E-07         0.00000E+00
    0.10352E-05         0.28528E-07         0.00000E+00
    0.10275E-05         0.32262E-07         0.00000E+00
    0.10216E-05         0.34234E-07         0.00000E+00
    0.10168E-05         0.34484E-07         0.00000E+00
    0.10126E-05         0.33128E-07         0.00000E+00
    0.10087E-05         0.30305E-07         0.00000E+00
    0.10046E-05         0.26180E-07         0.00000E+00
    0.10000E-05         0.20975E-07         0.00000E+00
    0.99462E-06         0.15030E-07         0.00000E+00
    0.98840E-06         0.88260E-08         0.00000E+00
    0.98158E-06         0.29208E-08         0.00000E+00
    0.10629E-05         0.19322E-08         0.00000E+00
    0.10454E-05         0.59548E-08         0.00000E+00
    0.10303E-05         0.10547E-07         0.00000E+00
    0.10177E-05         0.15037E-07         0.00000E+00
    0.10075E-05         0.18878E-07         0.00000E+00
    0.99940E-06         0.21712E-07         0.00000E+00
    0.99287E-06         0.23352E-07         0.00000E+00
    0.98750E-06         0.23747E-07         0.00000E+00
    0.98285E-06         0.22935E-07         0.00000E+00
    0.97852E-06         0.21016E-07         0.00000E+00
    0.97417E-06         0.18136E-07         0.00000E+00
    0.96952E-06         0.14501E-07         0.00000E+00
    0.96440E-06         0.10389E-07         0.00000E+00
    0.95881E-06         0.61340E-08         0.00000E+00
    0.95301E-06         0.20673E-08         0.00000E+00
    0.10306E-05         0.11397E-08         0.00000E+00
    0.10150E-05         0.33870E-08         0.00000E+00
    0.10012E-05         0.60626E-08         0.00000E+00
    0.98930E-06         0.88054E-08         0.00000E+00
    0.97943E-06         0.11266E-07         0.00000E+00
    0.97134E-06         0.13174E-07         0.00000E+00
    0.96473E-06         0.14362E-07         0.00000E+00
    0.95921E-06         0.14751E-07         0.00000E+00
    0.95443E-06         0.14341E-07         0.00000E+00
    0.95004E-06         0.13188E-07         0.00000E+00
    0.94572E-06         0.11399E-07         0.00000E+00
    0.94127E-06         0.91282E-08         0.00000E+00
    0.93656E-06         0.65656E-08         0.00000E+00
    0.93162E-06         0.39175E-08         0.00000E+00
    0.92664E-06         0.13602E-08         0.00000E+00
    0.99749E-06         0.52245E-09         0.00000E+00
    0.98368E-06         0.13869E-08         0.00000E+00
    0.97121E-06         0.25258E-08         0.00000E+00
    0.96037E-06         0.38045E-08         0.00000E+00
    0.95120E-06         0.50440E-08         0.00000E+00
    0.94359E-06         0.60782E-08         0.00000E+00
    0.93729E-06         0.67836E-08         0.00000E+00
    0.93203E-06         0.70891E-08         0.00000E+00
    0.92746E-06         0.69739E-08         0.00000E+00
    0.92330E-06         0.64610E-08         0.00000E+00
    0.91929E-06         0.56110E-08         0.00000E+00
    0.91523E-06         0.45136E-08         0.00000E+00
    0.91103E-06         0.32749E-08         0.00000E+00
    0.90671E-06         0.19955E-08         0.00000E+00
    0.90240E-06         0.73957E-09         0.00000E+00
    0.96443E-06        -0.12910E-10         0.00000E+00
    0.95217E-06        -0.32400E-09         0.00000E+00
    0.94108E-06        -0.48723E-09         0.00000E+00
    0.93142E-06        -0.46859E-09         0.00000E+00
    0.92323E-06        -0.30810E-09         0.00000E+00
    0.91642E-06        -0.75411E-10         0.00000E+00
    0.91080E-06         0.16053E-09         0.00000E+00
    0.90611E-06         0.34805E-09         0.00000E+00
    0.90208E-06         0.45909E-09         0.00000E+00
    0.89843E-06         0.48946E-09         0.00000E+00
    0.89493E-06         0.45520E-09         0.00000E+00
    0.89142E-06         0.38529E-09         0.00000E+00
    0.88780E-06         0.31000E-09         0.00000E+00
    0.88408E-06         0.24405E-09         0.00000E+00
    0.88033E-06         0.16594E-09         0.00000E+00
    0.93200E-06        -0.53204E-09         0.00000E+00
    0.92108E-06        -0.19416E-08         0.00000E+00
    0.91134E-06        -0.32841E-08         0.00000E+00
    0.90295E-06        -0.43969E-08         0.00000E+00
    0.89592E-06        -0.52097E-08         0.00000E+00
    0.89017E-06        -0.57096E-08         0.00000E+00
    0.88550E-06        -0.59138E-08         0.00000E+00
    0.88168E-06        -0.58510E-08         0.00000E+00
    0.87844E-06        -0.55507E-08         0.00000E+00
    0.87554E-06        -0.50393E-08         0.00000E+00
    0.87276E-06        -0.43403E-08         0.00000E+00
    0.86993E-06        -0.34788E-08         0.00000E+00
    0.86695E-06        -0.24899E-08         0.00000E+00
    0.86379E-06        -0.14302E-08         0.00000E+00
    0.86052E-06        -0.39006E-09         0.00000E+00
    0.90066E-06        -0.10832E-08         0.00000E+00
    0.89090E-06        -0.36103E-08         0.00000E+00
    0.88245E-06        -0.60953E-08         0.00000E+00
    0.87538E-06        -0.82764E-08         0.00000E+00
    0.86967E-06        -0.99967E-08         0.00000E+00
    0.86517E-06        -0.11176E-07         0.00000E+00
    0.86168E-06        -0.11788E-07         0.00000E+00
    0.85897E-06        -0.11840E-07         0.00000E+00
    0.85676E-06        -0.11362E-07         0.00000E+00
    0.85481E-06        -0.10398E-07         0.00000E+00
    0.85290E-06        -0.90076E-08         0.00000E+00
    0.85086E-06        -0.72627E-08         0.00000E+00
    0.84856E-06        -0.52551E-08         0.00000E+00
    0.84597E-06        -0.31017E-08         0.00000E+00
    0.84311E-06        -0.95168E-09         0.00000E+00
    0.87077E-06        -0.17031E-08         0.00000E+00
    0.86201E-06        -0.54396E-08         0.00000E+00
    0.85479E-06        -0.90978E-08         0.00000E+00
    0.84909E-06        -0.12339E-07         0.00000E+00
    0.84479E-06        -0.14938E-07         0.00000E+00
    0.84172E-06        -0.16763E-07         0.00000E+00
    0.83961E-06        -0.17754E-07         0.00000E+00
    0.83821E-06        -0.17900E-07         0.00000E+00
    0.83723E-06        -0.17234E-07         0.00000E+00
    0.83641E-06        -0.15819E-07         0.00000E+00
    0.83552E-06        -0.13742E-07         0.00000E+00
    0.83436E-06        -0.11120E-07         0.00000E+00
    0.83280E-06        -0.80925E-08         0.00000E+00
    0.83077E-06        -0.48313E-08         0.00000E+00
    0.82826E-06        -0.15380E-08         0.00000E+00
    0.84257E-06        -0.24196E-08         0.00000E+00
    0.83470E-06        -0.75142E-08         0.00000E+00
    0.82868E-06        -0.12429E-07         0.00000E+00
    0.82438E-06        -0.16765E-07         0.00000E+00
    0.82161E-06        -0.20246E-07         0.00000E+00
    0.82010E-06        -0.22702E-07         0.00000E+00
    0.81955E-06        -0.24047E-07         0.00000E+00
    0.81964E-06        -0.24262E-07         0.00000E+00
    0.82008E-06        -0.23384E-07         0.00000E+00
    0.82055E-06        -0.21492E-07         0.00000E+00
    0.82080E-06        -0.18705E-07         0.00000E+00
    0.82062E-06        -0.15176E-07         0.00000E+00
    0.81984E-06        -0.11090E-07         0.00000E+00
    0.81837E-06        -0.66695E-08         0.00000E+00
    0.81616E-06        -0.21648E-08         0.00000E+00
    0.81621E-06        -0.32549E-08         0.00000E+00
    0.80915E-06        -0.99004E-08         0.00000E+00
    0.80432E-06        -0.16197E-07         0.00000E+00
    0.80149E-06        -0.21698E-07         0.00000E+00
    0.80035E-06        -0.26091E-07         0.00000E+00
    0.80055E-06        -0.29177E-07         0.00000E+00
    0.80172E-06        -0.30857E-07         0.00000E+00
    0.80349E-06        -0.31110E-07         0.00000E+00
    0.80550E-06        -0.29982E-07         0.00000E+00
    0.80742E-06        -0.27572E-07         0.00000E+00
    0.80894E-06        -0.24026E-07         0.00000E+00
    0.80982E-06        -0.19533E-07         0.00000E+00
    0.80987E-06        -0.14321E-07         0.00000E+00
    0.80896E-06        -0.86576E-08         0.00000E+00
    0.80702E-06        -0.28453E-08         0.00000E+00
    0.79176E-06        -0.42261E-08         0.00000E+00
    0.78547E-06        -0.12650E-07         0.00000E+00
    0.78187E-06        -0.20486E-07         0.00000E+00
    0.78060E-06        -0.27249E-07         0.00000E+00
    0.78122E-06        -0.32600E-07         0.00000E+00
    0.78328E-06        -0.36327E-07         0.00000E+00
    0.78634E-06        -0.38326E-07         0.00000E+00
    0.78996E-06        -0.38583E-07         0.00000E+00
    0.79371E-06        -0.37159E-07         0.00000E+00
    0.79721E-06        -0.34175E-07         0.00000E+00
    0.80012E-06        -0.29804E-07         0.00000E+00
    0.80216E-06        -0.24270E-07         0.00000E+00
    0.80309E-06        -0.17840E-07         0.00000E+00
    0.80274E-06        -0.10829E-07         0.00000E+00
    0.80103E-06        -0.35901E-08         0.00000E+00
    0.76917E-06        -0.53469E-08         0.00000E+00
    0.76368E-06        -0.15805E-07         0.00000E+00
    0.76139E-06        -0.25361E-07         0.00000E+00
    0.76180E-06        -0.33500E-07         0.00000E+00
    0.76433E-06        -0.39868E-07         0.00000E+00
    0.76844E-06        -0.44250E-07         0.00000E+00
    0.77357E-06        -0.46551E-07         0.00000E+00
    0.77921E-06        -0.46774E-07         0.00000E+00
    0.78486E-06        -0.45002E-07         0.00000E+00
    0.79009E-06        -0.41379E-07         0.00000E+00
    0.79452E-06        -0.36109E-07         0.00000E+00
    0.79781E-06        -0.29444E-07         0.00000E+00
    0.79968E-06        -0.21692E-07         0.00000E+00
    0.79992E-06        -0.13211E-07         0.00000E+00
    0.79840E-06        -0.44081E-08         0.00000E+00
    0.74832E-06        -0.66290E-08         0.00000E+00
    0.74371E-06        -0.19400E-07         0.00000E+00
    0.74288E-06        -0.30873E-07         0.00000E+00
    0.74514E-06        -0.40513E-07         0.00000E+00
    0.74979E-06        -0.47958E-07         0.00000E+00
    0.75615E-06        -0.53005E-07         0.00000E+00
    0.76354E-06        -0.55585E-07         0.00000E+00
    0.77138E-06        -0.55729E-07         0.00000E+00
    0.77910E-06        -0.53550E-07         0.00000E+00
    0.78622E-06        -0.49223E-07         0.00000E+00
    0.79230E-06        -0.42976E-07         0.00000E+00
    0.79694E-06        -0.35090E-07         0.00000E+00
    0.79982E-06        -0.25906E-07         0.00000E+00
    0.80067E-06        -0.15823E-07         0.00000E+00
    0.79931E-06        -0.53064E-08         0.00000E+00
    0.72900E-06        -0.80826E-08         0.00000E+00
    0.72542E-06        -0.23461E-07         0.00000E+00
    0.72625E-06        -0.37060E-07         0.00000E+00
    0.73060E-06        -0.48321E-07         0.00000E+00
    0.73762E-06        -0.56893E-07         0.00000E+00
    0.74646E-06        -0.62603E-07         0.00000E+00
    0.75635E-06        -0.65424E-07         0.00000E+00
    0.76658E-06        -0.65434E-07         0.00000E+00
    0.77655E-06        -0.62789E-07         0.00000E+00
    0.78570E-06        -0.57694E-07         0.00000E+00
    0.79356E-06        -0.50403E-07         0.00000E+00
    0.79968E-06        -0.41215E-07         0.00000E+00
    0.80366E-06        -0.30494E-07         0.00000E+00
    0.80517E-06        -0.18679E-07         0.00000E+00
    0.80396E-06        -0.62908E-08         0.00000E+00
    0.71087E-06        -0.97177E-08         0.00000E+00
    0.70857E-06        -0.28016E-07         0.00000E+00
    0.71135E-06        -0.43947E-07         0.00000E+00
    0.71813E-06        -0.56937E-07         0.00000E+00
    0.72783E-06        -0.66659E-07         0.00000E+00
    0.73943E-06        -0.72997E-07         0.00000E+00
    0.75204E-06        -0.75995E-07         0.00000E+00
    0.76486E-06        -0.75803E-07         0.00000E+00
    0.77724E-06        -0.72631E-07         0.00000E+00
    0.78858E-06        -0.66720E-07         0.00000E+00
    0.79837E-06        -0.58339E-07         0.00000E+00
    0.80609E-06        -0.47795E-07         0.00000E+00
    0.81130E-06        -0.35456E-07         0.00000E+00
    0.81355E-06        -0.21787E-07         0.00000E+00
    0.81250E-06        -0.73665E-08         0.00000E+00
    0.69352E-06        -0.11546E-07         0.00000E+00
    0.69283E-06        -0.33088E-07         0.00000E+00
    0.69799E-06        -0.51549E-07         0.00000E+00
    0.70763E-06        -0.66340E-07         0.00000E+00
    0.72040E-06        -0.77184E-07         0.00000E+00
    0.73509E-06        -0.84063E-07         0.00000E+00
    0.75066E-06        -0.87133E-07         0.00000E+00
    0.76626E-06        -0.86648E-07         0.00000E+00
    0.78118E-06        -0.82892E-07         0.00000E+00
    0.79485E-06        -0.76143E-07         0.00000E+00
    0.80670E-06        -0.66672E-07         0.00000E+00
    0.81619E-06        -0.54764E-07         0.00000E+00
    0.82277E-06        -0.40770E-07         0.00000E+00
    0.82590E-06        -0.25152E-07         0.00000E+00
    0.82506E-06        -0.85387E-08         0.00000E+00
    0.67642E-06        -0.13584E-07         0.00000E+00
    0.67783E-06        -0.38709E-07         0.00000E+00
    0.68594E-06        -0.59870E-07         0.00000E+00
    0.69899E-06        -0.76470E-07         0.00000E+00
    0.71531E-06        -0.88324E-07         0.00000E+00
    0.73344E-06        -0.95572E-07         0.00000E+00
    0.75222E-06        -0.98545E-07         0.00000E+00
    0.77074E-06        -0.97647E-07         0.00000E+00
    0.78832E-06        -0.93258E-07         0.00000E+00
    0.80439E-06        -0.85693E-07         0.00000E+00
    0.81843E-06        -0.75198E-07         0.00000E+00
    0.82986E-06        -0.62003E-07         0.00000E+00
    0.83805E-06        -0.46385E-07         0.00000E+00
    0.84226E-06        -0.28771E-07         0.00000E+00
    0.84178E-06        -0.98137E-08         0.00000E+00
    0.65892E-06        -0.15855E-07         0.00000E+00
    0.66309E-06        -0.44920E-07         0.00000E+00
    0.67493E-06        -0.68904E-07         0.00000E+00
    0.69213E-06        -0.87212E-07         0.00000E+00
    0.71260E-06        -0.99825E-07         0.00000E+00
    0.73457E-06        -0.10714E-06         0.00000E+00
    0.75675E-06        -0.10976E-06         0.00000E+00
    0.77825E-06        -0.10829E-06         0.00000E+00
    0.79848E-06        -0.10324E-06         0.00000E+00
    0.81697E-06        -0.94943E-07         0.00000E+00
    0.83330E-06        -0.83598E-07         0.00000E+00
    0.84688E-06        -0.69312E-07         0.00000E+00
    0.85696E-06        -0.52220E-07         0.00000E+00
    0.86260E-06        -0.32638E-07         0.00000E+00
    0.86277E-06        -0.11200E-07         0.00000E+00
    0.64021E-06        -0.18399E-07         0.00000E+00
    0.64810E-06        -0.51786E-07         0.00000E+00
    0.66475E-06        -0.78627E-07         0.00000E+00
    0.68710E-06        -0.98360E-07         0.00000E+00
    0.71241E-06        -0.11127E-06         0.00000E+00
    0.73860E-06        -0.11817E-06         0.00000E+00
    0.76429E-06        -0.12005E-06         0.00000E+00
    0.78869E-06        -0.11781E-06         0.00000E+00
    0.81141E-06        -0.11209E-06         0.00000E+00
    0.83223E-06        -0.10326E-06         0.00000E+00
    0.85086E-06        -0.91385E-07         0.00000E+00
    0.86679E-06        -0.76382E-07         0.00000E+00
    0.87918E-06        -0.58137E-07         0.00000E+00
    0.88678E-06        -0.36736E-07         0.00000E+00
    0.88810E-06        -0.12711E-07         0.00000E+00
    0.61932E-06        -0.21287E-07         0.00000E+00
    0.63229E-06        -0.59415E-07         0.00000E+00
    0.65529E-06        -0.88981E-07         0.00000E+00
    0.68408E-06        -0.10955E-06         0.00000E+00
    0.71507E-06        -0.12197E-06         0.00000E+00
    0.74577E-06        -0.12772E-06         0.00000E+00
    0.77487E-06        -0.12836E-06         0.00000E+00
    0.80187E-06        -0.12512E-06         0.00000E+00
    0.82672E-06        -0.11880E-06         0.00000E+00
    0.84956E-06        -0.10973E-06         0.00000E+00
    0.87040E-06        -0.97838E-07         0.00000E+00
    0.88890E-06        -0.82735E-07         0.00000E+00
    0.90415E-06        -0.63909E-07         0.00000E+00
    0.91453E-06        -0.41030E-07         0.00000E+00
    0.91788E-06        -0.14361E-07         0.00000E+00
    0.59500E-06        -0.24640E-07         0.00000E+00
    0.61509E-06        -0.67974E-07         0.00000E+00
    0.64670E-06        -0.99815E-07         0.00000E+00
    0.68365E-06        -0.12012E-06         0.00000E+00
    0.72115E-06        -0.13079E-06         0.00000E+00
    0.75645E-06        -0.13439E-06         0.00000E+00
    0.78855E-06        -0.13320E-06         0.00000E+00
    0.81752E-06        -0.12877E-06         0.00000E+00
    0.84386E-06        -0.12199E-06         0.00000E+00
    0.86819E-06        -0.11312E-06         0.00000E+00
    0.89096E-06        -0.10192E-06         0.00000E+00
    0.91215E-06        -0.87627E-07         0.00000E+00
    0.93095E-06        -0.69150E-07         0.00000E+00
    0.94535E-06        -0.45438E-07         0.00000E+00
    0.95220E-06        -0.16171E-07         0.00000E+00
    0.56556E-06        -0.28683E-07         0.00000E+00
    0.59604E-06        -0.77710E-07         0.00000E+00
    0.63966E-06        -0.11069E-06         0.00000E+00
    0.68693E-06        -0.12872E-06         0.00000E+00
    0.73155E-06        -0.13578E-06         0.00000E+00
    0.77100E-06        -0.13609E-06         0.00000E+00
    0.80523E-06        -0.13258E-06         0.00000E+00
    0.83520E-06        -0.12692E-06         0.00000E+00
    0.86210E-06        -0.11993E-06         0.00000E+00
    0.88709E-06        -0.11180E-06         0.00000E+00
    0.91122E-06        -0.10214E-06         0.00000E+00
    0.93505E-06        -0.89866E-07         0.00000E+00
    0.95817E-06        -0.73150E-07         0.00000E+00
    0.97836E-06        -0.49752E-07         0.00000E+00
    0.99114E-06        -0.18142E-07         0.00000E+00
    0.52867E-06        -0.33850E-07         0.00000E+00
    0.57517E-06        -0.88850E-07         0.00000E+00
    0.63603E-06        -0.12028E-06         0.00000E+00
    0.69590E-06        -0.13243E-06         0.00000E+00
    0.74725E-06        -0.13365E-06         0.00000E+00
    0.78947E-06        -0.12993E-06         0.00000E+00
    0.82445E-06        -0.12409E-06         0.00000E+00
    0.85420E-06        -0.11748E-06         0.00000E+00
    0.88054E-06        -0.11068E-06         0.00000E+00
    0.90518E-06        -0.10379E-06         0.00000E+00
    0.92971E-06        -0.96426E-07         0.00000E+00
    0.95564E-06        -0.87512E-07         0.00000E+00
    0.98366E-06        -0.74508E-07         0.00000E+00
    0.10120E-05        -0.53419E-07         0.00000E+00
    0.10347E-05        -0.20228E-07         0.00000E+00
    0.48082E-06        -0.40872E-07         0.00000E+00
    0.55413E-06        -0.10144E-06         0.00000E+00
    0.64035E-06        -0.12371E-06         0.00000E+00
    0.71307E-06        -0.12477E-06         0.00000E+00
    0.76820E-06        -0.11949E-06         0.00000E+00
    0.81098E-06        -0.11233E-06         0.00000E+00
    0.84507E-06        -0.10504E-06         0.00000E+00
    0.87337E-06        -0.98277E-07         0.00000E+00
    0.89816E-06        -0.92262E-07         0.00000E+00
    0.92143E-06        -0.86990E-07         0.00000E+00
    0.94520E-06        -0.82231E-07         0.00000E+00
    0.97174E-06        -0.77304E-07         0.00000E+00
    0.10043E-05        -0.70359E-07         0.00000E+00
    0.10435E-05        -0.54941E-07         0.00000E+00
    0.10827E-05        -0.22022E-07         0.00000E+00
    0.41566E-06        -0.55505E-07         0.00000E+00
    0.54312E-06        -0.10587E-06         0.00000E+00
    0.66060E-06        -0.10388E-06         0.00000E+00
    0.73696E-06        -0.95680E-07         0.00000E+00
    0.79199E-06        -0.87016E-07         0.00000E+00
    0.83299E-06        -0.79245E-07         0.00000E+00
    0.86491E-06        -0.72638E-07         0.00000E+00
    0.89100E-06        -0.67178E-07         0.00000E+00
    0.91366E-06        -0.62796E-07         0.00000E+00
    0.93497E-06        -0.59422E-07         0.00000E+00
    0.95705E-06        -0.56981E-07         0.00000E+00
    0.98266E-06        -0.55308E-07         0.00000E+00
    0.10158E-05        -0.53833E-07         0.00000E+00
    0.10673E-05        -0.49820E-07         0.00000E+00
    0.11334E-05        -0.23079E-07         0.00000E+00
    0.34049E-06        -0.12928E-07         0.00000E+00
    0.57002E-06        -0.32717E-07         0.00000E+00
    0.68423E-06        -0.31139E-07         0.00000E+00
    0.75966E-06        -0.29035E-07         0.00000E+00
    0.81208E-06        -0.26566E-07         0.00000E+00
    0.85064E-06        -0.24363E-07         0.00000E+00
    0.88033E-06        -0.22490E-07         0.00000E+00
    0.90438E-06        -0.20961E-07         0.00000E+00
    0.92518E-06        -0.19773E-07         0.00000E+00
    0.94473E-06        -0.18932E-07         0.00000E+00
    0.96515E-06        -0.18457E-07         0.00000E+00
    0.98913E-06        -0.18402E-07         0.00000E+00
    0.10213E-05        -0.18710E-07         0.00000E+00
    0.10703E-05        -0.20050E-07         0.00000E+00
    0.11806E-05        -0.10869E-07         0.00000E+00
POINT_DATA        496
VECTORS vDarcyNodal double 
    0.11524E-05         0.49690E-07         0.00000E+00
    0.11521E-05         0.74946E-07         0.00000E+00
    0.11498E-05         0.10300E-06         0.00000E+00
    0.11472E-05         0.10868E-06         0.00000E+00
    0.11458E-05         0.11290E-06         0.00000E+00
    0.11448E-05         0.11422E-06         0.00000E+00
    0.11441E-05         0.11305E-06         0.00000E+00
    0.11436E-05         0.10981E-06         0.00000E+00
    0.11432E-05         0.10481E-06         0.00000E+00
    0.11427E-05         0.98218E-07         0.00000E+00
    0.11423E-05         0.90131E-07         0.00000E+00
    0.11417E-05         0.80515E-07         0.00000E+00
    0.11409E-05         0.69107E-07         0.00000E+00
    0.11393E-05         0.55447E-07         0.00000E+00
    0.11364E-05         0.33967E-07         0.00000E+00
    0.11346E-05         0.19940E-07         0.00000E+00
    0.11525E-05         0.13265E-07         0.00000E+00
    0.11472E-05         0.28789E-07         0.00000E+00
    0.11391E-05         0.57424E-07         0.00000E+00
    0.11348E-05         0.76726E-07         0.00000E+00
    0.11319E-05         0.86110E-07         0.00000E+00
    0.11299E-05         0.90599E-07         0.00000E+00
    0.11285E-05         0.91745E-07         0.00000E+00
    0.11273E-05         0.90284E-07         0.00000E+00
    0.11264E-05         0.86651E-07         0.00000E+00
    0.11256E-05         0.81090E-07         0.00000E+00
    0.11247E-05         0.73693E-07         0.00000E+00
    0.11235E-05         0.64381E-07         0.00000E+00
    0.11219E-05         0.52845E-07         0.00000E+00
    0.11191E-05         0.37951E-07         0.00000E+00
    0.11138E-05         0.19591E-07         0.00000E+00
    0.11102E-05         0.97451E-08         0.00000E+00
    0.11464E-05         0.90319E-08         0.00000E+00
    0.11361E-05         0.18371E-07         0.00000E+00
    0.11202E-05         0.36372E-07         0.00000E+00
    0.11111E-05         0.51689E-07         0.00000E+00
    0.11050E-05         0.62444E-07         0.00000E+00
    0.11007E-05         0.68657E-07         0.00000E+00
    0.10977E-05         0.71356E-07         0.00000E+00
    0.10953E-05         0.71278E-07         0.00000E+00
    0.10934E-05         0.68867E-07         0.00000E+00
    0.10916E-05         0.64391E-07         0.00000E+00
    0.10897E-05         0.57971E-07         0.00000E+00
    0.10875E-05         0.49602E-07         0.00000E+00
    0.10843E-05         0.39131E-07         0.00000E+00
    0.10796E-05         0.26669E-07         0.00000E+00
    0.10716E-05         0.13279E-07         0.00000E+00
    0.10666E-05         0.65594E-08         0.00000E+00
    0.11300E-05         0.57130E-08         0.00000E+00
    0.11194E-05         0.11836E-07         0.00000E+00
    0.11012E-05         0.24058E-07         0.00000E+00
    0.10882E-05         0.35348E-07         0.00000E+00
    0.10791E-05         0.44359E-07         0.00000E+00
    0.10727E-05         0.50504E-07         0.00000E+00
    0.10679E-05         0.53798E-07         0.00000E+00
    0.10643E-05         0.54562E-07         0.00000E+00
    0.10613E-05         0.53112E-07         0.00000E+00
    0.10585E-05         0.49677E-07         0.00000E+00
    0.10557E-05         0.44413E-07         0.00000E+00
    0.10524E-05         0.37426E-07         0.00000E+00
    0.10482E-05         0.28896E-07         0.00000E+00
    0.10424E-05         0.19285E-07         0.00000E+00
    0.10346E-05         0.94745E-08         0.00000E+00
    0.10302E-05         0.46568E-08         0.00000E+00
    0.11062E-05         0.37109E-08         0.00000E+00
    0.10960E-05         0.76765E-08         0.00000E+00
    0.10779E-05         0.15894E-07         0.00000E+00
    0.10638E-05         0.24013E-07         0.00000E+00
    0.10530E-05         0.30956E-07         0.00000E+00
    0.10450E-05         0.36112E-07         0.00000E+00
    0.10389E-05         0.39240E-07         0.00000E+00
    0.10341E-05         0.40349E-07         0.00000E+00
    0.10301E-05         0.39575E-07         0.00000E+00
    0.10265E-05         0.37080E-07         0.00000E+00
    0.10229E-05         0.33027E-07         0.00000E+00
    0.10189E-05         0.27605E-07         0.00000E+00
    0.10142E-05         0.21103E-07         0.00000E+00
    0.10083E-05         0.13980E-07         0.00000E+00
    0.10013E-05         0.68654E-08         0.00000E+00
    0.99758E-06         0.33973E-08         0.00000E+00
    0.10777E-05         0.23958E-08         0.00000E+00
    0.10684E-05         0.49234E-08         0.00000E+00
    0.10513E-05         0.10292E-07         0.00000E+00
    0.10373E-05         0.15862E-07         0.00000E+00
    0.10260E-05         0.20881E-07         0.00000E+00
    0.10172E-05         0.24825E-07         0.00000E+00
    0.10103E-05         0.27404E-07         0.00000E+00
    0.10047E-05         0.28514E-07         0.00000E+00
    0.10000E-05         0.28174E-07         0.00000E+00
    0.99587E-06         0.26478E-07         0.00000E+00
    0.99177E-06         0.23569E-07         0.00000E+00
    0.98743E-06         0.19641E-07         0.00000E+00
    0.98256E-06         0.14970E-07         0.00000E+00
    0.97701E-06         0.99175E-08         0.00000E+00
    0.97088E-06         0.48994E-08         0.00000E+00
    0.96770E-06         0.24519E-08         0.00000E+00
    0.10464E-05         0.14855E-08         0.00000E+00
    0.10381E-05         0.29978E-08         0.00000E+00
    0.10225E-05         0.62766E-08         0.00000E+00
    0.10092E-05         0.98171E-08         0.00000E+00
    0.99817E-06         0.13151E-07         0.00000E+00
    0.98921E-06         0.15894E-07         0.00000E+00
    0.98198E-06         0.17793E-07         0.00000E+00
    0.97608E-06         0.18716E-07         0.00000E+00
    0.97109E-06         0.18633E-07         0.00000E+00
    0.96664E-06         0.17587E-07         0.00000E+00
    0.96237E-06         0.15682E-07         0.00000E+00
    0.95799E-06         0.13076E-07         0.00000E+00
    0.95330E-06         0.99785E-08         0.00000E+00
    0.94822E-06         0.66415E-08         0.00000E+00
    0.94288E-06         0.33181E-08         0.00000E+00
    0.94016E-06         0.16899E-08         0.00000E+00
    0.10137E-05         0.80697E-09         0.00000E+00
    0.10064E-05         0.15558E-08         0.00000E+00
    0.99240E-06         0.32275E-08         0.00000E+00
    0.98016E-06         0.51308E-08         0.00000E+00
    0.96978E-06         0.70208E-08         0.00000E+00
    0.96118E-06         0.86598E-08         0.00000E+00
    0.95412E-06         0.98635E-08         0.00000E+00
    0.94829E-06         0.10518E-07         0.00000E+00
    0.94335E-06         0.10575E-07         0.00000E+00
    0.93896E-06         0.10047E-07         0.00000E+00
    0.93481E-06         0.89961E-08         0.00000E+00
    0.93066E-06         0.75250E-08         0.00000E+00
    0.92634E-06         0.57687E-08         0.00000E+00
    0.92180E-06         0.38752E-08         0.00000E+00
    0.91715E-06         0.19752E-08         0.00000E+00
    0.91481E-06         0.10376E-08         0.00000E+00
    0.98069E-06         0.24911E-09         0.00000E+00
    0.97415E-06         0.37658E-09         0.00000E+00
    0.96172E-06         0.73240E-09         0.00000E+00
    0.95071E-06         0.12699E-08         0.00000E+00
    0.94129E-06         0.19175E-08         0.00000E+00
    0.93341E-06         0.25661E-08         0.00000E+00
    0.92691E-06         0.31097E-08         0.00000E+00
    0.92153E-06         0.34683E-08         0.00000E+00
    0.91697E-06         0.35973E-08         0.00000E+00
    0.91295E-06         0.34877E-08         0.00000E+00
    0.90919E-06         0.31626E-08         0.00000E+00
    0.90547E-06         0.26698E-08         0.00000E+00
    0.90166E-06         0.20718E-08         0.00000E+00
    0.89770E-06         0.14287E-08         0.00000E+00
    0.89367E-06         0.77584E-09         0.00000E+00
    0.89164E-06         0.44906E-09         0.00000E+00
    0.94795E-06        -0.26429E-09         0.00000E+00
    0.94213E-06        -0.69170E-09         0.00000E+00
    0.93112E-06        -0.14991E-08         0.00000E+00
    0.92141E-06        -0.21590E-08         0.00000E+00
    0.91313E-06        -0.26085E-08         0.00000E+00
    0.90625E-06        -0.28497E-08         0.00000E+00
    0.90061E-06        -0.29162E-08         0.00000E+00
    0.89599E-06        -0.28489E-08         0.00000E+00
    0.89213E-06        -0.26826E-08         0.00000E+00
    0.88875E-06        -0.24399E-08         0.00000E+00
    0.88560E-06        -0.21311E-08         0.00000E+00
    0.88250E-06        -0.17582E-08         0.00000E+00
    0.87930E-06        -0.13231E-08         0.00000E+00
    0.87594E-06        -0.83963E-09         0.00000E+00
    0.87246E-06        -0.34882E-09         0.00000E+00
    0.87070E-06        -0.10890E-09         0.00000E+00
    0.91604E-06        -0.78849E-09         0.00000E+00
    0.91086E-06        -0.17591E-08         0.00000E+00
    0.90114E-06        -0.36805E-08         0.00000E+00
    0.89275E-06        -0.54534E-08         0.00000E+00
    0.88574E-06        -0.69103E-08         0.00000E+00
    0.88006E-06        -0.79672E-08         0.00000E+00
    0.87553E-06        -0.85960E-08         0.00000E+00
    0.87193E-06        -0.88018E-08         0.00000E+00
    0.86901E-06        -0.86078E-08         0.00000E+00
    0.86651E-06        -0.80468E-08         0.00000E+00
    0.86419E-06        -0.71574E-08         0.00000E+00
    0.86184E-06        -0.59854E-08         0.00000E+00
    0.85934E-06        -0.45882E-08         0.00000E+00
    0.85661E-06        -0.30423E-08         0.00000E+00
    0.85364E-06        -0.14526E-08         0.00000E+00
    0.85210E-06        -0.66187E-09         0.00000E+00
    0.88538E-06        -0.13649E-08         0.00000E+00
    0.88075E-06        -0.29084E-08         0.00000E+00
    0.87221E-06        -0.59735E-08         0.00000E+00
    0.86514E-06        -0.88427E-08         0.00000E+00
    0.85949E-06        -0.11267E-07         0.00000E+00
    0.85516E-06        -0.13095E-07         0.00000E+00
    0.85194E-06        -0.14248E-07         0.00000E+00
    0.84959E-06        -0.14703E-07         0.00000E+00
    0.84785E-06        -0.14473E-07         0.00000E+00
    0.84643E-06        -0.13601E-07         0.00000E+00
    0.84510E-06        -0.12149E-07         0.00000E+00
    0.84365E-06        -0.10202E-07         0.00000E+00
    0.84193E-06        -0.78657E-08         0.00000E+00
    0.83983E-06        -0.52714E-08         0.00000E+00
    0.83734E-06        -0.25792E-08         0.00000E+00
    0.83600E-06        -0.12307E-08         0.00000E+00
    0.85627E-06        -0.20253E-08         0.00000E+00
    0.85213E-06        -0.42030E-08         0.00000E+00
    0.84468E-06        -0.85029E-08         0.00000E+00
    0.83892E-06        -0.12506E-07         0.00000E+00
    0.83472E-06        -0.15899E-07         0.00000E+00
    0.83188E-06        -0.18480E-07         0.00000E+00
    0.83014E-06        -0.20132E-07         0.00000E+00
    0.82924E-06        -0.20811E-07         0.00000E+00
    0.82885E-06        -0.20525E-07         0.00000E+00
    0.82871E-06        -0.19325E-07         0.00000E+00
    0.82853E-06        -0.17299E-07         0.00000E+00
    0.82809E-06        -0.14566E-07         0.00000E+00
    0.82721E-06        -0.11273E-07         0.00000E+00
    0.82577E-06        -0.76028E-08         0.00000E+00
    0.82373E-06        -0.37650E-08         0.00000E+00
    0.82256E-06        -0.18326E-08         0.00000E+00
    0.82891E-06        -0.27941E-08         0.00000E+00
    0.82520E-06        -0.56922E-08         0.00000E+00
    0.81880E-06        -0.11366E-07         0.00000E+00
    0.81437E-06        -0.16582E-07         0.00000E+00
    0.81169E-06        -0.20981E-07         0.00000E+00
    0.81047E-06        -0.24320E-07         0.00000E+00
    0.81038E-06        -0.26457E-07         0.00000E+00
    0.81109E-06        -0.27336E-07         0.00000E+00
    0.81226E-06        -0.26963E-07         0.00000E+00
    0.81354E-06        -0.25404E-07         0.00000E+00
    0.81465E-06        -0.22767E-07         0.00000E+00
    0.81533E-06        -0.19206E-07         0.00000E+00
    0.81537E-06        -0.14908E-07         0.00000E+00
    0.81462E-06        -0.10099E-07         0.00000E+00
    0.81301E-06        -0.50397E-08         0.00000E+00
    0.81198E-06        -0.24820E-08         0.00000E+00
    0.80341E-06        -0.36905E-08         0.00000E+00
    0.80011E-06        -0.74143E-08         0.00000E+00
    0.79473E-06        -0.14639E-07         0.00000E+00
    0.79168E-06        -0.21182E-07         0.00000E+00
    0.79062E-06        -0.26648E-07         0.00000E+00
    0.79116E-06        -0.30768E-07         0.00000E+00
    0.79288E-06        -0.33385E-07         0.00000E+00
    0.79538E-06        -0.34439E-07         0.00000E+00
    0.79826E-06        -0.33943E-07         0.00000E+00
    0.80114E-06        -0.31978E-07         0.00000E+00
    0.80367E-06        -0.28677E-07         0.00000E+00
    0.80558E-06        -0.24224E-07         0.00000E+00
    0.80660E-06        -0.18845E-07         0.00000E+00
    0.80657E-06        -0.12811E-07         0.00000E+00
    0.80536E-06        -0.64281E-08         0.00000E+00
    0.80446E-06        -0.31907E-08         0.00000E+00
    0.77978E-06        -0.47293E-08         0.00000E+00
    0.77689E-06        -0.93998E-08         0.00000E+00
    0.77256E-06        -0.18380E-07         0.00000E+00
    0.77098E-06        -0.26389E-07         0.00000E+00
    0.77166E-06        -0.33003E-07         0.00000E+00
    0.77411E-06        -0.37938E-07         0.00000E+00
    0.77782E-06        -0.41035E-07         0.00000E+00
    0.78228E-06        -0.42238E-07         0.00000E+00
    0.78705E-06        -0.41576E-07         0.00000E+00
    0.79167E-06        -0.39150E-07         0.00000E+00
    0.79577E-06        -0.35120E-07         0.00000E+00
    0.79901E-06        -0.29697E-07         0.00000E+00
    0.80110E-06        -0.23146E-07         0.00000E+00
    0.80181E-06        -0.15778E-07         0.00000E+00
    0.80100E-06        -0.79497E-08         0.00000E+00
    0.80021E-06        -0.39683E-08         0.00000E+00
    0.75794E-06        -0.59228E-08         0.00000E+00
    0.75548E-06        -0.11673E-07         0.00000E+00
    0.75230E-06        -0.22637E-07         0.00000E+00
    0.75231E-06        -0.32267E-07         0.00000E+00
    0.75491E-06        -0.40120E-07         0.00000E+00
    0.75946E-06        -0.45909E-07         0.00000E+00
    0.76534E-06        -0.49484E-07         0.00000E+00
    0.77196E-06        -0.50807E-07         0.00000E+00
    0.77877E-06        -0.49932E-07         0.00000E+00
    0.78531E-06        -0.46984E-07         0.00000E+00
    0.79111E-06        -0.42152E-07         0.00000E+00
    0.79579E-06        -0.35675E-07         0.00000E+00
    0.79903E-06        -0.27850E-07         0.00000E+00
    0.80053E-06        -0.19029E-07         0.00000E+00
    0.80012E-06        -0.96200E-08         0.00000E+00
    0.79942E-06        -0.48227E-08         0.00000E+00
    0.73772E-06        -0.72811E-08         0.00000E+00
    0.73575E-06        -0.14253E-07         0.00000E+00
    0.73385E-06        -0.27445E-07         0.00000E+00
    0.73567E-06        -0.38860E-07         0.00000E+00
    0.74040E-06        -0.48043E-07         0.00000E+00
    0.74728E-06        -0.54719E-07         0.00000E+00
    0.75554E-06        -0.58762E-07         0.00000E+00
    0.76451E-06        -0.60167E-07         0.00000E+00
    0.77357E-06        -0.59026E-07         0.00000E+00
    0.78216E-06        -0.55495E-07         0.00000E+00
    0.78981E-06        -0.49789E-07         0.00000E+00
    0.79606E-06        -0.42177E-07         0.00000E+00
    0.80054E-06        -0.32979E-07         0.00000E+00
    0.80290E-06        -0.22585E-07         0.00000E+00
    0.80289E-06        -0.11451E-07         0.00000E+00
    0.80227E-06        -0.57602E-08         0.00000E+00
    0.71883E-06        -0.88133E-08         0.00000E+00
    0.71746E-06        -0.17157E-07         0.00000E+00
    0.71708E-06        -0.32831E-07         0.00000E+00
    0.72097E-06        -0.46193E-07         0.00000E+00
    0.72814E-06        -0.56787E-07         0.00000E+00
    0.73761E-06        -0.64363E-07         0.00000E+00
    0.74851E-06        -0.68843E-07         0.00000E+00
    0.76003E-06        -0.70279E-07         0.00000E+00
    0.77150E-06        -0.68811E-07         0.00000E+00
    0.78232E-06        -0.64638E-07         0.00000E+00
    0.79195E-06        -0.58002E-07         0.00000E+00
    0.79991E-06        -0.49188E-07         0.00000E+00
    0.80574E-06        -0.38534E-07         0.00000E+00
    0.80905E-06        -0.26454E-07         0.00000E+00
    0.80948E-06        -0.13450E-07         0.00000E+00
    0.80894E-06        -0.67862E-08         0.00000E+00
    0.70090E-06        -0.10529E-07         0.00000E+00
    0.70029E-06        -0.20402E-07         0.00000E+00
    0.70176E-06        -0.38815E-07         0.00000E+00
    0.70811E-06        -0.54272E-07         0.00000E+00
    0.71807E-06        -0.66326E-07         0.00000E+00
    0.73048E-06        -0.74780E-07         0.00000E+00
    0.74427E-06        -0.79633E-07         0.00000E+00
    0.75857E-06        -0.81022E-07         0.00000E+00
    0.77262E-06        -0.79161E-07         0.00000E+00
    0.78579E-06        -0.74297E-07         0.00000E+00
    0.79755E-06        -0.66697E-07         0.00000E+00
    0.80735E-06        -0.56648E-07         0.00000E+00
    0.81469E-06        -0.44487E-07         0.00000E+00
    0.81907E-06        -0.30633E-07         0.00000E+00
    0.82001E-06        -0.15623E-07         0.00000E+00
    0.81959E-06        -0.79056E-08         0.00000E+00
    0.68345E-06        -0.12440E-07         0.00000E+00
    0.68380E-06        -0.24004E-07         0.00000E+00
    0.68761E-06        -0.45411E-07         0.00000E+00
    0.69692E-06        -0.63081E-07         0.00000E+00
    0.71016E-06        -0.76591E-07         0.00000E+00
    0.72589E-06        -0.85833E-07         0.00000E+00
    0.74287E-06        -0.90936E-07         0.00000E+00
    0.76013E-06        -0.92164E-07         0.00000E+00
    0.77689E-06        -0.89832E-07         0.00000E+00
    0.79254E-06        -0.84249E-07         0.00000E+00
    0.80653E-06        -0.75695E-07         0.00000E+00
    0.81833E-06        -0.64439E-07         0.00000E+00
    0.82736E-06        -0.50778E-07         0.00000E+00
    0.83299E-06        -0.35105E-07         0.00000E+00
    0.83460E-06        -0.17974E-07         0.00000E+00
    0.83433E-06        -0.91238E-08         0.00000E+00
    0.66586E-06        -0.14562E-07         0.00000E+00
    0.66749E-06        -0.27985E-07         0.00000E+00
    0.67428E-06        -0.52630E-07         0.00000E+00
    0.68725E-06        -0.72572E-07         0.00000E+00
    0.70438E-06        -0.87440E-07         0.00000E+00
    0.72389E-06        -0.97282E-07         0.00000E+00
    0.74435E-06        -0.10242E-06         0.00000E+00
    0.76472E-06        -0.10332E-06         0.00000E+00
    0.78426E-06        -0.10043E-06         0.00000E+00
    0.80241E-06        -0.94131E-07         0.00000E+00
    0.81871E-06        -0.84704E-07         0.00000E+00
    0.83265E-06        -0.72356E-07         0.00000E+00
    0.84359E-06        -0.57297E-07         0.00000E+00
    0.85076E-06        -0.39837E-07         0.00000E+00
    0.85329E-06        -0.20502E-07         0.00000E+00
    0.85329E-06        -0.10448E-07         0.00000E+00
    0.64739E-06        -0.16922E-07         0.00000E+00
    0.65072E-06        -0.32380E-07         0.00000E+00
    0.66142E-06        -0.60482E-07         0.00000E+00
    0.67899E-06        -0.82656E-07         0.00000E+00
    0.70078E-06        -0.98637E-07         0.00000E+00
    0.72459E-06        -0.10873E-06         0.00000E+00
    0.74878E-06        -0.11357E-06         0.00000E+00
    0.77232E-06        -0.11389E-06         0.00000E+00
    0.79456E-06        -0.11035E-06         0.00000E+00
    0.81514E-06        -0.10339E-06         0.00000E+00
    0.83374E-06        -0.93270E-07         0.00000E+00
    0.84994E-06        -0.80084E-07         0.00000E+00
    0.86308E-06        -0.63870E-07         0.00000E+00
    0.87220E-06        -0.44771E-07         0.00000E+00
    0.87609E-06        -0.23208E-07         0.00000E+00
    0.87658E-06        -0.11888E-07         0.00000E+00
    0.62711E-06        -0.19562E-07         0.00000E+00
    0.63277E-06        -0.37242E-07         0.00000E+00
    0.64870E-06        -0.68975E-07         0.00000E+00
    0.67216E-06        -0.93176E-07         0.00000E+00
    0.69959E-06        -0.10979E-06         0.00000E+00
    0.72823E-06        -0.11955E-06         0.00000E+00
    0.75630E-06        -0.12358E-06         0.00000E+00
    0.78286E-06        -0.12301E-06         0.00000E+00
    0.80756E-06        -0.11871E-06         0.00000E+00
    0.83033E-06        -0.11122E-06         0.00000E+00
    0.85109E-06        -0.10073E-06         0.00000E+00
    0.86963E-06        -0.87142E-07         0.00000E+00
    0.88530E-06        -0.70224E-07         0.00000E+00
    0.89696E-06        -0.49808E-07         0.00000E+00
    0.90294E-06        -0.26088E-07         0.00000E+00
    0.90428E-06        -0.13458E-07         0.00000E+00
    0.60381E-06        -0.22557E-07         0.00000E+00
    0.61275E-06        -0.42662E-07         0.00000E+00
    0.63588E-06        -0.78110E-07         0.00000E+00
    0.66703E-06        -0.10384E-06         0.00000E+00
    0.70127E-06        -0.12023E-06         0.00000E+00
    0.73520E-06        -0.12876E-06         0.00000E+00
    0.76705E-06        -0.13128E-06         0.00000E+00
    0.79626E-06        -0.12941E-06         0.00000E+00
    0.82291E-06        -0.12429E-06         0.00000E+00
    0.84737E-06        -0.11650E-06         0.00000E+00
    0.86998E-06        -0.10612E-06         0.00000E+00
    0.89082E-06        -0.92816E-07         0.00000E+00
    0.90941E-06        -0.75925E-07         0.00000E+00
    0.92446E-06        -0.54781E-07         0.00000E+00
    0.93368E-06        -0.29124E-07         0.00000E+00
    0.93650E-06        -0.15175E-07         0.00000E+00
    0.57590E-06        -0.26032E-07         0.00000E+00
    0.58964E-06        -0.48775E-07         0.00000E+00
    0.62301E-06        -0.87833E-07         0.00000E+00
    0.66436E-06        -0.11409E-06         0.00000E+00
    0.70669E-06        -0.12882E-06         0.00000E+00
    0.74606E-06        -0.13482E-06         0.00000E+00
    0.78119E-06        -0.13497E-06         0.00000E+00
    0.81228E-06        -0.13143E-06         0.00000E+00
    0.84009E-06        -0.12550E-06         0.00000E+00
    0.86551E-06        -0.11775E-06         0.00000E+00
    0.88939E-06        -0.10814E-06         0.00000E+00
    0.91230E-06        -0.96040E-07         0.00000E+00
    0.93417E-06        -0.80273E-07         0.00000E+00
    0.95373E-06        -0.59383E-07         0.00000E+00
    0.96800E-06        -0.32264E-07         0.00000E+00
    0.97332E-06        -0.17057E-07         0.00000E+00
    0.54104E-06        -0.30202E-07         0.00000E+00
    0.56230E-06        -0.55776E-07         0.00000E+00
    0.61090E-06        -0.97878E-07         0.00000E+00
    0.66584E-06        -0.12267E-06         0.00000E+00
    0.71710E-06        -0.13348E-06         0.00000E+00
    0.76124E-06        -0.13532E-06         0.00000E+00
    0.79858E-06        -0.13235E-06         0.00000E+00
    0.83046E-06        -0.12698E-06         0.00000E+00
    0.85839E-06        -0.12043E-06         0.00000E+00
    0.88384E-06        -0.11315E-06         0.00000E+00
    0.90816E-06        -0.10502E-06         0.00000E+00
    0.93255E-06        -0.95230E-07         0.00000E+00
    0.95778E-06        -0.82077E-07         0.00000E+00
    0.98318E-06        -0.62998E-07         0.00000E+00
    0.10053E-05        -0.35350E-07         0.00000E+00
    0.10148E-05        -0.19089E-07         0.00000E+00
    0.49568E-06        -0.35438E-07         0.00000E+00
    0.52968E-06        -0.63800E-07         0.00000E+00
    0.60262E-06        -0.10719E-06         0.00000E+00
    0.67441E-06        -0.12666E-06         0.00000E+00
    0.73341E-06        -0.13024E-06         0.00000E+00
    0.78054E-06        -0.12664E-06         0.00000E+00
    0.81849E-06        -0.12052E-06         0.00000E+00
    0.84987E-06        -0.11373E-06         0.00000E+00
    0.87686E-06        -0.10704E-06         0.00000E+00
    0.90136E-06        -0.10070E-06         0.00000E+00
    0.92515E-06        -0.94577E-07         0.00000E+00
    0.95002E-06        -0.88040E-07         0.00000E+00
    0.97789E-06        -0.79234E-07         0.00000E+00
    0.10102E-05        -0.64294E-07         0.00000E+00
    0.10442E-05        -0.37931E-07         0.00000E+00
    0.10606E-05        -0.21190E-07         0.00000E+00
    0.43087E-06        -0.41810E-07         0.00000E+00
    0.49581E-06        -0.72474E-07         0.00000E+00
    0.60594E-06        -0.11179E-06         0.00000E+00
    0.69151E-06        -0.11821E-06         0.00000E+00
    0.75466E-06        -0.11213E-06         0.00000E+00
    0.80221E-06        -0.10420E-06         0.00000E+00
    0.83913E-06        -0.96363E-07         0.00000E+00
    0.86891E-06        -0.89375E-07         0.00000E+00
    0.89417E-06        -0.83415E-07         0.00000E+00
    0.91702E-06        -0.78497E-07         0.00000E+00
    0.93945E-06        -0.74534E-07         0.00000E+00
    0.96370E-06        -0.71243E-07         0.00000E+00
    0.99267E-06        -0.67918E-07         0.00000E+00
    0.10307E-05        -0.60322E-07         0.00000E+00
    0.10814E-05        -0.38574E-07         0.00000E+00
    0.11098E-05        -0.22628E-07         0.00000E+00
    0.37267E-06        -0.52552E-07         0.00000E+00
    0.47243E-06        -0.74882E-07         0.00000E+00
    0.61908E-06        -0.90939E-07         0.00000E+00
    0.71150E-06        -0.79902E-07         0.00000E+00
    0.77543E-06        -0.70866E-07         0.00000E+00
    0.82178E-06        -0.63144E-07         0.00000E+00
    0.85693E-06        -0.56918E-07         0.00000E+00
    0.88484E-06        -0.51946E-07         0.00000E+00
    0.90826E-06        -0.48058E-07         0.00000E+00
    0.92938E-06        -0.45146E-07         0.00000E+00
    0.95027E-06        -0.43160E-07         0.00000E+00
    0.97331E-06        -0.42123E-07         0.00000E+00
    0.10020E-05        -0.41961E-07         0.00000E+00
    0.10425E-05        -0.43253E-07         0.00000E+00
    0.11099E-05        -0.33834E-07         0.00000E+00
    0.11524E-05        -0.23234E-07         0.00000E+00
    0.35342E-06         0.00000E+00         0.00000E+00
    0.46515E-06         0.00000E+00         0.00000E+00
    0.62633E-06        -0.20222E-20         0.00000E+00
    0.72090E-06         0.38429E-21         0.00000E+00
    0.78464E-06         0.21109E-20         0.00000E+00
    0.83026E-06         0.00000E+00         0.00000E+00
    0.86455E-06         0.00000E+00         0.00000E+00
    0.89159E-06        -0.26198E-20         0.00000E+00
    0.91418E-06        -0.24950E-20         0.00000E+00
    0.93453E-06         0.26985E-20         0.00000E+00
    0.95470E-06         0.26985E-20         0.00000E+00
    0.97711E-06        -0.28907E-20         0.00000E+00
    0.10054E-05         0.10886E-21         0.00000E+00
    0.10465E-05         0.29400E-20         0.00000E+00
    0.11209E-05         0.18711E-21         0.00000E+00
    0.11698E-05         0.00000E+00         0.00000E+00
CELL_DATA        450
TENSORS stressef double 
    0.26129E+08        -0.30397E+05         0.00000E+00
   -0.30397E+05         0.15049E+08         0.00000E+00
    0.00000E+00         0.00000E+00         0.93474E+07
 
    0.24799E+08        -0.22516E+06         0.00000E+00
   -0.22516E+06         0.14886E+08         0.00000E+00
    0.00000E+00         0.00000E+00         0.79629E+07
 
    0.22340E+08        -0.27273E+06         0.00000E+00
   -0.27273E+06         0.14510E+08         0.00000E+00
    0.00000E+00         0.00000E+00         0.73701E+07
 
    0.20564E+08        -0.22591E+06         0.00000E+00
   -0.22591E+06         0.14148E+08         0.00000E+00
    0.00000E+00         0.00000E+00         0.69424E+07
 
    0.19077E+08        -0.18823E+06         0.00000E+00
   -0.18823E+06         0.13859E+08         0.00000E+00
    0.00000E+00         0.00000E+00         0.65872E+07
 
    0.17762E+08        -0.15362E+06         0.00000E+00
   -0.15362E+06         0.13641E+08         0.00000E+00
    0.00000E+00         0.00000E+00         0.62806E+07
 
    0.16556E+08        -0.11965E+06         0.00000E+00
   -0.11965E+06         0.13490E+08         0.00000E+00
    0.00000E+00         0.00000E+00         0.60092E+07
 
    0.15416E+08        -0.84466E+05         0.00000E+00
   -0.84466E+05         0.13405E+08         0.00000E+00
    0.00000E+00         0.00000E+00         0.57642E+07
 
    0.14306E+08        -0.46651E+05         0.00000E+00
   -0.46651E+05         0.13389E+08         0.00000E+00
    0.00000E+00         0.00000E+00         0.55390E+07
 
    0.13193E+08        -0.46915E+04         0.00000E+00
   -0.46915E+04         0.13446E+08         0.00000E+00
    0.00000E+00         0.00000E+00         0.53279E+07
 
    0.12040E+08         0.43543E+05         0.00000E+00
    0.43543E+05         0.13586E+08         0.00000E+00
    0.00000E+00         0.00000E+00         0.51253E+07
 
    0.10801E+08         0.10170E+06         0.00000E+00
    0.10170E+06         0.13822E+08         0.00000E+00
    0.00000E+00         0.00000E+00         0.49246E+07
 
    0.94065E+07         0.17773E+06         0.00000E+00
    0.17773E+06         0.14179E+08         0.00000E+00
    0.00000E+00         0.00000E+00         0.47171E+07
 
    0.77316E+07         0.29001E+06         0.00000E+00
    0.29001E+06         0.14707E+08         0.00000E+00
    0.00000E+00         0.00000E+00         0.44878E+07
 
    0.54120E+07         0.56059E+06         0.00000E+00
    0.56059E+06         0.15553E+08         0.00000E+00
    0.00000E+00         0.00000E+00         0.41929E+07
 
    0.24988E+08        -0.55917E+05         0.00000E+00
   -0.55917E+05         0.13894E+08         0.00000E+00
    0.00000E+00         0.00000E+00         0.77871E+07
 
    0.23211E+08        -0.47963E+06         0.00000E+00
   -0.47963E+06         0.13808E+08         0.00000E+00
    0.00000E+00         0.00000E+00         0.74039E+07
 
    0.21204E+08        -0.64070E+06         0.00000E+00
   -0.64070E+06         0.13679E+08         0.00000E+00
    0.00000E+00         0.00000E+00         0.69765E+07
 
    0.19421E+08        -0.59424E+06         0.00000E+00
   -0.59424E+06         0.13476E+08         0.00000E+00
    0.00000E+00         0.00000E+00         0.65795E+07
 
    0.17913E+08        -0.51430E+06         0.00000E+00
   -0.51430E+06         0.13271E+08         0.00000E+00
    0.00000E+00         0.00000E+00         0.62368E+07
 
    0.16577E+08        -0.42652E+06         0.00000E+00
   -0.42652E+06         0.13099E+08         0.00000E+00
    0.00000E+00         0.00000E+00         0.59352E+07
 
    0.15352E+08        -0.33308E+06         0.00000E+00
   -0.33308E+06         0.12976E+08         0.00000E+00
    0.00000E+00         0.00000E+00         0.56657E+07
 
    0.14197E+08        -0.23247E+06         0.00000E+00
   -0.23247E+06         0.12910E+08         0.00000E+00
    0.00000E+00         0.00000E+00         0.54213E+07
 
    0.13075E+08        -0.12201E+06         0.00000E+00
   -0.12201E+06         0.12906E+08         0.00000E+00
    0.00000E+00         0.00000E+00         0.51962E+07
 
    0.11954E+08         0.21569E+04         0.00000E+00
    0.21569E+04         0.12972E+08         0.00000E+00
    0.00000E+00         0.00000E+00         0.49853E+07
 
    0.10800E+08         0.14610E+06         0.00000E+00
    0.14610E+06         0.13119E+08         0.00000E+00
    0.00000E+00         0.00000E+00         0.47837E+07
 
    0.95696E+07         0.32076E+06         0.00000E+00
    0.32076E+06         0.13360E+08         0.00000E+00
    0.00000E+00         0.00000E+00         0.45860E+07
 
    0.82079E+07         0.54867E+06         0.00000E+00
    0.54867E+06         0.13721E+08         0.00000E+00
    0.00000E+00         0.00000E+00         0.43858E+07
 
    0.66262E+07         0.88733E+06         0.00000E+00
    0.88733E+06         0.14244E+08         0.00000E+00
    0.00000E+00         0.00000E+00         0.41741E+07
 
    0.48112E+07         0.15281E+07         0.00000E+00
    0.15281E+07         0.14988E+08         0.00000E+00
    0.00000E+00         0.00000E+00         0.39599E+07
 
    0.23509E+08        -0.18549E+06         0.00000E+00
   -0.18549E+06         0.12736E+08         0.00000E+00
    0.00000E+00         0.00000E+00         0.72490E+07
 
    0.21715E+08        -0.55430E+06         0.00000E+00
   -0.55430E+06         0.12665E+08         0.00000E+00
    0.00000E+00         0.00000E+00         0.68762E+07
 
    0.19942E+08        -0.77516E+06         0.00000E+00
   -0.77516E+06         0.12631E+08         0.00000E+00
    0.00000E+00         0.00000E+00         0.65147E+07
 
    0.18271E+08        -0.80757E+06         0.00000E+00
   -0.80757E+06         0.12565E+08         0.00000E+00
    0.00000E+00         0.00000E+00         0.61672E+07
 
    0.16778E+08        -0.73919E+06         0.00000E+00
   -0.73919E+06         0.12462E+08         0.00000E+00
    0.00000E+00         0.00000E+00         0.58481E+07
 
    0.15439E+08        -0.62873E+06         0.00000E+00
   -0.62873E+06         0.12361E+08         0.00000E+00
    0.00000E+00         0.00000E+00         0.55601E+07
 
    0.14208E+08        -0.49393E+06         0.00000E+00
   -0.49393E+06         0.12287E+08         0.00000E+00
    0.00000E+00         0.00000E+00         0.52990E+07
 
    0.13048E+08        -0.33916E+06         0.00000E+00
   -0.33916E+06         0.12254E+08         0.00000E+00
    0.00000E+00         0.00000E+00         0.50604E+07
 
    0.11926E+08        -0.16329E+06         0.00000E+00
   -0.16329E+06         0.12274E+08         0.00000E+00
    0.00000E+00         0.00000E+00         0.48400E+07
 
    0.10811E+08         0.38321E+05         0.00000E+00
    0.38321E+05         0.12358E+08         0.00000E+00
    0.00000E+00         0.00000E+00         0.46339E+07
 
    0.96735E+07         0.27461E+06         0.00000E+00
    0.27461E+06         0.12518E+08         0.00000E+00
    0.00000E+00         0.00000E+00         0.44382E+07
 
    0.84806E+07         0.56210E+06         0.00000E+00
    0.56210E+06         0.12767E+08         0.00000E+00
    0.00000E+00         0.00000E+00         0.42494E+07
 
    0.71970E+07         0.93313E+06         0.00000E+00
    0.93313E+06         0.13124E+08         0.00000E+00
    0.00000E+00         0.00000E+00         0.40642E+07
 
    0.58054E+07         0.14569E+07         0.00000E+00
    0.14569E+07         0.13611E+08         0.00000E+00
    0.00000E+00         0.00000E+00         0.38833E+07
 
    0.43561E+07         0.22405E+07         0.00000E+00
    0.22405E+07         0.14203E+08         0.00000E+00
    0.00000E+00         0.00000E+00         0.37119E+07
 
    0.21912E+08        -0.24459E+06         0.00000E+00
   -0.24459E+06         0.11590E+08         0.00000E+00
    0.00000E+00         0.00000E+00         0.67004E+07
 
    0.20229E+08        -0.60975E+06         0.00000E+00
   -0.60975E+06         0.11565E+08         0.00000E+00
    0.00000E+00         0.00000E+00         0.63588E+07
 
    0.18609E+08        -0.82980E+06         0.00000E+00
   -0.82980E+06         0.11551E+08         0.00000E+00
    0.00000E+00         0.00000E+00         0.60320E+07
 
    0.17067E+08        -0.90423E+06         0.00000E+00
   -0.90423E+06         0.11537E+08         0.00000E+00
    0.00000E+00         0.00000E+00         0.57209E+07
 
    0.15638E+08        -0.86448E+06         0.00000E+00
   -0.86448E+06         0.11508E+08         0.00000E+00
    0.00000E+00         0.00000E+00         0.54291E+07
 
    0.14325E+08        -0.75246E+06         0.00000E+00
   -0.75246E+06         0.11471E+08         0.00000E+00
    0.00000E+00         0.00000E+00         0.51593E+07
 
    0.13108E+08        -0.59330E+06         0.00000E+00
   -0.59330E+06         0.11447E+08         0.00000E+00
    0.00000E+00         0.00000E+00         0.49111E+07
 
    0.11959E+08        -0.39694E+06         0.00000E+00
   -0.39694E+06         0.11453E+08         0.00000E+00
    0.00000E+00         0.00000E+00         0.46824E+07
 
    0.10850E+08        -0.16504E+06         0.00000E+00
   -0.16504E+06         0.11501E+08         0.00000E+00
    0.00000E+00         0.00000E+00         0.44704E+07
 
    0.97571E+07         0.10646E+06         0.00000E+00
    0.10646E+06         0.11605E+08         0.00000E+00
    0.00000E+00         0.00000E+00         0.42725E+07
 
    0.86549E+07         0.42747E+06         0.00000E+00
    0.42747E+06         0.11776E+08         0.00000E+00
    0.00000E+00         0.00000E+00         0.40863E+07
 
    0.75224E+07         0.81634E+06         0.00000E+00
    0.81634E+06         0.12027E+08         0.00000E+00
    0.00000E+00         0.00000E+00         0.39098E+07
 
    0.63470E+07         0.13054E+07         0.00000E+00
    0.13054E+07         0.12365E+08         0.00000E+00
    0.00000E+00         0.00000E+00         0.37425E+07
 
    0.51395E+07         0.19441E+07         0.00000E+00
    0.19441E+07         0.12791E+08         0.00000E+00
    0.00000E+00         0.00000E+00         0.35860E+07
 
    0.39557E+07         0.27891E+07         0.00000E+00
    0.27891E+07         0.13272E+08         0.00000E+00
    0.00000E+00         0.00000E+00         0.34455E+07
 
    0.20256E+08        -0.25458E+06         0.00000E+00
   -0.25458E+06         0.10404E+08         0.00000E+00
    0.00000E+00         0.00000E+00         0.61320E+07
 
    0.18733E+08        -0.62710E+06         0.00000E+00
   -0.62710E+06         0.10413E+08         0.00000E+00
    0.00000E+00         0.00000E+00         0.58292E+07
 
    0.17249E+08        -0.84799E+06         0.00000E+00
   -0.84799E+06         0.10428E+08         0.00000E+00
    0.00000E+00         0.00000E+00         0.55354E+07
 
    0.15824E+08        -0.93744E+06         0.00000E+00
   -0.93744E+06         0.10445E+08         0.00000E+00
    0.00000E+00         0.00000E+00         0.52538E+07
 
    0.14478E+08        -0.91593E+06         0.00000E+00
   -0.91593E+06         0.10457E+08         0.00000E+00
    0.00000E+00         0.00000E+00         0.49871E+07
 
    0.13218E+08        -0.80831E+06         0.00000E+00
   -0.80831E+06         0.10467E+08         0.00000E+00
    0.00000E+00         0.00000E+00         0.47371E+07
 
    0.12037E+08        -0.63501E+06         0.00000E+00
   -0.63501E+06         0.10485E+08         0.00000E+00
    0.00000E+00         0.00000E+00         0.45043E+07
 
    0.10916E+08        -0.40742E+06         0.00000E+00
   -0.40742E+06         0.10524E+08         0.00000E+00
    0.00000E+00         0.00000E+00         0.42881E+07
 
    0.98379E+07        -0.12908E+06         0.00000E+00
   -0.12908E+06         0.10598E+08         0.00000E+00
    0.00000E+00         0.00000E+00         0.40871E+07
 
    0.87815E+07         0.20278E+06         0.00000E+00
    0.20278E+06         0.10718E+08         0.00000E+00
    0.00000E+00         0.00000E+00         0.38999E+07
 
    0.77306E+07         0.59702E+06         0.00000E+00
    0.59702E+06         0.10895E+08         0.00000E+00
    0.00000E+00         0.00000E+00         0.37251E+07
 
    0.66737E+07         0.10698E+07         0.00000E+00
    0.10698E+07         0.11138E+08         0.00000E+00
    0.00000E+00         0.00000E+00         0.35623E+07
 
    0.56107E+07         0.16456E+07         0.00000E+00
    0.16456E+07         0.11447E+08         0.00000E+00
    0.00000E+00         0.00000E+00         0.34116E+07
 
    0.45617E+07         0.23556E+07         0.00000E+00
    0.23556E+07         0.11815E+08         0.00000E+00
    0.00000E+00         0.00000E+00         0.32753E+07
 
    0.35739E+07         0.32280E+07         0.00000E+00
    0.32280E+07         0.12212E+08         0.00000E+00
    0.00000E+00         0.00000E+00         0.31572E+07
 
    0.18585E+08        -0.24493E+06         0.00000E+00
   -0.24493E+06         0.91955E+07         0.00000E+00
    0.00000E+00         0.00000E+00         0.55562E+07
 
    0.17224E+08        -0.61175E+06         0.00000E+00
   -0.61175E+06         0.92210E+07         0.00000E+00
    0.00000E+00         0.00000E+00         0.52890E+07
 
    0.15872E+08        -0.83401E+06         0.00000E+00
   -0.83401E+06         0.92575E+07         0.00000E+00
    0.00000E+00         0.00000E+00         0.50259E+07
 
    0.14559E+08        -0.93077E+06         0.00000E+00
   -0.93077E+06         0.92972E+07         0.00000E+00
    0.00000E+00         0.00000E+00         0.47713E+07
 
    0.13303E+08        -0.91852E+06         0.00000E+00
   -0.91852E+06         0.93362E+07         0.00000E+00
    0.00000E+00         0.00000E+00         0.45278E+07
 
    0.12111E+08        -0.81368E+06         0.00000E+00
   -0.81368E+06         0.93754E+07         0.00000E+00
    0.00000E+00         0.00000E+00         0.42973E+07
 
    0.10983E+08        -0.63063E+06         0.00000E+00
   -0.63063E+06         0.94213E+07         0.00000E+00
    0.00000E+00         0.00000E+00         0.40809E+07
 
    0.99095E+07        -0.37898E+06         0.00000E+00
   -0.37898E+06         0.94839E+07         0.00000E+00
    0.00000E+00         0.00000E+00         0.38787E+07
 
    0.88766E+07        -0.62775E+05         0.00000E+00
   -0.62775E+05         0.95746E+07         0.00000E+00
    0.00000E+00         0.00000E+00         0.36902E+07
 
    0.78715E+07         0.31931E+06         0.00000E+00
    0.31931E+06         0.97036E+07         0.00000E+00
    0.00000E+00         0.00000E+00         0.35150E+07
 
    0.68836E+07         0.77373E+06         0.00000E+00
    0.77373E+06         0.98796E+07         0.00000E+00
    0.00000E+00         0.00000E+00         0.33526E+07
 
    0.59085E+07         0.13120E+07         0.00000E+00
    0.13120E+07         0.10107E+08         0.00000E+00
    0.00000E+00         0.00000E+00         0.32032E+07
 
    0.49520E+07         0.19501E+07         0.00000E+00
    0.19501E+07         0.10385E+08         0.00000E+00
    0.00000E+00         0.00000E+00         0.30675E+07
 
    0.40349E+07         0.27050E+07         0.00000E+00
    0.27050E+07         0.10702E+08         0.00000E+00
    0.00000E+00         0.00000E+00         0.29475E+07
 
    0.31953E+07         0.35888E+07         0.00000E+00
    0.35888E+07         0.11036E+08         0.00000E+00
    0.00000E+00         0.00000E+00         0.28462E+07
 
    0.16925E+08        -0.22758E+06         0.00000E+00
   -0.22758E+06         0.79714E+07         0.00000E+00
    0.00000E+00         0.00000E+00         0.49792E+07
 
    0.15708E+08        -0.57790E+06         0.00000E+00
   -0.57790E+06         0.80037E+07         0.00000E+00
    0.00000E+00         0.00000E+00         0.47424E+07
 
    0.14482E+08        -0.79722E+06         0.00000E+00
   -0.79722E+06         0.80513E+07         0.00000E+00
    0.00000E+00         0.00000E+00         0.45068E+07
 
    0.13278E+08        -0.89743E+06         0.00000E+00
   -0.89743E+06         0.81038E+07         0.00000E+00
    0.00000E+00         0.00000E+00         0.42764E+07
 
    0.12115E+08        -0.88992E+06         0.00000E+00
   -0.88992E+06         0.81569E+07         0.00000E+00
    0.00000E+00         0.00000E+00         0.40545E+07
 
    0.11003E+08        -0.78568E+06         0.00000E+00
   -0.78568E+06         0.82114E+07         0.00000E+00
    0.00000E+00         0.00000E+00         0.38429E+07
 
    0.99424E+07        -0.59447E+06         0.00000E+00
   -0.59447E+06         0.82719E+07         0.00000E+00
    0.00000E+00         0.00000E+00         0.36429E+07
 
    0.89293E+07        -0.32350E+06         0.00000E+00
   -0.32350E+06         0.83464E+07         0.00000E+00
    0.00000E+00         0.00000E+00         0.34551E+07
 
    0.79557E+07         0.23496E+05         0.00000E+00
    0.23496E+05         0.84437E+07         0.00000E+00
    0.00000E+00         0.00000E+00         0.32799E+07
 
    0.70133E+07         0.44648E+06         0.00000E+00
    0.44648E+06         0.85727E+07         0.00000E+00
    0.00000E+00         0.00000E+00         0.31172E+07
 
    0.60962E+07         0.94899E+06         0.00000E+00
    0.94899E+06         0.87398E+07         0.00000E+00
    0.00000E+00         0.00000E+00         0.29672E+07
 
    0.52041E+07         0.15376E+07         0.00000E+00
    0.15376E+07         0.89480E+07         0.00000E+00
    0.00000E+00         0.00000E+00         0.28304E+07
 
    0.43450E+07         0.22204E+07         0.00000E+00
    0.22204E+07         0.91944E+07         0.00000E+00
    0.00000E+00         0.00000E+00         0.27079E+07
 
    0.35376E+07         0.30047E+07         0.00000E+00
    0.30047E+07         0.94688E+07         0.00000E+00
    0.00000E+00         0.00000E+00         0.26013E+07
 
    0.28118E+07         0.38927E+07         0.00000E+00
    0.38927E+07         0.97532E+07         0.00000E+00
    0.00000E+00         0.00000E+00         0.25130E+07
 
    0.15285E+08        -0.20788E+06         0.00000E+00
   -0.20788E+06         0.67355E+07         0.00000E+00
    0.00000E+00         0.00000E+00         0.44041E+07
 
    0.14194E+08        -0.53628E+06         0.00000E+00
   -0.53628E+06         0.67684E+07         0.00000E+00
    0.00000E+00         0.00000E+00         0.41924E+07
 
    0.13084E+08        -0.74876E+06         0.00000E+00
   -0.74876E+06         0.68178E+07         0.00000E+00
    0.00000E+00         0.00000E+00         0.39804E+07
 
    0.11986E+08        -0.84952E+06         0.00000E+00
   -0.84952E+06         0.68728E+07         0.00000E+00
    0.00000E+00         0.00000E+00         0.37718E+07
 
    0.10919E+08        -0.84426E+06         0.00000E+00
   -0.84426E+06         0.69287E+07         0.00000E+00
    0.00000E+00         0.00000E+00         0.35695E+07
 
    0.98920E+07        -0.73931E+06         0.00000E+00
   -0.73931E+06         0.69860E+07         0.00000E+00
    0.00000E+00         0.00000E+00         0.33756E+07
 
    0.89092E+07        -0.54079E+06         0.00000E+00
   -0.54079E+06         0.70484E+07         0.00000E+00
    0.00000E+00         0.00000E+00         0.31915E+07
 
    0.79685E+07        -0.25374E+06         0.00000E+00
   -0.25374E+06         0.71226E+07         0.00000E+00
    0.00000E+00         0.00000E+00         0.30182E+07
 
    0.70651E+07         0.11854E+06         0.00000E+00
    0.11854E+06         0.72159E+07         0.00000E+00
    0.00000E+00         0.00000E+00         0.28562E+07
 
    0.61942E+07         0.57480E+06         0.00000E+00
    0.57480E+06         0.73356E+07         0.00000E+00
    0.00000E+00         0.00000E+00         0.27060E+07
 
    0.53528E+07         0.11157E+07         0.00000E+00
    0.11157E+07         0.74870E+07         0.00000E+00
    0.00000E+00         0.00000E+00         0.25680E+07
 
    0.45427E+07         0.17432E+07         0.00000E+00
    0.17432E+07         0.76719E+07         0.00000E+00
    0.00000E+00         0.00000E+00         0.24429E+07
 
    0.37718E+07         0.24595E+07         0.00000E+00
    0.24595E+07         0.78876E+07         0.00000E+00
    0.00000E+00         0.00000E+00         0.23319E+07
 
    0.30562E+07         0.32645E+07         0.00000E+00
    0.32645E+07         0.81256E+07         0.00000E+00
    0.00000E+00         0.00000E+00         0.22363E+07
 
    0.24191E+07         0.41540E+07         0.00000E+00
    0.41540E+07         0.83716E+07         0.00000E+00
    0.00000E+00         0.00000E+00         0.21582E+07
 
    0.13669E+08        -0.18875E+06         0.00000E+00
   -0.18875E+06         0.54891E+07         0.00000E+00
    0.00000E+00         0.00000E+00         0.38315E+07
 
    0.12684E+08        -0.49442E+06         0.00000E+00
   -0.49442E+06         0.55183E+07         0.00000E+00
    0.00000E+00         0.00000E+00         0.36404E+07
 
    0.11680E+08        -0.69850E+06         0.00000E+00
   -0.69850E+06         0.55620E+07         0.00000E+00
    0.00000E+00         0.00000E+00         0.34484E+07
 
    0.10684E+08        -0.79829E+06         0.00000E+00
   -0.79829E+06         0.56100E+07         0.00000E+00
    0.00000E+00         0.00000E+00         0.32588E+07
 
    0.97133E+07        -0.79406E+06         0.00000E+00
   -0.79406E+06         0.56582E+07         0.00000E+00
    0.00000E+00         0.00000E+00         0.30743E+07
 
    0.87774E+07        -0.68786E+06         0.00000E+00
   -0.68786E+06         0.57067E+07         0.00000E+00
    0.00000E+00         0.00000E+00         0.28968E+07
 
    0.78801E+07        -0.48273E+06         0.00000E+00
   -0.48273E+06         0.57592E+07         0.00000E+00
    0.00000E+00         0.00000E+00         0.27279E+07
 
    0.70207E+07        -0.18192E+06         0.00000E+00
   -0.18192E+06         0.58216E+07         0.00000E+00
    0.00000E+00         0.00000E+00         0.25684E+07
 
    0.61961E+07         0.21164E+06         0.00000E+00
    0.21164E+06         0.59005E+07         0.00000E+00
    0.00000E+00         0.00000E+00         0.24193E+07
 
    0.54033E+07         0.69560E+06         0.00000E+00
    0.69560E+06         0.60023E+07         0.00000E+00
    0.00000E+00         0.00000E+00         0.22811E+07
 
    0.46407E+07         0.12681E+07         0.00000E+00
    0.12681E+07         0.61317E+07         0.00000E+00
    0.00000E+00         0.00000E+00         0.21545E+07
 
    0.39105E+07         0.19272E+07         0.00000E+00
    0.19272E+07         0.62903E+07         0.00000E+00
    0.00000E+00         0.00000E+00         0.20402E+07
 
    0.32199E+07         0.26702E+07         0.00000E+00
    0.26702E+07         0.64760E+07         0.00000E+00
    0.00000E+00         0.00000E+00         0.19392E+07
 
    0.25819E+07         0.34919E+07         0.00000E+00
    0.34919E+07         0.66821E+07         0.00000E+00
    0.00000E+00         0.00000E+00         0.18528E+07
 
    0.20148E+07         0.43834E+07         0.00000E+00
    0.43834E+07         0.68978E+07         0.00000E+00
    0.00000E+00         0.00000E+00         0.17825E+07
 
    0.12074E+08        -0.17214E+06         0.00000E+00
   -0.17214E+06         0.42326E+07         0.00000E+00
    0.00000E+00         0.00000E+00         0.32613E+07
 
    0.11178E+08        -0.45795E+06         0.00000E+00
   -0.45795E+06         0.42547E+07         0.00000E+00
    0.00000E+00         0.00000E+00         0.30866E+07
 
    0.10270E+08        -0.65467E+06         0.00000E+00
   -0.65467E+06         0.42864E+07         0.00000E+00
    0.00000E+00         0.00000E+00         0.29113E+07
 
    0.93717E+07        -0.75371E+06         0.00000E+00
   -0.75371E+06         0.43191E+07         0.00000E+00
    0.00000E+00         0.00000E+00         0.27382E+07
 
    0.84981E+07        -0.75044E+06         0.00000E+00
   -0.75044E+06         0.43496E+07         0.00000E+00
    0.00000E+00         0.00000E+00         0.25695E+07
 
    0.76570E+07        -0.64311E+06         0.00000E+00
   -0.64311E+06         0.43787E+07         0.00000E+00
    0.00000E+00         0.00000E+00         0.24071E+07
 
    0.68513E+07        -0.43208E+06         0.00000E+00
   -0.43208E+06         0.44104E+07         0.00000E+00
    0.00000E+00         0.00000E+00         0.22523E+07
 
    0.60804E+07        -0.11910E+06         0.00000E+00
   -0.11910E+06         0.44504E+07         0.00000E+00
    0.00000E+00         0.00000E+00         0.21061E+07
 
    0.53414E+07         0.29314E+06         0.00000E+00
    0.29314E+06         0.45053E+07         0.00000E+00
    0.00000E+00         0.00000E+00         0.19693E+07
 
    0.46316E+07         0.80128E+06         0.00000E+00
    0.80128E+06         0.45813E+07         0.00000E+00
    0.00000E+00         0.00000E+00         0.18426E+07
 
    0.39498E+07         0.14013E+07         0.00000E+00
    0.14013E+07         0.46829E+07         0.00000E+00
    0.00000E+00         0.00000E+00         0.17265E+07
 
    0.32975E+07         0.20880E+07         0.00000E+00
    0.20880E+07         0.48124E+07         0.00000E+00
    0.00000E+00         0.00000E+00         0.16220E+07
 
    0.26806E+07         0.28548E+07         0.00000E+00
    0.28548E+07         0.49684E+07         0.00000E+00
    0.00000E+00         0.00000E+00         0.15298E+07
 
    0.21090E+07         0.36924E+07         0.00000E+00
    0.36924E+07         0.51461E+07         0.00000E+00
    0.00000E+00         0.00000E+00         0.14510E+07
 
    0.15974E+07         0.45887E+07         0.00000E+00
    0.45887E+07         0.53372E+07         0.00000E+00
    0.00000E+00         0.00000E+00         0.13869E+07
 
    0.10494E+08        -0.15956E+06         0.00000E+00
   -0.15956E+06         0.29652E+07         0.00000E+00
    0.00000E+00         0.00000E+00         0.26918E+07
 
    0.96731E+07        -0.43128E+06         0.00000E+00
   -0.43128E+06         0.29775E+07         0.00000E+00
    0.00000E+00         0.00000E+00         0.25301E+07
 
    0.88516E+07        -0.62411E+06         0.00000E+00
   -0.62411E+06         0.29917E+07         0.00000E+00
    0.00000E+00         0.00000E+00         0.23687E+07
 
    0.80471E+07        -0.72438E+06         0.00000E+00
   -0.72438E+06         0.30016E+07         0.00000E+00
    0.00000E+00         0.00000E+00         0.22097E+07
 
    0.72707E+07        -0.72315E+06         0.00000E+00
   -0.72315E+06         0.30055E+07         0.00000E+00
    0.00000E+00         0.00000E+00         0.20552E+07
 
    0.65277E+07        -0.61538E+06         0.00000E+00
   -0.61538E+06         0.30055E+07         0.00000E+00
    0.00000E+00         0.00000E+00         0.19066E+07
 
    0.58189E+07        -0.39913E+06         0.00000E+00
   -0.39913E+06         0.30063E+07         0.00000E+00
    0.00000E+00         0.00000E+00         0.17650E+07
 
    0.51423E+07        -0.74948E+05         0.00000E+00
   -0.74948E+05         0.30142E+07         0.00000E+00
    0.00000E+00         0.00000E+00         0.16313E+07
 
    0.44945E+07         0.35462E+06         0.00000E+00
    0.35462E+06         0.30364E+07         0.00000E+00
    0.00000E+00         0.00000E+00         0.15062E+07
 
    0.38720E+07         0.88530E+06         0.00000E+00
    0.88530E+06         0.30792E+07         0.00000E+00
    0.00000E+00         0.00000E+00         0.13902E+07
 
    0.32725E+07         0.15111E+07         0.00000E+00
    0.15111E+07         0.31479E+07         0.00000E+00
    0.00000E+00         0.00000E+00         0.12841E+07
 
    0.26965E+07         0.22243E+07         0.00000E+00
    0.22243E+07         0.32454E+07         0.00000E+00
    0.00000E+00         0.00000E+00         0.11884E+07
 
    0.21478E+07         0.30149E+07         0.00000E+00
    0.30149E+07         0.33716E+07         0.00000E+00
    0.00000E+00         0.00000E+00         0.11039E+07
 
    0.16340E+07         0.38705E+07         0.00000E+00
    0.38705E+07         0.35233E+07         0.00000E+00
    0.00000E+00         0.00000E+00         0.10315E+07
 
    0.11665E+07         0.47757E+07         0.00000E+00
    0.47757E+07         0.36943E+07         0.00000E+00
    0.00000E+00         0.00000E+00         0.97216E+06
 
    0.89186E+07        -0.15227E+06         0.00000E+00
   -0.15227E+06         0.16856E+07         0.00000E+00
    0.00000E+00         0.00000E+00         0.21208E+07
 
    0.81607E+07        -0.41810E+06         0.00000E+00
   -0.41810E+06         0.16853E+07         0.00000E+00
    0.00000E+00         0.00000E+00         0.19692E+07
 
    0.74190E+07        -0.61259E+06         0.00000E+00
   -0.61259E+06         0.16772E+07         0.00000E+00
    0.00000E+00         0.00000E+00         0.18192E+07
 
    0.67056E+07        -0.71762E+06         0.00000E+00
   -0.71762E+06         0.16576E+07         0.00000E+00
    0.00000E+00         0.00000E+00         0.16726E+07
 
    0.60273E+07        -0.72057E+06         0.00000E+00
   -0.72057E+06         0.16268E+07         0.00000E+00
    0.00000E+00         0.00000E+00         0.15308E+07
 
    0.53855E+07        -0.61355E+06         0.00000E+00
   -0.61355E+06         0.15888E+07         0.00000E+00
    0.00000E+00         0.00000E+00         0.13949E+07
 
    0.47783E+07        -0.39275E+06         0.00000E+00
   -0.39275E+06         0.15497E+07         0.00000E+00
    0.00000E+00         0.00000E+00         0.12656E+07
 
    0.42016E+07        -0.57749E+05         0.00000E+00
   -0.57749E+05         0.15169E+07         0.00000E+00
    0.00000E+00         0.00000E+00         0.11437E+07
 
    0.36500E+07         0.38892E+06         0.00000E+00
    0.38892E+06         0.14983E+07         0.00000E+00
    0.00000E+00         0.00000E+00         0.10297E+07
 
    0.31183E+07         0.94212E+06         0.00000E+00
    0.94212E+06         0.15014E+07         0.00000E+00
    0.00000E+00         0.00000E+00         0.92395E+06
 
    0.26028E+07         0.15942E+07         0.00000E+00
    0.15942E+07         0.15323E+07         0.00000E+00
    0.00000E+00         0.00000E+00         0.82702E+06
 
    0.21020E+07         0.23350E+07         0.00000E+00
    0.23350E+07         0.15949E+07         0.00000E+00
    0.00000E+00         0.00000E+00         0.73939E+06
 
    0.16175E+07         0.31519E+07         0.00000E+00
    0.31519E+07         0.16908E+07         0.00000E+00
    0.00000E+00         0.00000E+00         0.66165E+06
 
    0.11544E+07         0.40294E+07         0.00000E+00
    0.40294E+07         0.18183E+07         0.00000E+00
    0.00000E+00         0.00000E+00         0.59453E+06
 
    0.72150E+06         0.49494E+07         0.00000E+00
    0.49494E+07         0.19727E+07         0.00000E+00
    0.00000E+00         0.00000E+00         0.53884E+06
 
    0.73346E+07        -0.15135E+06         0.00000E+00
   -0.15135E+06         0.39129E+06         0.00000E+00
    0.00000E+00         0.00000E+00         0.15452E+07
 
    0.66308E+07        -0.42152E+06         0.00000E+00
   -0.42152E+06         0.37603E+06         0.00000E+00
    0.00000E+00         0.00000E+00         0.14014E+07
 
    0.59641E+07        -0.62496E+06         0.00000E+00
   -0.62496E+06         0.34108E+06         0.00000E+00
    0.00000E+00         0.00000E+00         0.12610E+07
 
    0.53408E+07        -0.73962E+06         0.00000E+00
   -0.73962E+06         0.28572E+06         0.00000E+00
    0.00000E+00         0.00000E+00         0.11253E+07
 
    0.47620E+07        -0.74973E+06         0.00000E+00
   -0.74973E+06         0.21306E+06         0.00000E+00
    0.00000E+00         0.00000E+00         0.99502E+06
 
    0.42252E+07        -0.64508E+06         0.00000E+00
   -0.64508E+06         0.12915E+06         0.00000E+00
    0.00000E+00         0.00000E+00         0.87087E+06
 
    0.37247E+07        -0.42033E+06         0.00000E+00
   -0.42033E+06         0.41964E+05         0.00000E+00
    0.00000E+00         0.00000E+00         0.75333E+06
 
    0.32531E+07        -0.74385E+05         0.00000E+00
   -0.74385E+05        -0.39434E+05         0.00000E+00
    0.00000E+00         0.00000E+00         0.64273E+06
 
    0.28026E+07         0.39010E+06         0.00000E+00
    0.39010E+06        -0.10579E+06         0.00000E+00
    0.00000E+00         0.00000E+00         0.53935E+06
 
    0.23656E+07         0.96713E+06         0.00000E+00
    0.96713E+06        -0.14842E+06         0.00000E+00
    0.00000E+00         0.00000E+00         0.44343E+06
 
    0.19360E+07         0.16476E+07         0.00000E+00
    0.16476E+07        -0.15992E+06         0.00000E+00
    0.00000E+00         0.00000E+00         0.35521E+06
 
    0.15100E+07         0.24191E+07         0.00000E+00
    0.24191E+07        -0.13482E+06         0.00000E+00
    0.00000E+00         0.00000E+00         0.27503E+06
 
    0.10867E+07         0.32667E+07         0.00000E+00
    0.32667E+07        -0.70133E+05         0.00000E+00
    0.00000E+00         0.00000E+00         0.20331E+06
 
    0.66866E+06         0.41719E+07         0.00000E+00
    0.41719E+07         0.34203E+05         0.00000E+00
    0.00000E+00         0.00000E+00         0.14057E+06
 
    0.26252E+06         0.51140E+07         0.00000E+00
    0.51140E+07         0.17500E+06         0.00000E+00
    0.00000E+00         0.00000E+00         0.87505E+05
 
    0.57257E+07        -0.15775E+06         0.00000E+00
   -0.15775E+06        -0.92126E+06         0.00000E+00
    0.00000E+00         0.00000E+00         0.96088E+06
 
    0.50703E+07        -0.44421E+06         0.00000E+00
   -0.44421E+06        -0.95372E+06         0.00000E+00
    0.00000E+00         0.00000E+00         0.82332E+06
 
    0.44765E+07        -0.66529E+06         0.00000E+00
   -0.66529E+06        -0.10197E+07         0.00000E+00
    0.00000E+00         0.00000E+00         0.69137E+06
 
    0.39439E+07        -0.79551E+06         0.00000E+00
   -0.79551E+06        -0.11163E+07         0.00000E+00
    0.00000E+00         0.00000E+00         0.56552E+06
 
    0.34679E+07        -0.81644E+06         0.00000E+00
   -0.81644E+06        -0.12375E+07         0.00000E+00
    0.00000E+00         0.00000E+00         0.44609E+06
 
    0.30407E+07        -0.71601E+06         0.00000E+00
   -0.71601E+06        -0.13744E+07         0.00000E+00
    0.00000E+00         0.00000E+00         0.33326E+06
 
    0.26521E+07        -0.48779E+06         0.00000E+00
   -0.48779E+06        -0.15168E+07         0.00000E+00
    0.00000E+00         0.00000E+00         0.22708E+06
 
    0.22913E+07        -0.13033E+06         0.00000E+00
   -0.13033E+06        -0.16536E+07         0.00000E+00
    0.00000E+00         0.00000E+00         0.12754E+06
 
    0.19470E+07         0.35346E+06         0.00000E+00
    0.35346E+06        -0.17740E+07         0.00000E+00
    0.00000E+00         0.00000E+00         0.34599E+05
 
    0.16088E+07         0.95670E+06         0.00000E+00
    0.95670E+06        -0.18677E+07         0.00000E+00
    0.00000E+00         0.00000E+00        -0.51781E+05
 
    0.12677E+07         0.16688E+07         0.00000E+00
    0.16688E+07        -0.19256E+07         0.00000E+00
    0.00000E+00         0.00000E+00        -0.13160E+06
 
    0.91702E+06         0.24758E+07         0.00000E+00
    0.24758E+07        -0.19408E+07         0.00000E+00
    0.00000E+00         0.00000E+00        -0.20475E+06
 
    0.55310E+06         0.33599E+07         0.00000E+00
    0.33599E+07        -0.19083E+07         0.00000E+00
    0.00000E+00         0.00000E+00        -0.27105E+06
 
    0.17587E+06         0.43003E+07         0.00000E+00
    0.43003E+07        -0.18265E+07         0.00000E+00
    0.00000E+00         0.00000E+00        -0.33012E+06
 
   -0.21049E+06         0.52730E+07         0.00000E+00
    0.52730E+07        -0.16969E+07         0.00000E+00
    0.00000E+00         0.00000E+00        -0.38147E+06
 
    0.40726E+07        -0.17228E+06         0.00000E+00
   -0.17228E+06        -0.22565E+07         0.00000E+00
    0.00000E+00         0.00000E+00         0.36321E+06
 
    0.34634E+07        -0.48841E+06         0.00000E+00
   -0.48841E+06        -0.23083E+07         0.00000E+00
    0.00000E+00         0.00000E+00         0.23102E+06
 
    0.29433E+07        -0.73692E+06         0.00000E+00
   -0.73692E+06        -0.24091E+07         0.00000E+00
    0.00000E+00         0.00000E+00         0.10685E+06
 
    0.25047E+07        -0.88937E+06         0.00000E+00
   -0.88937E+06        -0.25522E+07         0.00000E+00
    0.00000E+00         0.00000E+00        -0.94973E+04
 
    0.21362E+07        -0.92516E+06         0.00000E+00
   -0.92516E+06        -0.27277E+07         0.00000E+00
    0.00000E+00         0.00000E+00        -0.11829E+06
 
    0.18243E+07        -0.83089E+06         0.00000E+00
   -0.83089E+06        -0.29237E+07         0.00000E+00
    0.00000E+00         0.00000E+00        -0.21988E+06
 
    0.15540E+07        -0.59951E+06         0.00000E+00
   -0.59951E+06        -0.31274E+07         0.00000E+00
    0.00000E+00         0.00000E+00        -0.31467E+06
 
    0.13101E+07        -0.22955E+06         0.00000E+00
   -0.22955E+06        -0.33255E+07         0.00000E+00
    0.00000E+00         0.00000E+00        -0.40308E+06
 
    0.10776E+07         0.27561E+06         0.00000E+00
    0.27561E+06        -0.35052E+07         0.00000E+00
    0.00000E+00         0.00000E+00        -0.48551E+06
 
    0.84281E+06         0.90820E+06         0.00000E+00
    0.90820E+06        -0.36544E+07         0.00000E+00
    0.00000E+00         0.00000E+00        -0.56232E+06
 
    0.59350E+06         0.16564E+07         0.00000E+00
    0.16564E+07        -0.37625E+07         0.00000E+00
    0.00000E+00         0.00000E+00        -0.63381E+06
 
    0.31977E+06         0.25043E+07         0.00000E+00
    0.25043E+07        -0.38205E+07         0.00000E+00
    0.00000E+00         0.00000E+00        -0.70014E+06
 
    0.14684E+05         0.34323E+07         0.00000E+00
    0.34323E+07        -0.38215E+07         0.00000E+00
    0.00000E+00         0.00000E+00        -0.76137E+06
 
   -0.32492E+06         0.44165E+07         0.00000E+00
    0.44165E+07        -0.37619E+07         0.00000E+00
    0.00000E+00         0.00000E+00        -0.81736E+06
 
   -0.69751E+06         0.54300E+07         0.00000E+00
    0.54300E+07        -0.36414E+07         0.00000E+00
    0.00000E+00         0.00000E+00        -0.86777E+06
 
    0.23536E+07        -0.19563E+06         0.00000E+00
   -0.19563E+06        -0.36203E+07         0.00000E+00
    0.00000E+00         0.00000E+00        -0.25333E+06
 
    0.17923E+07        -0.55592E+06         0.00000E+00
   -0.55592E+06        -0.36934E+07         0.00000E+00
    0.00000E+00         0.00000E+00        -0.38023E+06
 
    0.13499E+07        -0.84245E+06         0.00000E+00
   -0.84245E+06        -0.38326E+07         0.00000E+00
    0.00000E+00         0.00000E+00        -0.49655E+06
 
    0.10109E+07        -0.10242E+07         0.00000E+00
   -0.10242E+07        -0.40267E+07         0.00000E+00
    0.00000E+00         0.00000E+00        -0.60316E+06
 
    0.75671E+06        -0.10790E+07         0.00000E+00
   -0.10790E+07        -0.42616E+07         0.00000E+00
    0.00000E+00         0.00000E+00        -0.70097E+06
 
    0.56737E+06        -0.99267E+06         0.00000E+00
   -0.99267E+06        -0.45219E+07         0.00000E+00
    0.00000E+00         0.00000E+00        -0.79090E+06
 
    0.42250E+06        -0.75813E+06         0.00000E+00
   -0.75813E+06        -0.47917E+07         0.00000E+00
    0.00000E+00         0.00000E+00        -0.87385E+06
 
    0.30224E+06        -0.37431E+06         0.00000E+00
   -0.37431E+06        -0.50556E+07         0.00000E+00
    0.00000E+00         0.00000E+00        -0.95067E+06
 
    0.18776E+06         0.15467E+06         0.00000E+00
    0.15467E+06        -0.52986E+07         0.00000E+00
    0.00000E+00         0.00000E+00        -0.10222E+07
 
    0.61678E+05         0.82015E+06         0.00000E+00
    0.82015E+06        -0.55070E+07         0.00000E+00
    0.00000E+00         0.00000E+00        -0.10891E+07
 
   -0.91641E+05         0.16092E+07         0.00000E+00
    0.16092E+07        -0.56683E+07         0.00000E+00
    0.00000E+00         0.00000E+00        -0.11520E+07
 
   -0.28568E+06         0.25044E+07         0.00000E+00
    0.25044E+07        -0.57715E+07         0.00000E+00
    0.00000E+00         0.00000E+00        -0.12114E+07
 
   -0.53112E+06         0.34843E+07         0.00000E+00
    0.34843E+07        -0.58075E+07         0.00000E+00
    0.00000E+00         0.00000E+00        -0.12677E+07
 
   -0.83483E+06         0.45223E+07         0.00000E+00
    0.45223E+07        -0.57702E+07         0.00000E+00
    0.00000E+00         0.00000E+00        -0.13210E+07
 
   -0.11986E+07         0.55880E+07         0.00000E+00
    0.55880E+07        -0.56571E+07         0.00000E+00
    0.00000E+00         0.00000E+00        -0.13711E+07
 
    0.54454E+06        -0.22835E+06         0.00000E+00
   -0.22835E+06        -0.50196E+07         0.00000E+00
    0.00000E+00         0.00000E+00        -0.89502E+06
 
    0.36633E+05        -0.64816E+06         0.00000E+00
   -0.64816E+06        -0.51161E+07         0.00000E+00
    0.00000E+00         0.00000E+00        -0.10159E+07
 
   -0.32044E+06        -0.98370E+06         0.00000E+00
   -0.98370E+06        -0.52971E+07         0.00000E+00
    0.00000E+00         0.00000E+00        -0.11235E+07
 
   -0.55118E+06        -0.12018E+07         0.00000E+00
   -0.12018E+07        -0.55462E+07         0.00000E+00
    0.00000E+00         0.00000E+00        -0.12195E+07
 
   -0.68211E+06        -0.12795E+07         0.00000E+00
   -0.12795E+07        -0.58447E+07         0.00000E+00
    0.00000E+00         0.00000E+00        -0.13054E+07
 
   -0.74020E+06        -0.12024E+07         0.00000E+00
   -0.12024E+07        -0.61731E+07         0.00000E+00
    0.00000E+00         0.00000E+00        -0.13827E+07
 
   -0.75161E+06        -0.96423E+06         0.00000E+00
   -0.96423E+06        -0.65124E+07         0.00000E+00
    0.00000E+00         0.00000E+00        -0.14528E+07
 
   -0.74090E+06        -0.56488E+06         0.00000E+00
   -0.56488E+06        -0.68447E+07         0.00000E+00
    0.00000E+00         0.00000E+00        -0.15171E+07
 
   -0.73081E+06        -0.94705E+04         0.00000E+00
   -0.94705E+04        -0.71535E+07         0.00000E+00
    0.00000E+00         0.00000E+00        -0.15769E+07
 
   -0.74225E+06         0.69244E+06         0.00000E+00
    0.69244E+06        -0.74235E+07         0.00000E+00
    0.00000E+00         0.00000E+00        -0.16331E+07
 
   -0.79439E+06         0.15270E+07         0.00000E+00
    0.15270E+07        -0.76403E+07         0.00000E+00
    0.00000E+00         0.00000E+00        -0.16869E+07
 
   -0.90460E+06         0.24761E+07         0.00000E+00
    0.24761E+07        -0.77908E+07         0.00000E+00
    0.00000E+00         0.00000E+00        -0.17391E+07
 
   -0.10878E+07         0.35163E+07         0.00000E+00
    0.35163E+07        -0.78636E+07         0.00000E+00
    0.00000E+00         0.00000E+00        -0.17903E+07
 
   -0.13556E+07         0.46190E+07         0.00000E+00
    0.46190E+07        -0.78493E+07         0.00000E+00
    0.00000E+00         0.00000E+00        -0.18410E+07
 
   -0.17141E+07         0.57498E+07         0.00000E+00
    0.57498E+07        -0.77425E+07         0.00000E+00
    0.00000E+00         0.00000E+00        -0.18913E+07
 
   -0.13815E+07        -0.27087E+06         0.00000E+00
   -0.27087E+06        -0.64633E+07         0.00000E+00
    0.00000E+00         0.00000E+00        -0.15689E+07
 
   -0.18258E+07        -0.76608E+06         0.00000E+00
   -0.76608E+06        -0.65850E+07         0.00000E+00
    0.00000E+00         0.00000E+00        -0.16822E+07
 
   -0.20861E+07        -0.11616E+07         0.00000E+00
   -0.11616E+07        -0.68110E+07         0.00000E+00
    0.00000E+00         0.00000E+00        -0.17794E+07
 
   -0.21967E+07        -0.14228E+07         0.00000E+00
   -0.14228E+07        -0.71186E+07         0.00000E+00
    0.00000E+00         0.00000E+00        -0.18631E+07
 
   -0.21931E+07        -0.15262E+07         0.00000E+00
   -0.15262E+07        -0.74838E+07         0.00000E+00
    0.00000E+00         0.00000E+00        -0.19354E+07
 
   -0.21099E+07        -0.14588E+07         0.00000E+00
   -0.14588E+07        -0.78825E+07         0.00000E+00
    0.00000E+00         0.00000E+00        -0.19985E+07
 
   -0.19791E+07        -0.12159E+07         0.00000E+00
   -0.12159E+07        -0.82926E+07         0.00000E+00
    0.00000E+00         0.00000E+00        -0.20543E+07
 
   -0.18299E+07        -0.79899E+06         0.00000E+00
   -0.79899E+06        -0.86940E+07         0.00000E+00
    0.00000E+00         0.00000E+00        -0.21048E+07
 
   -0.16886E+07        -0.21467E+06         0.00000E+00
   -0.21467E+06        -0.90690E+07         0.00000E+00
    0.00000E+00         0.00000E+00        -0.21515E+07
 
   -0.15791E+07         0.52670E+06         0.00000E+00
    0.52670E+06        -0.94010E+07         0.00000E+00
    0.00000E+00         0.00000E+00        -0.21960E+07
 
   -0.15239E+07         0.14109E+07         0.00000E+00
    0.14109E+07        -0.96744E+07         0.00000E+00
    0.00000E+00         0.00000E+00        -0.22397E+07
 
   -0.15445E+07         0.24195E+07         0.00000E+00
    0.24195E+07        -0.98742E+07         0.00000E+00
    0.00000E+00         0.00000E+00        -0.22837E+07
 
   -0.16608E+07         0.35285E+07         0.00000E+00
    0.35285E+07        -0.99857E+07         0.00000E+00
    0.00000E+00         0.00000E+00        -0.23293E+07
 
   -0.18900E+07         0.47072E+07         0.00000E+00
    0.47072E+07        -0.99959E+07         0.00000E+00
    0.00000E+00         0.00000E+00        -0.23772E+07
 
   -0.22444E+07         0.59177E+07         0.00000E+00
    0.59177E+07        -0.98954E+07         0.00000E+00
    0.00000E+00         0.00000E+00        -0.24280E+07
 
   -0.34537E+07        -0.32352E+06         0.00000E+00
   -0.32352E+06        -0.79618E+07         0.00000E+00
    0.00000E+00         0.00000E+00        -0.22831E+07
 
   -0.38194E+07        -0.91024E+06         0.00000E+00
   -0.91024E+06        -0.81108E+07         0.00000E+00
    0.00000E+00         0.00000E+00        -0.23861E+07
 
   -0.39670E+07        -0.13763E+07         0.00000E+00
   -0.13763E+07        -0.83850E+07         0.00000E+00
    0.00000E+00         0.00000E+00        -0.24704E+07
 
   -0.39420E+07        -0.16858E+07         0.00000E+00
   -0.16858E+07        -0.87542E+07         0.00000E+00
    0.00000E+00         0.00000E+00        -0.25393E+07
 
   -0.37903E+07        -0.18165E+07         0.00000E+00
   -0.18165E+07        -0.91878E+07         0.00000E+00
    0.00000E+00         0.00000E+00        -0.25956E+07
 
   -0.35546E+07        -0.17578E+07         0.00000E+00
   -0.17578E+07        -0.96569E+07         0.00000E+00
    0.00000E+00         0.00000E+00        -0.26423E+07
 
   -0.32728E+07        -0.15078E+07         0.00000E+00
   -0.15078E+07        -0.10136E+08         0.00000E+00
    0.00000E+00         0.00000E+00        -0.26818E+07
 
   -0.29781E+07        -0.10711E+07         0.00000E+00
   -0.10711E+07        -0.10604E+08         0.00000E+00
    0.00000E+00         0.00000E+00        -0.27165E+07
 
   -0.26992E+07        -0.45593E+06         0.00000E+00
   -0.45593E+06        -0.11043E+08         0.00000E+00
    0.00000E+00         0.00000E+00        -0.27484E+07
 
   -0.24625E+07         0.32672E+06         0.00000E+00
    0.32672E+06        -0.11435E+08         0.00000E+00
    0.00000E+00         0.00000E+00        -0.27795E+07
 
   -0.22930E+07         0.12630E+07         0.00000E+00
    0.12630E+07        -0.11765E+08         0.00000E+00
    0.00000E+00         0.00000E+00        -0.28116E+07
 
   -0.22163E+07         0.23354E+07         0.00000E+00
    0.23354E+07        -0.12015E+08         0.00000E+00
    0.00000E+00         0.00000E+00        -0.28463E+07
 
   -0.22580E+07         0.35204E+07         0.00000E+00
    0.35204E+07        -0.12168E+08         0.00000E+00
    0.00000E+00         0.00000E+00        -0.28852E+07
 
   -0.24426E+07         0.47866E+07         0.00000E+00
    0.47866E+07        -0.12206E+08         0.00000E+00
    0.00000E+00         0.00000E+00        -0.29296E+07
 
   -0.27907E+07         0.60928E+07         0.00000E+00
    0.60928E+07        -0.12113E+08         0.00000E+00
    0.00000E+00         0.00000E+00        -0.29807E+07
 
   -0.57043E+07        -0.38656E+06         0.00000E+00
   -0.38656E+06        -0.95283E+07         0.00000E+00
    0.00000E+00         0.00000E+00        -0.30465E+07
 
   -0.59707E+07        -0.10808E+07         0.00000E+00
   -0.10808E+07        -0.97071E+07         0.00000E+00
    0.00000E+00         0.00000E+00        -0.31356E+07
 
   -0.59845E+07        -0.16268E+07         0.00000E+00
   -0.16268E+07        -0.10033E+08         0.00000E+00
    0.00000E+00         0.00000E+00        -0.32034E+07
 
   -0.58047E+07        -0.19880E+07         0.00000E+00
   -0.19880E+07        -0.10466E+08         0.00000E+00
    0.00000E+00         0.00000E+00        -0.32541E+07
 
   -0.54890E+07        -0.21449E+07         0.00000E+00
   -0.21449E+07        -0.10968E+08         0.00000E+00
    0.00000E+00         0.00000E+00        -0.32914E+07
 
   -0.50889E+07        -0.20913E+07         0.00000E+00
   -0.20913E+07        -0.11504E+08         0.00000E+00
    0.00000E+00         0.00000E+00        -0.33186E+07
 
   -0.46480E+07        -0.18307E+07         0.00000E+00
   -0.18307E+07        -0.12048E+08         0.00000E+00
    0.00000E+00         0.00000E+00        -0.33391E+07
 
   -0.42021E+07        -0.13716E+07         0.00000E+00
   -0.13716E+07        -0.12576E+08         0.00000E+00
    0.00000E+00         0.00000E+00        -0.33555E+07
 
   -0.37809E+07        -0.72458E+06         0.00000E+00
   -0.72458E+06        -0.13071E+08         0.00000E+00
    0.00000E+00         0.00000E+00        -0.33704E+07
 
   -0.34113E+07         0.99042E+05         0.00000E+00
    0.99042E+05        -0.13519E+08         0.00000E+00
    0.00000E+00         0.00000E+00        -0.33860E+07
 
   -0.31200E+07         0.10871E+07         0.00000E+00
    0.10871E+07        -0.13902E+08         0.00000E+00
    0.00000E+00         0.00000E+00        -0.34045E+07
 
   -0.29361E+07         0.22246E+07         0.00000E+00
    0.22246E+07        -0.14204E+08         0.00000E+00
    0.00000E+00         0.00000E+00        -0.34280E+07
 
   -0.28917E+07         0.34908E+07         0.00000E+00
    0.34908E+07        -0.14402E+08         0.00000E+00
    0.00000E+00         0.00000E+00        -0.34586E+07
 
   -0.30205E+07         0.48551E+07         0.00000E+00
    0.48551E+07        -0.14471E+08         0.00000E+00
    0.00000E+00         0.00000E+00        -0.34983E+07
 
   -0.33548E+07         0.62743E+07         0.00000E+00
    0.62743E+07        -0.14390E+08         0.00000E+00
    0.00000E+00         0.00000E+00        -0.35489E+07
 
   -0.81688E+07        -0.46032E+06         0.00000E+00
   -0.46032E+06        -0.11179E+08         0.00000E+00
    0.00000E+00         0.00000E+00        -0.38695E+07
 
   -0.83087E+07        -0.12778E+07         0.00000E+00
   -0.12778E+07        -0.11391E+08         0.00000E+00
    0.00000E+00         0.00000E+00        -0.39399E+07
 
   -0.81614E+07        -0.19109E+07         0.00000E+00
   -0.19109E+07        -0.11771E+08         0.00000E+00
    0.00000E+00         0.00000E+00        -0.39866E+07
 
   -0.78030E+07        -0.23237E+07         0.00000E+00
   -0.23237E+07        -0.12270E+08         0.00000E+00
    0.00000E+00         0.00000E+00        -0.40146E+07
 
   -0.73052E+07        -0.25016E+07         0.00000E+00
   -0.25016E+07        -0.12838E+08         0.00000E+00
    0.00000E+00         0.00000E+00        -0.40287E+07
 
   -0.67293E+07        -0.24465E+07         0.00000E+00
   -0.24465E+07        -0.13435E+08         0.00000E+00
    0.00000E+00         0.00000E+00        -0.40329E+07
 
   -0.61232E+07        -0.21696E+07         0.00000E+00
   -0.21696E+07        -0.14031E+08         0.00000E+00
    0.00000E+00         0.00000E+00        -0.40309E+07
 
   -0.55234E+07        -0.16854E+07         0.00000E+00
   -0.16854E+07        -0.14607E+08         0.00000E+00
    0.00000E+00         0.00000E+00        -0.40261E+07
 
   -0.49578E+07        -0.10073E+07         0.00000E+00
   -0.10073E+07        -0.15148E+08         0.00000E+00
    0.00000E+00         0.00000E+00        -0.40211E+07
 
   -0.44514E+07        -0.14635E+06         0.00000E+00
   -0.14635E+06        -0.15641E+08         0.00000E+00
    0.00000E+00         0.00000E+00        -0.40185E+07
 
   -0.40305E+07         0.88876E+06         0.00000E+00
    0.88876E+06        -0.16074E+08         0.00000E+00
    0.00000E+00         0.00000E+00        -0.40209E+07
 
   -0.37269E+07         0.20883E+07         0.00000E+00
    0.20883E+07        -0.16427E+08         0.00000E+00
    0.00000E+00         0.00000E+00        -0.40307E+07
 
   -0.35798E+07         0.34370E+07         0.00000E+00
    0.34370E+07        -0.16674E+08         0.00000E+00
    0.00000E+00         0.00000E+00        -0.40507E+07
 
   -0.36347E+07         0.49083E+07         0.00000E+00
    0.49083E+07        -0.16783E+08         0.00000E+00
    0.00000E+00         0.00000E+00        -0.40835E+07
 
   -0.39396E+07         0.64587E+07         0.00000E+00
    0.64587E+07        -0.16720E+08         0.00000E+00
    0.00000E+00         0.00000E+00        -0.41320E+07
 
   -0.10887E+08        -0.54533E+06         0.00000E+00
   -0.54533E+06        -0.12934E+08         0.00000E+00
    0.00000E+00         0.00000E+00        -0.47643E+07
 
   -0.10865E+08        -0.15012E+07         0.00000E+00
   -0.15012E+07        -0.13183E+08         0.00000E+00
    0.00000E+00         0.00000E+00        -0.48097E+07
 
   -0.10522E+08        -0.22253E+07         0.00000E+00
   -0.22253E+07        -0.13624E+08         0.00000E+00
    0.00000E+00         0.00000E+00        -0.48292E+07
 
   -0.99558E+07        -0.26839E+07         0.00000E+00
   -0.26839E+07        -0.14189E+08         0.00000E+00
    0.00000E+00         0.00000E+00        -0.48290E+07
 
   -0.92565E+07        -0.28719E+07         0.00000E+00
   -0.28719E+07        -0.14817E+08         0.00000E+00
    0.00000E+00         0.00000E+00        -0.48146E+07
 
   -0.84950E+07        -0.28038E+07         0.00000E+00
   -0.28038E+07        -0.15461E+08         0.00000E+00
    0.00000E+00         0.00000E+00        -0.47912E+07
 
   -0.77219E+07        -0.25025E+07         0.00000E+00
   -0.25025E+07        -0.16093E+08         0.00000E+00
    0.00000E+00         0.00000E+00        -0.47629E+07
 
   -0.69702E+07        -0.19907E+07         0.00000E+00
   -0.19907E+07        -0.16696E+08         0.00000E+00
    0.00000E+00         0.00000E+00        -0.47333E+07
 
   -0.62626E+07        -0.12852E+07         0.00000E+00
   -0.12852E+07        -0.17263E+08         0.00000E+00
    0.00000E+00         0.00000E+00        -0.47052E+07
 
   -0.56182E+07        -0.39532E+06         0.00000E+00
   -0.39532E+06        -0.17788E+08         0.00000E+00
    0.00000E+00         0.00000E+00        -0.46813E+07
 
   -0.50603E+07         0.67585E+06         0.00000E+00
    0.67585E+06        -0.18262E+08         0.00000E+00
    0.00000E+00         0.00000E+00        -0.46644E+07
 
   -0.46216E+07         0.19274E+07         0.00000E+00
    0.19274E+07        -0.18664E+08         0.00000E+00
    0.00000E+00         0.00000E+00        -0.46572E+07
 
   -0.43486E+07         0.33541E+07         0.00000E+00
    0.33541E+07        -0.18967E+08         0.00000E+00
    0.00000E+00         0.00000E+00        -0.46631E+07
 
   -0.43017E+07         0.49377E+07         0.00000E+00
    0.49377E+07        -0.19127E+08         0.00000E+00
    0.00000E+00         0.00000E+00        -0.46858E+07
 
   -0.45498E+07         0.66379E+07         0.00000E+00
    0.66379E+07        -0.19096E+08         0.00000E+00
    0.00000E+00         0.00000E+00        -0.47292E+07
 
   -0.13907E+08        -0.64267E+06         0.00000E+00
   -0.64267E+06        -0.14821E+08         0.00000E+00
    0.00000E+00         0.00000E+00        -0.57456E+07
 
   -0.13676E+08        -0.17511E+07         0.00000E+00
   -0.17511E+07        -0.15114E+08         0.00000E+00
    0.00000E+00         0.00000E+00        -0.57580E+07
 
   -0.13091E+08        -0.25645E+07         0.00000E+00
   -0.25645E+07        -0.15621E+08         0.00000E+00
    0.00000E+00         0.00000E+00        -0.57425E+07
 
   -0.12283E+08        -0.30546E+07         0.00000E+00
   -0.30546E+07        -0.16251E+08         0.00000E+00
    0.00000E+00         0.00000E+00        -0.57067E+07
 
   -0.11362E+08        -0.32331E+07         0.00000E+00
   -0.32331E+07        -0.16926E+08         0.00000E+00
    0.00000E+00         0.00000E+00        -0.56576E+07
 
   -0.10410E+08        -0.31345E+07         0.00000E+00
   -0.31345E+07        -0.17596E+08         0.00000E+00
    0.00000E+00         0.00000E+00        -0.56012E+07
 
   -0.94744E+07        -0.27985E+07         0.00000E+00
   -0.27985E+07        -0.18235E+08         0.00000E+00
    0.00000E+00         0.00000E+00        -0.55419E+07
 
   -0.85804E+07        -0.22580E+07         0.00000E+00
   -0.22580E+07        -0.18837E+08         0.00000E+00
    0.00000E+00         0.00000E+00        -0.54835E+07
 
   -0.77393E+07        -0.15327E+07         0.00000E+00
   -0.15327E+07        -0.19404E+08         0.00000E+00
    0.00000E+00         0.00000E+00        -0.54287E+07
 
   -0.69602E+07        -0.62900E+06         0.00000E+00
   -0.62900E+06        -0.19940E+08         0.00000E+00
    0.00000E+00         0.00000E+00        -0.53800E+07
 
   -0.62588E+07         0.45875E+06         0.00000E+00
    0.45875E+06        -0.20441E+08         0.00000E+00
    0.00000E+00         0.00000E+00        -0.53399E+07
 
   -0.56664E+07         0.17428E+07         0.00000E+00
    0.17428E+07        -0.20891E+08         0.00000E+00
    0.00000E+00         0.00000E+00        -0.53115E+07
 
   -0.52361E+07         0.32340E+07         0.00000E+00
    0.32340E+07        -0.21258E+08         0.00000E+00
    0.00000E+00         0.00000E+00        -0.52987E+07
 
   -0.50458E+07         0.49292E+07         0.00000E+00
    0.49292E+07        -0.21486E+08         0.00000E+00
    0.00000E+00         0.00000E+00        -0.53064E+07
 
   -0.51930E+07         0.67971E+07         0.00000E+00
    0.67971E+07        -0.21507E+08         0.00000E+00
    0.00000E+00         0.00000E+00        -0.53401E+07
 
   -0.17286E+08        -0.75450E+06         0.00000E+00
   -0.75450E+06        -0.16875E+08         0.00000E+00
    0.00000E+00         0.00000E+00        -0.68320E+07
 
   -0.16783E+08        -0.20283E+07         0.00000E+00
   -0.20283E+07        -0.17223E+08         0.00000E+00
    0.00000E+00         0.00000E+00        -0.68011E+07
 
   -0.15897E+08        -0.29196E+07         0.00000E+00
   -0.29196E+07        -0.17804E+08         0.00000E+00
    0.00000E+00         0.00000E+00        -0.67403E+07
 
   -0.14805E+08        -0.34133E+07         0.00000E+00
   -0.34133E+07        -0.18493E+08         0.00000E+00
    0.00000E+00         0.00000E+00        -0.66596E+07
 
   -0.13646E+08        -0.35511E+07         0.00000E+00
   -0.35511E+07        -0.19193E+08         0.00000E+00
    0.00000E+00         0.00000E+00        -0.65679E+07
 
   -0.12506E+08        -0.33983E+07         0.00000E+00
   -0.33983E+07        -0.19854E+08         0.00000E+00
    0.00000E+00         0.00000E+00        -0.64720E+07
 
   -0.11423E+08        -0.30165E+07         0.00000E+00
   -0.30165E+07        -0.20460E+08         0.00000E+00
    0.00000E+00         0.00000E+00        -0.63767E+07
 
   -0.10406E+08        -0.24491E+07         0.00000E+00
   -0.24491E+07        -0.21021E+08         0.00000E+00
    0.00000E+00         0.00000E+00        -0.62854E+07
 
   -0.94479E+07        -0.17179E+07         0.00000E+00
   -0.17179E+07        -0.21552E+08         0.00000E+00
    0.00000E+00         0.00000E+00        -0.62000E+07
 
   -0.85426E+07        -0.82365E+06         0.00000E+00
   -0.82365E+06        -0.22070E+08         0.00000E+00
    0.00000E+00         0.00000E+00        -0.61225E+07
 
   -0.76936E+07         0.25063E+06         0.00000E+00
    0.25063E+06        -0.22580E+08         0.00000E+00
    0.00000E+00         0.00000E+00        -0.60548E+07
 
   -0.69258E+07         0.15352E+07         0.00000E+00
    0.15352E+07        -0.23074E+08         0.00000E+00
    0.00000E+00         0.00000E+00        -0.59999E+07
 
   -0.62965E+07         0.30645E+07         0.00000E+00
    0.30645E+07        -0.23515E+08         0.00000E+00
    0.00000E+00         0.00000E+00        -0.59623E+07
 
   -0.59030E+07         0.48609E+07         0.00000E+00
    0.48609E+07        -0.23836E+08         0.00000E+00
    0.00000E+00         0.00000E+00        -0.59479E+07
 
   -0.58808E+07         0.69118E+07         0.00000E+00
    0.69118E+07        -0.23941E+08         0.00000E+00
    0.00000E+00         0.00000E+00        -0.59645E+07
 
   -0.21099E+08        -0.88494E+06         0.00000E+00
   -0.88494E+06        -0.19146E+08         0.00000E+00
    0.00000E+00         0.00000E+00        -0.80490E+07
 
   -0.20235E+08        -0.23339E+07         0.00000E+00
   -0.23339E+07        -0.19566E+08         0.00000E+00
    0.00000E+00         0.00000E+00        -0.79602E+07
 
   -0.18969E+08        -0.32744E+07         0.00000E+00
   -0.32744E+07        -0.20232E+08         0.00000E+00
    0.00000E+00         0.00000E+00        -0.78401E+07
 
   -0.17548E+08        -0.37229E+07         0.00000E+00
   -0.37229E+07        -0.20963E+08         0.00000E+00
    0.00000E+00         0.00000E+00        -0.77023E+07
 
   -0.16143E+08        -0.37747E+07         0.00000E+00
   -0.37747E+07        -0.21647E+08         0.00000E+00
    0.00000E+00         0.00000E+00        -0.75581E+07
 
   -0.14833E+08        -0.35401E+07         0.00000E+00
   -0.35401E+07        -0.22244E+08         0.00000E+00
    0.00000E+00         0.00000E+00        -0.74154E+07
 
   -0.13632E+08        -0.31047E+07         0.00000E+00
   -0.31047E+07        -0.22763E+08         0.00000E+00
    0.00000E+00         0.00000E+00        -0.72788E+07
 
   -0.12520E+08        -0.25194E+07         0.00000E+00
   -0.25194E+07        -0.23232E+08         0.00000E+00
    0.00000E+00         0.00000E+00        -0.71504E+07
 
   -0.11469E+08        -0.18039E+07         0.00000E+00
   -0.18039E+07        -0.23685E+08         0.00000E+00
    0.00000E+00         0.00000E+00        -0.70308E+07
 
   -0.10452E+08        -0.95151E+06         0.00000E+00
   -0.95151E+06        -0.24150E+08         0.00000E+00
    0.00000E+00         0.00000E+00        -0.69204E+07
 
   -0.94549E+07         0.67737E+05         0.00000E+00
    0.67737E+05        -0.24646E+08         0.00000E+00
    0.00000E+00         0.00000E+00        -0.68202E+07
 
   -0.84886E+07         0.13055E+07         0.00000E+00
    0.13055E+07        -0.25173E+08         0.00000E+00
    0.00000E+00         0.00000E+00        -0.67324E+07
 
   -0.76074E+07         0.28284E+07         0.00000E+00
    0.28284E+07        -0.25700E+08         0.00000E+00
    0.00000E+00         0.00000E+00        -0.66616E+07
 
   -0.69272E+07         0.46995E+07         0.00000E+00
    0.46995E+07        -0.26148E+08         0.00000E+00
    0.00000E+00         0.00000E+00        -0.66151E+07
 
   -0.66319E+07         0.69426E+07         0.00000E+00
    0.69426E+07        -0.26385E+08         0.00000E+00
    0.00000E+00         0.00000E+00        -0.66034E+07
 
   -0.25452E+08        -0.10419E+07         0.00000E+00
   -0.10419E+07        -0.21713E+08         0.00000E+00
    0.00000E+00         0.00000E+00        -0.94330E+07
 
   -0.24094E+08        -0.26675E+07         0.00000E+00
   -0.26675E+07        -0.22232E+08         0.00000E+00
    0.00000E+00         0.00000E+00        -0.92652E+07
 
   -0.22341E+08        -0.35948E+07         0.00000E+00
   -0.35948E+07        -0.22986E+08         0.00000E+00
    0.00000E+00         0.00000E+00        -0.90654E+07
 
   -0.20552E+08        -0.39179E+07         0.00000E+00
   -0.39179E+07        -0.23716E+08         0.00000E+00
    0.00000E+00         0.00000E+00        -0.88537E+07
 
   -0.18917E+08        -0.38273E+07         0.00000E+00
   -0.38273E+07        -0.24308E+08         0.00000E+00
    0.00000E+00         0.00000E+00        -0.86450E+07
 
   -0.17476E+08        -0.34892E+07         0.00000E+00
   -0.34892E+07        -0.24762E+08         0.00000E+00
    0.00000E+00         0.00000E+00        -0.84476E+07
 
   -0.16199E+08        -0.30052E+07         0.00000E+00
   -0.30052E+07        -0.25124E+08         0.00000E+00
    0.00000E+00         0.00000E+00        -0.82645E+07
 
   -0.15030E+08        -0.24229E+07         0.00000E+00
   -0.24229E+07        -0.25446E+08         0.00000E+00
    0.00000E+00         0.00000E+00        -0.80952E+07
 
   -0.13914E+08        -0.17541E+07         0.00000E+00
   -0.17541E+07        -0.25776E+08         0.00000E+00
    0.00000E+00         0.00000E+00        -0.79380E+07
 
   -0.12803E+08        -0.98364E+06         0.00000E+00
   -0.98364E+06        -0.26151E+08         0.00000E+00
    0.00000E+00         0.00000E+00        -0.77909E+07
 
   -0.11662E+08        -0.70488E+05         0.00000E+00
   -0.70488E+05        -0.26603E+08         0.00000E+00
    0.00000E+00         0.00000E+00        -0.76530E+07
 
   -0.10476E+08         0.10571E+07         0.00000E+00
    0.10571E+07        -0.27148E+08         0.00000E+00
    0.00000E+00         0.00000E+00        -0.75247E+07
 
   -0.92807E+07         0.25047E+07         0.00000E+00
    0.25047E+07        -0.27769E+08         0.00000E+00
    0.00000E+00         0.00000E+00        -0.74099E+07
 
   -0.82000E+07         0.43976E+07         0.00000E+00
    0.43976E+07        -0.28385E+08         0.00000E+00
    0.00000E+00         0.00000E+00        -0.73170E+07
 
   -0.74765E+07         0.68282E+07         0.00000E+00
    0.68282E+07        -0.28823E+08         0.00000E+00
    0.00000E+00         0.00000E+00        -0.72600E+07
 
   -0.30510E+08        -0.12414E+07         0.00000E+00
   -0.12414E+07        -0.24703E+08         0.00000E+00
    0.00000E+00         0.00000E+00        -0.11043E+08
 
   -0.28441E+08        -0.30177E+07         0.00000E+00
   -0.30177E+07        -0.25364E+08         0.00000E+00
    0.00000E+00         0.00000E+00        -0.10761E+08
 
   -0.26068E+08        -0.38012E+07         0.00000E+00
   -0.38012E+07        -0.26180E+08         0.00000E+00
    0.00000E+00         0.00000E+00        -0.10450E+08
 
   -0.23905E+08        -0.38806E+07         0.00000E+00
   -0.38806E+07        -0.26798E+08         0.00000E+00
    0.00000E+00         0.00000E+00        -0.10140E+08
 
   -0.22097E+08        -0.36011E+07         0.00000E+00
   -0.36011E+07        -0.27167E+08         0.00000E+00
    0.00000E+00         0.00000E+00        -0.98528E+07
 
   -0.20591E+08        -0.31673E+07         0.00000E+00
   -0.31673E+07        -0.27375E+08         0.00000E+00
    0.00000E+00         0.00000E+00        -0.95932E+07
 
   -0.19285E+08        -0.26656E+07         0.00000E+00
   -0.26656E+07        -0.27510E+08         0.00000E+00
    0.00000E+00         0.00000E+00        -0.93590E+07
 
   -0.18091E+08        -0.21244E+07         0.00000E+00
   -0.21244E+07        -0.27636E+08         0.00000E+00
    0.00000E+00         0.00000E+00        -0.91456E+07
 
   -0.16934E+08        -0.15422E+07         0.00000E+00
   -0.15422E+07        -0.27805E+08         0.00000E+00
    0.00000E+00         0.00000E+00        -0.89478E+07
 
   -0.15746E+08        -0.89663E+06         0.00000E+00
   -0.89663E+06        -0.28058E+08         0.00000E+00
    0.00000E+00         0.00000E+00        -0.87607E+07
 
   -0.14468E+08        -0.14253E+06         0.00000E+00
   -0.14253E+06        -0.28431E+08         0.00000E+00
    0.00000E+00         0.00000E+00        -0.85799E+07
 
   -0.13051E+08         0.80058E+06         0.00000E+00
    0.80058E+06        -0.28962E+08         0.00000E+00
    0.00000E+00         0.00000E+00        -0.84026E+07
 
   -0.11481E+08         0.20739E+07         0.00000E+00
    0.20739E+07        -0.29669E+08         0.00000E+00
    0.00000E+00         0.00000E+00        -0.82299E+07
 
   -0.98520E+07         0.38900E+07         0.00000E+00
    0.38900E+07        -0.30498E+08         0.00000E+00
    0.00000E+00         0.00000E+00        -0.80699E+07
 
   -0.84665E+07         0.64724E+07         0.00000E+00
    0.64724E+07        -0.31240E+08         0.00000E+00
    0.00000E+00         0.00000E+00        -0.79413E+07
 
   -0.36551E+08        -0.15170E+07         0.00000E+00
   -0.15170E+07        -0.28353E+08         0.00000E+00
    0.00000E+00         0.00000E+00        -0.12981E+08
 
   -0.33395E+08        -0.33215E+07         0.00000E+00
   -0.33215E+07        -0.29221E+08         0.00000E+00
    0.00000E+00         0.00000E+00        -0.12523E+08
 
   -0.30282E+08        -0.36894E+07         0.00000E+00
   -0.36894E+07        -0.29940E+08         0.00000E+00
    0.00000E+00         0.00000E+00        -0.12044E+08
 
   -0.27840E+08        -0.34139E+07         0.00000E+00
   -0.34139E+07        -0.30177E+08         0.00000E+00
    0.00000E+00         0.00000E+00        -0.11603E+08
 
   -0.25975E+08        -0.29772E+07         0.00000E+00
   -0.29772E+07        -0.30146E+08         0.00000E+00
    0.00000E+00         0.00000E+00        -0.11224E+08
 
   -0.24464E+08        -0.25161E+07         0.00000E+00
   -0.25161E+07        -0.30013E+08         0.00000E+00
    0.00000E+00         0.00000E+00        -0.10895E+08
 
   -0.23157E+08        -0.20635E+07         0.00000E+00
   -0.20635E+07        -0.29872E+08         0.00000E+00
    0.00000E+00         0.00000E+00        -0.10606E+08
 
   -0.21946E+08        -0.16186E+07         0.00000E+00
   -0.16186E+07        -0.29777E+08         0.00000E+00
    0.00000E+00         0.00000E+00        -0.10345E+08
 
   -0.20747E+08        -0.11674E+07         0.00000E+00
   -0.11674E+07        -0.29768E+08         0.00000E+00
    0.00000E+00         0.00000E+00        -0.10103E+08
 
   -0.19483E+08        -0.68535E+06         0.00000E+00
   -0.68535E+06        -0.29878E+08         0.00000E+00
    0.00000E+00         0.00000E+00        -0.98722E+07
 
   -0.18075E+08        -0.13288E+06         0.00000E+00
   -0.13288E+06        -0.30144E+08         0.00000E+00
    0.00000E+00         0.00000E+00        -0.96439E+07
 
   -0.16432E+08         0.56047E+06         0.00000E+00
    0.56047E+06        -0.30616E+08         0.00000E+00
    0.00000E+00         0.00000E+00        -0.94098E+07
 
   -0.14450E+08         0.15343E+07         0.00000E+00
    0.15343E+07        -0.31358E+08         0.00000E+00
    0.00000E+00         0.00000E+00        -0.91618E+07
 
   -0.12105E+08         0.30967E+07         0.00000E+00
    0.30967E+07        -0.32424E+08         0.00000E+00
    0.00000E+00         0.00000E+00        -0.89058E+07
 
   -0.96978E+07         0.57193E+07         0.00000E+00
    0.57193E+07        -0.33611E+08         0.00000E+00
    0.00000E+00         0.00000E+00        -0.86618E+07
 
   -0.44164E+08        -0.19688E+07         0.00000E+00
   -0.19688E+07        -0.33383E+08         0.00000E+00
    0.00000E+00         0.00000E+00        -0.15509E+08
 
   -0.39249E+08        -0.31837E+07         0.00000E+00
   -0.31837E+07        -0.34250E+08         0.00000E+00
    0.00000E+00         0.00000E+00        -0.14700E+08
 
   -0.35513E+08        -0.28047E+07         0.00000E+00
   -0.28047E+07        -0.34146E+08         0.00000E+00
    0.00000E+00         0.00000E+00        -0.13932E+08
 
   -0.33033E+08        -0.23231E+07         0.00000E+00
   -0.23231E+07        -0.33656E+08         0.00000E+00
    0.00000E+00         0.00000E+00        -0.13338E+08
 
   -0.31162E+08        -0.19082E+07         0.00000E+00
   -0.19082E+07        -0.33104E+08         0.00000E+00
    0.00000E+00         0.00000E+00        -0.12853E+08
 
   -0.29628E+08        -0.15541E+07         0.00000E+00
   -0.15541E+07        -0.32598E+08         0.00000E+00
    0.00000E+00         0.00000E+00        -0.12445E+08
 
   -0.28274E+08        -0.12423E+07         0.00000E+00
   -0.12423E+07        -0.32183E+08         0.00000E+00
    0.00000E+00         0.00000E+00        -0.12091E+08
 
   -0.26995E+08        -0.95480E+06         0.00000E+00
   -0.95480E+06        -0.31878E+08         0.00000E+00
    0.00000E+00         0.00000E+00        -0.11775E+08
 
   -0.25707E+08        -0.67456E+06         0.00000E+00
   -0.67456E+06        -0.31701E+08         0.00000E+00
    0.00000E+00         0.00000E+00        -0.11482E+08
 
   -0.24330E+08        -0.38289E+06         0.00000E+00
   -0.38289E+06        -0.31672E+08         0.00000E+00
    0.00000E+00         0.00000E+00        -0.11200E+08
 
   -0.22773E+08        -0.53839E+05         0.00000E+00
   -0.53839E+05        -0.31819E+08         0.00000E+00
    0.00000E+00         0.00000E+00        -0.10918E+08
 
   -0.20910E+08         0.35733E+06         0.00000E+00
    0.35733E+06        -0.32193E+08         0.00000E+00
    0.00000E+00         0.00000E+00        -0.10621E+08
 
   -0.18554E+08         0.94376E+06         0.00000E+00
    0.94376E+06        -0.32882E+08         0.00000E+00
    0.00000E+00         0.00000E+00        -0.10287E+08
 
   -0.15370E+08         0.19582E+07         0.00000E+00
    0.19582E+07        -0.34055E+08         0.00000E+00
    0.00000E+00         0.00000E+00        -0.98850E+07
 
   -0.11384E+08         0.42892E+07         0.00000E+00
    0.42892E+07        -0.35898E+08         0.00000E+00
    0.00000E+00         0.00000E+00        -0.94564E+07
 
   -0.56637E+08        -0.19085E+07         0.00000E+00
   -0.19085E+07        -0.41746E+08         0.00000E+00
    0.00000E+00         0.00000E+00        -0.19677E+08
 
   -0.48336E+08        -0.13781E+07         0.00000E+00
   -0.13781E+07        -0.39880E+08         0.00000E+00
    0.00000E+00         0.00000E+00        -0.17643E+08
 
   -0.44193E+08        -0.95461E+06         0.00000E+00
   -0.95461E+06        -0.38316E+08         0.00000E+00
    0.00000E+00         0.00000E+00        -0.16502E+08
 
   -0.41316E+08        -0.73898E+06         0.00000E+00
   -0.73898E+06        -0.37046E+08         0.00000E+00
    0.00000E+00         0.00000E+00        -0.15672E+08
 
   -0.39096E+08        -0.58572E+06         0.00000E+00
   -0.58572E+06        -0.36021E+08         0.00000E+00
    0.00000E+00         0.00000E+00        -0.15023E+08
 
   -0.37245E+08        -0.46603E+06         0.00000E+00
   -0.46603E+06        -0.35199E+08         0.00000E+00
    0.00000E+00         0.00000E+00        -0.14489E+08
 
   -0.35601E+08        -0.36443E+06         0.00000E+00
   -0.36443E+06        -0.34553E+08         0.00000E+00
    0.00000E+00         0.00000E+00        -0.14031E+08
 
   -0.34056E+08        -0.27215E+06         0.00000E+00
   -0.27215E+06        -0.34071E+08         0.00000E+00
    0.00000E+00         0.00000E+00        -0.13625E+08
 
   -0.32519E+08        -0.18257E+06         0.00000E+00
   -0.18257E+06        -0.33749E+08         0.00000E+00
    0.00000E+00         0.00000E+00        -0.13254E+08
 
   -0.30903E+08        -0.89167E+05         0.00000E+00
   -0.89167E+05        -0.33595E+08         0.00000E+00
    0.00000E+00         0.00000E+00        -0.12900E+08
 
   -0.29103E+08         0.16613E+05         0.00000E+00
    0.16613E+05        -0.33629E+08         0.00000E+00
    0.00000E+00         0.00000E+00        -0.12546E+08
 
   -0.26973E+08         0.14910E+06         0.00000E+00
    0.14910E+06        -0.33893E+08         0.00000E+00
    0.00000E+00         0.00000E+00        -0.12173E+08
 
   -0.24266E+08         0.34046E+06         0.00000E+00
    0.34046E+06        -0.34475E+08         0.00000E+00
    0.00000E+00         0.00000E+00        -0.11748E+08
 
   -0.20491E+08         0.66472E+06         0.00000E+00
    0.66472E+06        -0.35575E+08         0.00000E+00
    0.00000E+00         0.00000E+00        -0.11213E+08
 
   -0.14043E+08         0.16865E+07         0.00000E+00
    0.16865E+07        -0.37806E+08         0.00000E+00
    0.00000E+00         0.00000E+00        -0.10370E+08
 
TENSORS stresstot double 
   -0.48929E+08        -0.30397E+05         0.00000E+00
   -0.30397E+05        -0.60008E+08         0.00000E+00
    0.00000E+00         0.00000E+00        -0.65710E+08
 
   -0.50309E+08        -0.22516E+06         0.00000E+00
   -0.22516E+06        -0.60222E+08         0.00000E+00
    0.00000E+00         0.00000E+00        -0.67145E+08
 
   -0.52848E+08        -0.27273E+06         0.00000E+00
   -0.27273E+06        -0.60678E+08         0.00000E+00
    0.00000E+00         0.00000E+00        -0.67818E+08
 
   -0.54721E+08        -0.22591E+06         0.00000E+00
   -0.22591E+06        -0.61137E+08         0.00000E+00
    0.00000E+00         0.00000E+00        -0.68342E+08
 
   -0.56314E+08        -0.18823E+06         0.00000E+00
   -0.18823E+06        -0.61531E+08         0.00000E+00
    0.00000E+00         0.00000E+00        -0.68803E+08
 
   -0.57740E+08        -0.15362E+06         0.00000E+00
   -0.15362E+06        -0.61861E+08         0.00000E+00
    0.00000E+00         0.00000E+00        -0.69221E+08
 
   -0.59059E+08        -0.11965E+06         0.00000E+00
   -0.11965E+06        -0.62126E+08         0.00000E+00
    0.00000E+00         0.00000E+00        -0.69607E+08
 
   -0.60313E+08        -0.84466E+05         0.00000E+00
   -0.84466E+05        -0.62324E+08         0.00000E+00
    0.00000E+00         0.00000E+00        -0.69964E+08
 
   -0.61532E+08        -0.46651E+05         0.00000E+00
   -0.46651E+05        -0.62450E+08         0.00000E+00
    0.00000E+00         0.00000E+00        -0.70299E+08
 
   -0.62750E+08        -0.46915E+04         0.00000E+00
   -0.46915E+04        -0.62496E+08         0.00000E+00
    0.00000E+00         0.00000E+00        -0.70615E+08
 
   -0.63999E+08         0.43543E+05         0.00000E+00
    0.43543E+05        -0.62453E+08         0.00000E+00
    0.00000E+00         0.00000E+00        -0.70914E+08
 
   -0.65325E+08         0.10170E+06         0.00000E+00
    0.10170E+06        -0.62304E+08         0.00000E+00
    0.00000E+00         0.00000E+00        -0.71202E+08
 
   -0.66794E+08         0.17773E+06         0.00000E+00
    0.17773E+06        -0.62021E+08         0.00000E+00
    0.00000E+00         0.00000E+00        -0.71483E+08
 
   -0.68526E+08         0.29001E+06         0.00000E+00
    0.29001E+06        -0.61550E+08         0.00000E+00
    0.00000E+00         0.00000E+00        -0.71770E+08
 
   -0.70879E+08         0.56059E+06         0.00000E+00
    0.56059E+06        -0.60739E+08         0.00000E+00
    0.00000E+00         0.00000E+00        -0.72098E+08
 
   -0.48957E+08        -0.55917E+05         0.00000E+00
   -0.55917E+05        -0.60051E+08         0.00000E+00
    0.00000E+00         0.00000E+00        -0.66158E+08
 
   -0.50757E+08        -0.47963E+06         0.00000E+00
   -0.47963E+06        -0.60160E+08         0.00000E+00
    0.00000E+00         0.00000E+00        -0.66565E+08
 
   -0.52813E+08        -0.64070E+06         0.00000E+00
   -0.64070E+06        -0.60338E+08         0.00000E+00
    0.00000E+00         0.00000E+00        -0.67040E+08
 
   -0.54663E+08        -0.59424E+06         0.00000E+00
   -0.59424E+06        -0.60609E+08         0.00000E+00
    0.00000E+00         0.00000E+00        -0.67505E+08
 
   -0.56252E+08        -0.51430E+06         0.00000E+00
   -0.51430E+06        -0.60895E+08         0.00000E+00
    0.00000E+00         0.00000E+00        -0.67929E+08
 
   -0.57677E+08        -0.42652E+06         0.00000E+00
   -0.42652E+06        -0.61154E+08         0.00000E+00
    0.00000E+00         0.00000E+00        -0.68318E+08
 
   -0.58993E+08        -0.33308E+06         0.00000E+00
   -0.33308E+06        -0.61369E+08         0.00000E+00
    0.00000E+00         0.00000E+00        -0.68680E+08
 
   -0.60242E+08        -0.23247E+06         0.00000E+00
   -0.23247E+06        -0.61529E+08         0.00000E+00
    0.00000E+00         0.00000E+00        -0.69017E+08
 
   -0.61454E+08        -0.12201E+06         0.00000E+00
   -0.12201E+06        -0.61623E+08         0.00000E+00
    0.00000E+00         0.00000E+00        -0.69333E+08
 
   -0.62661E+08         0.21569E+04         0.00000E+00
    0.21569E+04        -0.61643E+08         0.00000E+00
    0.00000E+00         0.00000E+00        -0.69630E+08
 
   -0.63894E+08         0.14610E+06         0.00000E+00
    0.14610E+06        -0.61575E+08         0.00000E+00
    0.00000E+00         0.00000E+00        -0.69910E+08
 
   -0.65194E+08         0.32076E+06         0.00000E+00
    0.32076E+06        -0.61403E+08         0.00000E+00
    0.00000E+00         0.00000E+00        -0.70178E+08
 
   -0.66612E+08         0.54867E+06         0.00000E+00
    0.54867E+06        -0.61099E+08         0.00000E+00
    0.00000E+00         0.00000E+00        -0.70434E+08
 
   -0.68234E+08         0.88733E+06         0.00000E+00
    0.88733E+06        -0.60617E+08         0.00000E+00
    0.00000E+00         0.00000E+00        -0.70687E+08
 
   -0.70070E+08         0.15281E+07         0.00000E+00
    0.15281E+07        -0.59893E+08         0.00000E+00
    0.00000E+00         0.00000E+00        -0.70922E+08
 
   -0.49276E+08        -0.18549E+06         0.00000E+00
   -0.18549E+06        -0.60050E+08         0.00000E+00
    0.00000E+00         0.00000E+00        -0.65537E+08
 
   -0.51086E+08        -0.55430E+06         0.00000E+00
   -0.55430E+06        -0.60136E+08         0.00000E+00
    0.00000E+00         0.00000E+00        -0.65925E+08
 
   -0.52891E+08        -0.77516E+06         0.00000E+00
   -0.77516E+06        -0.60203E+08         0.00000E+00
    0.00000E+00         0.00000E+00        -0.66319E+08
 
   -0.54610E+08        -0.80757E+06         0.00000E+00
   -0.80757E+06        -0.60316E+08         0.00000E+00
    0.00000E+00         0.00000E+00        -0.66714E+08
 
   -0.56162E+08        -0.73919E+06         0.00000E+00
   -0.73919E+06        -0.60478E+08         0.00000E+00
    0.00000E+00         0.00000E+00        -0.67092E+08
 
   -0.57569E+08        -0.62873E+06         0.00000E+00
   -0.62873E+06        -0.60647E+08         0.00000E+00
    0.00000E+00         0.00000E+00        -0.67448E+08
 
   -0.58872E+08        -0.49393E+06         0.00000E+00
   -0.49393E+06        -0.60794E+08         0.00000E+00
    0.00000E+00         0.00000E+00        -0.67781E+08
 
   -0.60106E+08        -0.33916E+06         0.00000E+00
   -0.33916E+06        -0.60901E+08         0.00000E+00
    0.00000E+00         0.00000E+00        -0.68094E+08
 
   -0.61302E+08        -0.16329E+06         0.00000E+00
   -0.16329E+06        -0.60953E+08         0.00000E+00
    0.00000E+00         0.00000E+00        -0.68387E+08
 
   -0.62485E+08         0.38321E+05         0.00000E+00
    0.38321E+05        -0.60938E+08         0.00000E+00
    0.00000E+00         0.00000E+00        -0.68663E+08
 
   -0.63686E+08         0.27461E+06         0.00000E+00
    0.27461E+06        -0.60842E+08         0.00000E+00
    0.00000E+00         0.00000E+00        -0.68921E+08
 
   -0.64933E+08         0.56210E+06         0.00000E+00
    0.56210E+06        -0.60647E+08         0.00000E+00
    0.00000E+00         0.00000E+00        -0.69164E+08
 
   -0.66260E+08         0.93313E+06         0.00000E+00
    0.93313E+06        -0.60333E+08         0.00000E+00
    0.00000E+00         0.00000E+00        -0.69393E+08
 
   -0.67681E+08         0.14569E+07         0.00000E+00
    0.14569E+07        -0.59875E+08         0.00000E+00
    0.00000E+00         0.00000E+00        -0.69603E+08
 
   -0.69145E+08         0.22405E+07         0.00000E+00
    0.22405E+07        -0.59298E+08         0.00000E+00
    0.00000E+00         0.00000E+00        -0.69789E+08
 
   -0.49691E+08        -0.24459E+06         0.00000E+00
   -0.24459E+06        -0.60013E+08         0.00000E+00
    0.00000E+00         0.00000E+00        -0.64903E+08
 
   -0.51385E+08        -0.60975E+06         0.00000E+00
   -0.60975E+06        -0.60048E+08         0.00000E+00
    0.00000E+00         0.00000E+00        -0.65255E+08
 
   -0.53027E+08        -0.82980E+06         0.00000E+00
   -0.82980E+06        -0.60085E+08         0.00000E+00
    0.00000E+00         0.00000E+00        -0.65604E+08
 
   -0.54602E+08        -0.90423E+06         0.00000E+00
   -0.90423E+06        -0.60132E+08         0.00000E+00
    0.00000E+00         0.00000E+00        -0.65948E+08
 
   -0.56075E+08        -0.86448E+06         0.00000E+00
   -0.86448E+06        -0.60205E+08         0.00000E+00
    0.00000E+00         0.00000E+00        -0.66283E+08
 
   -0.57438E+08        -0.75246E+06         0.00000E+00
   -0.75246E+06        -0.60292E+08         0.00000E+00
    0.00000E+00         0.00000E+00        -0.66604E+08
 
   -0.58710E+08        -0.59330E+06         0.00000E+00
   -0.59330E+06        -0.60371E+08         0.00000E+00
    0.00000E+00         0.00000E+00        -0.66907E+08
 
   -0.59916E+08        -0.39694E+06         0.00000E+00
   -0.39694E+06        -0.60423E+08         0.00000E+00
    0.00000E+00         0.00000E+00        -0.67193E+08
 
   -0.61082E+08        -0.16504E+06         0.00000E+00
   -0.16504E+06        -0.60431E+08         0.00000E+00
    0.00000E+00         0.00000E+00        -0.67462E+08
 
   -0.62229E+08         0.10646E+06         0.00000E+00
    0.10646E+06        -0.60381E+08         0.00000E+00
    0.00000E+00         0.00000E+00        -0.67714E+08
 
   -0.63380E+08         0.42747E+06         0.00000E+00
    0.42747E+06        -0.60259E+08         0.00000E+00
    0.00000E+00         0.00000E+00        -0.67949E+08
 
   -0.64554E+08         0.81634E+06         0.00000E+00
    0.81634E+06        -0.60050E+08         0.00000E+00
    0.00000E+00         0.00000E+00        -0.68167E+08
 
   -0.65762E+08         0.13054E+07         0.00000E+00
    0.13054E+07        -0.59744E+08         0.00000E+00
    0.00000E+00         0.00000E+00        -0.68367E+08
 
   -0.66991E+08         0.19441E+07         0.00000E+00
    0.19441E+07        -0.59340E+08         0.00000E+00
    0.00000E+00         0.00000E+00        -0.68545E+08
 
   -0.68186E+08         0.27891E+07         0.00000E+00
    0.27891E+07        -0.58870E+08         0.00000E+00
    0.00000E+00         0.00000E+00        -0.68696E+08
 
   -0.50148E+08        -0.25458E+06         0.00000E+00
   -0.25458E+06        -0.59999E+08         0.00000E+00
    0.00000E+00         0.00000E+00        -0.64271E+08
 
   -0.51677E+08        -0.62710E+06         0.00000E+00
   -0.62710E+06        -0.59997E+08         0.00000E+00
    0.00000E+00         0.00000E+00        -0.64581E+08
 
   -0.53176E+08        -0.84799E+06         0.00000E+00
   -0.84799E+06        -0.59998E+08         0.00000E+00
    0.00000E+00         0.00000E+00        -0.64890E+08
 
   -0.54624E+08        -0.93744E+06         0.00000E+00
   -0.93744E+06        -0.60004E+08         0.00000E+00
    0.00000E+00         0.00000E+00        -0.65195E+08
 
   -0.56001E+08        -0.91593E+06         0.00000E+00
   -0.91593E+06        -0.60022E+08         0.00000E+00
    0.00000E+00         0.00000E+00        -0.65492E+08
 
   -0.57298E+08        -0.80831E+06         0.00000E+00
   -0.80831E+06        -0.60048E+08         0.00000E+00
    0.00000E+00         0.00000E+00        -0.65779E+08
 
   -0.58520E+08        -0.63501E+06         0.00000E+00
   -0.63501E+06        -0.60071E+08         0.00000E+00
    0.00000E+00         0.00000E+00        -0.66052E+08
 
   -0.59683E+08        -0.40742E+06         0.00000E+00
   -0.40742E+06        -0.60075E+08         0.00000E+00
    0.00000E+00         0.00000E+00        -0.66311E+08
 
   -0.60804E+08        -0.12908E+06         0.00000E+00
   -0.12908E+06        -0.60044E+08         0.00000E+00
    0.00000E+00         0.00000E+00        -0.66555E+08
 
   -0.61901E+08         0.20278E+06         0.00000E+00
    0.20278E+06        -0.59965E+08         0.00000E+00
    0.00000E+00         0.00000E+00        -0.66783E+08
 
   -0.62989E+08         0.59702E+06         0.00000E+00
    0.59702E+06        -0.59824E+08         0.00000E+00
    0.00000E+00         0.00000E+00        -0.66994E+08
 
   -0.64076E+08         0.10698E+07         0.00000E+00
    0.10698E+07        -0.59612E+08         0.00000E+00
    0.00000E+00         0.00000E+00        -0.67188E+08
 
   -0.65163E+08         0.16456E+07         0.00000E+00
    0.16456E+07        -0.59327E+08         0.00000E+00
    0.00000E+00         0.00000E+00        -0.67362E+08
 
   -0.66228E+08         0.23556E+07         0.00000E+00
    0.23556E+07        -0.58975E+08         0.00000E+00
    0.00000E+00         0.00000E+00        -0.67515E+08
 
   -0.67224E+08         0.32280E+07         0.00000E+00
    0.32280E+07        -0.58586E+08         0.00000E+00
    0.00000E+00         0.00000E+00        -0.67641E+08
 
   -0.50604E+08        -0.24493E+06         0.00000E+00
   -0.24493E+06        -0.59994E+08         0.00000E+00
    0.00000E+00         0.00000E+00        -0.63633E+08
 
   -0.51970E+08        -0.61175E+06         0.00000E+00
   -0.61175E+06        -0.59973E+08         0.00000E+00
    0.00000E+00         0.00000E+00        -0.63905E+08
 
   -0.53331E+08        -0.83401E+06         0.00000E+00
   -0.83401E+06        -0.59946E+08         0.00000E+00
    0.00000E+00         0.00000E+00        -0.64177E+08
 
   -0.54660E+08        -0.93077E+06         0.00000E+00
   -0.93077E+06        -0.59922E+08         0.00000E+00
    0.00000E+00         0.00000E+00        -0.64448E+08
 
   -0.55937E+08        -0.91852E+06         0.00000E+00
   -0.91852E+06        -0.59903E+08         0.00000E+00
    0.00000E+00         0.00000E+00        -0.64712E+08
 
   -0.57153E+08        -0.81368E+06         0.00000E+00
   -0.81368E+06        -0.59889E+08         0.00000E+00
    0.00000E+00         0.00000E+00        -0.64967E+08
 
   -0.58310E+08        -0.63063E+06         0.00000E+00
   -0.63063E+06        -0.59872E+08         0.00000E+00
    0.00000E+00         0.00000E+00        -0.65212E+08
 
   -0.59414E+08        -0.37898E+06         0.00000E+00
   -0.37898E+06        -0.59840E+08         0.00000E+00
    0.00000E+00         0.00000E+00        -0.65445E+08
 
   -0.60477E+08        -0.62775E+05         0.00000E+00
   -0.62775E+05        -0.59779E+08         0.00000E+00
    0.00000E+00         0.00000E+00        -0.65664E+08
 
   -0.61511E+08         0.31931E+06         0.00000E+00
    0.31931E+06        -0.59679E+08         0.00000E+00
    0.00000E+00         0.00000E+00        -0.65868E+08
 
   -0.62525E+08         0.77373E+06         0.00000E+00
    0.77373E+06        -0.59529E+08         0.00000E+00
    0.00000E+00         0.00000E+00        -0.66056E+08
 
   -0.63522E+08         0.13120E+07         0.00000E+00
    0.13120E+07        -0.59324E+08         0.00000E+00
    0.00000E+00         0.00000E+00        -0.66228E+08
 
   -0.64496E+08         0.19501E+07         0.00000E+00
    0.19501E+07        -0.59063E+08         0.00000E+00
    0.00000E+00         0.00000E+00        -0.66380E+08
 
   -0.65424E+08         0.27050E+07         0.00000E+00
    0.27050E+07        -0.58757E+08         0.00000E+00
    0.00000E+00         0.00000E+00        -0.66512E+08
 
   -0.66270E+08         0.35888E+07         0.00000E+00
    0.35888E+07        -0.58429E+08         0.00000E+00
    0.00000E+00         0.00000E+00        -0.66619E+08
 
   -0.51038E+08        -0.22758E+06         0.00000E+00
   -0.22758E+06        -0.59992E+08         0.00000E+00
    0.00000E+00         0.00000E+00        -0.62984E+08
 
   -0.52257E+08        -0.57790E+06         0.00000E+00
   -0.57790E+06        -0.59962E+08         0.00000E+00
    0.00000E+00         0.00000E+00        -0.63223E+08
 
   -0.53489E+08        -0.79722E+06         0.00000E+00
   -0.79722E+06        -0.59920E+08         0.00000E+00
    0.00000E+00         0.00000E+00        -0.63465E+08
 
   -0.54702E+08        -0.89743E+06         0.00000E+00
   -0.89743E+06        -0.59877E+08         0.00000E+00
    0.00000E+00         0.00000E+00        -0.63704E+08
 
   -0.55878E+08        -0.88992E+06         0.00000E+00
   -0.88992E+06        -0.59837E+08         0.00000E+00
    0.00000E+00         0.00000E+00        -0.63939E+08
 
   -0.57006E+08        -0.78568E+06         0.00000E+00
   -0.78568E+06        -0.59798E+08         0.00000E+00
    0.00000E+00         0.00000E+00        -0.64166E+08
 
   -0.58085E+08        -0.59447E+06         0.00000E+00
   -0.59447E+06        -0.59755E+08         0.00000E+00
    0.00000E+00         0.00000E+00        -0.64384E+08
 
   -0.59117E+08        -0.32350E+06         0.00000E+00
   -0.32350E+06        -0.59700E+08         0.00000E+00
    0.00000E+00         0.00000E+00        -0.64591E+08
 
   -0.60110E+08         0.23496E+05         0.00000E+00
    0.23496E+05        -0.59622E+08         0.00000E+00
    0.00000E+00         0.00000E+00        -0.64786E+08
 
   -0.61071E+08         0.44648E+06         0.00000E+00
    0.44648E+06        -0.59512E+08         0.00000E+00
    0.00000E+00         0.00000E+00        -0.64967E+08
 
   -0.62005E+08         0.94899E+06         0.00000E+00
    0.94899E+06        -0.59362E+08         0.00000E+00
    0.00000E+00         0.00000E+00        -0.65134E+08
 
   -0.62912E+08         0.15376E+07         0.00000E+00
    0.15376E+07        -0.59168E+08         0.00000E+00
    0.00000E+00         0.00000E+00        -0.65285E+08
 
   -0.63782E+08         0.22204E+07         0.00000E+00
    0.22204E+07        -0.58932E+08         0.00000E+00
    0.00000E+00         0.00000E+00        -0.65419E+08
 
   -0.64597E+08         0.30047E+07         0.00000E+00
    0.30047E+07        -0.58665E+08         0.00000E+00
    0.00000E+00         0.00000E+00        -0.65533E+08
 
   -0.65326E+08         0.38927E+07         0.00000E+00
    0.38927E+07        -0.58385E+08         0.00000E+00
    0.00000E+00         0.00000E+00        -0.65625E+08
 
   -0.51442E+08        -0.20788E+06         0.00000E+00
   -0.20788E+06        -0.59991E+08         0.00000E+00
    0.00000E+00         0.00000E+00        -0.62323E+08
 
   -0.52534E+08        -0.53628E+06         0.00000E+00
   -0.53628E+06        -0.59960E+08         0.00000E+00
    0.00000E+00         0.00000E+00        -0.62536E+08
 
   -0.53646E+08        -0.74876E+06         0.00000E+00
   -0.74876E+06        -0.59913E+08         0.00000E+00
    0.00000E+00         0.00000E+00        -0.62750E+08
 
   -0.54748E+08        -0.84952E+06         0.00000E+00
   -0.84952E+06        -0.59862E+08         0.00000E+00
    0.00000E+00         0.00000E+00        -0.62963E+08
 
   -0.55822E+08        -0.84426E+06         0.00000E+00
   -0.84426E+06        -0.59812E+08         0.00000E+00
    0.00000E+00         0.00000E+00        -0.63171E+08
 
   -0.56856E+08        -0.73931E+06         0.00000E+00
   -0.73931E+06        -0.59762E+08         0.00000E+00
    0.00000E+00         0.00000E+00        -0.63372E+08
 
   -0.57847E+08        -0.54079E+06         0.00000E+00
   -0.54079E+06        -0.59708E+08         0.00000E+00
    0.00000E+00         0.00000E+00        -0.63565E+08
 
   -0.58797E+08        -0.25374E+06         0.00000E+00
   -0.25374E+06        -0.59643E+08         0.00000E+00
    0.00000E+00         0.00000E+00        -0.63748E+08
 
   -0.59711E+08         0.11854E+06         0.00000E+00
    0.11854E+06        -0.59560E+08         0.00000E+00
    0.00000E+00         0.00000E+00        -0.63919E+08
 
   -0.60591E+08         0.57480E+06         0.00000E+00
    0.57480E+06        -0.59449E+08         0.00000E+00
    0.00000E+00         0.00000E+00        -0.64079E+08
 
   -0.61441E+08         0.11157E+07         0.00000E+00
    0.11157E+07        -0.59307E+08         0.00000E+00
    0.00000E+00         0.00000E+00        -0.64226E+08
 
   -0.62258E+08         0.17432E+07         0.00000E+00
    0.17432E+07        -0.59129E+08         0.00000E+00
    0.00000E+00         0.00000E+00        -0.64358E+08
 
   -0.63035E+08         0.24595E+07         0.00000E+00
    0.24595E+07        -0.58919E+08         0.00000E+00
    0.00000E+00         0.00000E+00        -0.64475E+08
 
   -0.63754E+08         0.32645E+07         0.00000E+00
    0.32645E+07        -0.58685E+08         0.00000E+00
    0.00000E+00         0.00000E+00        -0.64574E+08
 
   -0.64393E+08         0.41540E+07         0.00000E+00
    0.41540E+07        -0.58441E+08         0.00000E+00
    0.00000E+00         0.00000E+00        -0.64654E+08
 
   -0.51812E+08        -0.18875E+06         0.00000E+00
   -0.18875E+06        -0.59992E+08         0.00000E+00
    0.00000E+00         0.00000E+00        -0.61650E+08
 
   -0.52797E+08        -0.49442E+06         0.00000E+00
   -0.49442E+06        -0.59963E+08         0.00000E+00
    0.00000E+00         0.00000E+00        -0.61840E+08
 
   -0.53800E+08        -0.69850E+06         0.00000E+00
   -0.69850E+06        -0.59918E+08         0.00000E+00
    0.00000E+00         0.00000E+00        -0.62032E+08
 
   -0.54796E+08        -0.79829E+06         0.00000E+00
   -0.79829E+06        -0.59870E+08         0.00000E+00
    0.00000E+00         0.00000E+00        -0.62221E+08
 
   -0.55766E+08        -0.79406E+06         0.00000E+00
   -0.79406E+06        -0.59821E+08         0.00000E+00
    0.00000E+00         0.00000E+00        -0.62405E+08
 
   -0.56701E+08        -0.68786E+06         0.00000E+00
   -0.68786E+06        -0.59772E+08         0.00000E+00
    0.00000E+00         0.00000E+00        -0.62582E+08
 
   -0.57599E+08        -0.48273E+06         0.00000E+00
   -0.48273E+06        -0.59720E+08         0.00000E+00
    0.00000E+00         0.00000E+00        -0.62751E+08
 
   -0.58459E+08        -0.18192E+06         0.00000E+00
   -0.18192E+06        -0.59658E+08         0.00000E+00
    0.00000E+00         0.00000E+00        -0.62911E+08
 
   -0.59284E+08         0.21164E+06         0.00000E+00
    0.21164E+06        -0.59579E+08         0.00000E+00
    0.00000E+00         0.00000E+00        -0.63061E+08
 
   -0.60077E+08         0.69560E+06         0.00000E+00
    0.69560E+06        -0.59478E+08         0.00000E+00
    0.00000E+00         0.00000E+00        -0.63199E+08
 
   -0.60841E+08         0.12681E+07         0.00000E+00
    0.12681E+07        -0.59350E+08         0.00000E+00
    0.00000E+00         0.00000E+00        -0.63327E+08
 
   -0.61571E+08         0.19272E+07         0.00000E+00
    0.19272E+07        -0.59192E+08         0.00000E+00
    0.00000E+00         0.00000E+00        -0.63442E+08
 
   -0.62263E+08         0.26702E+07         0.00000E+00
    0.26702E+07        -0.59006E+08         0.00000E+00
    0.00000E+00         0.00000E+00        -0.63543E+08
 
   -0.62901E+08         0.34919E+07         0.00000E+00
    0.34919E+07        -0.58801E+08         0.00000E+00
    0.00000E+00         0.00000E+00        -0.63630E+08
 
   -0.63468E+08         0.43834E+07         0.00000E+00
    0.43834E+07        -0.58585E+08         0.00000E+00
    0.00000E+00         0.00000E+00        -0.63701E+08
 
   -0.52152E+08        -0.17214E+06         0.00000E+00
   -0.17214E+06        -0.59993E+08         0.00000E+00
    0.00000E+00         0.00000E+00        -0.60965E+08
 
   -0.53046E+08        -0.45795E+06         0.00000E+00
   -0.45795E+06        -0.59970E+08         0.00000E+00
    0.00000E+00         0.00000E+00        -0.61138E+08
 
   -0.53951E+08        -0.65467E+06         0.00000E+00
   -0.65467E+06        -0.59934E+08         0.00000E+00
    0.00000E+00         0.00000E+00        -0.61309E+08
 
   -0.54844E+08        -0.75371E+06         0.00000E+00
   -0.75371E+06        -0.59896E+08         0.00000E+00
    0.00000E+00         0.00000E+00        -0.61477E+08
 
   -0.55711E+08        -0.75044E+06         0.00000E+00
   -0.75044E+06        -0.59859E+08         0.00000E+00
    0.00000E+00         0.00000E+00        -0.61639E+08
 
   -0.56544E+08        -0.64311E+06         0.00000E+00
   -0.64311E+06        -0.59822E+08         0.00000E+00
    0.00000E+00         0.00000E+00        -0.61794E+08
 
   -0.57341E+08        -0.43208E+06         0.00000E+00
   -0.43208E+06        -0.59782E+08         0.00000E+00
    0.00000E+00         0.00000E+00        -0.61940E+08
 
   -0.58103E+08        -0.11910E+06         0.00000E+00
   -0.11910E+06        -0.59733E+08         0.00000E+00
    0.00000E+00         0.00000E+00        -0.62078E+08
 
   -0.58834E+08         0.29314E+06         0.00000E+00
    0.29314E+06        -0.59670E+08         0.00000E+00
    0.00000E+00         0.00000E+00        -0.62206E+08
 
   -0.59536E+08         0.80128E+06         0.00000E+00
    0.80128E+06        -0.59586E+08         0.00000E+00
    0.00000E+00         0.00000E+00        -0.62325E+08
 
   -0.60210E+08         0.14013E+07         0.00000E+00
    0.14013E+07        -0.59477E+08         0.00000E+00
    0.00000E+00         0.00000E+00        -0.62434E+08
 
   -0.60857E+08         0.20880E+07         0.00000E+00
    0.20880E+07        -0.59342E+08         0.00000E+00
    0.00000E+00         0.00000E+00        -0.62532E+08
 
   -0.61469E+08         0.28548E+07         0.00000E+00
    0.28548E+07        -0.59181E+08         0.00000E+00
    0.00000E+00         0.00000E+00        -0.62620E+08
 
   -0.62038E+08         0.36924E+07         0.00000E+00
    0.36924E+07        -0.59000E+08         0.00000E+00
    0.00000E+00         0.00000E+00        -0.62696E+08
 
   -0.62548E+08         0.45887E+07         0.00000E+00
    0.45887E+07        -0.58808E+08         0.00000E+00
    0.00000E+00         0.00000E+00        -0.62758E+08
 
   -0.52467E+08        -0.15956E+06         0.00000E+00
   -0.15956E+06        -0.59996E+08         0.00000E+00
    0.00000E+00         0.00000E+00        -0.60269E+08
 
   -0.53284E+08        -0.43128E+06         0.00000E+00
   -0.43128E+06        -0.59980E+08         0.00000E+00
    0.00000E+00         0.00000E+00        -0.60427E+08
 
   -0.54099E+08        -0.62411E+06         0.00000E+00
   -0.62411E+06        -0.59959E+08         0.00000E+00
    0.00000E+00         0.00000E+00        -0.60582E+08
 
   -0.54893E+08        -0.72438E+06         0.00000E+00
   -0.72438E+06        -0.59938E+08         0.00000E+00
    0.00000E+00         0.00000E+00        -0.60730E+08
 
   -0.55656E+08        -0.72315E+06         0.00000E+00
   -0.72315E+06        -0.59921E+08         0.00000E+00
    0.00000E+00         0.00000E+00        -0.60871E+08
 
   -0.56383E+08        -0.61538E+06         0.00000E+00
   -0.61538E+06        -0.59905E+08         0.00000E+00
    0.00000E+00         0.00000E+00        -0.61004E+08
 
   -0.57075E+08        -0.39913E+06         0.00000E+00
   -0.39913E+06        -0.59887E+08         0.00000E+00
    0.00000E+00         0.00000E+00        -0.61128E+08
 
   -0.57733E+08        -0.74948E+05         0.00000E+00
   -0.74948E+05        -0.59861E+08         0.00000E+00
    0.00000E+00         0.00000E+00        -0.61244E+08
 
   -0.58363E+08         0.35462E+06         0.00000E+00
    0.35462E+06        -0.59821E+08         0.00000E+00
    0.00000E+00         0.00000E+00        -0.61351E+08
 
   -0.58969E+08         0.88530E+06         0.00000E+00
    0.88530E+06        -0.59761E+08         0.00000E+00
    0.00000E+00         0.00000E+00        -0.61450E+08
 
   -0.59553E+08         0.15111E+07         0.00000E+00
    0.15111E+07        -0.59678E+08         0.00000E+00
    0.00000E+00         0.00000E+00        -0.61541E+08
 
   -0.60116E+08         0.22243E+07         0.00000E+00
    0.22243E+07        -0.59567E+08         0.00000E+00
    0.00000E+00         0.00000E+00        -0.61624E+08
 
   -0.60655E+08         0.30149E+07         0.00000E+00
    0.30149E+07        -0.59431E+08         0.00000E+00
    0.00000E+00         0.00000E+00        -0.61699E+08
 
   -0.61162E+08         0.38705E+07         0.00000E+00
    0.38705E+07        -0.59273E+08         0.00000E+00
    0.00000E+00         0.00000E+00        -0.61765E+08
 
   -0.61626E+08         0.47757E+07         0.00000E+00
    0.47757E+07        -0.59098E+08         0.00000E+00
    0.00000E+00         0.00000E+00        -0.61821E+08
 
   -0.52765E+08        -0.15227E+06         0.00000E+00
   -0.15227E+06        -0.59998E+08         0.00000E+00
    0.00000E+00         0.00000E+00        -0.59563E+08
 
   -0.53518E+08        -0.41810E+06         0.00000E+00
   -0.41810E+06        -0.59993E+08         0.00000E+00
    0.00000E+00         0.00000E+00        -0.59709E+08
 
   -0.54249E+08        -0.61259E+06         0.00000E+00
   -0.61259E+06        -0.59990E+08         0.00000E+00
    0.00000E+00         0.00000E+00        -0.59848E+08
 
   -0.54946E+08        -0.71762E+06         0.00000E+00
   -0.71762E+06        -0.59994E+08         0.00000E+00
    0.00000E+00         0.00000E+00        -0.59979E+08
 
   -0.55603E+08        -0.72057E+06         0.00000E+00
   -0.72057E+06        -0.60004E+08         0.00000E+00
    0.00000E+00         0.00000E+00        -0.60100E+08
 
   -0.56220E+08        -0.61355E+06         0.00000E+00
   -0.61355E+06        -0.60017E+08         0.00000E+00
    0.00000E+00         0.00000E+00        -0.60211E+08
 
   -0.56800E+08        -0.39275E+06         0.00000E+00
   -0.39275E+06        -0.60029E+08         0.00000E+00
    0.00000E+00         0.00000E+00        -0.60313E+08
 
   -0.57349E+08        -0.57749E+05         0.00000E+00
   -0.57749E+05        -0.60034E+08         0.00000E+00
    0.00000E+00         0.00000E+00        -0.60407E+08
 
   -0.57872E+08         0.38892E+06         0.00000E+00
    0.38892E+06        -0.60024E+08         0.00000E+00
    0.00000E+00         0.00000E+00        -0.60493E+08
 
   -0.58377E+08         0.94212E+06         0.00000E+00
    0.94212E+06        -0.59994E+08         0.00000E+00
    0.00000E+00         0.00000E+00        -0.60572E+08
 
   -0.58869E+08         0.15942E+07         0.00000E+00
    0.15942E+07        -0.59939E+08         0.00000E+00
    0.00000E+00         0.00000E+00        -0.60645E+08
 
   -0.59349E+08         0.23350E+07         0.00000E+00
    0.23350E+07        -0.59856E+08         0.00000E+00
    0.00000E+00         0.00000E+00        -0.60712E+08
 
   -0.59818E+08         0.31519E+07         0.00000E+00
    0.31519E+07        -0.59745E+08         0.00000E+00
    0.00000E+00         0.00000E+00        -0.60774E+08
 
   -0.60270E+08         0.40294E+07         0.00000E+00
    0.40294E+07        -0.59606E+08         0.00000E+00
    0.00000E+00         0.00000E+00        -0.60830E+08
 
   -0.60698E+08         0.49494E+07         0.00000E+00
    0.49494E+07        -0.59447E+08         0.00000E+00
    0.00000E+00         0.00000E+00        -0.60881E+08
 
   -0.53058E+08        -0.15135E+06         0.00000E+00
   -0.15135E+06        -0.60001E+08         0.00000E+00
    0.00000E+00         0.00000E+00        -0.58847E+08
 
   -0.53754E+08        -0.42152E+06         0.00000E+00
   -0.42152E+06        -0.60009E+08         0.00000E+00
    0.00000E+00         0.00000E+00        -0.58983E+08
 
   -0.54405E+08        -0.62496E+06         0.00000E+00
   -0.62496E+06        -0.60028E+08         0.00000E+00
    0.00000E+00         0.00000E+00        -0.59108E+08
 
   -0.55005E+08        -0.73962E+06         0.00000E+00
   -0.73962E+06        -0.60060E+08         0.00000E+00
    0.00000E+00         0.00000E+00        -0.59221E+08
 
   -0.55554E+08        -0.74973E+06         0.00000E+00
   -0.74973E+06        -0.60103E+08         0.00000E+00
    0.00000E+00         0.00000E+00        -0.59321E+08
 
   -0.56056E+08        -0.64508E+06         0.00000E+00
   -0.64508E+06        -0.60152E+08         0.00000E+00
    0.00000E+00         0.00000E+00        -0.59411E+08
 
   -0.56519E+08        -0.42033E+06         0.00000E+00
   -0.42033E+06        -0.60201E+08         0.00000E+00
    0.00000E+00         0.00000E+00        -0.59490E+08
 
   -0.56950E+08        -0.74385E+05         0.00000E+00
   -0.74385E+05        -0.60243E+08         0.00000E+00
    0.00000E+00         0.00000E+00        -0.59561E+08
 
   -0.57361E+08         0.39010E+06         0.00000E+00
    0.39010E+06        -0.60269E+08         0.00000E+00
    0.00000E+00         0.00000E+00        -0.59624E+08
 
   -0.57760E+08         0.96713E+06         0.00000E+00
    0.96713E+06        -0.60274E+08         0.00000E+00
    0.00000E+00         0.00000E+00        -0.59683E+08
 
   -0.58156E+08         0.16476E+07         0.00000E+00
    0.16476E+07        -0.60252E+08         0.00000E+00
    0.00000E+00         0.00000E+00        -0.59737E+08
 
   -0.58553E+08         0.24191E+07         0.00000E+00
    0.24191E+07        -0.60198E+08         0.00000E+00
    0.00000E+00         0.00000E+00        -0.59788E+08
 
   -0.58954E+08         0.32667E+07         0.00000E+00
    0.32667E+07        -0.60111E+08         0.00000E+00
    0.00000E+00         0.00000E+00        -0.59837E+08
 
   -0.59357E+08         0.41719E+07         0.00000E+00
    0.41719E+07        -0.59991E+08         0.00000E+00
    0.00000E+00         0.00000E+00        -0.59885E+08
 
   -0.59755E+08         0.51140E+07         0.00000E+00
    0.51140E+07        -0.59843E+08         0.00000E+00
    0.00000E+00         0.00000E+00        -0.59930E+08
 
   -0.53358E+08        -0.15775E+06         0.00000E+00
   -0.15775E+06        -0.60005E+08         0.00000E+00
    0.00000E+00         0.00000E+00        -0.58123E+08
 
   -0.54002E+08        -0.44421E+06         0.00000E+00
   -0.44421E+06        -0.60026E+08         0.00000E+00
    0.00000E+00         0.00000E+00        -0.58249E+08
 
   -0.54575E+08        -0.66529E+06         0.00000E+00
   -0.66529E+06        -0.60071E+08         0.00000E+00
    0.00000E+00         0.00000E+00        -0.58360E+08
 
   -0.55076E+08        -0.79551E+06         0.00000E+00
   -0.79551E+06        -0.60136E+08         0.00000E+00
    0.00000E+00         0.00000E+00        -0.58454E+08
 
   -0.55512E+08        -0.81644E+06         0.00000E+00
   -0.81644E+06        -0.60217E+08         0.00000E+00
    0.00000E+00         0.00000E+00        -0.58534E+08
 
   -0.55892E+08        -0.71601E+06         0.00000E+00
   -0.71601E+06        -0.60307E+08         0.00000E+00
    0.00000E+00         0.00000E+00        -0.58600E+08
 
   -0.56229E+08        -0.48779E+06         0.00000E+00
   -0.48779E+06        -0.60398E+08         0.00000E+00
    0.00000E+00         0.00000E+00        -0.58654E+08
 
   -0.56537E+08        -0.13033E+06         0.00000E+00
   -0.13033E+06        -0.60482E+08         0.00000E+00
    0.00000E+00         0.00000E+00        -0.58701E+08
 
   -0.56828E+08         0.35346E+06         0.00000E+00
    0.35346E+06        -0.60549E+08         0.00000E+00
    0.00000E+00         0.00000E+00        -0.58740E+08
 
   -0.57116E+08         0.95670E+06         0.00000E+00
    0.95670E+06        -0.60592E+08         0.00000E+00
    0.00000E+00         0.00000E+00        -0.58776E+08
 
   -0.57411E+08         0.16688E+07         0.00000E+00
    0.16688E+07        -0.60605E+08         0.00000E+00
    0.00000E+00         0.00000E+00        -0.58811E+08
 
   -0.57723E+08         0.24758E+07         0.00000E+00
    0.24758E+07        -0.60581E+08         0.00000E+00
    0.00000E+00         0.00000E+00        -0.58845E+08
 
   -0.58057E+08         0.33599E+07         0.00000E+00
    0.33599E+07        -0.60519E+08         0.00000E+00
    0.00000E+00         0.00000E+00        -0.58881E+08
 
   -0.58414E+08         0.43003E+07         0.00000E+00
    0.43003E+07        -0.60416E+08         0.00000E+00
    0.00000E+00         0.00000E+00        -0.58920E+08
 
   -0.58790E+08         0.52730E+07         0.00000E+00
    0.52730E+07        -0.60276E+08         0.00000E+00
    0.00000E+00         0.00000E+00        -0.58961E+08
 
   -0.53679E+08        -0.17228E+06         0.00000E+00
   -0.17228E+06        -0.60009E+08         0.00000E+00
    0.00000E+00         0.00000E+00        -0.57389E+08
 
   -0.54274E+08        -0.48841E+06         0.00000E+00
   -0.48841E+06        -0.60046E+08         0.00000E+00
    0.00000E+00         0.00000E+00        -0.57507E+08
 
   -0.54766E+08        -0.73692E+06         0.00000E+00
   -0.73692E+06        -0.60118E+08         0.00000E+00
    0.00000E+00         0.00000E+00        -0.57602E+08
 
   -0.55163E+08        -0.88937E+06         0.00000E+00
   -0.88937E+06        -0.60219E+08         0.00000E+00
    0.00000E+00         0.00000E+00        -0.57677E+08
 
   -0.55478E+08        -0.92516E+06         0.00000E+00
   -0.92516E+06        -0.60342E+08         0.00000E+00
    0.00000E+00         0.00000E+00        -0.57733E+08
 
   -0.55729E+08        -0.83089E+06         0.00000E+00
   -0.83089E+06        -0.60477E+08         0.00000E+00
    0.00000E+00         0.00000E+00        -0.57773E+08
 
   -0.55933E+08        -0.59951E+06         0.00000E+00
   -0.59951E+06        -0.60614E+08         0.00000E+00
    0.00000E+00         0.00000E+00        -0.57801E+08
 
   -0.56107E+08        -0.22955E+06         0.00000E+00
   -0.22955E+06        -0.60743E+08         0.00000E+00
    0.00000E+00         0.00000E+00        -0.57820E+08
 
   -0.56271E+08         0.27561E+06         0.00000E+00
    0.27561E+06        -0.60854E+08         0.00000E+00
    0.00000E+00         0.00000E+00        -0.57834E+08
 
   -0.56440E+08         0.90820E+06         0.00000E+00
    0.90820E+06        -0.60938E+08         0.00000E+00
    0.00000E+00         0.00000E+00        -0.57845E+08
 
   -0.56631E+08         0.16564E+07         0.00000E+00
    0.16564E+07        -0.60987E+08         0.00000E+00
    0.00000E+00         0.00000E+00        -0.57858E+08
 
   -0.56854E+08         0.25043E+07         0.00000E+00
    0.25043E+07        -0.60995E+08         0.00000E+00
    0.00000E+00         0.00000E+00        -0.57874E+08
 
   -0.57120E+08         0.34323E+07         0.00000E+00
    0.34323E+07        -0.60956E+08         0.00000E+00
    0.00000E+00         0.00000E+00        -0.57896E+08
 
   -0.57433E+08         0.44165E+07         0.00000E+00
    0.44165E+07        -0.60870E+08         0.00000E+00
    0.00000E+00         0.00000E+00        -0.57925E+08
 
   -0.57792E+08         0.54300E+07         0.00000E+00
    0.54300E+07        -0.60736E+08         0.00000E+00
    0.00000E+00         0.00000E+00        -0.57962E+08
 
   -0.54039E+08        -0.19563E+06         0.00000E+00
   -0.19563E+06        -0.60013E+08         0.00000E+00
    0.00000E+00         0.00000E+00        -0.56646E+08
 
   -0.54581E+08        -0.55592E+06         0.00000E+00
   -0.55592E+06        -0.60067E+08         0.00000E+00
    0.00000E+00         0.00000E+00        -0.56753E+08
 
   -0.54986E+08        -0.84245E+06         0.00000E+00
   -0.84245E+06        -0.60168E+08         0.00000E+00
    0.00000E+00         0.00000E+00        -0.56832E+08
 
   -0.55271E+08        -0.10242E+07         0.00000E+00
   -0.10242E+07        -0.60308E+08         0.00000E+00
    0.00000E+00         0.00000E+00        -0.56885E+08
 
   -0.55457E+08        -0.10790E+07         0.00000E+00
   -0.10790E+07        -0.60475E+08         0.00000E+00
    0.00000E+00         0.00000E+00        -0.56915E+08
 
   -0.55568E+08        -0.99267E+06         0.00000E+00
   -0.99267E+06        -0.60657E+08         0.00000E+00
    0.00000E+00         0.00000E+00        -0.56926E+08
 
   -0.55627E+08        -0.75813E+06         0.00000E+00
   -0.75813E+06        -0.60842E+08         0.00000E+00
    0.00000E+00         0.00000E+00        -0.56924E+08
 
   -0.55659E+08        -0.37431E+06         0.00000E+00
   -0.37431E+06        -0.61017E+08         0.00000E+00
    0.00000E+00         0.00000E+00        -0.56912E+08
 
   -0.55686E+08         0.15467E+06         0.00000E+00
    0.15467E+06        -0.61173E+08         0.00000E+00
    0.00000E+00         0.00000E+00        -0.56896E+08
 
   -0.55730E+08         0.82015E+06         0.00000E+00
    0.82015E+06        -0.61298E+08         0.00000E+00
    0.00000E+00         0.00000E+00        -0.56880E+08
 
   -0.55808E+08         0.16092E+07         0.00000E+00
    0.16092E+07        -0.61385E+08         0.00000E+00
    0.00000E+00         0.00000E+00        -0.56869E+08
 
   -0.55939E+08         0.25044E+07         0.00000E+00
    0.25044E+07        -0.61425E+08         0.00000E+00
    0.00000E+00         0.00000E+00        -0.56865E+08
 
   -0.56134E+08         0.34843E+07         0.00000E+00
    0.34843E+07        -0.61411E+08         0.00000E+00
    0.00000E+00         0.00000E+00        -0.56871E+08
 
   -0.56404E+08         0.45223E+07         0.00000E+00
    0.45223E+07        -0.61339E+08         0.00000E+00
    0.00000E+00         0.00000E+00        -0.56890E+08
 
   -0.56750E+08         0.55880E+07         0.00000E+00
    0.55880E+07        -0.61209E+08         0.00000E+00
    0.00000E+00         0.00000E+00        -0.56923E+08
 
   -0.54453E+08        -0.22835E+06         0.00000E+00
   -0.22835E+06        -0.60017E+08         0.00000E+00
    0.00000E+00         0.00000E+00        -0.55892E+08
 
   -0.54936E+08        -0.64816E+06         0.00000E+00
   -0.64816E+06        -0.60089E+08         0.00000E+00
    0.00000E+00         0.00000E+00        -0.55988E+08
 
   -0.55245E+08        -0.98370E+06         0.00000E+00
   -0.98370E+06        -0.60221E+08         0.00000E+00
    0.00000E+00         0.00000E+00        -0.56048E+08
 
   -0.55406E+08        -0.12018E+07         0.00000E+00
   -0.12018E+07        -0.60401E+08         0.00000E+00
    0.00000E+00         0.00000E+00        -0.56074E+08
 
   -0.55451E+08        -0.12795E+07         0.00000E+00
   -0.12795E+07        -0.60613E+08         0.00000E+00
    0.00000E+00         0.00000E+00        -0.56074E+08
 
   -0.55409E+08        -0.12024E+07         0.00000E+00
   -0.12024E+07        -0.60842E+08         0.00000E+00
    0.00000E+00         0.00000E+00        -0.56052E+08
 
   -0.55313E+08        -0.96423E+06         0.00000E+00
   -0.96423E+06        -0.61074E+08         0.00000E+00
    0.00000E+00         0.00000E+00        -0.56014E+08
 
   -0.55192E+08        -0.56488E+06         0.00000E+00
   -0.56488E+06        -0.61296E+08         0.00000E+00
    0.00000E+00         0.00000E+00        -0.55968E+08
 
   -0.55072E+08        -0.94705E+04         0.00000E+00
   -0.94705E+04        -0.61495E+08         0.00000E+00
    0.00000E+00         0.00000E+00        -0.55918E+08
 
   -0.54980E+08         0.69244E+06         0.00000E+00
    0.69244E+06        -0.61661E+08         0.00000E+00
    0.00000E+00         0.00000E+00        -0.55871E+08
 
   -0.54939E+08         0.15270E+07         0.00000E+00
    0.15270E+07        -0.61785E+08         0.00000E+00
    0.00000E+00         0.00000E+00        -0.55831E+08
 
   -0.54970E+08         0.24761E+07         0.00000E+00
    0.24761E+07        -0.61856E+08         0.00000E+00
    0.00000E+00         0.00000E+00        -0.55804E+08
 
   -0.55091E+08         0.35163E+07         0.00000E+00
    0.35163E+07        -0.61866E+08         0.00000E+00
    0.00000E+00         0.00000E+00        -0.55793E+08
 
   -0.55316E+08         0.46190E+07         0.00000E+00
    0.46190E+07        -0.61809E+08         0.00000E+00
    0.00000E+00         0.00000E+00        -0.55801E+08
 
   -0.55652E+08         0.57498E+07         0.00000E+00
    0.57498E+07        -0.61681E+08         0.00000E+00
    0.00000E+00         0.00000E+00        -0.55830E+08
 
   -0.54940E+08        -0.27087E+06         0.00000E+00
   -0.27087E+06        -0.60021E+08         0.00000E+00
    0.00000E+00         0.00000E+00        -0.55127E+08
 
   -0.55352E+08        -0.76608E+06         0.00000E+00
   -0.76608E+06        -0.60111E+08         0.00000E+00
    0.00000E+00         0.00000E+00        -0.55208E+08
 
   -0.55551E+08        -0.11616E+07         0.00000E+00
   -0.11616E+07        -0.60276E+08         0.00000E+00
    0.00000E+00         0.00000E+00        -0.55244E+08
 
   -0.55573E+08        -0.14228E+07         0.00000E+00
   -0.14228E+07        -0.60495E+08         0.00000E+00
    0.00000E+00         0.00000E+00        -0.55240E+08
 
   -0.55461E+08        -0.15262E+07         0.00000E+00
   -0.15262E+07        -0.60752E+08         0.00000E+00
    0.00000E+00         0.00000E+00        -0.55203E+08
 
   -0.55253E+08        -0.14588E+07         0.00000E+00
   -0.14588E+07        -0.61026E+08         0.00000E+00
    0.00000E+00         0.00000E+00        -0.55142E+08
 
   -0.54989E+08        -0.12159E+07         0.00000E+00
   -0.12159E+07        -0.61302E+08         0.00000E+00
    0.00000E+00         0.00000E+00        -0.55064E+08
 
   -0.54702E+08        -0.79899E+06         0.00000E+00
   -0.79899E+06        -0.61566E+08         0.00000E+00
    0.00000E+00         0.00000E+00        -0.54977E+08
 
   -0.54425E+08        -0.21467E+06         0.00000E+00
   -0.21467E+06        -0.61805E+08         0.00000E+00
    0.00000E+00         0.00000E+00        -0.54888E+08
 
   -0.54188E+08         0.52670E+06         0.00000E+00
    0.52670E+06        -0.62009E+08         0.00000E+00
    0.00000E+00         0.00000E+00        -0.54805E+08
 
   -0.54017E+08         0.14109E+07         0.00000E+00
    0.14109E+07        -0.62168E+08         0.00000E+00
    0.00000E+00         0.00000E+00        -0.54733E+08
 
   -0.53940E+08         0.24195E+07         0.00000E+00
    0.24195E+07        -0.62270E+08         0.00000E+00
    0.00000E+00         0.00000E+00        -0.54679E+08
 
   -0.53979E+08         0.35285E+07         0.00000E+00
    0.35285E+07        -0.62304E+08         0.00000E+00
    0.00000E+00         0.00000E+00        -0.54648E+08
 
   -0.54155E+08         0.47072E+07         0.00000E+00
    0.47072E+07        -0.62261E+08         0.00000E+00
    0.00000E+00         0.00000E+00        -0.54642E+08
 
   -0.54483E+08         0.59177E+07         0.00000E+00
    0.59177E+07        -0.62134E+08         0.00000E+00
    0.00000E+00         0.00000E+00        -0.54666E+08
 
   -0.55518E+08        -0.32352E+06         0.00000E+00
   -0.32352E+06        -0.60026E+08         0.00000E+00
    0.00000E+00         0.00000E+00        -0.54347E+08
 
   -0.55843E+08        -0.91024E+06         0.00000E+00
   -0.91024E+06        -0.60134E+08         0.00000E+00
    0.00000E+00         0.00000E+00        -0.54410E+08
 
   -0.55912E+08        -0.13763E+07         0.00000E+00
   -0.13763E+07        -0.60330E+08         0.00000E+00
    0.00000E+00         0.00000E+00        -0.54416E+08
 
   -0.55777E+08        -0.16858E+07         0.00000E+00
   -0.16858E+07        -0.60589E+08         0.00000E+00
    0.00000E+00         0.00000E+00        -0.54374E+08
 
   -0.55489E+08        -0.18165E+07         0.00000E+00
   -0.18165E+07        -0.60886E+08         0.00000E+00
    0.00000E+00         0.00000E+00        -0.54294E+08
 
   -0.55099E+08        -0.17578E+07         0.00000E+00
   -0.17578E+07        -0.61201E+08         0.00000E+00
    0.00000E+00         0.00000E+00        -0.54186E+08
 
   -0.54651E+08        -0.15078E+07         0.00000E+00
   -0.15078E+07        -0.61515E+08         0.00000E+00
    0.00000E+00         0.00000E+00        -0.54060E+08
 
   -0.54187E+08        -0.10711E+07         0.00000E+00
   -0.10711E+07        -0.61814E+08         0.00000E+00
    0.00000E+00         0.00000E+00        -0.53926E+08
 
   -0.53742E+08        -0.45593E+06         0.00000E+00
   -0.45593E+06        -0.62086E+08         0.00000E+00
    0.00000E+00         0.00000E+00        -0.53792E+08
 
   -0.53349E+08         0.32672E+06         0.00000E+00
    0.32672E+06        -0.62322E+08         0.00000E+00
    0.00000E+00         0.00000E+00        -0.53666E+08
 
   -0.53039E+08         0.12630E+07         0.00000E+00
    0.12630E+07        -0.62511E+08         0.00000E+00
    0.00000E+00         0.00000E+00        -0.53558E+08
 
   -0.52843E+08         0.23354E+07         0.00000E+00
    0.23354E+07        -0.62641E+08         0.00000E+00
    0.00000E+00         0.00000E+00        -0.53473E+08
 
   -0.52790E+08         0.35204E+07         0.00000E+00
    0.35204E+07        -0.62700E+08         0.00000E+00
    0.00000E+00         0.00000E+00        -0.53417E+08
 
   -0.52910E+08         0.47866E+07         0.00000E+00
    0.47866E+07        -0.62673E+08         0.00000E+00
    0.00000E+00         0.00000E+00        -0.53397E+08
 
   -0.53224E+08         0.60928E+07         0.00000E+00
    0.60928E+07        -0.62546E+08         0.00000E+00
    0.00000E+00         0.00000E+00        -0.53414E+08
 
   -0.56207E+08        -0.38656E+06         0.00000E+00
   -0.38656E+06        -0.60031E+08         0.00000E+00
    0.00000E+00         0.00000E+00        -0.53549E+08
 
   -0.56422E+08        -0.10808E+07         0.00000E+00
   -0.10808E+07        -0.60158E+08         0.00000E+00
    0.00000E+00         0.00000E+00        -0.53586E+08
 
   -0.56336E+08        -0.16268E+07         0.00000E+00
   -0.16268E+07        -0.60385E+08         0.00000E+00
    0.00000E+00         0.00000E+00        -0.53555E+08
 
   -0.56018E+08        -0.19880E+07         0.00000E+00
   -0.19880E+07        -0.60679E+08         0.00000E+00
    0.00000E+00         0.00000E+00        -0.53468E+08
 
   -0.55533E+08        -0.21449E+07         0.00000E+00
   -0.21449E+07        -0.61012E+08         0.00000E+00
    0.00000E+00         0.00000E+00        -0.53336E+08
 
   -0.54943E+08        -0.20913E+07         0.00000E+00
   -0.20913E+07        -0.61358E+08         0.00000E+00
    0.00000E+00         0.00000E+00        -0.53172E+08
 
   -0.54299E+08        -0.18307E+07         0.00000E+00
   -0.18307E+07        -0.61698E+08         0.00000E+00
    0.00000E+00         0.00000E+00        -0.52990E+08
 
   -0.53647E+08        -0.13716E+07         0.00000E+00
   -0.13716E+07        -0.62020E+08         0.00000E+00
    0.00000E+00         0.00000E+00        -0.52800E+08
 
   -0.53024E+08        -0.72458E+06         0.00000E+00
   -0.72458E+06        -0.62314E+08         0.00000E+00
    0.00000E+00         0.00000E+00        -0.52613E+08
 
   -0.52465E+08         0.99042E+05         0.00000E+00
    0.99042E+05        -0.62572E+08         0.00000E+00
    0.00000E+00         0.00000E+00        -0.52439E+08
 
   -0.52003E+08         0.10871E+07         0.00000E+00
    0.10871E+07        -0.62786E+08         0.00000E+00
    0.00000E+00         0.00000E+00        -0.52288E+08
 
   -0.51674E+08         0.22246E+07         0.00000E+00
    0.22246E+07        -0.62942E+08         0.00000E+00
    0.00000E+00         0.00000E+00        -0.52166E+08
 
   -0.51515E+08         0.34908E+07         0.00000E+00
    0.34908E+07        -0.63025E+08         0.00000E+00
    0.00000E+00         0.00000E+00        -0.52082E+08
 
   -0.51565E+08         0.48551E+07         0.00000E+00
    0.48551E+07        -0.63015E+08         0.00000E+00
    0.00000E+00         0.00000E+00        -0.52043E+08
 
   -0.51858E+08         0.62743E+07         0.00000E+00
    0.62743E+07        -0.62893E+08         0.00000E+00
    0.00000E+00         0.00000E+00        -0.52053E+08
 
   -0.57026E+08        -0.46032E+06         0.00000E+00
   -0.46032E+06        -0.60036E+08         0.00000E+00
    0.00000E+00         0.00000E+00        -0.52727E+08
 
   -0.57100E+08        -0.12778E+07         0.00000E+00
   -0.12778E+07        -0.60182E+08         0.00000E+00
    0.00000E+00         0.00000E+00        -0.52731E+08
 
   -0.56828E+08        -0.19109E+07         0.00000E+00
   -0.19109E+07        -0.60438E+08         0.00000E+00
    0.00000E+00         0.00000E+00        -0.52653E+08
 
   -0.56297E+08        -0.23237E+07         0.00000E+00
   -0.23237E+07        -0.60764E+08         0.00000E+00
    0.00000E+00         0.00000E+00        -0.52509E+08
 
   -0.55590E+08        -0.25016E+07         0.00000E+00
   -0.25016E+07        -0.61123E+08         0.00000E+00
    0.00000E+00         0.00000E+00        -0.52313E+08
 
   -0.54780E+08        -0.24465E+07         0.00000E+00
   -0.24465E+07        -0.61486E+08         0.00000E+00
    0.00000E+00         0.00000E+00        -0.52084E+08
 
   -0.53927E+08        -0.21696E+07         0.00000E+00
   -0.21696E+07        -0.61835E+08         0.00000E+00
    0.00000E+00         0.00000E+00        -0.51835E+08
 
   -0.53078E+08        -0.16854E+07         0.00000E+00
   -0.16854E+07        -0.62162E+08         0.00000E+00
    0.00000E+00         0.00000E+00        -0.51581E+08
 
   -0.52270E+08        -0.10073E+07         0.00000E+00
   -0.10073E+07        -0.62460E+08         0.00000E+00
    0.00000E+00         0.00000E+00        -0.51333E+08
 
   -0.51536E+08        -0.14635E+06         0.00000E+00
   -0.14635E+06        -0.62726E+08         0.00000E+00
    0.00000E+00         0.00000E+00        -0.51103E+08
 
   -0.50911E+08         0.88876E+06         0.00000E+00
    0.88876E+06        -0.62955E+08         0.00000E+00
    0.00000E+00         0.00000E+00        -0.50901E+08
 
   -0.50433E+08         0.20883E+07         0.00000E+00
    0.20883E+07        -0.63133E+08         0.00000E+00
    0.00000E+00         0.00000E+00        -0.50737E+08
 
   -0.50148E+08         0.34370E+07         0.00000E+00
    0.34370E+07        -0.63242E+08         0.00000E+00
    0.00000E+00         0.00000E+00        -0.50619E+08
 
   -0.50107E+08         0.49083E+07         0.00000E+00
    0.49083E+07        -0.63255E+08         0.00000E+00
    0.00000E+00         0.00000E+00        -0.50556E+08
 
   -0.50363E+08         0.64587E+07         0.00000E+00
    0.64587E+07        -0.63143E+08         0.00000E+00
    0.00000E+00         0.00000E+00        -0.50555E+08
 
   -0.57994E+08        -0.54533E+06         0.00000E+00
   -0.54533E+06        -0.60041E+08         0.00000E+00
    0.00000E+00         0.00000E+00        -0.51871E+08
 
   -0.57889E+08        -0.15012E+07         0.00000E+00
   -0.15012E+07        -0.60207E+08         0.00000E+00
    0.00000E+00         0.00000E+00        -0.51833E+08
 
   -0.57388E+08        -0.22253E+07         0.00000E+00
   -0.22253E+07        -0.60491E+08         0.00000E+00
    0.00000E+00         0.00000E+00        -0.51696E+08
 
   -0.56607E+08        -0.26839E+07         0.00000E+00
   -0.26839E+07        -0.60840E+08         0.00000E+00
    0.00000E+00         0.00000E+00        -0.51480E+08
 
   -0.55649E+08        -0.28719E+07         0.00000E+00
   -0.28719E+07        -0.61209E+08         0.00000E+00
    0.00000E+00         0.00000E+00        -0.51207E+08
 
   -0.54603E+08        -0.28038E+07         0.00000E+00
   -0.28038E+07        -0.61569E+08         0.00000E+00
    0.00000E+00         0.00000E+00        -0.50899E+08
 
   -0.53532E+08        -0.25025E+07         0.00000E+00
   -0.25025E+07        -0.61902E+08         0.00000E+00
    0.00000E+00         0.00000E+00        -0.50573E+08
 
   -0.52481E+08        -0.19907E+07         0.00000E+00
   -0.19907E+07        -0.62207E+08         0.00000E+00
    0.00000E+00         0.00000E+00        -0.50244E+08
 
   -0.51485E+08        -0.12852E+07         0.00000E+00
   -0.12852E+07        -0.62486E+08         0.00000E+00
    0.00000E+00         0.00000E+00        -0.49928E+08
 
   -0.50571E+08        -0.39532E+06         0.00000E+00
   -0.39532E+06        -0.62741E+08         0.00000E+00
    0.00000E+00         0.00000E+00        -0.49634E+08
 
   -0.49770E+08         0.67585E+06         0.00000E+00
    0.67585E+06        -0.62972E+08         0.00000E+00
    0.00000E+00         0.00000E+00        -0.49374E+08
 
   -0.49124E+08         0.19274E+07         0.00000E+00
    0.19274E+07        -0.63167E+08         0.00000E+00
    0.00000E+00         0.00000E+00        -0.49160E+08
 
   -0.48686E+08         0.33541E+07         0.00000E+00
    0.33541E+07        -0.63305E+08         0.00000E+00
    0.00000E+00         0.00000E+00        -0.49001E+08
 
   -0.48524E+08         0.49377E+07         0.00000E+00
    0.49377E+07        -0.63350E+08         0.00000E+00
    0.00000E+00         0.00000E+00        -0.48908E+08
 
   -0.48712E+08         0.66379E+07         0.00000E+00
    0.66379E+07        -0.63259E+08         0.00000E+00
    0.00000E+00         0.00000E+00        -0.48892E+08
 
   -0.59134E+08        -0.64267E+06         0.00000E+00
   -0.64267E+06        -0.60048E+08         0.00000E+00
    0.00000E+00         0.00000E+00        -0.50972E+08
 
   -0.58796E+08        -0.17511E+07         0.00000E+00
   -0.17511E+07        -0.60234E+08         0.00000E+00
    0.00000E+00         0.00000E+00        -0.50878E+08
 
   -0.58012E+08        -0.25645E+07         0.00000E+00
   -0.25645E+07        -0.60542E+08         0.00000E+00
    0.00000E+00         0.00000E+00        -0.50663E+08
 
   -0.56934E+08        -0.30546E+07         0.00000E+00
   -0.30546E+07        -0.60902E+08         0.00000E+00
    0.00000E+00         0.00000E+00        -0.50358E+08
 
   -0.55696E+08        -0.32331E+07         0.00000E+00
   -0.32331E+07        -0.61260E+08         0.00000E+00
    0.00000E+00         0.00000E+00        -0.49992E+08
 
   -0.54398E+08        -0.31345E+07         0.00000E+00
   -0.31345E+07        -0.61584E+08         0.00000E+00
    0.00000E+00         0.00000E+00        -0.49590E+08
 
   -0.53106E+08        -0.27985E+07         0.00000E+00
   -0.27985E+07        -0.61867E+08         0.00000E+00
    0.00000E+00         0.00000E+00        -0.49174E+08
 
   -0.51859E+08        -0.22580E+07         0.00000E+00
   -0.22580E+07        -0.62116E+08         0.00000E+00
    0.00000E+00         0.00000E+00        -0.48762E+08
 
   -0.50678E+08        -0.15327E+07         0.00000E+00
   -0.15327E+07        -0.62343E+08         0.00000E+00
    0.00000E+00         0.00000E+00        -0.48367E+08
 
   -0.49582E+08        -0.62900E+06         0.00000E+00
   -0.62900E+06        -0.62562E+08         0.00000E+00
    0.00000E+00         0.00000E+00        -0.48002E+08
 
   -0.48596E+08         0.45875E+06         0.00000E+00
    0.45875E+06        -0.62778E+08         0.00000E+00
    0.00000E+00         0.00000E+00        -0.47678E+08
 
   -0.47760E+08         0.17428E+07         0.00000E+00
    0.17428E+07        -0.62984E+08         0.00000E+00
    0.00000E+00         0.00000E+00        -0.47405E+08
 
   -0.47134E+08         0.32340E+07         0.00000E+00
    0.32340E+07        -0.63155E+08         0.00000E+00
    0.00000E+00         0.00000E+00        -0.47196E+08
 
   -0.46806E+08         0.49292E+07         0.00000E+00
    0.49292E+07        -0.63246E+08         0.00000E+00
    0.00000E+00         0.00000E+00        -0.47066E+08
 
   -0.46881E+08         0.67971E+07         0.00000E+00
    0.67971E+07        -0.63195E+08         0.00000E+00
    0.00000E+00         0.00000E+00        -0.47028E+08
 
   -0.60466E+08        -0.75450E+06         0.00000E+00
   -0.75450E+06        -0.60055E+08         0.00000E+00
    0.00000E+00         0.00000E+00        -0.50013E+08
 
   -0.59824E+08        -0.20283E+07         0.00000E+00
   -0.20283E+07        -0.60264E+08         0.00000E+00
    0.00000E+00         0.00000E+00        -0.49843E+08
 
   -0.58685E+08        -0.29196E+07         0.00000E+00
   -0.29196E+07        -0.60592E+08         0.00000E+00
    0.00000E+00         0.00000E+00        -0.49528E+08
 
   -0.57255E+08        -0.34133E+07         0.00000E+00
   -0.34133E+07        -0.60943E+08         0.00000E+00
    0.00000E+00         0.00000E+00        -0.49110E+08
 
   -0.55707E+08        -0.35511E+07         0.00000E+00
   -0.35511E+07        -0.61254E+08         0.00000E+00
    0.00000E+00         0.00000E+00        -0.48628E+08
 
   -0.54151E+08        -0.33983E+07         0.00000E+00
   -0.33983E+07        -0.61499E+08         0.00000E+00
    0.00000E+00         0.00000E+00        -0.48117E+08
 
   -0.52646E+08        -0.30165E+07         0.00000E+00
   -0.30165E+07        -0.61683E+08         0.00000E+00
    0.00000E+00         0.00000E+00        -0.47600E+08
 
   -0.51216E+08        -0.24491E+07         0.00000E+00
   -0.24491E+07        -0.61831E+08         0.00000E+00
    0.00000E+00         0.00000E+00        -0.47095E+08
 
   -0.49864E+08        -0.17179E+07         0.00000E+00
   -0.17179E+07        -0.61969E+08         0.00000E+00
    0.00000E+00         0.00000E+00        -0.46616E+08
 
   -0.48594E+08        -0.82365E+06         0.00000E+00
   -0.82365E+06        -0.62121E+08         0.00000E+00
    0.00000E+00         0.00000E+00        -0.46174E+08
 
   -0.47416E+08         0.25063E+06         0.00000E+00
    0.25063E+06        -0.62302E+08         0.00000E+00
    0.00000E+00         0.00000E+00        -0.45777E+08
 
   -0.46363E+08         0.15352E+07         0.00000E+00
    0.15352E+07        -0.62511E+08         0.00000E+00
    0.00000E+00         0.00000E+00        -0.45438E+08
 
   -0.45504E+08         0.30645E+07         0.00000E+00
    0.30645E+07        -0.62723E+08         0.00000E+00
    0.00000E+00         0.00000E+00        -0.45170E+08
 
   -0.44947E+08         0.48609E+07         0.00000E+00
    0.48609E+07        -0.62880E+08         0.00000E+00
    0.00000E+00         0.00000E+00        -0.44992E+08
 
   -0.44838E+08         0.69118E+07         0.00000E+00
    0.69118E+07        -0.62899E+08         0.00000E+00
    0.00000E+00         0.00000E+00        -0.44922E+08
 
   -0.62018E+08        -0.88494E+06         0.00000E+00
   -0.88494E+06        -0.60066E+08         0.00000E+00
    0.00000E+00         0.00000E+00        -0.48969E+08
 
   -0.60970E+08        -0.23339E+07         0.00000E+00
   -0.23339E+07        -0.60302E+08         0.00000E+00
    0.00000E+00         0.00000E+00        -0.48696E+08
 
   -0.59375E+08        -0.32744E+07         0.00000E+00
   -0.32744E+07        -0.60638E+08         0.00000E+00
    0.00000E+00         0.00000E+00        -0.48246E+08
 
   -0.57529E+08        -0.37229E+07         0.00000E+00
   -0.37229E+07        -0.60944E+08         0.00000E+00
    0.00000E+00         0.00000E+00        -0.47683E+08
 
   -0.55648E+08        -0.37747E+07         0.00000E+00
   -0.37747E+07        -0.61151E+08         0.00000E+00
    0.00000E+00         0.00000E+00        -0.47062E+08
 
   -0.53842E+08        -0.35401E+07         0.00000E+00
   -0.35401E+07        -0.61253E+08         0.00000E+00
    0.00000E+00         0.00000E+00        -0.46424E+08
 
   -0.52149E+08        -0.31047E+07         0.00000E+00
   -0.31047E+07        -0.61280E+08         0.00000E+00
    0.00000E+00         0.00000E+00        -0.45796E+08
 
   -0.50564E+08        -0.25194E+07         0.00000E+00
   -0.25194E+07        -0.61276E+08         0.00000E+00
    0.00000E+00         0.00000E+00        -0.45194E+08
 
   -0.49067E+08        -0.18039E+07         0.00000E+00
   -0.18039E+07        -0.61282E+08         0.00000E+00
    0.00000E+00         0.00000E+00        -0.44628E+08
 
   -0.47637E+08        -0.95151E+06         0.00000E+00
   -0.95151E+06        -0.61334E+08         0.00000E+00
    0.00000E+00         0.00000E+00        -0.44105E+08
 
   -0.46266E+08         0.67737E+05         0.00000E+00
    0.67737E+05        -0.61457E+08         0.00000E+00
    0.00000E+00         0.00000E+00        -0.43631E+08
 
   -0.44974E+08         0.13055E+07         0.00000E+00
    0.13055E+07        -0.61659E+08         0.00000E+00
    0.00000E+00         0.00000E+00        -0.43218E+08
 
   -0.43827E+08         0.28284E+07         0.00000E+00
    0.28284E+07        -0.61920E+08         0.00000E+00
    0.00000E+00         0.00000E+00        -0.42881E+08
 
   -0.42953E+08         0.46995E+07         0.00000E+00
    0.46995E+07        -0.62174E+08         0.00000E+00
    0.00000E+00         0.00000E+00        -0.42641E+08
 
   -0.42554E+08         0.69426E+07         0.00000E+00
    0.69426E+07        -0.62307E+08         0.00000E+00
    0.00000E+00         0.00000E+00        -0.42525E+08
 
   -0.63822E+08        -0.10419E+07         0.00000E+00
   -0.10419E+07        -0.60082E+08         0.00000E+00
    0.00000E+00         0.00000E+00        -0.47802E+08
 
   -0.62212E+08        -0.26675E+07         0.00000E+00
   -0.26675E+07        -0.60350E+08         0.00000E+00
    0.00000E+00         0.00000E+00        -0.47383E+08
 
   -0.60024E+08        -0.35948E+07         0.00000E+00
   -0.35948E+07        -0.60669E+08         0.00000E+00
    0.00000E+00         0.00000E+00        -0.46748E+08
 
   -0.57696E+08        -0.39179E+07         0.00000E+00
   -0.39179E+07        -0.60859E+08         0.00000E+00
    0.00000E+00         0.00000E+00        -0.45997E+08
 
   -0.55481E+08        -0.38273E+07         0.00000E+00
   -0.38273E+07        -0.60872E+08         0.00000E+00
    0.00000E+00         0.00000E+00        -0.45209E+08
 
   -0.53460E+08        -0.34892E+07         0.00000E+00
   -0.34892E+07        -0.60746E+08         0.00000E+00
    0.00000E+00         0.00000E+00        -0.44431E+08
 
   -0.51623E+08        -0.30052E+07         0.00000E+00
   -0.30052E+07        -0.60548E+08         0.00000E+00
    0.00000E+00         0.00000E+00        -0.43688E+08
 
   -0.49925E+08        -0.24229E+07         0.00000E+00
   -0.24229E+07        -0.60342E+08         0.00000E+00
    0.00000E+00         0.00000E+00        -0.42990E+08
 
   -0.48317E+08        -0.17541E+07         0.00000E+00
   -0.17541E+07        -0.60179E+08         0.00000E+00
    0.00000E+00         0.00000E+00        -0.42341E+08
 
   -0.46752E+08        -0.98364E+06         0.00000E+00
   -0.98364E+06        -0.60100E+08         0.00000E+00
    0.00000E+00         0.00000E+00        -0.41740E+08
 
   -0.45199E+08        -0.70488E+05         0.00000E+00
   -0.70488E+05        -0.60141E+08         0.00000E+00
    0.00000E+00         0.00000E+00        -0.41191E+08
 
   -0.43650E+08         0.10571E+07         0.00000E+00
    0.10571E+07        -0.60322E+08         0.00000E+00
    0.00000E+00         0.00000E+00        -0.40699E+08
 
   -0.42151E+08         0.25047E+07         0.00000E+00
    0.25047E+07        -0.60639E+08         0.00000E+00
    0.00000E+00         0.00000E+00        -0.40280E+08
 
   -0.40844E+08         0.43976E+07         0.00000E+00
    0.43976E+07        -0.61029E+08         0.00000E+00
    0.00000E+00         0.00000E+00        -0.39961E+08
 
   -0.39996E+08         0.68282E+07         0.00000E+00
    0.68282E+07        -0.61343E+08         0.00000E+00
    0.00000E+00         0.00000E+00        -0.39780E+08
 
   -0.65918E+08        -0.12414E+07         0.00000E+00
   -0.12414E+07        -0.60111E+08         0.00000E+00
    0.00000E+00         0.00000E+00        -0.46451E+08
 
   -0.63488E+08        -0.30177E+07         0.00000E+00
   -0.30177E+07        -0.60411E+08         0.00000E+00
    0.00000E+00         0.00000E+00        -0.45809E+08
 
   -0.60524E+08        -0.38012E+07         0.00000E+00
   -0.38012E+07        -0.60636E+08         0.00000E+00
    0.00000E+00         0.00000E+00        -0.44906E+08
 
   -0.57676E+08        -0.38806E+07         0.00000E+00
   -0.38806E+07        -0.60569E+08         0.00000E+00
    0.00000E+00         0.00000E+00        -0.43911E+08
 
   -0.55177E+08        -0.36011E+07         0.00000E+00
   -0.36011E+07        -0.60246E+08         0.00000E+00
    0.00000E+00         0.00000E+00        -0.42932E+08
 
   -0.53011E+08        -0.31673E+07         0.00000E+00
   -0.31673E+07        -0.59795E+08         0.00000E+00
    0.00000E+00         0.00000E+00        -0.42013E+08
 
   -0.51091E+08        -0.26656E+07         0.00000E+00
   -0.26656E+07        -0.59315E+08         0.00000E+00
    0.00000E+00         0.00000E+00        -0.41165E+08
 
   -0.49331E+08        -0.21244E+07         0.00000E+00
   -0.21244E+07        -0.58876E+08         0.00000E+00
    0.00000E+00         0.00000E+00        -0.40385E+08
 
   -0.47652E+08        -0.15422E+07         0.00000E+00
   -0.15422E+07        -0.58524E+08         0.00000E+00
    0.00000E+00         0.00000E+00        -0.39667E+08
 
   -0.45988E+08        -0.89663E+06         0.00000E+00
   -0.89663E+06        -0.58299E+08         0.00000E+00
    0.00000E+00         0.00000E+00        -0.39003E+08
 
   -0.44276E+08        -0.14253E+06         0.00000E+00
   -0.14253E+06        -0.58239E+08         0.00000E+00
    0.00000E+00         0.00000E+00        -0.38387E+08
 
   -0.42468E+08         0.80058E+06         0.00000E+00
    0.80058E+06        -0.58379E+08         0.00000E+00
    0.00000E+00         0.00000E+00        -0.37820E+08
 
   -0.40562E+08         0.20739E+07         0.00000E+00
    0.20739E+07        -0.58750E+08         0.00000E+00
    0.00000E+00         0.00000E+00        -0.37311E+08
 
   -0.38673E+08         0.38900E+07         0.00000E+00
    0.38900E+07        -0.59319E+08         0.00000E+00
    0.00000E+00         0.00000E+00        -0.36891E+08
 
   -0.37141E+08         0.64724E+07         0.00000E+00
    0.64724E+07        -0.59914E+08         0.00000E+00
    0.00000E+00         0.00000E+00        -0.36615E+08
 
   -0.68359E+08        -0.15170E+07         0.00000E+00
   -0.15170E+07        -0.60161E+08         0.00000E+00
    0.00000E+00         0.00000E+00        -0.44788E+08
 
   -0.64643E+08        -0.33215E+07         0.00000E+00
   -0.33215E+07        -0.60469E+08         0.00000E+00
    0.00000E+00         0.00000E+00        -0.43771E+08
 
   -0.60701E+08        -0.36894E+07         0.00000E+00
   -0.36894E+07        -0.60359E+08         0.00000E+00
    0.00000E+00         0.00000E+00        -0.42463E+08
 
   -0.57408E+08        -0.34139E+07         0.00000E+00
   -0.34139E+07        -0.59744E+08         0.00000E+00
    0.00000E+00         0.00000E+00        -0.41171E+08
 
   -0.54757E+08        -0.29772E+07         0.00000E+00
   -0.29772E+07        -0.58929E+08         0.00000E+00
    0.00000E+00         0.00000E+00        -0.40007E+08
 
   -0.52541E+08        -0.25161E+07         0.00000E+00
   -0.25161E+07        -0.58091E+08         0.00000E+00
    0.00000E+00         0.00000E+00        -0.38973E+08
 
   -0.50603E+08        -0.20635E+07         0.00000E+00
   -0.20635E+07        -0.57318E+08         0.00000E+00
    0.00000E+00         0.00000E+00        -0.38052E+08
 
   -0.48826E+08        -0.16186E+07         0.00000E+00
   -0.16186E+07        -0.56657E+08         0.00000E+00
    0.00000E+00         0.00000E+00        -0.37224E+08
 
   -0.47115E+08        -0.11674E+07         0.00000E+00
   -0.11674E+07        -0.56136E+08         0.00000E+00
    0.00000E+00         0.00000E+00        -0.36471E+08
 
   -0.45385E+08        -0.68535E+06         0.00000E+00
   -0.68535E+06        -0.55780E+08         0.00000E+00
    0.00000E+00         0.00000E+00        -0.35774E+08
 
   -0.43552E+08        -0.13288E+06         0.00000E+00
   -0.13288E+06        -0.55621E+08         0.00000E+00
    0.00000E+00         0.00000E+00        -0.35121E+08
 
   -0.41521E+08         0.56047E+06         0.00000E+00
    0.56047E+06        -0.55705E+08         0.00000E+00
    0.00000E+00         0.00000E+00        -0.34498E+08
 
   -0.39191E+08         0.15343E+07         0.00000E+00
    0.15343E+07        -0.56099E+08         0.00000E+00
    0.00000E+00         0.00000E+00        -0.33902E+08
 
   -0.36560E+08         0.30967E+07         0.00000E+00
    0.30967E+07        -0.56878E+08         0.00000E+00
    0.00000E+00         0.00000E+00        -0.33360E+08
 
   -0.33981E+08         0.57193E+07         0.00000E+00
    0.57193E+07        -0.57895E+08         0.00000E+00
    0.00000E+00         0.00000E+00        -0.32945E+08
 
   -0.71152E+08        -0.19688E+07         0.00000E+00
   -0.19688E+07        -0.60371E+08         0.00000E+00
    0.00000E+00         0.00000E+00        -0.42497E+08
 
   -0.65253E+08        -0.31837E+07         0.00000E+00
   -0.31837E+07        -0.60253E+08         0.00000E+00
    0.00000E+00         0.00000E+00        -0.40703E+08
 
   -0.60397E+08        -0.28047E+07         0.00000E+00
   -0.28047E+07        -0.59029E+08         0.00000E+00
    0.00000E+00         0.00000E+00        -0.38815E+08
 
   -0.56980E+08        -0.23231E+07         0.00000E+00
   -0.23231E+07        -0.57602E+08         0.00000E+00
    0.00000E+00         0.00000E+00        -0.37284E+08
 
   -0.54331E+08        -0.19082E+07         0.00000E+00
   -0.19082E+07        -0.56273E+08         0.00000E+00
    0.00000E+00         0.00000E+00        -0.36022E+08
 
   -0.52143E+08        -0.15541E+07         0.00000E+00
   -0.15541E+07        -0.55113E+08         0.00000E+00
    0.00000E+00         0.00000E+00        -0.34960E+08
 
   -0.50229E+08        -0.12423E+07         0.00000E+00
   -0.12423E+07        -0.54137E+08         0.00000E+00
    0.00000E+00         0.00000E+00        -0.34046E+08
 
   -0.48461E+08        -0.95480E+06         0.00000E+00
   -0.95480E+06        -0.53345E+08         0.00000E+00
    0.00000E+00         0.00000E+00        -0.33241E+08
 
   -0.46741E+08        -0.67456E+06         0.00000E+00
   -0.67456E+06        -0.52736E+08         0.00000E+00
    0.00000E+00         0.00000E+00        -0.32516E+08
 
   -0.44977E+08        -0.38289E+06         0.00000E+00
   -0.38289E+06        -0.52318E+08         0.00000E+00
    0.00000E+00         0.00000E+00        -0.31847E+08
 
   -0.43065E+08        -0.53839E+05         0.00000E+00
   -0.53839E+05        -0.52112E+08         0.00000E+00
    0.00000E+00         0.00000E+00        -0.31211E+08
 
   -0.40875E+08         0.35733E+06         0.00000E+00
    0.35733E+06        -0.52159E+08         0.00000E+00
    0.00000E+00         0.00000E+00        -0.30586E+08
 
   -0.38216E+08         0.94376E+06         0.00000E+00
    0.94376E+06        -0.52545E+08         0.00000E+00
    0.00000E+00         0.00000E+00        -0.29950E+08
 
   -0.34759E+08         0.19582E+07         0.00000E+00
    0.19582E+07        -0.53444E+08         0.00000E+00
    0.00000E+00         0.00000E+00        -0.29274E+08
 
   -0.30590E+08         0.42892E+07         0.00000E+00
    0.42892E+07        -0.55105E+08         0.00000E+00
    0.00000E+00         0.00000E+00        -0.28663E+08
 
   -0.73720E+08        -0.19085E+07         0.00000E+00
   -0.19085E+07        -0.58830E+08         0.00000E+00
    0.00000E+00         0.00000E+00        -0.36760E+08
 
   -0.64780E+08        -0.13781E+07         0.00000E+00
   -0.13781E+07        -0.56325E+08         0.00000E+00
    0.00000E+00         0.00000E+00        -0.34088E+08
 
   -0.60003E+08        -0.95461E+06         0.00000E+00
   -0.95461E+06        -0.54127E+08         0.00000E+00
    0.00000E+00         0.00000E+00        -0.32312E+08
 
   -0.56657E+08        -0.73898E+06         0.00000E+00
   -0.73898E+06        -0.52387E+08         0.00000E+00
    0.00000E+00         0.00000E+00        -0.31014E+08
 
   -0.54071E+08        -0.58572E+06         0.00000E+00
   -0.58572E+06        -0.50996E+08         0.00000E+00
    0.00000E+00         0.00000E+00        -0.29998E+08
 
   -0.51923E+08        -0.46603E+06         0.00000E+00
   -0.46603E+06        -0.49877E+08         0.00000E+00
    0.00000E+00         0.00000E+00        -0.29167E+08
 
   -0.50032E+08        -0.36443E+06         0.00000E+00
   -0.36443E+06        -0.48984E+08         0.00000E+00
    0.00000E+00         0.00000E+00        -0.28462E+08
 
   -0.48275E+08        -0.27215E+06         0.00000E+00
   -0.27215E+06        -0.48291E+08         0.00000E+00
    0.00000E+00         0.00000E+00        -0.27845E+08
 
   -0.46555E+08        -0.18257E+06         0.00000E+00
   -0.18257E+06        -0.47785E+08         0.00000E+00
    0.00000E+00         0.00000E+00        -0.27289E+08
 
   -0.44775E+08        -0.89167E+05         0.00000E+00
   -0.89167E+05        -0.47467E+08         0.00000E+00
    0.00000E+00         0.00000E+00        -0.26771E+08
 
   -0.42826E+08         0.16613E+05         0.00000E+00
    0.16613E+05        -0.47352E+08         0.00000E+00
    0.00000E+00         0.00000E+00        -0.26270E+08
 
   -0.40558E+08         0.14910E+06         0.00000E+00
    0.14910E+06        -0.47478E+08         0.00000E+00
    0.00000E+00         0.00000E+00        -0.25758E+08
 
   -0.37721E+08         0.34046E+06         0.00000E+00
    0.34046E+06        -0.47931E+08         0.00000E+00
    0.00000E+00         0.00000E+00        -0.25203E+08
 
   -0.33821E+08         0.66472E+06         0.00000E+00
    0.66472E+06        -0.48905E+08         0.00000E+00
    0.00000E+00         0.00000E+00        -0.24543E+08
 
   -0.27280E+08         0.16865E+07         0.00000E+00
    0.16865E+07        -0.51044E+08         0.00000E+00
    0.00000E+00         0.00000E+00        -0.23607E+08
 
SCALARS stresss double 
LOOKUP_TABLE default
  -58215530.6480813     
  -59225093.5939441     
  -60448104.2453492     
  -61399913.0904279     
  -62216167.9117407     
  -62940840.2449910     
  -63597334.3395358     
  -64200290.2323628     
  -64760480.7347818     
  -65287035.9920903     
  -65788991.1209268     
  -66276941.1328712     
  -66766037.6910511     
  -67282147.6528756     
  -67905274.5771210     
  -58388588.5807243     
  -59160659.0573664     
  -60063778.4266097     
  -60925730.0745987     
  -61691734.5269875     
  -62383143.8996514     
  -63014131.6998070     
  -63595711.5485476     
  -64136614.8736954     
  -64644472.7984887     
  -65126713.1991727     
  -65591526.3177379     
  -66048623.3866873     
  -66512527.5397871     
  -66961618.4926550     
  -58287791.5397428     
  -59049129.0868542     
  -59804280.6298418     
  -60546551.2315572     
  -61244201.8307361     
  -61887888.4305107     
  -62482436.3992250     
  -63033691.9686005     
  -63547396.6417154     
  -64028886.6157110     
  -64483207.6789534     
  -64915049.1032340     
  -65328388.4539111     
  -65719704.0913108     
  -66077186.8851415     
  -58202507.7785841     
  -58896275.6978920     
  -59571755.0994397     
  -60227268.7381464     
  -60854111.9749439     
  -61444306.9433017     
  -61995935.8233976     
  -62510782.0207484     
  -62991620.0556053     
  -63441385.7360089     
  -63862670.3277211     
  -64257177.8307640     
  -64624104.8631958     
  -64958764.0913012     
  -65250619.3143515     
  -58139300.9414652     
  -58751914.0023322     
  -59354472.3389839     
  -59940708.3916098     
  -60504726.9816744     
  -61041410.0903532     
  -61547737.7967766     
  -62022959.8455599     
  -62467638.2640383     
  -62882706.7435542     
  -63268814.1007172     
  -63625572.7154833     
  -63950760.0450378     
  -64239414.4144466     
  -64483628.5695010     
  -58076664.8503408     
  -58615679.1664945     
  -59151490.0018349     
  -59676262.8330626     
  -60184006.1686287     
  -60670112.6826648     
  -61131408.9403028     
  -61566093.3962733     
  -61973343.6444306     
  -62352730.9591432     
  -62703619.1347926     
  -63024601.3117163     
  -63312955.7335127     
  -63564286.1875978     
  -63772463.9532696     
  -58004491.9433322     
  -58480915.9923531     
  -58958015.3450748     
  -59427901.4623124     
  -59884573.2800390     
  -60323517.5283018     
  -60741469.7187325     
  -61136197.7798447     
  -61506193.8068137     
  -61850272.6055506     
  -62167135.4859745     
  -62454954.0835687     
  -62711034.7559423     
  -62931623.5021968     
  -63111937.6362017     
  -57918606.0115799     
  -58343099.1120474     
  -58769655.3307033     
  -59190958.5306427     
  -59601347.6455121     
  -59996537.9025141     
  -60373360.0809935     
  -60729506.9750338     
  -61063254.4671226     
  -61373149.4069843     
  -61657686.2449638     
  -61915010.8650101     
  -62142693.2927555     
  -62337614.1978491     
  -62495997.4534948     
  -57817987.2148125     
  -58199998.4749358     
  -58583521.1261635     
  -58962064.4827955     
  -59330579.7583058     
  -59685242.8603138     
  -60023218.7371649     
  -60342418.2195460     
  -60641245.7189734     
  -60918339.7006038     
  -61172319.5135725     
  -61401561.7749391     
  -61604034.2481656     
  -61777213.0646304     
  -61918101.8987853     
  -57703473.3259531     
  -58051123.6334026     
  -58398144.1261131     
  -58739013.9829085     
  -59069499.4616627     
  -59386459.1932067     
  -59687628.3806935     
  -59971393.2302992     
  -60236561.9500561     
  -60482138.8918328     
  -60707112.4499024     
  -60910271.8860535     
  -61090070.3815651     
  -61244550.3995129     
  -61371342.3791941     
  -57577169.3098789     
  -57897250.1449305     
  -58213179.7181828     
  -58520532.4644202     
  -58816063.6157929     
  -59097516.2633448     
  -59363413.9984605     
  -59612847.1536412     
  -59845259.6307796     
  -60060243.2588596     
  -60257347.9957062     
  -60435918.0292696     
  -60594964.7423501     
  -60733086.7433489     
  -60848444.7065793     
  -57442131.3639578     
  -57740091.6896349     
  -58029122.9734460     
  -58306031.7087754     
  -58568731.0716506     
  -58816039.6579897     
  -59047473.0883808     
  -59263034.1552096     
  -59463007.2801929     
  -59647762.8810828     
  -59817577.4346884     
  -59972475.5229607     
  -60112100.5596979     
  -60235620.8716649     
  -60341677.2084909     
  -57302166.9455614     
  -57582063.8349578     
  -57847071.8988025     
  -58095386.4778406     
  -58326255.2884301     
  -58539762.9716315     
  -58736614.4244903     
  -58917921.7776468     
  -59084999.6139757     
  -59239172.1507809     
  -59381595.3874929     
  -59513097.0288606     
  -59634037.3820537     
  -59744195.2547572     
  -59842683.9558420     
  -57161682.5384214     
  -57426098.3022313     
  -57668527.1623295     
  -57888732.6226341     
  -58087488.5286598     
  -58266344.0031228     
  -58427392.0150144     
  -58573047.2577032     
  -58705837.2986555     
  -58828208.6167455     
  -58942347.1998377     
  -59050012.5442456     
  -59152384.4712832     
  -59249924.0770886     
  -59342253.0132936     
  -57025548.5805183     
  -57275480.9728231     
  -57495211.3342106     
  -57686275.8966602     
  -57851187.8406756     
  -57993174.7449129     
  -58115924.8986495     
  -58223350.7996497     
  -58319373.7625385     
  -58407728.6394749     
  -58491783.7980935     
  -58574369.8013251     
  -58657611.1382727     
  -58742758.7104435     
  -58830025.9653279     
  -56898966.2094646     
  -57133696.4633958     
  -57328891.6711351     
  -57488097.1879016     
  -57615809.5623087     
  -57717173.0546325     
  -57797693.1717421     
  -57862980.5498929     
  -57918529.4907587     
  -57969526.2573683     
  -58020675.3777344     
  -58076029.2570960     
  -58138807.8781010     
  -58211200.8666718     
  -58294152.6400470     
  -56787327.6423030     
  -57004266.9817589     
  -57171191.0787504     
  -57293936.9375409     
  -57379274.6804387     
  -57434539.7054029     
  -57467297.3456853     
  -57485061.5762508     
  -57495072.3408366     
  -57504119.9289767     
  -57518393.4306193     
  -57543325.7179946     
  -57583410.0051994     
  -57641971.8709294     
  -57720893.8914036     
  -56696066.2696179     
  -56890574.9035061     
  -57023369.6398271     
  -57102935.7382294     
  -57138679.6894242     
  -57140456.7246193     
  -57118161.5691727     
  -57081416.4349136     
  -57039359.5735886     
  -57000510.5333325     
  -56972670.3964508     
  -56962808.9990915     
  -56976896.0210478     
  -57019646.9550883     
  -57094175.4958142     
  -56630496.1835816     
  -56795657.3386984     
  -56886052.0926011     
  -56913296.3700819     
  -56889913.5757210     
  -56828689.3054820     
  -56742150.0472909     
  -56642217.1716589     
  -56540033.1778618     
  -56445913.0492350     
  -56369347.5959044     
  -56318978.7204556     
  -56302475.9700341     
  -56326265.9702619     
  -56395097.6981590     
  -56595644.6515641     
  -56721955.5559547     
  -56758861.2847432     
  -56721809.9803926     
  -56627116.4193441     
  -56491030.3362515     
  -56329047.6448905     
  -56155536.3912883     
  -55983653.8901618     
  -55825463.3386009     
  -55692124.9920532     
  -55594033.5019387     
  -55540790.6592955     
  -55540936.4042468     
  -55601407.4184093     
  -56596084.6929040     
  -56670988.4223688     
  -56639886.3081542     
  -56523146.5233972     
  -56341870.4529938     
  -56116487.5511655     
  -55865826.2648218     
  -55606745.9501305     
  -55354249.4785140     
  -55121899.3344345     
  -54922330.2369266     
  -54767662.4907322     
  -54669651.1458144     
  -54639450.9581068     
  -54686942.6717810     
  -56635776.3897031     
  -56642887.4642932     
  -56524850.0216028     
  -56308728.4957740     
  -56021934.9062638     
  -55690048.5135423     
  -55335572.4697380     
  -54977682.0986988     
  -54632735.8478988     
  -54315209.4521906     
  -54038727.1628032     
  -53816916.9040734     
  -53663859.7791675     
  -53593950.2147774     
  -53621059.2807814     
  -56717920.8545650     
  -56635657.7331304     
  -56405706.7410157     
  -56064848.0223540     
  -55649193.1974846     
  -55190752.7728092     
  -54715881.3725375     
  -54245449.1165269     
  -53796136.8461090     
  -53382220.4278533     
  -53017378.5737429     
  -52716208.1478759     
  -52495170.9003480     
  -52372671.6352693     
  -52368045.1487721     
  -56844801.7969023     
  -56643858.9873814     
  -56268101.1257676     
  -55769365.3828637     
  -55196221.5683231     
  -54588631.3692693     
  -53976418.9695001     
  -53380656.0038895     
  -52816457.1221171     
  -52296036.7123139     
  -51831541.8387619     
  -51437481.0460119     
  -51132471.3618549     
  -50939846.0796250     
  -50886511.1717469     
  -57017536.5511039     
  -56655938.9282655     
  -56086425.5541553     
  -55385633.8812816     
  -54620412.2576138     
  -53839824.4093709     
  -53075200.9901510     
  -52344738.2252563     
  -51658892.5860332     
  -51025065.7597378     
  -50451461.4824642     
  -49950564.4408712     
  -49542309.5504231     
  -49255837.0609503     
  -49128725.0930365     
  -57235254.9127355     
  -56648323.2773026     
  -55813308.7123755     
  -54850756.0826120     
  -53853776.9295774     
  -52878791.1844711     
  -51952914.9341600     
  -51085667.5380245     
  -50278616.6217828     
  -49530928.7598578     
  -48843505.3602306     
  -48223597.7842072     
  -47689896.3615275     
  -47277800.9503907     
  -47039787.6279650     
  -57493437.1758707     
  -56569432.7228917     
  -55355283.0304026     
  -54051847.0117442     
  -52784934.2806885     
  -51606279.5248705     
  -50523726.9010441     
  -49530379.2638125     
  -48614328.0237688     
  -47763240.8573505     
  -46967223.5288830     
  -46222472.7424391     
  -45541158.1688164     
  -44961170.9033277     
  -44556819.2362630     
  -57769189.1312942     
  -56294223.5381638     
  -54507881.8680868     
  -52774271.9999106     
  -51230948.4659430     
  -49868199.3922856     
  -48657846.5089856     
  -47569125.7206329     
  -46573853.3555509     
  -45646649.6676801     
  -44764512.4350146     
  -43907740.7292627     
  -43063670.4645717     
  -42265915.9318474     
  -41607280.8508021     
  -58006615.1135623     
  -55403198.1334685     
  -52747062.5205534     
  -50622079.6696045     
  -48875301.3366311     
  -47405522.7223816     
  -46137282.1206937     
  -45015665.9541703     
  -43997797.3718708     
  -43047195.7084852     
  -42129265.9060492     
  -41206787.8589265     
  -40236939.0422687     
  -39159230.9613677     
  -38119009.4826377     
  -56436586.4146706     
  -51730936.7858291     
  -48813736.1051414     
  -46686271.1366207     
  -45021560.3215137     
  -43655287.0442943     
  -42492466.9864481     
  -41470498.1699455     
  -40543064.5561045     
  -39671085.7852633     
  -38815939.5805131     
  -37931795.5986172     
  -36951572.8459549     
  -35756021.0187124     
  -33976967.2265419     
SCALARS 2waySource double 
LOOKUP_TABLE default
  2.573828338363745E-002
  5.510611704170930E-003
  2.163112134468932E-002
  2.675855955490475E-002
  2.995226550965297E-002
  3.222264033793891E-002
  3.401274759811289E-002
  3.548919931019032E-002
  3.674187211674355E-002
  3.782400034540032E-002
  3.876967587036172E-002
  3.959930723017425E-002
  4.031912912341645E-002
  4.091654993741160E-002
  4.129681525916128E-002
  4.204459917073314E-002
  3.069892627815859E-002
  2.607445402903658E-002
  2.939225270570328E-002
  3.172001214178886E-002
  3.367946397195340E-002
  3.531160904484865E-002
  3.670295422676483E-002
  3.790538577141733E-002
  3.895806330775398E-002
  3.988999453245619E-002
  4.072181263277185E-002
  4.146552968367637E-002
  4.211825962535568E-002
  4.267242741049831E-002
  3.768648360829036E-002
  3.343462507982846E-002
  3.117548675339905E-002
  3.165836830620368E-002
  3.336007653071588E-002
  3.496730527887174E-002
  3.642532990183361E-002
  3.771454022628920E-002
  3.885531601665965E-002
  3.987176328796528E-002
  4.078782352824586E-002
  4.162476393997920E-002
  4.239987590495951E-002
  4.312805973357416E-002
  4.382692822744219E-002
  3.334360800212829E-002
  3.336106861950785E-002
  3.297731943949872E-002
  3.346554707317582E-002
  3.461316054923154E-002
  3.597412188512330E-002
  3.727423535464037E-002
  3.846545650350008E-002
  3.954209672816680E-002
  4.051854943741209E-002
  4.141511595005055E-002
  4.225379423649193E-002
  4.305696350535485E-002
  4.384835101509135E-002
  4.465869582381138E-002
  3.072897480396203E-002
  3.240925508002020E-002
  3.335977849221268E-002
  3.428407414876423E-002
  3.540031549143031E-002
  3.661119172111843E-002
  3.780069305111487E-002
  3.890770003619231E-002
  3.992329212289580E-002
  4.085758052071078E-002
  4.172980335902593E-002
  4.256320384485079E-002
  4.338352887650163E-002
  4.421985422010190E-002
  4.510699548444970E-002
  2.897943927356113E-002
  3.138738067403151E-002
  3.306895916239982E-002
  3.441724798744432E-002
  3.565494911455799E-002
  3.684230546247512E-002
  3.796503044276911E-002
  3.900655715896986E-002
  3.996590910579682E-002
  4.085630090903373E-002
  4.169838872172092E-002
  4.251720137875413E-002
  4.334096006151954E-002
  4.420140917730357E-002
  4.513501330137631E-002
  2.765195457059955E-002
  3.039535724735395E-002
  3.246073549787871E-002
  3.408699270885710E-002
  3.545471480347140E-002
  3.666210747494014E-002
  3.775120594599760E-002
  3.874094464452479E-002
  3.964775051295509E-002
  4.049167576411915E-002
  4.129685418381782E-002
  4.209052777115626E-002
  4.290272332449318E-002
  4.376656546702506E-002
  4.471897923523495E-002
  2.653939451845417E-002
  2.941765839820323E-002
  3.165828807221101E-002
  3.343017609472462E-002
  3.487670471651721E-002
  3.609915319291789E-002
  3.716127261431849E-002
  3.810390118460150E-002
  3.895773257882018E-002
  3.975071753632403E-002
  4.051104819034618E-002
  4.126821701505859E-002
  4.205352496774656E-002
  4.290063475582787E-002
  4.384620314253912E-002
  2.554551423859679E-002
  2.842648640233179E-002
  3.070541318914767E-002
  3.251670977512508E-002
  3.397925964620718E-002
  3.518736896622827E-002
  3.621069280896910E-002
  3.710020105696042E-002
  3.789549707812845E-002
  3.863045728753085E-002
  3.933668550569994E-002
  4.004539789345222E-002
  4.078853998976082E-002
  4.159960054419468E-002
  4.251431322409701E-002
  2.462372106635931E-002
  2.740374178802606E-002
  2.961908348217973E-002
  3.138466037739036E-002
  3.280268100534443E-002
  3.395869754378211E-002
  3.492109004678713E-002
  3.574375852475545E-002
  3.647021993301699E-002
  3.713750431997323E-002
  3.777910518937597E-002
  3.842698710110182E-002
  3.911293524206612E-002
  3.986953082298141E-002
  4.073092355622736E-002
  2.375171175549106E-002
  2.634102175631735E-002
  2.840972996957647E-002
  3.005876365991390E-002
  3.137747472654892E-002
  3.244245786414779E-002
  3.331753801065849E-002
  3.405526575241540E-002
  3.469936428056423E-002
  3.528735507494655E-002
  3.585284830630768E-002
  3.642732614577034E-002
  3.704147312494604E-002
  3.772617979656639E-002
  3.851333398597345E-002
  2.291956039303667E-002
  2.523739229124010E-002
  2.708804313536139E-002
  2.855979876146393E-002
  2.973043279916170E-002
  3.066735706072842E-002
  3.142803487327546E-002
  3.206104104471937E-002
  3.260765877060962E-002
  3.310368571462255E-002
  3.358114884994690E-002
  3.406976689455629E-002
  3.459812818547931E-002
  3.519462450699002E-002
  3.588820219999839E-002
  2.212379733405281E-002
  2.409721080163143E-002
  2.566712926622933E-002
  2.690877118964519E-002
  2.788828404516821E-002
  2.866336690617943E-002
  2.928385742517731E-002
  2.979257244085682E-002
  3.022643070774896E-002
  3.061772969199068E-002
  3.099541571063010E-002
  3.138623188270396E-002
  3.181569471525458E-002
  3.230890129914193E-002
  3.289119557556663E-002
  2.136419382156102E-002
  2.292842563197989E-002
  2.416282724331485E-002
  2.512854642848562E-002
  2.587948363102906E-002
  2.646289688201046E-002
  2.691994332509662E-002
  2.728633514531854E-002
  2.759315253812144E-002
  2.786776097945405E-002
  2.813474444446773E-002
  2.841677801569787E-002
  2.873539657124057E-002
  2.911164939603225E-002
  2.956665302521304E-002
  2.064189524845241E-002
  2.174122456560681E-002
  2.259328604267271E-002
  2.324418790038802E-002
  2.373483740591281E-002
  2.410127458038806E-002
  2.437503564973305E-002
  2.458362085971220E-002
  2.475107654089368E-002
  2.489865248253564E-002
  2.504547597799218E-002
  2.520919015700031E-002
  2.540652453283938E-002
  2.565378801827226E-002
  2.596729168487013E-002
  1.995828084966393E-002
  2.054693067208358E-002
  2.097824092949080E-002
  2.128265251095928E-002
  2.148745042537677E-002
  2.161673763548571E-002
  2.169157979804704E-002
  2.173030230262357E-002
  2.174889826095619E-002
  2.176149336297244E-002
  2.178081568920138E-002
  2.181863242396276E-002
  2.188613399330855E-002
  2.199426309971315E-002
  2.215399785843933E-002
  1.931425768552895E-002
  1.935709372809676E-002
  1.933820810874463E-002
  1.927220898530257E-002
  1.917234646099326E-002
  1.905016542006188E-002
  1.891548123133129E-002
  1.877656873082803E-002
  1.864046174349483E-002
  1.851328116389586E-002
  1.840053850308242E-002
  1.830739036515597E-002
  1.823884138428576E-002
  1.819990653089843E-002
  1.819574906987740E-002
  1.870984252211487E-002
  1.818276599635919E-002
  1.769373715725999E-002
  1.724182115260382E-002
  1.682602363043060E-002
  1.644477564017277E-002
  1.609588444920468E-002
  1.577673610110058E-002
  1.548457349181432E-002
  1.521673715669425E-002
  1.497082103932517E-002
  1.474474379018680E-002
  1.453676167296940E-002
  1.434545593881899E-002
  1.416972278002547E-002
  1.814394875921042E-002
  1.703397051991631E-002
  1.606483329295005E-002
  1.522069268867822E-002
  1.448618378244326E-002
  1.384601848934752E-002
  1.328516984032037E-002
  1.278928124752827E-002
  1.234503109119284E-002
  1.194031826385395E-002
  1.156425374060731E-002
  1.120701362894154E-002
  1.085962994079390E-002
  1.051378517757433E-002
  1.016165464401775E-002
  1.761431793875529E-002
  1.591937738652763E-002
  1.447066206916900E-002
  1.323817716164607E-002
  1.219189732489082E-002
  1.130194180723416E-002
  1.053941342817344E-002
  9.877293871068353E-003
  9.291004756289195E-003
  8.758516847943298E-003
  8.260091816567384E-003
  7.777824720255144E-003
  7.295146276675126E-003
  6.796394286119747E-003
  6.266514052099118E-003
  1.711753596714937E-002
  1.484621122039892E-002
  1.292968565969438E-002
  1.132432957034908E-002
  9.984562001372497E-003
  8.864401014538226E-003
  7.919639571525628E-003
  7.109600462603395E-003
  6.397945419924694E-003
  5.752555055970120E-003
  5.144805749928994E-003
  4.548621158455213E-003
  3.939576264804516E-003
  3.294204355092408E-003
  2.589569458266276E-003
  1.664906337165722E-002
  1.382044139002419E-002
  1.146049225301145E-002
  9.511568158394639E-003
  7.910240859005964E-003
  6.591692455318546E-003
  5.494347337347797E-003
  4.562908098275975E-003
  3.749243724484461E-003
  3.011603508775556E-003
  2.312999099242515E-003
  1.619468820015853E-003
  8.986352852429024E-004
  1.187029926243291E-004
 -7.520716742015211E-004
  1.620318989378360E-002
  1.284739952166178E-002
  1.008386886320764E-002
  7.838368508961002E-003
  6.024444428829573E-003
  4.553574499506654E-003
  3.344044582082947E-003
  2.325465717228111E-003
  1.438955118365745E-003
  6.347139279125916E-004
 -1.312012513854584E-004
 -8.997977064906671E-004
 -1.711303427486348E-003
 -2.606497555458341E-003
 -3.627329357547057E-003
  1.577281923983352E-002
  1.193321987639180E-002
  8.827421518478795E-003
  6.356965422682145E-003
  4.401412120188249E-003
  2.840325450249167E-003
  1.568918779980126E-003
  5.029926987110251E-004
 -4.238875151281711E-004
 -1.266165063106044E-003
 -2.072030600222363E-003
 -2.887935158272185E-003
 -3.761571029355671E-003
 -4.743581519457890E-003
 -5.888220880191593E-003
  1.534889083233087E-002
  1.108833614206482E-002
  7.736042583235001E-003
  5.149615289429337E-003
  3.151955630879180E-003
  1.578583916000533E-003
  3.013814386276804E-004
 -7.718741772721294E-004
 -1.708284079351888E-003
 -2.561147492631771E-003
 -3.378567271357367E-003
 -4.209678835259207E-003
 -5.108878402319203E-003
 -6.137670905009955E-003
 -7.365784116341971E-003
  1.491969318762769E-002
  1.033642782535467E-002
  6.897941778765462E-003
  4.364399020354393E-003
  2.457682492319656E-003
  9.583967705165234E-004
 -2.738116084467039E-004
 -1.323881434688587E-003
 -2.248777222846754E-003
 -3.092797590353941E-003
 -3.897681533787019E-003
 -4.710946779494450E-003
 -5.591349539534555E-003
 -6.612827608857501E-003
 -7.864115658655794E-003
  1.446650315473545E-002
  9.745396492154577E-003
  6.516157824446995E-003
  4.297928057403410E-003
  2.636107914397082E-003
  1.277274394660012E-003
  1.151572571632450E-004
 -9.056223241911037E-004
 -1.819575341519559E-003
 -2.654218219279373E-003
 -3.437779497676766E-003
 -4.207043887324166E-003
 -5.021526289955201E-003
 -5.964726210880200E-003
 -7.152062157954032E-003
  1.397643071776860E-002
  9.539422527711963E-003
  7.143962501713122E-003
  5.591475598096385E-003
  4.247736367401581E-003
  3.025168620807189E-003
  1.901445697182297E-003
  8.709419199013613E-004
 -7.148261080398941E-005
 -9.325555751968752E-004
 -1.721573405987506E-003
 -2.454039566778972E-003
 -3.162754964218399E-003
 -3.952416465661432E-003
 -4.947472713912628E-003
  1.337849256297839E-002
  1.092699085832927E-002
  1.051380873359275E-002
  9.549243674837657E-003
  8.372397245018400E-003
  7.129990084117531E-003
  5.905697636723826E-003
  4.740228815870553E-003
  3.653893259192979E-003
  2.657682760413003E-003
  1.760153019276879E-003
  9.721491102037028E-004
  3.073872009577820E-004
 -2.293187802975365E-004
 -9.233421045772567E-004
  1.879189599923999E-002
  2.215248595719751E-002
  2.157413493227754E-002
  2.000811080495831E-002
  1.815467489583474E-002
  1.625951609048673E-002
  1.442429562688963E-002
  1.269373511518019E-002
  1.108816820617098E-002
  9.618864349543550E-003
  8.297581770554962E-003
  7.145924852125030E-003
  6.209518471831977E-003
  5.593802883191473E-003
  5.481167347185307E-003
SCALARS elementIsPlast double 
LOOKUP_TABLE default
   1.00000000000000     
   1.00000000000000     
  0.000000000000000E+000
  0.000000000000000E+000
  0.000000000000000E+000
  0.000000000000000E+000
  0.000000000000000E+000
  0.000000000000000E+000
  0.000000000000000E+000
  0.000000000000000E+000
  0.000000000000000E+000
  0.000000000000000E+000
  0.000000000000000E+000
  0.000000000000000E+000
  0.000000000000000E+000
   1.00000000000000     
  0.000000000000000E+000
  0.000000000000000E+000
  0.000000000000000E+000
  0.000000000000000E+000
  0.000000000000000E+000
  0.000000000000000E+000
  0.000000000000000E+000
  0.000000000000000E+000
  0.000000000000000E+000
  0.000000000000000E+000
  0.000000000000000E+000
  0.000000000000000E+000
  0.000000000000000E+000
  0.000000000000000E+000
  0.000000000000000E+000
  0.000000000000000E+000
  0.000000000000000E+000
  0.000000000000000E+000
  0.000000000000000E+000
  0.000000000000000E+000
  0.000000000000000E+000
  0.000000000000000E+000
  0.000000000000000E+000
  0.000000000000000E+000
  0.000000000000000E+000
  0.000000000000000E+000
  0.000000000000000E+000
  0.000000000000000E+000
  0.000000000000000E+000
  0.000000000000000E+000
  0.000000000000000E+000
  0.000000000000000E+000
  0.000000000000000E+000
  0.000000000000000E+000
  0.000000000000000E+000
  0.000000000000000E+000
  0.000000000000000E+000
  0.000000000000000E+000
  0.000000000000000E+000
  0.000000000000000E+000
  0.000000000000000E+000
  0.000000000000000E+000
  0.000000000000000E+000
  0.000000000000000E+000
  0.000000000000000E+000
  0.000000000000000E+000
  0.000000000000000E+000
  0.000000000000000E+000
  0.000000000000000E+000
  0.000000000000000E+000
  0.000000000000000E+000
  0.000000000000000E+000
  0.000000000000000E+000
  0.000000000000000E+000
  0.000000000000000E+000
  0.000000000000000E+000
  0.000000000000000E+000
  0.000000000000000E+000
  0.000000000000000E+000
  0.000000000000000E+000
  0.000000000000000E+000
  0.000000000000000E+000
  0.000000000000000E+000
  0.000000000000000E+000
  0.000000000000000E+000
  0.000000000000000E+000
  0.000000000000000E+000
  0.000000000000000E+000
  0.000000000000000E+000
  0.000000000000000E+000
  0.000000000000000E+000
  0.000000000000000E+000
  0.000000000000000E+000
  0.000000000000000E+000
  0.000000000000000E+000
  0.000000000000000E+000
  0.000000000000000E+000
  0.000000000000000E+000
  0.000000000000000E+000
  0.000000000000000E+000
  0.000000000000000E+000
  0.000000000000000E+000
  0.000000000000000E+000
  0.000000000000000E+000
  0.000000000000000E+000
  0.000000000000000E+000
  0.000000000000000E+000
  0.000000000000000E+000
  0.000000000000000E+000
  0.000000000000000E+000
  0.000000000000000E+000
  0.000000000000000E+000
  0.000000000000000E+000
  0.000000000000000E+000
  0.000000000000000E+000
  0.000000000000000E+000
  0.000000000000000E+000
  0.000000000000000E+000
  0.000000000000000E+000
  0.000000000000000E+000
  0.000000000000000E+000
  0.000000000000000E+000
  0.000000000000000E+000
  0.000000000000000E+000
  0.000000000000000E+000
  0.000000000000000E+000
  0.000000000000000E+000
  0.000000000000000E+000
  0.000000000000000E+000
  0.000000000000000E+000
  0.000000000000000E+000
  0.000000000000000E+000
  0.000000000000000E+000
  0.000000000000000E+000
  0.000000000000000E+000
  0.000000000000000E+000
  0.000000000000000E+000
  0.000000000000000E+000
  0.000000000000000E+000
  0.000000000000000E+000
  0.000000000000000E+000
  0.000000000000000E+000
  0.000000000000000E+000
  0.000000000000000E+000
  0.000000000000000E+000
  0.000000000000000E+000
  0.000000000000000E+000
  0.000000000000000E+000
  0.000000000000000E+000
  0.000000000000000E+000
  0.000000000000000E+000
  0.000000000000000E+000
  0.000000000000000E+000
  0.000000000000000E+000
  0.000000000000000E+000
  0.000000000000000E+000
  0.000000000000000E+000
  0.000000000000000E+000
  0.000000000000000E+000
  0.000000000000000E+000
  0.000000000000000E+000
  0.000000000000000E+000
  0.000000000000000E+000
  0.000000000000000E+000
  0.000000000000000E+000
  0.000000000000000E+000
  0.000000000000000E+000
  0.000000000000000E+000
  0.000000000000000E+000
  0.000000000000000E+000
  0.000000000000000E+000
  0.000000000000000E+000
  0.000000000000000E+000
  0.000000000000000E+000
  0.000000000000000E+000
  0.000000000000000E+000
  0.000000000000000E+000
  0.000000000000000E+000
  0.000000000000000E+000
  0.000000000000000E+000
  0.000000000000000E+000
  0.000000000000000E+000
  0.000000000000000E+000
  0.000000000000000E+000
  0.000000000000000E+000
  0.000000000000000E+000
  0.000000000000000E+000
  0.000000000000000E+000
  0.000000000000000E+000
  0.000000000000000E+000
  0.000000000000000E+000
  0.000000000000000E+000
  0.000000000000000E+000
  0.000000000000000E+000
  0.000000000000000E+000
  0.000000000000000E+000
  0.000000000000000E+000
  0.000000000000000E+000
  0.000000000000000E+000
  0.000000000000000E+000
  0.000000000000000E+000
  0.000000000000000E+000
  0.000000000000000E+000
  0.000000000000000E+000
  0.000000000000000E+000
  0.000000000000000E+000
  0.000000000000000E+000
  0.000000000000000E+000
  0.000000000000000E+000
  0.000000000000000E+000
  0.000000000000000E+000
  0.000000000000000E+000
  0.000000000000000E+000
  0.000000000000000E+000
  0.000000000000000E+000
  0.000000000000000E+000
  0.000000000000000E+000
  0.000000000000000E+000
  0.000000000000000E+000
  0.000000000000000E+000
  0.000000000000000E+000
  0.000000000000000E+000
  0.000000000000000E+000
  0.000000000000000E+000
  0.000000000000000E+000
  0.000000000000000E+000
  0.000000000000000E+000
  0.000000000000000E+000
  0.000000000000000E+000
  0.000000000000000E+000
  0.000000000000000E+000
  0.000000000000000E+000
  0.000000000000000E+000
  0.000000000000000E+000
  0.000000000000000E+000
  0.000000000000000E+000
  0.000000000000000E+000
  0.000000000000000E+000
  0.000000000000000E+000
  0.000000000000000E+000
  0.000000000000000E+000
  0.000000000000000E+000
  0.000000000000000E+000
  0.000000000000000E+000
  0.000000000000000E+000
  0.000000000000000E+000
  0.000000000000000E+000
  0.000000000000000E+000
  0.000000000000000E+000
  0.000000000000000E+000
  0.000000000000000E+000
  0.000000000000000E+000
  0.000000000000000E+000
  0.000000000000000E+000
  0.000000000000000E+000
  0.000000000000000E+000
  0.000000000000000E+000
  0.000000000000000E+000
  0.000000000000000E+000
  0.000000000000000E+000
  0.000000000000000E+000
  0.000000000000000E+000
  0.000000000000000E+000
  0.000000000000000E+000
  0.000000000000000E+000
  0.000000000000000E+000
  0.000000000000000E+000
  0.000000000000000E+000
  0.000000000000000E+000
  0.000000000000000E+000
  0.000000000000000E+000
  0.000000000000000E+000
  0.000000000000000E+000
  0.000000000000000E+000
  0.000000000000000E+000
  0.000000000000000E+000
  0.000000000000000E+000
  0.000000000000000E+000
  0.000000000000000E+000
  0.000000000000000E+000
  0.000000000000000E+000
  0.000000000000000E+000
  0.000000000000000E+000
  0.000000000000000E+000
  0.000000000000000E+000
  0.000000000000000E+000
  0.000000000000000E+000
  0.000000000000000E+000
  0.000000000000000E+000
  0.000000000000000E+000
  0.000000000000000E+000
  0.000000000000000E+000
  0.000000000000000E+000
  0.000000000000000E+000
  0.000000000000000E+000
  0.000000000000000E+000
  0.000000000000000E+000
  0.000000000000000E+000
  0.000000000000000E+000
  0.000000000000000E+000
  0.000000000000000E+000
  0.000000000000000E+000
  0.000000000000000E+000
  0.000000000000000E+000
  0.000000000000000E+000
  0.000000000000000E+000
  0.000000000000000E+000
  0.000000000000000E+000
  0.000000000000000E+000
  0.000000000000000E+000
  0.000000000000000E+000
  0.000000000000000E+000
  0.000000000000000E+000
  0.000000000000000E+000
  0.000000000000000E+000
  0.000000000000000E+000
  0.000000000000000E+000
  0.000000000000000E+000
  0.000000000000000E+000
  0.000000000000000E+000
  0.000000000000000E+000
  0.000000000000000E+000
  0.000000000000000E+000
  0.000000000000000E+000
  0.000000000000000E+000
  0.000000000000000E+000
  0.000000000000000E+000
  0.000000000000000E+000
  0.000000000000000E+000
  0.000000000000000E+000
  0.000000000000000E+000
  0.000000000000000E+000
  0.000000000000000E+000
  0.000000000000000E+000
  0.000000000000000E+000
  0.000000000000000E+000
  0.000000000000000E+000
  0.000000000000000E+000
  0.000000000000000E+000
  0.000000000000000E+000
  0.000000000000000E+000
  0.000000000000000E+000
  0.000000000000000E+000
  0.000000000000000E+000
  0.000000000000000E+000
  0.000000000000000E+000
  0.000000000000000E+000
  0.000000000000000E+000
  0.000000000000000E+000
  0.000000000000000E+000
  0.000000000000000E+000
  0.000000000000000E+000
  0.000000000000000E+000
  0.000000000000000E+000
  0.000000000000000E+000
  0.000000000000000E+000
  0.000000000000000E+000
  0.000000000000000E+000
  0.000000000000000E+000
  0.000000000000000E+000
  0.000000000000000E+000
  0.000000000000000E+000
  0.000000000000000E+000
  0.000000000000000E+000
  0.000000000000000E+000
  0.000000000000000E+000
  0.000000000000000E+000
  0.000000000000000E+000
  0.000000000000000E+000
  0.000000000000000E+000
  0.000000000000000E+000
  0.000000000000000E+000
  0.000000000000000E+000
  0.000000000000000E+000
  0.000000000000000E+000
  0.000000000000000E+000
  0.000000000000000E+000
  0.000000000000000E+000
  0.000000000000000E+000
  0.000000000000000E+000
  0.000000000000000E+000
  0.000000000000000E+000
  0.000000000000000E+000
  0.000000000000000E+000
  0.000000000000000E+000
  0.000000000000000E+000
  0.000000000000000E+000
  0.000000000000000E+000
  0.000000000000000E+000
  0.000000000000000E+000
  0.000000000000000E+000
  0.000000000000000E+000
  0.000000000000000E+000
  0.000000000000000E+000
  0.000000000000000E+000
  0.000000000000000E+000
  0.000000000000000E+000
  0.000000000000000E+000
  0.000000000000000E+000
  0.000000000000000E+000
  0.000000000000000E+000
  0.000000000000000E+000
  0.000000000000000E+000
  0.000000000000000E+000
  0.000000000000000E+000
  0.000000000000000E+000
  0.000000000000000E+000
  0.000000000000000E+000
  0.000000000000000E+000
  0.000000000000000E+000
  0.000000000000000E+000
  0.000000000000000E+000
  0.000000000000000E+000
  0.000000000000000E+000
  0.000000000000000E+000
  0.000000000000000E+000
  0.000000000000000E+000
  0.000000000000000E+000
  0.000000000000000E+000
  0.000000000000000E+000
  0.000000000000000E+000
  0.000000000000000E+000
  0.000000000000000E+000
  0.000000000000000E+000
  0.000000000000000E+000
  0.000000000000000E+000
  0.000000000000000E+000
  0.000000000000000E+000
  0.000000000000000E+000
  0.000000000000000E+000
  0.000000000000000E+000
  0.000000000000000E+000
  0.000000000000000E+000
  0.000000000000000E+000
  0.000000000000000E+000
  0.000000000000000E+000
  0.000000000000000E+000
  0.000000000000000E+000
  0.000000000000000E+000
  0.000000000000000E+000
  0.000000000000000E+000
  0.000000000000000E+000
  0.000000000000000E+000
  0.000000000000000E+000
  0.000000000000000E+000
  0.000000000000000E+000
  0.000000000000000E+000
  0.000000000000000E+000
  0.000000000000000E+000
  0.000000000000000E+000
  0.000000000000000E+000
  0.000000000000000E+000
  0.000000000000000E+000
  0.000000000000000E+000
SCALARS poroL double 
LOOKUP_TABLE default
  0.330770575477507     
  0.321574819001079     
  0.316331088214040     
  0.312481388454554     
  0.309285232625134     
  0.306525815146546     
  0.304082811359568     
  0.301877704598439     
  0.299850876018643     
  0.297950961781663     
  0.296127296346602     
  0.294321710286291     
  0.292453743698256     
  0.290389924290903     
  0.287736346494078     
  0.320049443986271     
  0.316635081892847     
  0.312788702869395     
  0.309215745081563     
  0.306131058096928     
  0.303416471433889     
  0.300991165644495     
  0.298791437516766     
  0.296765584979644     
  0.294867804466326     
  0.293053466973511     
  0.291273993030516     
  0.289472359541927     
  0.287566583961266     
  0.285639368384565     
  0.315240567666468     
  0.311885366618159     
  0.308631896973353     
  0.305504913205748     
  0.302632937730053     
  0.300040850294244     
  0.297691191674862     
  0.295543764588044     
  0.293560226520435     
  0.291704927781637     
  0.289943907544907     
  0.288244761903102     
  0.286578043994036     
  0.284949353731694     
  0.283406904757395     
  0.310303743120390     
  0.307229144985465     
  0.304288353690288     
  0.301488495931990     
  0.298861822307008     
  0.296433484501911     
  0.294199944752499     
  0.292141160420978     
  0.290233266400221     
  0.288452295716638     
  0.286776346346407     
  0.285188043578007     
  0.283682386251195     
  0.282274341023776     
  0.281009570677331     
  0.305187916260484     
  0.302462845486174     
  0.299818376480452     
  0.297284350094011     
  0.294884043205326     
  0.292633841325120     
  0.290538738169753     
  0.288592730556084     
  0.286783874728645     
  0.285098887505780     
  0.283526319590235     
  0.282060257848743     
  0.280704519659502     
  0.279477599757959     
  0.278414404414104     
  0.300005595106121     
  0.297600693547811     
  0.295233477727046     
  0.292941280471278     
  0.290749840461137     
  0.288675992563500     
  0.286728302330227     
  0.284908150088550     
  0.283212143867543     
  0.281635225846459     
  0.280173751531642     
  0.278828415668328     
  0.277607173660586     
  0.276527341959928     
  0.275616125951547     
  0.294813200878908     
  0.292681614545112     
  0.290560773809092     
  0.288488009585768     
  0.286490196871680     
  0.284585679566688     
  0.282785762033729     
  0.281096184803983     
  0.279518988368393     
  0.278054734713502     
  0.276704834732871     
  0.275473763034851     
  0.274370886785868     
  0.273411572384608     
  0.272617055665073     
  0.289636593238238     
  0.287731778444902     
  0.285823505643539     
  0.283946075275558     
  0.282125466271193     
  0.280380437394059     
  0.278723807409757     
  0.277163840790833     
  0.275705795158625     
  0.274353616830129     
  0.273111665652200     
  0.271986284211282     
  0.270986998613397     
  0.270127097581094     
  0.269423376988063     
  0.284483916360844     
  0.282763869715822     
  0.281035597915854     
  0.279329265783781     
  0.277668571376213     
  0.276071401537335     
  0.274550782569548     
  0.273116008226138     
  0.271773887423626     
  0.270530055444579     
  0.269390255025345     
  0.268361456137892     
  0.267452658348017     
  0.266675222704930     
  0.266042614344254     
  0.279351500095404     
  0.277779472844138     
  0.276201645106971     
  0.274643570637159     
  0.273125788149450     
  0.271664258106763     
  0.270271063185589     
  0.268955283490181     
  0.267723974018577     
  0.266583174847042     
  0.265538872696087     
  0.264597816073252     
  0.263768078185137     
  0.263059269890611     
  0.262482336309437     
  0.274226403270273     
  0.272770999761228     
  0.271317885024472     
  0.269887709804845     
  0.268497242056559     
  0.267159699344566     
  0.265885280587912     
  0.264681840580919     
  0.263555647183228     
  0.262512159131035     
  0.261556757499792     
  0.260695358573219     
  0.259934835495624     
  0.259283185885090     
  0.258749404545990     
  0.269087616107361     
  0.267722894414916     
  0.266373112953639     
  0.265053758832881     
  0.263777351862565     
  0.262553722819776     
  0.261390432506430     
  0.260293296893531     
  0.259266974895407     
  0.258315570978222     
  0.257443202152991     
  0.256654477847463     
  0.255954843613506     
  0.255350747653685     
  0.254849603598453     
  0.263906667244910     
  0.262612367312533     
  0.261349351719027     
  0.260127675399661     
  0.258955203208943     
  0.257837854053288     
  0.256779941143240     
  0.255784586597142     
  0.254854180861152     
  0.253990853909870     
  0.253196924159963     
  0.252475291699727     
  0.251829745053795     
  0.251265155889030     
  0.250787543972552     
  0.258647950500659     
  0.257409841309265     
  0.256222304230954     
  0.255089684306608     
  0.254014828755833     
  0.252999303900160     
  0.252043676458971     
  0.251147843624189     
  0.250311392475142     
  0.249533968989116     
  0.248815638323972     
  0.248157219940590     
  0.247560583009469     
  0.247028889428581     
  0.246566773752918     
  0.253268896024985     
  0.252079208739582     
  0.250961632148314     
  0.249914524311725     
  0.248935386117778     
  0.248021054655626     
  0.247167938252595     
  0.246372277960686     
  0.245630422626269     
  0.244939109876039     
  0.244295750701674     
  0.243698718931495     
  0.243147647857429     
  0.242643734591585     
  0.242190048763722     
  0.247720019735422     
  0.246577935967098     
  0.245531081422187     
  0.244571559911406     
  0.243691225581263     
  0.242881860830594     
  0.242135376657123     
  0.241444014417628     
  0.240800539821553     
  0.240198433785843     
  0.239632096207046     
  0.239097084998889     
  0.238590412835823     
  0.238110918222291     
  0.237659716908919     
  0.241944825398001     
  0.240857001184830     
  0.239888443426217     
  0.239024744607823     
  0.238251829868948     
  0.237556141090642     
  0.236924819223281     
  0.236345850498132     
  0.235808169161691     
  0.235301736506154     
  0.234817636440488     
  0.234348237974541     
  0.233887473891256     
  0.233431273700222     
  0.232978170047848     
  0.235879477082750     
  0.234860602518366     
  0.233985304703757     
  0.233232398881077     
  0.232581592814339     
  0.232013725355663     
  0.231510959864610     
  0.231056875442481     
  0.230636450833941     
  0.230235983402997     
  0.229843018836395     
  0.229446382007050     
  0.229036396023781     
  0.228605357572155     
  0.228148306317675     
  0.229452087345006     
  0.228525515225344     
  0.227766496151626     
  0.227146737713703     
  0.226639384245312     
  0.226219404751425     
  0.225863847616997     
  0.225551871951120     
  0.225264558481832     
  0.224984581048656     
  0.224695869273294     
  0.224383411779022     
  0.224033340935777     
  0.223633409834755     
  0.223173925355998     
  0.222581359313064     
  0.221779896190804     
  0.221169097275311     
  0.220713046597941     
  0.220377823059798     
  0.220132209043331     
  0.219948086552293     
  0.219800389125924     
  0.219666640098783     
  0.219526228674057     
  0.219359641171601     
  0.219147882273236     
  0.218872303396537     
  0.218515009422910     
  0.218059945707365     
  0.215174149551271     
  0.214541211478928     
  0.214120771656540     
  0.213868355045774     
  0.213742143339411     
  0.213704298128860     
  0.213721611411982     
  0.213765317468775     
  0.213810176242314     
  0.213833112531196     
  0.213811762242045     
  0.213723277100499     
  0.213543705554331     
  0.213248210313759     
  0.212812283998069     
  0.207121228308975     
  0.206712761148469     
  0.206537085375010     
  0.206539378360560     
  0.206668474019756     
  0.206879280021415     
  0.207133811135469     
  0.207400688145286     
  0.207653430022616     
  0.207868076324387     
  0.208020682639230     
  0.208085169954393     
  0.208031967438221     
  0.207827836257696     
  0.207437163265789     
  0.198289980219349     
  0.198177921665448     
  0.198317244639485     
  0.198639361923310     
  0.199081221110602     
  0.199589603438209     
  0.200122573914263     
  0.200648201973708     
  0.201141442058529     
  0.201580176223972     
  0.201941190860267     
  0.202196630518587     
  0.202311438469192     
  0.202242428814657     
  0.201939509243538     
  0.188511750910070     
  0.188790519585252     
  0.189337301857309     
  0.190063184434332     
  0.190888936804427     
  0.191752279818261     
  0.192609369249901     
  0.193431543061762     
  0.194199607285213     
  0.194897625525538     
  0.195506954012972     
  0.196000770856632     
  0.196339643852195     
  0.196468987906206     
  0.196319921742715     
  0.177559081787809     
  0.178358375465181     
  0.179439010858155     
  0.180679480547778     
  0.181977286279243     
  0.183261141460647     
  0.184490416061365     
  0.185646545609803     
  0.186723047211123     
  0.187716429817169     
  0.188618440835814     
  0.189408513933001     
  0.190045852189466     
  0.190463956881311     
  0.190569345939420     
  0.165102923483217     
  0.166612960748854     
  0.168410989261516     
  0.170316944274503     
  0.172195281439663     
  0.173971233111805     
  0.175619157122623     
  0.177143141783714     
  0.178558352177061     
  0.179881468933993     
  0.181123122830602     
  0.182277641129053     
  0.183311289842855     
  0.184146931275443     
  0.184659980865283     
  0.150617219382788     
  0.153152232426739     
  0.155953016335611     
  0.158736175550582     
  0.161324956842658     
  0.163661432086171     
  0.165769075937840     
  0.167689859151133     
  0.169470067917671     
  0.171154111083480     
  0.172780808206885     
  0.174376945604264     
  0.175930721755323     
  0.177370857676445     
  0.178527861396444     
  0.133172392041632     
  0.137291271370019     
  0.141600264985407     
  0.145569681736670     
  0.148982945464486     
  0.151941610813541     
  0.154548253008522     
  0.156897537667895     
  0.159072576930272     
  0.161149958560292     
  0.163204801379601     
  0.165312042258298     
  0.167544238016429     
  0.169847861525870     
  0.172043808592482     
  0.110414765952282     
  0.117702513825067     
  0.124613632063982     
  0.129960304602067     
  0.134322259577734     
  0.137991998594611     
  0.141177800831880     
  0.144029122521890     
  0.146666012806406     
  0.149197043378640     
  0.151734928057507     
  0.154415447927145     
  0.157415421830670     
  0.161035282616645     
  0.164892492282413     
  7.291002693818338E-002
  9.121073251172215E-002
  0.101483774282735     
  0.108948802474498     
  0.114788976340255     
  0.119601964435821     
  0.123722357705862     
  0.127371729810197     
  0.130716929543938     
  0.133903538948750     
  0.137082143096057     
  0.140440240414977     
  0.144266256049980     
  0.149080725856621     
  0.156671678961905     
