# vtk DataFile Version 3.0
vtk output
ASCII
DATASET UNSTRUCTURED_GRID
POINTS       496 double 
  0.00000000E+00  3.00000000E+02  0.00000000E+00
  0.00000000E+00  2.80000000E+02  0.00000000E+00
  0.00000000E+00  2.60000000E+02  0.00000000E+00
  0.00000000E+00  2.40000000E+02  0.00000000E+00
  0.00000000E+00  2.20000000E+02  0.00000000E+00
  0.00000000E+00  2.00000000E+02  0.00000000E+00
  0.00000000E+00  1.80000000E+02  0.00000000E+00
  0.00000000E+00  1.60000000E+02  0.00000000E+00
  0.00000000E+00  1.40000000E+02  0.00000000E+00
  0.00000000E+00  1.20000000E+02  0.00000000E+00
  0.00000000E+00  1.00000000E+02  0.00000000E+00
  0.00000000E+00  8.00000000E+01  0.00000000E+00
  0.00000000E+00  6.00000000E+01  0.00000000E+00
  0.00000000E+00  4.00000000E+01  0.00000000E+00
  0.00000000E+00  2.00000000E+01  0.00000000E+00
  0.00000000E+00  4.99600361E-14  0.00000000E+00
  2.00000000E+01  3.00000000E+02  0.00000000E+00
  2.00000000E+01  2.80000000E+02  0.00000000E+00
  2.00000000E+01  2.60000000E+02  0.00000000E+00
  2.00000000E+01  2.40000000E+02  0.00000000E+00
  2.00000000E+01  2.20000000E+02  0.00000000E+00
  2.00000000E+01  2.00000000E+02  0.00000000E+00
  2.00000000E+01  1.80000000E+02  0.00000000E+00
  2.00000000E+01  1.60000000E+02  0.00000000E+00
  2.00000000E+01  1.40000000E+02  0.00000000E+00
  2.00000000E+01  1.20000000E+02  0.00000000E+00
  2.00000000E+01  1.00000000E+02  0.00000000E+00
  2.00000000E+01  8.00000000E+01  0.00000000E+00
  2.00000000E+01  6.00000000E+01  0.00000000E+00
  2.00000000E+01  4.00000000E+01  0.00000000E+00
  2.00000000E+01  2.00000000E+01  0.00000000E+00
  2.00000000E+01  4.99600361E-14  0.00000000E+00
  4.00000000E+01  3.00000000E+02  0.00000000E+00
  4.00000000E+01  2.80000000E+02  0.00000000E+00
  4.00000000E+01  2.60000000E+02  0.00000000E+00
  4.00000000E+01  2.40000000E+02  0.00000000E+00
  4.00000000E+01  2.20000000E+02  0.00000000E+00
  4.00000000E+01  2.00000000E+02  0.00000000E+00
  4.00000000E+01  1.80000000E+02  0.00000000E+00
  4.00000000E+01  1.60000000E+02  0.00000000E+00
  4.00000000E+01  1.40000000E+02  0.00000000E+00
  4.00000000E+01  1.20000000E+02  0.00000000E+00
  4.00000000E+01  1.00000000E+02  0.00000000E+00
  4.00000000E+01  8.00000000E+01  0.00000000E+00
  4.00000000E+01  6.00000000E+01  0.00000000E+00
  4.00000000E+01  4.00000000E+01  0.00000000E+00
  4.00000000E+01  2.00000000E+01  0.00000000E+00
  4.00000000E+01  4.99600361E-14  0.00000000E+00
  6.00000000E+01  3.00000000E+02  0.00000000E+00
  6.00000000E+01  2.80000000E+02  0.00000000E+00
  6.00000000E+01  2.60000000E+02  0.00000000E+00
  6.00000000E+01  2.40000000E+02  0.00000000E+00
  6.00000000E+01  2.20000000E+02  0.00000000E+00
  6.00000000E+01  2.00000000E+02  0.00000000E+00
  6.00000000E+01  1.80000000E+02  0.00000000E+00
  6.00000000E+01  1.60000000E+02  0.00000000E+00
  6.00000000E+01  1.40000000E+02  0.00000000E+00
  6.00000000E+01  1.20000000E+02  0.00000000E+00
  6.00000000E+01  1.00000000E+02  0.00000000E+00
  6.00000000E+01  8.00000000E+01  0.00000000E+00
  6.00000000E+01  6.00000000E+01  0.00000000E+00
  6.00000000E+01  4.00000000E+01  0.00000000E+00
  6.00000000E+01  2.00000000E+01  0.00000000E+00
  6.00000000E+01  4.99600361E-14  0.00000000E+00
  8.00000000E+01  3.00000000E+02  0.00000000E+00
  8.00000000E+01  2.80000000E+02  0.00000000E+00
  8.00000000E+01  2.60000000E+02  0.00000000E+00
  8.00000000E+01  2.40000000E+02  0.00000000E+00
  8.00000000E+01  2.20000000E+02  0.00000000E+00
  8.00000000E+01  2.00000000E+02  0.00000000E+00
  8.00000000E+01  1.80000000E+02  0.00000000E+00
  8.00000000E+01  1.60000000E+02  0.00000000E+00
  8.00000000E+01  1.40000000E+02  0.00000000E+00
  8.00000000E+01  1.20000000E+02  0.00000000E+00
  8.00000000E+01  1.00000000E+02  0.00000000E+00
  8.00000000E+01  8.00000000E+01  0.00000000E+00
  8.00000000E+01  6.00000000E+01  0.00000000E+00
  8.00000000E+01  4.00000000E+01  0.00000000E+00
  8.00000000E+01  2.00000000E+01  0.00000000E+00
  8.00000000E+01  4.99600361E-14  0.00000000E+00
  1.00000000E+02  3.00000000E+02  0.00000000E+00
  1.00000000E+02  2.80000000E+02  0.00000000E+00
  1.00000000E+02  2.60000000E+02  0.00000000E+00
  1.00000000E+02  2.40000000E+02  0.00000000E+00
  1.00000000E+02  2.20000000E+02  0.00000000E+00
  1.00000000E+02  2.00000000E+02  0.00000000E+00
  1.00000000E+02  1.80000000E+02  0.00000000E+00
  1.00000000E+02  1.60000000E+02  0.00000000E+00
  1.00000000E+02  1.40000000E+02  0.00000000E+00
  1.00000000E+02  1.20000000E+02  0.00000000E+00
  1.00000000E+02  1.00000000E+02  0.00000000E+00
  1.00000000E+02  8.00000000E+01  0.00000000E+00
  1.00000000E+02  6.00000000E+01  0.00000000E+00
  1.00000000E+02  4.00000000E+01  0.00000000E+00
  1.00000000E+02  2.00000000E+01  0.00000000E+00
  1.00000000E+02  4.99600361E-14  0.00000000E+00
  1.20000000E+02  3.00000000E+02  0.00000000E+00
  1.20000000E+02  2.80000000E+02  0.00000000E+00
  1.20000000E+02  2.60000000E+02  0.00000000E+00
  1.20000000E+02  2.40000000E+02  0.00000000E+00
  1.20000000E+02  2.20000000E+02  0.00000000E+00
  1.20000000E+02  2.00000000E+02  0.00000000E+00
  1.20000000E+02  1.80000000E+02  0.00000000E+00
  1.20000000E+02  1.60000000E+02  0.00000000E+00
  1.20000000E+02  1.40000000E+02  0.00000000E+00
  1.20000000E+02  1.20000000E+02  0.00000000E+00
  1.20000000E+02  1.00000000E+02  0.00000000E+00
  1.20000000E+02  8.00000000E+01  0.00000000E+00
  1.20000000E+02  6.00000000E+01  0.00000000E+00
  1.20000000E+02  4.00000000E+01  0.00000000E+00
  1.20000000E+02  2.00000000E+01  0.00000000E+00
  1.20000000E+02  4.99600361E-14  0.00000000E+00
  1.40000000E+02  3.00000000E+02  0.00000000E+00
  1.40000000E+02  2.80000000E+02  0.00000000E+00
  1.40000000E+02  2.60000000E+02  0.00000000E+00
  1.40000000E+02  2.40000000E+02  0.00000000E+00
  1.40000000E+02  2.20000000E+02  0.00000000E+00
  1.40000000E+02  2.00000000E+02  0.00000000E+00
  1.40000000E+02  1.80000000E+02  0.00000000E+00
  1.40000000E+02  1.60000000E+02  0.00000000E+00
  1.40000000E+02  1.40000000E+02  0.00000000E+00
  1.40000000E+02  1.20000000E+02  0.00000000E+00
  1.40000000E+02  1.00000000E+02  0.00000000E+00
  1.40000000E+02  8.00000000E+01  0.00000000E+00
  1.40000000E+02  6.00000000E+01  0.00000000E+00
  1.40000000E+02  4.00000000E+01  0.00000000E+00
  1.40000000E+02  2.00000000E+01  0.00000000E+00
  1.40000000E+02  4.99600361E-14  0.00000000E+00
  1.60000000E+02  3.00000000E+02  0.00000000E+00
  1.60000000E+02  2.80000000E+02  0.00000000E+00
  1.60000000E+02  2.60000000E+02  0.00000000E+00
  1.60000000E+02  2.40000000E+02  0.00000000E+00
  1.60000000E+02  2.20000000E+02  0.00000000E+00
  1.60000000E+02  2.00000000E+02  0.00000000E+00
  1.60000000E+02  1.80000000E+02  0.00000000E+00
  1.60000000E+02  1.60000000E+02  0.00000000E+00
  1.60000000E+02  1.40000000E+02  0.00000000E+00
  1.60000000E+02  1.20000000E+02  0.00000000E+00
  1.60000000E+02  1.00000000E+02  0.00000000E+00
  1.60000000E+02  8.00000000E+01  0.00000000E+00
  1.60000000E+02  6.00000000E+01  0.00000000E+00
  1.60000000E+02  4.00000000E+01  0.00000000E+00
  1.60000000E+02  2.00000000E+01  0.00000000E+00
  1.60000000E+02  4.99600361E-14  0.00000000E+00
  1.80000000E+02  3.00000000E+02  0.00000000E+00
  1.80000000E+02  2.80000000E+02  0.00000000E+00
  1.80000000E+02  2.60000000E+02  0.00000000E+00
  1.80000000E+02  2.40000000E+02  0.00000000E+00
  1.80000000E+02  2.20000000E+02  0.00000000E+00
  1.80000000E+02  2.00000000E+02  0.00000000E+00
  1.80000000E+02  1.80000000E+02  0.00000000E+00
  1.80000000E+02  1.60000000E+02  0.00000000E+00
  1.80000000E+02  1.40000000E+02  0.00000000E+00
  1.80000000E+02  1.20000000E+02  0.00000000E+00
  1.80000000E+02  1.00000000E+02  0.00000000E+00
  1.80000000E+02  8.00000000E+01  0.00000000E+00
  1.80000000E+02  6.00000000E+01  0.00000000E+00
  1.80000000E+02  4.00000000E+01  0.00000000E+00
  1.80000000E+02  2.00000000E+01  0.00000000E+00
  1.80000000E+02  4.99600361E-14  0.00000000E+00
  2.00000000E+02  3.00000000E+02  0.00000000E+00
  2.00000000E+02  2.80000000E+02  0.00000000E+00
  2.00000000E+02  2.60000000E+02  0.00000000E+00
  2.00000000E+02  2.40000000E+02  0.00000000E+00
  2.00000000E+02  2.20000000E+02  0.00000000E+00
  2.00000000E+02  2.00000000E+02  0.00000000E+00
  2.00000000E+02  1.80000000E+02  0.00000000E+00
  2.00000000E+02  1.60000000E+02  0.00000000E+00
  2.00000000E+02  1.40000000E+02  0.00000000E+00
  2.00000000E+02  1.20000000E+02  0.00000000E+00
  2.00000000E+02  1.00000000E+02  0.00000000E+00
  2.00000000E+02  8.00000000E+01  0.00000000E+00
  2.00000000E+02  6.00000000E+01  0.00000000E+00
  2.00000000E+02  4.00000000E+01  0.00000000E+00
  2.00000000E+02  2.00000000E+01  0.00000000E+00
  2.00000000E+02  4.99600361E-14  0.00000000E+00
  2.20000000E+02  3.00000000E+02  0.00000000E+00
  2.20000000E+02  2.80000000E+02  0.00000000E+00
  2.20000000E+02  2.60000000E+02  0.00000000E+00
  2.20000000E+02  2.40000000E+02  0.00000000E+00
  2.20000000E+02  2.20000000E+02  0.00000000E+00
  2.20000000E+02  2.00000000E+02  0.00000000E+00
  2.20000000E+02  1.80000000E+02  0.00000000E+00
  2.20000000E+02  1.60000000E+02  0.00000000E+00
  2.20000000E+02  1.40000000E+02  0.00000000E+00
  2.20000000E+02  1.20000000E+02  0.00000000E+00
  2.20000000E+02  1.00000000E+02  0.00000000E+00
  2.20000000E+02  8.00000000E+01  0.00000000E+00
  2.20000000E+02  6.00000000E+01  0.00000000E+00
  2.20000000E+02  4.00000000E+01  0.00000000E+00
  2.20000000E+02  2.00000000E+01  0.00000000E+00
  2.20000000E+02  4.99600361E-14  0.00000000E+00
  2.40000000E+02  3.00000000E+02  0.00000000E+00
  2.40000000E+02  2.80000000E+02  0.00000000E+00
  2.40000000E+02  2.60000000E+02  0.00000000E+00
  2.40000000E+02  2.40000000E+02  0.00000000E+00
  2.40000000E+02  2.20000000E+02  0.00000000E+00
  2.40000000E+02  2.00000000E+02  0.00000000E+00
  2.40000000E+02  1.80000000E+02  0.00000000E+00
  2.40000000E+02  1.60000000E+02  0.00000000E+00
  2.40000000E+02  1.40000000E+02  0.00000000E+00
  2.40000000E+02  1.20000000E+02  0.00000000E+00
  2.40000000E+02  1.00000000E+02  0.00000000E+00
  2.40000000E+02  8.00000000E+01  0.00000000E+00
  2.40000000E+02  6.00000000E+01  0.00000000E+00
  2.40000000E+02  4.00000000E+01  0.00000000E+00
  2.40000000E+02  2.00000000E+01  0.00000000E+00
  2.40000000E+02  4.99600361E-14  0.00000000E+00
  2.60000000E+02  3.00000000E+02  0.00000000E+00
  2.60000000E+02  2.80000000E+02  0.00000000E+00
  2.60000000E+02  2.60000000E+02  0.00000000E+00
  2.60000000E+02  2.40000000E+02  0.00000000E+00
  2.60000000E+02  2.20000000E+02  0.00000000E+00
  2.60000000E+02  2.00000000E+02  0.00000000E+00
  2.60000000E+02  1.80000000E+02  0.00000000E+00
  2.60000000E+02  1.60000000E+02  0.00000000E+00
  2.60000000E+02  1.40000000E+02  0.00000000E+00
  2.60000000E+02  1.20000000E+02  0.00000000E+00
  2.60000000E+02  1.00000000E+02  0.00000000E+00
  2.60000000E+02  8.00000000E+01  0.00000000E+00
  2.60000000E+02  6.00000000E+01  0.00000000E+00
  2.60000000E+02  4.00000000E+01  0.00000000E+00
  2.60000000E+02  2.00000000E+01  0.00000000E+00
  2.60000000E+02  4.99600361E-14  0.00000000E+00
  2.80000000E+02  3.00000000E+02  0.00000000E+00
  2.80000000E+02  2.80000000E+02  0.00000000E+00
  2.80000000E+02  2.60000000E+02  0.00000000E+00
  2.80000000E+02  2.40000000E+02  0.00000000E+00
  2.80000000E+02  2.20000000E+02  0.00000000E+00
  2.80000000E+02  2.00000000E+02  0.00000000E+00
  2.80000000E+02  1.80000000E+02  0.00000000E+00
  2.80000000E+02  1.60000000E+02  0.00000000E+00
  2.80000000E+02  1.40000000E+02  0.00000000E+00
  2.80000000E+02  1.20000000E+02  0.00000000E+00
  2.80000000E+02  1.00000000E+02  0.00000000E+00
  2.80000000E+02  8.00000000E+01  0.00000000E+00
  2.80000000E+02  6.00000000E+01  0.00000000E+00
  2.80000000E+02  4.00000000E+01  0.00000000E+00
  2.80000000E+02  2.00000000E+01  0.00000000E+00
  2.80000000E+02  4.99600361E-14  0.00000000E+00
  3.00000000E+02  3.00000000E+02  0.00000000E+00
  3.00000000E+02  2.80000000E+02  0.00000000E+00
  3.00000000E+02  2.60000000E+02  0.00000000E+00
  3.00000000E+02  2.40000000E+02  0.00000000E+00
  3.00000000E+02  2.20000000E+02  0.00000000E+00
  3.00000000E+02  2.00000000E+02  0.00000000E+00
  3.00000000E+02  1.80000000E+02  0.00000000E+00
  3.00000000E+02  1.60000000E+02  0.00000000E+00
  3.00000000E+02  1.40000000E+02  0.00000000E+00
  3.00000000E+02  1.20000000E+02  0.00000000E+00
  3.00000000E+02  1.00000000E+02  0.00000000E+00
  3.00000000E+02  8.00000000E+01  0.00000000E+00
  3.00000000E+02  6.00000000E+01  0.00000000E+00
  3.00000000E+02  4.00000000E+01  0.00000000E+00
  3.00000000E+02  2.00000000E+01  0.00000000E+00
  3.00000000E+02  4.99600361E-14  0.00000000E+00
  3.20000000E+02  3.00000000E+02  0.00000000E+00
  3.20000000E+02  2.80000000E+02  0.00000000E+00
  3.20000000E+02  2.60000000E+02  0.00000000E+00
  3.20000000E+02  2.40000000E+02  0.00000000E+00
  3.20000000E+02  2.20000000E+02  0.00000000E+00
  3.20000000E+02  2.00000000E+02  0.00000000E+00
  3.20000000E+02  1.80000000E+02  0.00000000E+00
  3.20000000E+02  1.60000000E+02  0.00000000E+00
  3.20000000E+02  1.40000000E+02  0.00000000E+00
  3.20000000E+02  1.20000000E+02  0.00000000E+00
  3.20000000E+02  1.00000000E+02  0.00000000E+00
  3.20000000E+02  8.00000000E+01  0.00000000E+00
  3.20000000E+02  6.00000000E+01  0.00000000E+00
  3.20000000E+02  4.00000000E+01  0.00000000E+00
  3.20000000E+02  2.00000000E+01  0.00000000E+00
  3.20000000E+02  4.99600361E-14  0.00000000E+00
  3.40000000E+02  3.00000000E+02  0.00000000E+00
  3.40000000E+02  2.80000000E+02  0.00000000E+00
  3.40000000E+02  2.60000000E+02  0.00000000E+00
  3.40000000E+02  2.40000000E+02  0.00000000E+00
  3.40000000E+02  2.20000000E+02  0.00000000E+00
  3.40000000E+02  2.00000000E+02  0.00000000E+00
  3.40000000E+02  1.80000000E+02  0.00000000E+00
  3.40000000E+02  1.60000000E+02  0.00000000E+00
  3.40000000E+02  1.40000000E+02  0.00000000E+00
  3.40000000E+02  1.20000000E+02  0.00000000E+00
  3.40000000E+02  1.00000000E+02  0.00000000E+00
  3.40000000E+02  8.00000000E+01  0.00000000E+00
  3.40000000E+02  6.00000000E+01  0.00000000E+00
  3.40000000E+02  4.00000000E+01  0.00000000E+00
  3.40000000E+02  2.00000000E+01  0.00000000E+00
  3.40000000E+02  4.99600361E-14  0.00000000E+00
  3.60000000E+02  3.00000000E+02  0.00000000E+00
  3.60000000E+02  2.80000000E+02  0.00000000E+00
  3.60000000E+02  2.60000000E+02  0.00000000E+00
  3.60000000E+02  2.40000000E+02  0.00000000E+00
  3.60000000E+02  2.20000000E+02  0.00000000E+00
  3.60000000E+02  2.00000000E+02  0.00000000E+00
  3.60000000E+02  1.80000000E+02  0.00000000E+00
  3.60000000E+02  1.60000000E+02  0.00000000E+00
  3.60000000E+02  1.40000000E+02  0.00000000E+00
  3.60000000E+02  1.20000000E+02  0.00000000E+00
  3.60000000E+02  1.00000000E+02  0.00000000E+00
  3.60000000E+02  8.00000000E+01  0.00000000E+00
  3.60000000E+02  6.00000000E+01  0.00000000E+00
  3.60000000E+02  4.00000000E+01  0.00000000E+00
  3.60000000E+02  2.00000000E+01  0.00000000E+00
  3.60000000E+02  4.99600361E-14  0.00000000E+00
  3.80000000E+02  3.00000000E+02  0.00000000E+00
  3.80000000E+02  2.80000000E+02  0.00000000E+00
  3.80000000E+02  2.60000000E+02  0.00000000E+00
  3.80000000E+02  2.40000000E+02  0.00000000E+00
  3.80000000E+02  2.20000000E+02  0.00000000E+00
  3.80000000E+02  2.00000000E+02  0.00000000E+00
  3.80000000E+02  1.80000000E+02  0.00000000E+00
  3.80000000E+02  1.60000000E+02  0.00000000E+00
  3.80000000E+02  1.40000000E+02  0.00000000E+00
  3.80000000E+02  1.20000000E+02  0.00000000E+00
  3.80000000E+02  1.00000000E+02  0.00000000E+00
  3.80000000E+02  8.00000000E+01  0.00000000E+00
  3.80000000E+02  6.00000000E+01  0.00000000E+00
  3.80000000E+02  4.00000000E+01  0.00000000E+00
  3.80000000E+02  2.00000000E+01  0.00000000E+00
  3.80000000E+02  4.99600361E-14  0.00000000E+00
  4.00000000E+02  3.00000000E+02  0.00000000E+00
  4.00000000E+02  2.80000000E+02  0.00000000E+00
  4.00000000E+02  2.60000000E+02  0.00000000E+00
  4.00000000E+02  2.40000000E+02  0.00000000E+00
  4.00000000E+02  2.20000000E+02  0.00000000E+00
  4.00000000E+02  2.00000000E+02  0.00000000E+00
  4.00000000E+02  1.80000000E+02  0.00000000E+00
  4.00000000E+02  1.60000000E+02  0.00000000E+00
  4.00000000E+02  1.40000000E+02  0.00000000E+00
  4.00000000E+02  1.20000000E+02  0.00000000E+00
  4.00000000E+02  1.00000000E+02  0.00000000E+00
  4.00000000E+02  8.00000000E+01  0.00000000E+00
  4.00000000E+02  6.00000000E+01  0.00000000E+00
  4.00000000E+02  4.00000000E+01  0.00000000E+00
  4.00000000E+02  2.00000000E+01  0.00000000E+00
  4.00000000E+02  4.99600361E-14  0.00000000E+00
  4.20000000E+02  3.00000000E+02  0.00000000E+00
  4.20000000E+02  2.80000000E+02  0.00000000E+00
  4.20000000E+02  2.60000000E+02  0.00000000E+00
  4.20000000E+02  2.40000000E+02  0.00000000E+00
  4.20000000E+02  2.20000000E+02  0.00000000E+00
  4.20000000E+02  2.00000000E+02  0.00000000E+00
  4.20000000E+02  1.80000000E+02  0.00000000E+00
  4.20000000E+02  1.60000000E+02  0.00000000E+00
  4.20000000E+02  1.40000000E+02  0.00000000E+00
  4.20000000E+02  1.20000000E+02  0.00000000E+00
  4.20000000E+02  1.00000000E+02  0.00000000E+00
  4.20000000E+02  8.00000000E+01  0.00000000E+00
  4.20000000E+02  6.00000000E+01  0.00000000E+00
  4.20000000E+02  4.00000000E+01  0.00000000E+00
  4.20000000E+02  2.00000000E+01  0.00000000E+00
  4.20000000E+02  4.99600361E-14  0.00000000E+00
  4.40000000E+02  3.00000000E+02  0.00000000E+00
  4.40000000E+02  2.80000000E+02  0.00000000E+00
  4.40000000E+02  2.60000000E+02  0.00000000E+00
  4.40000000E+02  2.40000000E+02  0.00000000E+00
  4.40000000E+02  2.20000000E+02  0.00000000E+00
  4.40000000E+02  2.00000000E+02  0.00000000E+00
  4.40000000E+02  1.80000000E+02  0.00000000E+00
  4.40000000E+02  1.60000000E+02  0.00000000E+00
  4.40000000E+02  1.40000000E+02  0.00000000E+00
  4.40000000E+02  1.20000000E+02  0.00000000E+00
  4.40000000E+02  1.00000000E+02  0.00000000E+00
  4.40000000E+02  8.00000000E+01  0.00000000E+00
  4.40000000E+02  6.00000000E+01  0.00000000E+00
  4.40000000E+02  4.00000000E+01  0.00000000E+00
  4.40000000E+02  2.00000000E+01  0.00000000E+00
  4.40000000E+02  4.99600361E-14  0.00000000E+00
  4.60000000E+02  3.00000000E+02  0.00000000E+00
  4.60000000E+02  2.80000000E+02  0.00000000E+00
  4.60000000E+02  2.60000000E+02  0.00000000E+00
  4.60000000E+02  2.40000000E+02  0.00000000E+00
  4.60000000E+02  2.20000000E+02  0.00000000E+00
  4.60000000E+02  2.00000000E+02  0.00000000E+00
  4.60000000E+02  1.80000000E+02  0.00000000E+00
  4.60000000E+02  1.60000000E+02  0.00000000E+00
  4.60000000E+02  1.40000000E+02  0.00000000E+00
  4.60000000E+02  1.20000000E+02  0.00000000E+00
  4.60000000E+02  1.00000000E+02  0.00000000E+00
  4.60000000E+02  8.00000000E+01  0.00000000E+00
  4.60000000E+02  6.00000000E+01  0.00000000E+00
  4.60000000E+02  4.00000000E+01  0.00000000E+00
  4.60000000E+02  2.00000000E+01  0.00000000E+00
  4.60000000E+02  4.99600361E-14  0.00000000E+00
  4.80000000E+02  3.00000000E+02  0.00000000E+00
  4.80000000E+02  2.80000000E+02  0.00000000E+00
  4.80000000E+02  2.60000000E+02  0.00000000E+00
  4.80000000E+02  2.40000000E+02  0.00000000E+00
  4.80000000E+02  2.20000000E+02  0.00000000E+00
  4.80000000E+02  2.00000000E+02  0.00000000E+00
  4.80000000E+02  1.80000000E+02  0.00000000E+00
  4.80000000E+02  1.60000000E+02  0.00000000E+00
  4.80000000E+02  1.40000000E+02  0.00000000E+00
  4.80000000E+02  1.20000000E+02  0.00000000E+00
  4.80000000E+02  1.00000000E+02  0.00000000E+00
  4.80000000E+02  8.00000000E+01  0.00000000E+00
  4.80000000E+02  6.00000000E+01  0.00000000E+00
  4.80000000E+02  4.00000000E+01  0.00000000E+00
  4.80000000E+02  2.00000000E+01  0.00000000E+00
  4.80000000E+02  4.99600361E-14  0.00000000E+00
  5.00000000E+02  3.00000000E+02  0.00000000E+00
  5.00000000E+02  2.80000000E+02  0.00000000E+00
  5.00000000E+02  2.60000000E+02  0.00000000E+00
  5.00000000E+02  2.40000000E+02  0.00000000E+00
  5.00000000E+02  2.20000000E+02  0.00000000E+00
  5.00000000E+02  2.00000000E+02  0.00000000E+00
  5.00000000E+02  1.80000000E+02  0.00000000E+00
  5.00000000E+02  1.60000000E+02  0.00000000E+00
  5.00000000E+02  1.40000000E+02  0.00000000E+00
  5.00000000E+02  1.20000000E+02  0.00000000E+00
  5.00000000E+02  1.00000000E+02  0.00000000E+00
  5.00000000E+02  8.00000000E+01  0.00000000E+00
  5.00000000E+02  6.00000000E+01  0.00000000E+00
  5.00000000E+02  4.00000000E+01  0.00000000E+00
  5.00000000E+02  2.00000000E+01  0.00000000E+00
  5.00000000E+02  4.99600361E-14  0.00000000E+00
  5.20000000E+02  3.00000000E+02  0.00000000E+00
  5.20000000E+02  2.80000000E+02  0.00000000E+00
  5.20000000E+02  2.60000000E+02  0.00000000E+00
  5.20000000E+02  2.40000000E+02  0.00000000E+00
  5.20000000E+02  2.20000000E+02  0.00000000E+00
  5.20000000E+02  2.00000000E+02  0.00000000E+00
  5.20000000E+02  1.80000000E+02  0.00000000E+00
  5.20000000E+02  1.60000000E+02  0.00000000E+00
  5.20000000E+02  1.40000000E+02  0.00000000E+00
  5.20000000E+02  1.20000000E+02  0.00000000E+00
  5.20000000E+02  1.00000000E+02  0.00000000E+00
  5.20000000E+02  8.00000000E+01  0.00000000E+00
  5.20000000E+02  6.00000000E+01  0.00000000E+00
  5.20000000E+02  4.00000000E+01  0.00000000E+00
  5.20000000E+02  2.00000000E+01  0.00000000E+00
  5.20000000E+02  4.99600361E-14  0.00000000E+00
  5.40000000E+02  3.00000000E+02  0.00000000E+00
  5.40000000E+02  2.80000000E+02  0.00000000E+00
  5.40000000E+02  2.60000000E+02  0.00000000E+00
  5.40000000E+02  2.40000000E+02  0.00000000E+00
  5.40000000E+02  2.20000000E+02  0.00000000E+00
  5.40000000E+02  2.00000000E+02  0.00000000E+00
  5.40000000E+02  1.80000000E+02  0.00000000E+00
  5.40000000E+02  1.60000000E+02  0.00000000E+00
  5.40000000E+02  1.40000000E+02  0.00000000E+00
  5.40000000E+02  1.20000000E+02  0.00000000E+00
  5.40000000E+02  1.00000000E+02  0.00000000E+00
  5.40000000E+02  8.00000000E+01  0.00000000E+00
  5.40000000E+02  6.00000000E+01  0.00000000E+00
  5.40000000E+02  4.00000000E+01  0.00000000E+00
  5.40000000E+02  2.00000000E+01  0.00000000E+00
  5.40000000E+02  4.99600361E-14  0.00000000E+00
  5.60000000E+02  3.00000000E+02  0.00000000E+00
  5.60000000E+02  2.80000000E+02  0.00000000E+00
  5.60000000E+02  2.60000000E+02  0.00000000E+00
  5.60000000E+02  2.40000000E+02  0.00000000E+00
  5.60000000E+02  2.20000000E+02  0.00000000E+00
  5.60000000E+02  2.00000000E+02  0.00000000E+00
  5.60000000E+02  1.80000000E+02  0.00000000E+00
  5.60000000E+02  1.60000000E+02  0.00000000E+00
  5.60000000E+02  1.40000000E+02  0.00000000E+00
  5.60000000E+02  1.20000000E+02  0.00000000E+00
  5.60000000E+02  1.00000000E+02  0.00000000E+00
  5.60000000E+02  8.00000000E+01  0.00000000E+00
  5.60000000E+02  6.00000000E+01  0.00000000E+00
  5.60000000E+02  4.00000000E+01  0.00000000E+00
  5.60000000E+02  2.00000000E+01  0.00000000E+00
  5.60000000E+02  4.99600361E-14  0.00000000E+00
  5.80000000E+02  3.00000000E+02  0.00000000E+00
  5.80000000E+02  2.80000000E+02  0.00000000E+00
  5.80000000E+02  2.60000000E+02  0.00000000E+00
  5.80000000E+02  2.40000000E+02  0.00000000E+00
  5.80000000E+02  2.20000000E+02  0.00000000E+00
  5.80000000E+02  2.00000000E+02  0.00000000E+00
  5.80000000E+02  1.80000000E+02  0.00000000E+00
  5.80000000E+02  1.60000000E+02  0.00000000E+00
  5.80000000E+02  1.40000000E+02  0.00000000E+00
  5.80000000E+02  1.20000000E+02  0.00000000E+00
  5.80000000E+02  1.00000000E+02  0.00000000E+00
  5.80000000E+02  8.00000000E+01  0.00000000E+00
  5.80000000E+02  6.00000000E+01  0.00000000E+00
  5.80000000E+02  4.00000000E+01  0.00000000E+00
  5.80000000E+02  2.00000000E+01  0.00000000E+00
  5.80000000E+02  4.99600361E-14  0.00000000E+00
  6.00000000E+02  3.00000000E+02  0.00000000E+00
  6.00000000E+02  2.80000000E+02  0.00000000E+00
  6.00000000E+02  2.60000000E+02  0.00000000E+00
  6.00000000E+02  2.40000000E+02  0.00000000E+00
  6.00000000E+02  2.20000000E+02  0.00000000E+00
  6.00000000E+02  2.00000000E+02  0.00000000E+00
  6.00000000E+02  1.80000000E+02  0.00000000E+00
  6.00000000E+02  1.60000000E+02  0.00000000E+00
  6.00000000E+02  1.40000000E+02  0.00000000E+00
  6.00000000E+02  1.20000000E+02  0.00000000E+00
  6.00000000E+02  1.00000000E+02  0.00000000E+00
  6.00000000E+02  8.00000000E+01  0.00000000E+00
  6.00000000E+02  6.00000000E+01  0.00000000E+00
  6.00000000E+02  4.00000000E+01  0.00000000E+00
  6.00000000E+02  2.00000000E+01  0.00000000E+00
  6.00000000E+02  4.99600361E-14  0.00000000E+00
CELLS       450      2250
         4           0           1          17          16
         4           1           2          18          17
         4           2           3          19          18
         4           3           4          20          19
         4           4           5          21          20
         4           5           6          22          21
         4           6           7          23          22
         4           7           8          24          23
         4           8           9          25          24
         4           9          10          26          25
         4          10          11          27          26
         4          11          12          28          27
         4          12          13          29          28
         4          13          14          30          29
         4          14          15          31          30
         4          16          17          33          32
         4          17          18          34          33
         4          18          19          35          34
         4          19          20          36          35
         4          20          21          37          36
         4          21          22          38          37
         4          22          23          39          38
         4          23          24          40          39
         4          24          25          41          40
         4          25          26          42          41
         4          26          27          43          42
         4          27          28          44          43
         4          28          29          45          44
         4          29          30          46          45
         4          30          31          47          46
         4          32          33          49          48
         4          33          34          50          49
         4          34          35          51          50
         4          35          36          52          51
         4          36          37          53          52
         4          37          38          54          53
         4          38          39          55          54
         4          39          40          56          55
         4          40          41          57          56
         4          41          42          58          57
         4          42          43          59          58
         4          43          44          60          59
         4          44          45          61          60
         4          45          46          62          61
         4          46          47          63          62
         4          48          49          65          64
         4          49          50          66          65
         4          50          51          67          66
         4          51          52          68          67
         4          52          53          69          68
         4          53          54          70          69
         4          54          55          71          70
         4          55          56          72          71
         4          56          57          73          72
         4          57          58          74          73
         4          58          59          75          74
         4          59          60          76          75
         4          60          61          77          76
         4          61          62          78          77
         4          62          63          79          78
         4          64          65          81          80
         4          65          66          82          81
         4          66          67          83          82
         4          67          68          84          83
         4          68          69          85          84
         4          69          70          86          85
         4          70          71          87          86
         4          71          72          88          87
         4          72          73          89          88
         4          73          74          90          89
         4          74          75          91          90
         4          75          76          92          91
         4          76          77          93          92
         4          77          78          94          93
         4          78          79          95          94
         4          80          81          97          96
         4          81          82          98          97
         4          82          83          99          98
         4          83          84         100          99
         4          84          85         101         100
         4          85          86         102         101
         4          86          87         103         102
         4          87          88         104         103
         4          88          89         105         104
         4          89          90         106         105
         4          90          91         107         106
         4          91          92         108         107
         4          92          93         109         108
         4          93          94         110         109
         4          94          95         111         110
         4          96          97         113         112
         4          97          98         114         113
         4          98          99         115         114
         4          99         100         116         115
         4         100         101         117         116
         4         101         102         118         117
         4         102         103         119         118
         4         103         104         120         119
         4         104         105         121         120
         4         105         106         122         121
         4         106         107         123         122
         4         107         108         124         123
         4         108         109         125         124
         4         109         110         126         125
         4         110         111         127         126
         4         112         113         129         128
         4         113         114         130         129
         4         114         115         131         130
         4         115         116         132         131
         4         116         117         133         132
         4         117         118         134         133
         4         118         119         135         134
         4         119         120         136         135
         4         120         121         137         136
         4         121         122         138         137
         4         122         123         139         138
         4         123         124         140         139
         4         124         125         141         140
         4         125         126         142         141
         4         126         127         143         142
         4         128         129         145         144
         4         129         130         146         145
         4         130         131         147         146
         4         131         132         148         147
         4         132         133         149         148
         4         133         134         150         149
         4         134         135         151         150
         4         135         136         152         151
         4         136         137         153         152
         4         137         138         154         153
         4         138         139         155         154
         4         139         140         156         155
         4         140         141         157         156
         4         141         142         158         157
         4         142         143         159         158
         4         144         145         161         160
         4         145         146         162         161
         4         146         147         163         162
         4         147         148         164         163
         4         148         149         165         164
         4         149         150         166         165
         4         150         151         167         166
         4         151         152         168         167
         4         152         153         169         168
         4         153         154         170         169
         4         154         155         171         170
         4         155         156         172         171
         4         156         157         173         172
         4         157         158         174         173
         4         158         159         175         174
         4         160         161         177         176
         4         161         162         178         177
         4         162         163         179         178
         4         163         164         180         179
         4         164         165         181         180
         4         165         166         182         181
         4         166         167         183         182
         4         167         168         184         183
         4         168         169         185         184
         4         169         170         186         185
         4         170         171         187         186
         4         171         172         188         187
         4         172         173         189         188
         4         173         174         190         189
         4         174         175         191         190
         4         176         177         193         192
         4         177         178         194         193
         4         178         179         195         194
         4         179         180         196         195
         4         180         181         197         196
         4         181         182         198         197
         4         182         183         199         198
         4         183         184         200         199
         4         184         185         201         200
         4         185         186         202         201
         4         186         187         203         202
         4         187         188         204         203
         4         188         189         205         204
         4         189         190         206         205
         4         190         191         207         206
         4         192         193         209         208
         4         193         194         210         209
         4         194         195         211         210
         4         195         196         212         211
         4         196         197         213         212
         4         197         198         214         213
         4         198         199         215         214
         4         199         200         216         215
         4         200         201         217         216
         4         201         202         218         217
         4         202         203         219         218
         4         203         204         220         219
         4         204         205         221         220
         4         205         206         222         221
         4         206         207         223         222
         4         208         209         225         224
         4         209         210         226         225
         4         210         211         227         226
         4         211         212         228         227
         4         212         213         229         228
         4         213         214         230         229
         4         214         215         231         230
         4         215         216         232         231
         4         216         217         233         232
         4         217         218         234         233
         4         218         219         235         234
         4         219         220         236         235
         4         220         221         237         236
         4         221         222         238         237
         4         222         223         239         238
         4         224         225         241         240
         4         225         226         242         241
         4         226         227         243         242
         4         227         228         244         243
         4         228         229         245         244
         4         229         230         246         245
         4         230         231         247         246
         4         231         232         248         247
         4         232         233         249         248
         4         233         234         250         249
         4         234         235         251         250
         4         235         236         252         251
         4         236         237         253         252
         4         237         238         254         253
         4         238         239         255         254
         4         240         241         257         256
         4         241         242         258         257
         4         242         243         259         258
         4         243         244         260         259
         4         244         245         261         260
         4         245         246         262         261
         4         246         247         263         262
         4         247         248         264         263
         4         248         249         265         264
         4         249         250         266         265
         4         250         251         267         266
         4         251         252         268         267
         4         252         253         269         268
         4         253         254         270         269
         4         254         255         271         270
         4         256         257         273         272
         4         257         258         274         273
         4         258         259         275         274
         4         259         260         276         275
         4         260         261         277         276
         4         261         262         278         277
         4         262         263         279         278
         4         263         264         280         279
         4         264         265         281         280
         4         265         266         282         281
         4         266         267         283         282
         4         267         268         284         283
         4         268         269         285         284
         4         269         270         286         285
         4         270         271         287         286
         4         272         273         289         288
         4         273         274         290         289
         4         274         275         291         290
         4         275         276         292         291
         4         276         277         293         292
         4         277         278         294         293
         4         278         279         295         294
         4         279         280         296         295
         4         280         281         297         296
         4         281         282         298         297
         4         282         283         299         298
         4         283         284         300         299
         4         284         285         301         300
         4         285         286         302         301
         4         286         287         303         302
         4         288         289         305         304
         4         289         290         306         305
         4         290         291         307         306
         4         291         292         308         307
         4         292         293         309         308
         4         293         294         310         309
         4         294         295         311         310
         4         295         296         312         311
         4         296         297         313         312
         4         297         298         314         313
         4         298         299         315         314
         4         299         300         316         315
         4         300         301         317         316
         4         301         302         318         317
         4         302         303         319         318
         4         304         305         321         320
         4         305         306         322         321
         4         306         307         323         322
         4         307         308         324         323
         4         308         309         325         324
         4         309         310         326         325
         4         310         311         327         326
         4         311         312         328         327
         4         312         313         329         328
         4         313         314         330         329
         4         314         315         331         330
         4         315         316         332         331
         4         316         317         333         332
         4         317         318         334         333
         4         318         319         335         334
         4         320         321         337         336
         4         321         322         338         337
         4         322         323         339         338
         4         323         324         340         339
         4         324         325         341         340
         4         325         326         342         341
         4         326         327         343         342
         4         327         328         344         343
         4         328         329         345         344
         4         329         330         346         345
         4         330         331         347         346
         4         331         332         348         347
         4         332         333         349         348
         4         333         334         350         349
         4         334         335         351         350
         4         336         337         353         352
         4         337         338         354         353
         4         338         339         355         354
         4         339         340         356         355
         4         340         341         357         356
         4         341         342         358         357
         4         342         343         359         358
         4         343         344         360         359
         4         344         345         361         360
         4         345         346         362         361
         4         346         347         363         362
         4         347         348         364         363
         4         348         349         365         364
         4         349         350         366         365
         4         350         351         367         366
         4         352         353         369         368
         4         353         354         370         369
         4         354         355         371         370
         4         355         356         372         371
         4         356         357         373         372
         4         357         358         374         373
         4         358         359         375         374
         4         359         360         376         375
         4         360         361         377         376
         4         361         362         378         377
         4         362         363         379         378
         4         363         364         380         379
         4         364         365         381         380
         4         365         366         382         381
         4         366         367         383         382
         4         368         369         385         384
         4         369         370         386         385
         4         370         371         387         386
         4         371         372         388         387
         4         372         373         389         388
         4         373         374         390         389
         4         374         375         391         390
         4         375         376         392         391
         4         376         377         393         392
         4         377         378         394         393
         4         378         379         395         394
         4         379         380         396         395
         4         380         381         397         396
         4         381         382         398         397
         4         382         383         399         398
         4         384         385         401         400
         4         385         386         402         401
         4         386         387         403         402
         4         387         388         404         403
         4         388         389         405         404
         4         389         390         406         405
         4         390         391         407         406
         4         391         392         408         407
         4         392         393         409         408
         4         393         394         410         409
         4         394         395         411         410
         4         395         396         412         411
         4         396         397         413         412
         4         397         398         414         413
         4         398         399         415         414
         4         400         401         417         416
         4         401         402         418         417
         4         402         403         419         418
         4         403         404         420         419
         4         404         405         421         420
         4         405         406         422         421
         4         406         407         423         422
         4         407         408         424         423
         4         408         409         425         424
         4         409         410         426         425
         4         410         411         427         426
         4         411         412         428         427
         4         412         413         429         428
         4         413         414         430         429
         4         414         415         431         430
         4         416         417         433         432
         4         417         418         434         433
         4         418         419         435         434
         4         419         420         436         435
         4         420         421         437         436
         4         421         422         438         437
         4         422         423         439         438
         4         423         424         440         439
         4         424         425         441         440
         4         425         426         442         441
         4         426         427         443         442
         4         427         428         444         443
         4         428         429         445         444
         4         429         430         446         445
         4         430         431         447         446
         4         432         433         449         448
         4         433         434         450         449
         4         434         435         451         450
         4         435         436         452         451
         4         436         437         453         452
         4         437         438         454         453
         4         438         439         455         454
         4         439         440         456         455
         4         440         441         457         456
         4         441         442         458         457
         4         442         443         459         458
         4         443         444         460         459
         4         444         445         461         460
         4         445         446         462         461
         4         446         447         463         462
         4         448         449         465         464
         4         449         450         466         465
         4         450         451         467         466
         4         451         452         468         467
         4         452         453         469         468
         4         453         454         470         469
         4         454         455         471         470
         4         455         456         472         471
         4         456         457         473         472
         4         457         458         474         473
         4         458         459         475         474
         4         459         460         476         475
         4         460         461         477         476
         4         461         462         478         477
         4         462         463         479         478
         4         464         465         481         480
         4         465         466         482         481
         4         466         467         483         482
         4         467         468         484         483
         4         468         469         485         484
         4         469         470         486         485
         4         470         471         487         486
         4         471         472         488         487
         4         472         473         489         488
         4         473         474         490         489
         4         474         475         491         490
         4         475         476         492         491
         4         476         477         493         492
         4         477         478         494         493
         4         478         479         495         494
CELL_TYPES        450
9
9
9
9
9
9
9
9
9
9
9
9
9
9
9
9
9
9
9
9
9
9
9
9
9
9
9
9
9
9
9
9
9
9
9
9
9
9
9
9
9
9
9
9
9
9
9
9
9
9
9
9
9
9
9
9
9
9
9
9
9
9
9
9
9
9
9
9
9
9
9
9
9
9
9
9
9
9
9
9
9
9
9
9
9
9
9
9
9
9
9
9
9
9
9
9
9
9
9
9
9
9
9
9
9
9
9
9
9
9
9
9
9
9
9
9
9
9
9
9
9
9
9
9
9
9
9
9
9
9
9
9
9
9
9
9
9
9
9
9
9
9
9
9
9
9
9
9
9
9
9
9
9
9
9
9
9
9
9
9
9
9
9
9
9
9
9
9
9
9
9
9
9
9
9
9
9
9
9
9
9
9
9
9
9
9
9
9
9
9
9
9
9
9
9
9
9
9
9
9
9
9
9
9
9
9
9
9
9
9
9
9
9
9
9
9
9
9
9
9
9
9
9
9
9
9
9
9
9
9
9
9
9
9
9
9
9
9
9
9
9
9
9
9
9
9
9
9
9
9
9
9
9
9
9
9
9
9
9
9
9
9
9
9
9
9
9
9
9
9
9
9
9
9
9
9
9
9
9
9
9
9
9
9
9
9
9
9
9
9
9
9
9
9
9
9
9
9
9
9
9
9
9
9
9
9
9
9
9
9
9
9
9
9
9
9
9
9
9
9
9
9
9
9
9
9
9
9
9
9
9
9
9
9
9
9
9
9
9
9
9
9
9
9
9
9
9
9
9
9
9
9
9
9
9
9
9
9
9
9
9
9
9
9
9
9
9
9
9
9
9
9
9
9
9
9
9
9
9
9
9
9
9
9
9
9
9
9
9
9
9
9
9
9
9
9
9
9
9
9
9
9
9
9
9
9
9
9
9
9
9
9
9
9
9
9
9
9
9
9
9
9
9
9
9
9
9
9
9
9
9
9
9
9
9
9
9
9
9
9
9
9
9
9
9
9
9
9
9
9
POINT_DATA       496
SCALARS p double 
LOOKUP_TABLE default
   62106760.6723526     
   62110069.9008961     
   62115451.1999460     
   62119385.7899464     
   62123053.4741484     
   62126586.3705774     
   62130050.5115765     
   62133448.1059134     
   62136762.4294103     
   62139972.5558274     
   62143063.9453715     
   62146038.3433192     
   62148943.4306600     
   62151852.9011777     
   62155608.5219050     
   62157909.1123665     
   60800480.2632790     
   60799279.0827473     
   60797819.8655941     
   60797364.3261553     
   60797001.5573892     
   60796694.9128503     
   60796407.5653952     
   60796130.5122462     
   60795860.1192842     
   60795594.9023975     
   60795332.6924771     
   60795068.6556497     
   60794778.7409617     
   60794453.4331209     
   60793435.0265053     
   60792582.8324503     
   60261138.5873675     
   60260836.7837133     
   60260049.4280689     
   60259173.7794753     
   60258409.9899885     
   60257670.3010291     
   60256945.8874623     
   60256234.6233787     
   60255539.9973876     
   60254866.3733700     
   60254216.9295988     
   60253590.2004229     
   60252981.5526990     
   60252327.6542438     
   60251801.0237536     
   60251628.4191703     
   60078537.3388768     
   60078437.2966074     
   60078158.2101726     
   60077767.6450512     
   60077347.4418155     
   60076930.7982415     
   60076517.0677143     
   60076109.6102414     
   60075711.9335784     
   60075327.5811217     
   60074959.3268887     
   60074609.2117804     
   60074275.2969638     
   60073981.3679740     
   60073771.2244968     
   60073691.3134179     
   60021744.0307262     
   60021708.7464343     
   60021611.1723059     
   60021471.5221200     
   60021310.8660830     
   60021143.5841332     
   60020976.0716841     
   60020810.5441256     
   60020648.9597497     
   60020493.0187667     
   60020344.2517932     
   60020203.9180595     
   60020075.8649300     
   60019967.5659920     
   60019891.2539080     
   60019863.1144591     
   60004407.5144953     
   60004397.6394490     
   60004371.5051658     
   60004335.1016592     
   60004292.9849293     
   60004248.4242631     
   60004203.1857804     
   60004158.0647544     
   60004113.4984138     
   60004069.9476668     
   60004027.8931461     
   60003988.0746463     
   60003951.7257931     
   60003921.0162300     
   60003899.2067693     
   60003890.9804853     
   59998372.2773871     
   59998374.4823945     
   59998381.0308152     
   59998391.1798910     
   59998403.5091504     
   59998416.6191144     
   59998429.3492436     
   59998440.8591514     
   59998450.6599396     
   59998458.5533995     
   59998464.5355248     
   59998468.6948456     
   59998471.1897562     
   59998472.2654589     
   59998472.3432176     
   59998472.2024847     
   59994880.3406665     
   59994890.7590638     
   59994919.1687302     
   59994959.7447056     
   59995007.0193379     
   59995056.5324312     
   59995105.0646475     
   59995150.5913792     
   59995192.0570702     
   59995229.0549817     
   59995261.4844624     
   59995289.2569239     
   59995312.0939725     
   59995329.4439144     
   59995340.5095060     
   59995344.3597761     
   59990993.5170814     
   59991012.9632143     
   59991065.1172590     
   59991137.9498162     
   59991221.0680985     
   59991306.4827949     
   59991388.7978118     
   59991464.9603148     
   59991533.7169536     
   59991594.9270437     
   59991648.8716957     
   59991695.6716889     
   59991734.8936768     
   59991765.3819036     
   59991785.3052326     
   59991792.3616989     
   59985259.1453151     
   59985291.3673328     
   59985376.6034089     
   59985493.0984013     
   59985622.9319201     
   59985753.0281357     
   59985875.2153631     
   59985985.5662211     
   59986083.2715682     
   59986169.3109397     
   59986245.1568465     
   59986311.7046674     
   59986368.5636423     
   59986413.7787744     
   59986443.9738347     
   59986454.8203211     
   59976321.6210702     
   59976372.9482460     
   59976506.6676880     
   59976684.8695268     
   59976877.6447874     
   59977064.3640778     
   59977233.3584895     
   59977380.4285933     
   59977506.6327420     
   59977615.8042213     
   59977712.1909057     
   59977798.5314113     
   59977874.7959281     
   59977937.7236736     
   59977981.1657936     
   59977997.0960315     
   59962379.4793026     
   59962458.9610249     
   59962662.2884164     
   59962924.8245278     
   59963197.7804160     
   59963449.6070317     
   59963664.7372828     
   59963840.4655353     
   59963982.7583441     
   59964101.7457339     
   59964207.5207192     
   59964306.7385648     
   59964400.3865796     
   59964482.9723180     
   59964543.2059163     
   59964566.0171037     
   59940834.0315983     
   59940953.4090986     
   59941251.8907892     
   59941621.4893832     
   59941984.4502797     
   59942294.2169495     
   59942532.0944742     
   59942701.0515882     
   59942818.0336076     
   59942905.9967279     
   59942986.6142067     
   59943074.3742272     
   59943172.6403371     
   59943272.1298569     
   59943352.0680839     
   59943383.9332408     
   59907927.2988188     
   59908100.0198561     
   59908518.9554704     
   59909007.5693263     
   59909445.1647842     
   59909766.0922574     
   59909952.1393407     
   59910020.7146913     
   59910011.1615561     
   59909971.0874870     
   59909944.0470812     
   59909959.5218810     
   59910026.0015604     
   59910127.9717807     
   59910227.4971506     
   59910270.6673179     
   59858301.7884713     
   59858539.8068366     
   59859092.4447569     
   59859677.9281334     
   59860114.6250971     
   59860315.6094177     
   59860272.7030594     
   59860034.7062582     
   59859683.7434086     
   59859312.5422664     
   59859004.3096543     
   59858816.1846335     
   59858767.2205537     
   59858832.2392633     
   59858943.1688191     
   59858999.1599656     
   59784456.1414138     
   59784762.4050731     
   59785424.8617550     
   59786005.6733839     
   59786241.7208491     
   59786028.6921844     
   59785389.4082409     
   59784434.8747514     
   59783324.6163914     
   59782230.2766225     
   59781304.0614852     
   59780652.3825726     
   59780315.3583906     
   59780254.2187820     
   59780350.0433692     
   59780417.6158081     
   59676086.5379681     
   59676439.7744125     
   59677102.9465679     
   59677416.3054675     
   59677017.1281223     
   59675802.0207930     
   59673866.4210159     
   59671436.6742987     
   59668805.5823463     
   59666276.6194984     
   59664117.0616231     
   59662518.0143119     
   59661560.3989370     
   59661189.5453750     
   59661205.1277986     
   59661275.6059560     
   59519311.9821361     
   59519638.4755234     
   59520022.0064994     
   59519503.9485058     
   59517618.4517239     
   59514311.4929181     
   59509828.4492489     
   59504598.2634792     
   59499132.2523458     
   59493943.3910142     
   59489481.9162603     
   59486078.8815797     
   59483891.9201635     
   59482855.5110714     
   59482647.9626894     
   59482694.9486667     
   59295783.6191924     
   59295907.8147752     
   59295413.5513047     
   59292969.6769564     
   59288044.2426436     
   59280739.8060370     
   59271588.4602307     
   59261358.2142496     
   59250900.3296864     
   59241041.7809777     
   59232507.4936842     
   59225849.3613149     
   59221364.5677547     
   59219002.0434466     
   59218277.3108828     
   59218235.1031053     
   58981668.4964807     
   58981229.7089174     
   58978700.2056378     
   58972341.7983701     
   58961685.9118605     
   58947208.3680562     
   58929960.4649574     
   58911251.5996369     
   58892430.5023874     
   58874760.7407175     
   58859349.9205596     
   58847079.1767465     
   58838490.2645849     
   58833617.8561900     
   58831796.8784747     
   58831517.1887006     
   58546466.3111850     
   58544780.7410689     
   58538107.9076547     
   58524385.3489444     
   58503530.1231151     
   58476805.6070753     
   58446163.4183958     
   58413734.9533401     
   58381541.3814821     
   58351390.6491113     
   58324868.2178114     
   58303310.5589605     
   58287670.1111718     
   58278231.3252634     
   58274213.4777912     
   58273382.3851720     
   57951547.8690800     
   57947379.2304978     
   57932869.1696508     
   57905994.0023218     
   57867762.8828339     
   57820988.5867896     
   57769123.6185214     
   57715473.3076695     
   57662864.7775848     
   57613664.6714124     
   57569949.2588122     
   57533618.6721740     
   57506281.0161865     
   57488805.1479756     
   57480563.2131838     
   57478548.3833731     
   57148169.6007481     
   57139337.5961572     
   57110657.2056904     
   57061126.9959720     
   56994304.1150399     
   56915906.8805437     
   56831784.0342238     
   56746774.5745559     
   56664467.3121571     
   56587555.1537090     
   56518401.9973857     
   56459478.3799739     
   56413374.0500115     
   56382164.5173539     
   56366071.5455460     
   56361651.3527658     
   56074464.8350952     
   56057142.8632846     
   56003498.3829705     
   55915887.8970424     
   55803325.5884366     
   55676763.7136698     
   55545651.7828449     
   55416522.7744035     
   55293235.8487010     
   55178080.1289887     
   55073070.5737309     
   54980987.3608656     
   54905755.6555174     
   54851716.1456434     
   54821454.1450054     
   54812350.4435271     
   54650407.7023940     
   54617769.1945688     
   54520562.4229462     
   54369853.6313863     
   54185844.7952953     
   53988500.4387413     
   53792105.0088608     
   53604305.7674856     
   53427836.9140815     
   53263036.1504227     
   53110222.4955254     
   52971659.9815213     
   52852781.3998251     
   52761798.4412053     
   52706619.7403544     
   52688704.3870485     
   52768624.2238542     
   52707979.7996942     
   52534194.1565217     
   52279470.3090618     
   51986441.2356432     
   51689434.5480994     
   51407566.0800986     
   51147055.9641733     
   50906620.1458793     
   50682105.1711103     
   50469859.9408148     
   50269786.5136900     
   50088187.5001068     
   49939113.3224994     
   49841112.9545217     
   49807050.3903214     
   50276115.3222219     
   50162091.8872033     
   49849856.1770394     
   49423505.9062232     
   48969395.8983086     
   48540892.1680609     
   48156412.7985388     
   47814134.0353948     
   47504319.4777652     
   47215127.1139580     
   46936047.5082132     
   46661164.6891786     
   46394801.3056902     
   46157686.4324236     
   45987627.7161913     
   45924587.9296224     
   46933578.6289873     
   46708321.7177421     
   46132770.0774089     
   45422993.3848415     
   44747936.5420610     
   44166843.0196479     
   43675675.8111432     
   43254875.6445147     
   42881467.1476403     
   42533410.7878373     
   42190992.7297812     
   41838764.6028987     
   41470391.9418113     
   41108475.1369308     
   40820456.3378677     
   40705741.7372754     
   42304847.2893255     
   41816005.5029701     
   40678265.3508183     
   39535378.6211320     
   38625585.7544436     
   37909922.8499490     
   37339040.9122269     
   36867056.5448034     
   36456270.2703770     
   36074890.7631663     
   35694655.4113702     
   35289308.8072368     
   34837052.9379680     
   34326547.6488151     
   33856318.2546554     
   33655145.9000677     
   35463227.4652694     
   33813946.6606508     
   31537839.4956362     
   30093186.5859796     
   29087029.1231566     
   28360858.2582010     
   27810227.7254114     
   27369805.4438642     
   26994404.7867429     
   26649586.4554024     
   26305599.7234312     
   25933312.3144573     
   25500535.8843290     
   24977025.9269847     
   24302323.8398652     
   23939179.2084667     
   10450000.0000000     
   10450000.0000000     
   10450000.0000000     
   10450000.0000000     
   10450000.0000000     
   10450000.0000000     
   10450000.0000000     
   10450000.0000000     
   10450000.0000000     
   10450000.0000000     
   10450000.0000000     
   10450000.0000000     
   10450000.0000000     
   10450000.0000000     
   10450000.0000000     
   10450000.0000000     
VECTORS u double 
    0.00000E+00         0.32963E+00         0.00000E+00
    0.00000E+00         0.31988E+00         0.00000E+00
    0.00000E+00         0.32090E+00         0.00000E+00
    0.00000E+00         0.32705E+00         0.00000E+00
    0.00000E+00         0.33320E+00         0.00000E+00
    0.00000E+00         0.33649E+00         0.00000E+00
    0.00000E+00         0.33510E+00         0.00000E+00
    0.00000E+00         0.32785E+00         0.00000E+00
    0.00000E+00         0.31403E+00         0.00000E+00
    0.00000E+00         0.29323E+00         0.00000E+00
    0.00000E+00         0.26527E+00         0.00000E+00
    0.00000E+00         0.23010E+00         0.00000E+00
    0.00000E+00         0.18770E+00         0.00000E+00
    0.00000E+00         0.13781E+00         0.00000E+00
    0.00000E+00         0.79313E-01         0.00000E+00
    0.00000E+00         0.00000E+00         0.00000E+00
    0.28017E+00         0.27574E+00         0.00000E+00
    0.24278E+00         0.29450E+00         0.00000E+00
    0.22862E+00         0.30668E+00         0.00000E+00
    0.21607E+00         0.31758E+00         0.00000E+00
    0.20300E+00         0.32627E+00         0.00000E+00
    0.18909E+00         0.33107E+00         0.00000E+00
    0.17451E+00         0.33064E+00         0.00000E+00
    0.15955E+00         0.32406E+00         0.00000E+00
    0.14444E+00         0.31072E+00         0.00000E+00
    0.12939E+00         0.29027E+00         0.00000E+00
    0.11452E+00         0.26253E+00         0.00000E+00
    0.99792E-01         0.22742E+00         0.00000E+00
    0.84880E-01         0.18485E+00         0.00000E+00
    0.68671E-01         0.13439E+00         0.00000E+00
    0.47823E-01         0.74255E-01         0.00000E+00
    0.00000E+00         0.00000E+00         0.00000E+00
    0.50375E+00         0.20576E+00         0.00000E+00
    0.45326E+00         0.24244E+00         0.00000E+00
    0.42119E+00         0.27132E+00         0.00000E+00
    0.39396E+00         0.29223E+00         0.00000E+00
    0.36642E+00         0.30695E+00         0.00000E+00
    0.33771E+00         0.31560E+00         0.00000E+00
    0.30795E+00         0.31779E+00         0.00000E+00
    0.27757E+00         0.31307E+00         0.00000E+00
    0.24702E+00         0.30111E+00         0.00000E+00
    0.21666E+00         0.28169E+00         0.00000E+00
    0.18670E+00         0.25468E+00         0.00000E+00
    0.15708E+00         0.21997E+00         0.00000E+00
    0.12723E+00         0.17737E+00         0.00000E+00
    0.95446E-01         0.12638E+00         0.00000E+00
    0.56276E-01         0.66041E-01         0.00000E+00
    0.00000E+00         0.00000E+00         0.00000E+00
    0.70305E+00         0.14568E+00         0.00000E+00
    0.65015E+00         0.18928E+00         0.00000E+00
    0.60385E+00         0.22736E+00         0.00000E+00
    0.56068E+00         0.25699E+00         0.00000E+00
    0.51735E+00         0.27826E+00         0.00000E+00
    0.47276E+00         0.29168E+00         0.00000E+00
    0.42704E+00         0.29740E+00         0.00000E+00
    0.38069E+00         0.29539E+00         0.00000E+00
    0.33429E+00         0.28558E+00         0.00000E+00
    0.28832E+00         0.26791E+00         0.00000E+00
    0.24308E+00         0.24231E+00         0.00000E+00
    0.19855E+00         0.20875E+00         0.00000E+00
    0.15414E+00         0.16714E+00         0.00000E+00
    0.10814E+00         0.11741E+00         0.00000E+00
    0.57536E-01         0.60533E-01         0.00000E+00
    0.00000E+00         0.00000E+00         0.00000E+00
    0.89707E+00         0.92558E-01         0.00000E+00
    0.84223E+00         0.13914E+00         0.00000E+00
    0.78482E+00         0.18147E+00         0.00000E+00
    0.72645E+00         0.21646E+00         0.00000E+00
    0.66674E+00         0.24297E+00         0.00000E+00
    0.60550E+00         0.26089E+00         0.00000E+00
    0.54309E+00         0.27037E+00         0.00000E+00
    0.48019E+00         0.27154E+00         0.00000E+00
    0.41749E+00         0.26449E+00         0.00000E+00
    0.35562E+00         0.24927E+00         0.00000E+00
    0.29498E+00         0.22596E+00         0.00000E+00
    0.23566E+00         0.19461E+00         0.00000E+00
    0.17731E+00         0.15538E+00         0.00000E+00
    0.11902E+00         0.10878E+00         0.00000E+00
    0.59804E-01         0.56163E-01         0.00000E+00
    0.00000E+00         0.00000E+00         0.00000E+00
    0.10938E+01         0.40802E-01         0.00000E+00
    0.10347E+01         0.89319E-01         0.00000E+00
    0.96685E+00         0.13396E+00         0.00000E+00
    0.89399E+00         0.17214E+00         0.00000E+00
    0.81785E+00         0.20237E+00         0.00000E+00
    0.73950E+00         0.22407E+00         0.00000E+00
    0.65987E+00         0.23717E+00         0.00000E+00
    0.57993E+00         0.24175E+00         0.00000E+00
    0.50057E+00         0.23796E+00         0.00000E+00
    0.42256E+00         0.22593E+00         0.00000E+00
    0.34644E+00         0.20581E+00         0.00000E+00
    0.27254E+00         0.17779E+00         0.00000E+00
    0.20088E+00         0.14224E+00         0.00000E+00
    0.13133E+00         0.99869E-01         0.00000E+00
    0.64026E-01         0.51905E-01         0.00000E+00
    0.00000E+00         0.00000E+00         0.00000E+00
    0.12969E+01        -0.14089E-01         0.00000E+00
    0.12307E+01         0.36324E-01         0.00000E+00
    0.11516E+01         0.82757E-01         0.00000E+00
    0.10641E+01         0.12318E+00         0.00000E+00
    0.97143E+00         0.15619E+00         0.00000E+00
    0.87567E+00         0.18107E+00         0.00000E+00
    0.77845E+00         0.19760E+00         0.00000E+00
    0.68113E+00         0.20578E+00         0.00000E+00
    0.58483E+00         0.20573E+00         0.00000E+00
    0.49051E+00         0.19762E+00         0.00000E+00
    0.39890E+00         0.18164E+00         0.00000E+00
    0.31057E+00         0.15804E+00         0.00000E+00
    0.22595E+00         0.12725E+00         0.00000E+00
    0.14545E+00         0.89959E-01         0.00000E+00
    0.69750E-01         0.47159E-01         0.00000E+00
    0.00000E+00         0.00000E+00         0.00000E+00
    0.15084E+01        -0.75639E-01         0.00000E+00
    0.14323E+01        -0.23081E-01         0.00000E+00
    0.13402E+01         0.25182E-01         0.00000E+00
    0.12373E+01         0.67578E-01         0.00000E+00
    0.11277E+01         0.10299E+00         0.00000E+00
    0.10142E+01         0.13080E+00         0.00000E+00
    0.89909E+00         0.15073E+00         0.00000E+00
    0.78414E+00         0.16278E+00         0.00000E+00
    0.67074E+00         0.16705E+00         0.00000E+00
    0.56002E+00         0.16366E+00         0.00000E+00
    0.45292E+00         0.15280E+00         0.00000E+00
    0.35023E+00         0.13470E+00         0.00000E+00
    0.25270E+00         0.10973E+00         0.00000E+00
    0.16114E+00         0.78441E-01         0.00000E+00
    0.76515E-01         0.41579E-01         0.00000E+00
    0.00000E+00         0.00000E+00         0.00000E+00
    0.17296E+01        -0.14699E+00         0.00000E+00
    0.16408E+01        -0.91970E-01         0.00000E+00
    0.15338E+01        -0.41658E-01         0.00000E+00
    0.14142E+01         0.27931E-02         0.00000E+00
    0.12868E+01         0.40616E-01         0.00000E+00
    0.11551E+01         0.71392E-01         0.00000E+00
    0.10219E+01         0.94972E-01         0.00000E+00
    0.88914E+00         0.11137E+00         0.00000E+00
    0.75856E+00         0.12066E+00         0.00000E+00
    0.63142E+00         0.12294E+00         0.00000E+00
    0.50881E+00         0.11831E+00         0.00000E+00
    0.39172E+00         0.10691E+00         0.00000E+00
    0.28117E+00         0.88943E-01         0.00000E+00
    0.17821E+00         0.64774E-01         0.00000E+00
    0.84066E-01         0.34910E-01         0.00000E+00
    0.00000E+00         0.00000E+00         0.00000E+00
    0.19618E+01        -0.23132E+00         0.00000E+00
    0.18574E+01        -0.17350E+00         0.00000E+00
    0.17330E+01        -0.12086E+00         0.00000E+00
    0.15952E+01        -0.74117E-01         0.00000E+00
    0.14490E+01        -0.33649E-01         0.00000E+00
    0.12986E+01         0.42310E-03         0.00000E+00
    0.11469E+01         0.28133E-01         0.00000E+00
    0.99630E+00         0.49576E-01         0.00000E+00
    0.84855E+00         0.64836E-01         0.00000E+00
    0.70502E+00         0.73942E-01         0.00000E+00
    0.56691E+00         0.76871E-01         0.00000E+00
    0.43534E+00         0.73580E-01         0.00000E+00
    0.31148E+00         0.64063E-01         0.00000E+00
    0.19667E+00         0.48419E-01         0.00000E+00
    0.92341E-01         0.26911E-01         0.00000E+00
    0.00000E+00         0.00000E+00         0.00000E+00
    0.22059E+01        -0.33202E+00         0.00000E+00
    0.20826E+01        -0.27108E+00         0.00000E+00
    0.19384E+01        -0.21582E+00         0.00000E+00
    0.17805E+01        -0.16646E+00         0.00000E+00
    0.16144E+01        -0.12295E+00         0.00000E+00
    0.14446E+01        -0.85047E-01         0.00000E+00
    0.12743E+01        -0.52473E-01         0.00000E+00
    0.11058E+01        -0.25011E-01         0.00000E+00
    0.94105E+00        -0.25664E-02         0.00000E+00
    0.78128E+00         0.14806E-01         0.00000E+00
    0.62771E+00         0.26911E-01         0.00000E+00
    0.48151E+00         0.33464E-01         0.00000E+00
    0.34401E+00         0.34165E-01         0.00000E+00
    0.21673E+00         0.28796E-01         0.00000E+00
    0.10144E+00         0.17325E-01         0.00000E+00
    0.00000E+00         0.00000E+00         0.00000E+00
    0.24626E+01        -0.45289E+00         0.00000E+00
    0.23167E+01        -0.38851E+00         0.00000E+00
    0.21500E+01        -0.33031E+00         0.00000E+00
    0.19700E+01        -0.27796E+00         0.00000E+00
    0.17829E+01        -0.23088E+00         0.00000E+00
    0.15932E+01        -0.18841E+00         0.00000E+00
    0.14041E+01        -0.14999E+00         0.00000E+00
    0.12180E+01        -0.11525E+00         0.00000E+00
    0.10365E+01        -0.84091E-01         0.00000E+00
    0.86080E+00        -0.56668E-01         0.00000E+00
    0.69189E+00        -0.33400E-01         0.00000E+00
    0.53095E+00        -0.14885E-01         0.00000E+00
    0.37936E+00        -0.17946E-02         0.00000E+00
    0.23887E+00         0.52568E-02         0.00000E+00
    0.11162E+00         0.58651E-02         0.00000E+00
    0.00000E+00         0.00000E+00         0.00000E+00
    0.27323E+01        -0.59820E+00         0.00000E+00
    0.25598E+01        -0.53005E+00         0.00000E+00
    0.23675E+01        -0.46858E+00         0.00000E+00
    0.21635E+01        -0.41278E+00         0.00000E+00
    0.19542E+01        -0.36146E+00         0.00000E+00
    0.17442E+01        -0.31350E+00         0.00000E+00
    0.15365E+01        -0.26799E+00         0.00000E+00
    0.13332E+01        -0.22441E+00         0.00000E+00
    0.11356E+01        -0.18263E+00         0.00000E+00
    0.94437E+00        -0.14298E+00         0.00000E+00
    0.76039E+00        -0.10614E+00         0.00000E+00
    0.58461E+00        -0.73098E-01         0.00000E+00
    0.41842E+00        -0.44987E-01         0.00000E+00
    0.26379E+00        -0.22925E-01         0.00000E+00
    0.12329E+00        -0.77917E-02         0.00000E+00
    0.00000E+00         0.00000E+00         0.00000E+00
    0.30146E+01        -0.77273E+00         0.00000E+00
    0.28112E+01        -0.70046E+00         0.00000E+00
    0.25901E+01        -0.63533E+00         0.00000E+00
    0.23601E+01        -0.57553E+00         0.00000E+00
    0.21277E+01        -0.51916E+00         0.00000E+00
    0.18973E+01        -0.46454E+00         0.00000E+00
    0.16715E+01        -0.41042E+00         0.00000E+00
    0.14518E+01        -0.35607E+00         0.00000E+00
    0.12389E+01        -0.30141E+00         0.00000E+00
    0.10330E+01        -0.24691E+00         0.00000E+00
    0.83442E+00        -0.19362E+00         0.00000E+00
    0.64379E+00        -0.14298E+00         0.00000E+00
    0.46243E+00        -0.96716E-01         0.00000E+00
    0.29247E+00        -0.56557E-01         0.00000E+00
    0.13701E+00        -0.24005E-01         0.00000E+00
    0.00000E+00         0.00000E+00         0.00000E+00
    0.33088E+01        -0.98186E+00         0.00000E+00
    0.30695E+01        -0.90504E+00         0.00000E+00
    0.28164E+01        -0.83579E+00         0.00000E+00
    0.25586E+01        -0.77130E+00         0.00000E+00
    0.23025E+01        -0.70885E+00         0.00000E+00
    0.20520E+01        -0.64616E+00         0.00000E+00
    0.18090E+01        -0.58156E+00         0.00000E+00
    0.15742E+01        -0.51415E+00         0.00000E+00
    0.13474E+01        -0.44388E+00         0.00000E+00
    0.11279E+01        -0.37145E+00         0.00000E+00
    0.91543E+00        -0.29832E+00         0.00000E+00
    0.71007E+00        -0.22650E+00         0.00000E+00
    0.51291E+00        -0.15840E+00         0.00000E+00
    0.32619E+00        -0.96530E-01         0.00000E+00
    0.15356E+00        -0.43175E-01         0.00000E+00
    0.00000E+00         0.00000E+00         0.00000E+00
    0.36129E+01        -0.12315E+01         0.00000E+00
    0.33326E+01        -0.11496E+01         0.00000E+00
    0.30443E+01        -0.10756E+01         0.00000E+00
    0.27571E+01        -0.10056E+01         0.00000E+00
    0.24771E+01        -0.93577E+00         0.00000E+00
    0.22073E+01        -0.86325E+00         0.00000E+00
    0.19487E+01        -0.78594E+00         0.00000E+00
    0.17007E+01        -0.70275E+00         0.00000E+00
    0.14618E+01        -0.61370E+00         0.00000E+00
    0.12304E+01        -0.51977E+00         0.00000E+00
    0.10051E+01        -0.42290E+00         0.00000E+00
    0.78535E+00        -0.32576E+00         0.00000E+00
    0.57172E+00        -0.23158E+00         0.00000E+00
    0.36651E+00        -0.14381E+00         0.00000E+00
    0.17388E+00        -0.65740E-01         0.00000E+00
    0.00000E+00         0.00000E+00         0.00000E+00
    0.39243E+01        -0.15282E+01         0.00000E+00
    0.35975E+01        -0.14405E+01         0.00000E+00
    0.32706E+01        -0.13610E+01         0.00000E+00
    0.29530E+01        -0.12842E+01         0.00000E+00
    0.26495E+01        -0.12054E+01         0.00000E+00
    0.23620E+01        -0.11209E+01         0.00000E+00
    0.20900E+01        -0.10282E+01         0.00000E+00
    0.18313E+01        -0.92604E+00         0.00000E+00
    0.15830E+01        -0.81455E+00         0.00000E+00
    0.13419E+01        -0.69506E+00         0.00000E+00
    0.11054E+01        -0.57004E+00         0.00000E+00
    0.87173E+00        -0.44292E+00         0.00000E+00
    0.64100E+00        -0.31786E+00         0.00000E+00
    0.41526E+00        -0.19943E+00         0.00000E+00
    0.19912E+00        -0.92179E-01         0.00000E+00
    0.00000E+00         0.00000E+00         0.00000E+00
    0.42386E+01        -0.18788E+01         0.00000E+00
    0.38595E+01        -0.17845E+01         0.00000E+00
    0.34914E+01        -0.16982E+01         0.00000E+00
    0.31426E+01        -0.16131E+01         0.00000E+00
    0.28167E+01        -0.15233E+01         0.00000E+00
    0.25140E+01        -0.14242E+01         0.00000E+00
    0.22318E+01        -0.13129E+01         0.00000E+00
    0.19660E+01        -0.11881E+01         0.00000E+00
    0.17116E+01        -0.10500E+01         0.00000E+00
    0.14637E+01        -0.90040E+00         0.00000E+00
    0.12179E+01        -0.74237E+00         0.00000E+00
    0.97138E+00        -0.58012E+00         0.00000E+00
    0.72303E+00        -0.41888E+00         0.00000E+00
    0.47448E+00        -0.26449E+00         0.00000E+00
    0.23060E+00        -0.12302E+00         0.00000E+00
    0.00000E+00         0.00000E+00         0.00000E+00
    0.45498E+01        -0.22909E+01         0.00000E+00
    0.41128E+01        -0.21885E+01         0.00000E+00
    0.37010E+01        -0.20940E+01         0.00000E+00
    0.33212E+01        -0.19985E+01         0.00000E+00
    0.29753E+01        -0.18949E+01         0.00000E+00
    0.26607E+01        -0.17779E+01         0.00000E+00
    0.23725E+01        -0.16441E+01         0.00000E+00
    0.21039E+01        -0.14924E+01         0.00000E+00
    0.18476E+01        -0.13231E+01         0.00000E+00
    0.15965E+01        -0.11385E+01         0.00000E+00
    0.13443E+01        -0.94226E+00         0.00000E+00
    0.10863E+01        -0.73941E+00         0.00000E+00
    0.82007E+00        -0.53626E+00         0.00000E+00
    0.54630E+00        -0.34012E+00         0.00000E+00
    0.26975E+00        -0.15882E+00         0.00000E+00
    0.00000E+00         0.00000E+00         0.00000E+00
    0.48498E+01        -0.27719E+01         0.00000E+00
    0.43495E+01        -0.26597E+01         0.00000E+00
    0.38923E+01        -0.25546E+01         0.00000E+00
    0.34830E+01        -0.24459E+01         0.00000E+00
    0.31203E+01        -0.23250E+01         0.00000E+00
    0.27986E+01        -0.21860E+01         0.00000E+00
    0.25097E+01        -0.20253E+01         0.00000E+00
    0.22437E+01        -0.18418E+01         0.00000E+00
    0.19905E+01        -0.16363E+01         0.00000E+00
    0.17407E+01        -0.14115E+01         0.00000E+00
    0.14855E+01        -0.11716E+01         0.00000E+00
    0.12180E+01        -0.92248E+00         0.00000E+00
    0.93402E+00        -0.67150E+00         0.00000E+00
    0.63269E+00        -0.42744E+00         0.00000E+00
    0.31800E+00        -0.20020E+00         0.00000E+00
    0.00000E+00         0.00000E+00         0.00000E+00
    0.51278E+01        -0.33296E+01         0.00000E+00
    0.45593E+01        -0.32049E+01         0.00000E+00
    0.40563E+01        -0.30862E+01         0.00000E+00
    0.36203E+01        -0.29603E+01         0.00000E+00
    0.32458E+01        -0.28176E+01         0.00000E+00
    0.29231E+01        -0.26514E+01         0.00000E+00
    0.26398E+01        -0.24583E+01         0.00000E+00
    0.23826E+01        -0.22375E+01         0.00000E+00
    0.21384E+01        -0.19904E+01         0.00000E+00
    0.18949E+01        -0.17202E+01         0.00000E+00
    0.16408E+01        -0.14314E+01         0.00000E+00
    0.13668E+01        -0.11305E+01         0.00000E+00
    0.10659E+01        -0.82584E+00         0.00000E+00
    0.73514E+00        -0.52757E+00         0.00000E+00
    0.37663E+00        -0.24784E+00         0.00000E+00
    0.00000E+00         0.00000E+00         0.00000E+00
    0.53700E+01        -0.39710E+01         0.00000E+00
    0.47294E+01        -0.38303E+01         0.00000E+00
    0.41819E+01        -0.36937E+01         0.00000E+00
    0.37240E+01        -0.35455E+01         0.00000E+00
    0.33445E+01        -0.33749E+01         0.00000E+00
    0.30281E+01        -0.31750E+01         0.00000E+00
    0.27578E+01        -0.29430E+01         0.00000E+00
    0.25163E+01        -0.26788E+01         0.00000E+00
    0.22874E+01        -0.23846E+01         0.00000E+00
    0.20558E+01        -0.20638E+01         0.00000E+00
    0.18078E+01        -0.17213E+01         0.00000E+00
    0.15311E+01        -0.13639E+01         0.00000E+00
    0.12154E+01        -0.10001E+01         0.00000E+00
    0.85412E+00        -0.64151E+00         0.00000E+00
    0.44647E+00        -0.30246E+00         0.00000E+00
    0.00000E+00         0.00000E+00         0.00000E+00
    0.55588E+01        -0.47026E+01         0.00000E+00
    0.48440E+01        -0.45411E+01         0.00000E+00
    0.42556E+01        -0.43806E+01         0.00000E+00
    0.37830E+01        -0.42031E+01         0.00000E+00
    0.34072E+01        -0.39965E+01         0.00000E+00
    0.31061E+01        -0.37546E+01         0.00000E+00
    0.28568E+01        -0.34759E+01         0.00000E+00
    0.26382E+01        -0.31616E+01         0.00000E+00
    0.24309E+01        -0.28147E+01         0.00000E+00
    0.22172E+01        -0.24390E+01         0.00000E+00
    0.19808E+01        -0.20393E+01         0.00000E+00
    0.17062E+01        -0.16216E+01         0.00000E+00
    0.13792E+01        -0.11946E+01         0.00000E+00
    0.98831E+00        -0.77014E+00         0.00000E+00
    0.52751E+00        -0.36488E+00         0.00000E+00
    0.00000E+00         0.00000E+00         0.00000E+00
    0.56718E+01        -0.55293E+01         0.00000E+00
    0.48831E+01        -0.53404E+01         0.00000E+00
    0.42610E+01        -0.51481E+01         0.00000E+00
    0.37843E+01        -0.49314E+01         0.00000E+00
    0.34235E+01        -0.46781E+01         0.00000E+00
    0.31476E+01        -0.43839E+01         0.00000E+00
    0.29276E+01        -0.40493E+01         0.00000E+00
    0.27384E+01        -0.36777E+01         0.00000E+00
    0.25584E+01        -0.32731E+01         0.00000E+00
    0.23681E+01        -0.28393E+01         0.00000E+00
    0.21490E+01        -0.23804E+01         0.00000E+00
    0.18827E+01        -0.19011E+01         0.00000E+00
    0.15503E+01        -0.14085E+01         0.00000E+00
    0.11335E+01        -0.91406E+00         0.00000E+00
    0.61833E+00        -0.43600E+00         0.00000E+00
    0.00000E+00         0.00000E+00         0.00000E+00
    0.56812E+01        -0.64540E+01         0.00000E+00
    0.48228E+01        -0.62289E+01         0.00000E+00
    0.41789E+01        -0.59935E+01         0.00000E+00
    0.37129E+01        -0.57242E+01         0.00000E+00
    0.33807E+01        -0.54101E+01         0.00000E+00
    0.31405E+01        -0.50503E+01         0.00000E+00
    0.29571E+01        -0.46495E+01         0.00000E+00
    0.28024E+01        -0.42133E+01         0.00000E+00
    0.26539E+01        -0.37470E+01         0.00000E+00
    0.24913E+01        -0.32540E+01         0.00000E+00
    0.22953E+01        -0.27366E+01         0.00000E+00
    0.20448E+01        -0.21972E+01         0.00000E+00
    0.17156E+01        -0.16397E+01         0.00000E+00
    0.12811E+01        -0.10735E+01         0.00000E+00
    0.71522E+00        -0.51685E+00         0.00000E+00
    0.00000E+00         0.00000E+00         0.00000E+00
    0.55516E+01        -0.74762E+01         0.00000E+00
    0.46333E+01        -0.72026E+01         0.00000E+00
    0.39869E+01        -0.69084E+01         0.00000E+00
    0.35518E+01        -0.65678E+01         0.00000E+00
    0.32637E+01        -0.61742E+01         0.00000E+00
    0.30688E+01        -0.57334E+01         0.00000E+00
    0.29269E+01        -0.52551E+01         0.00000E+00
    0.28091E+01        -0.47481E+01         0.00000E+00
    0.26936E+01        -0.42180E+01         0.00000E+00
    0.25614E+01        -0.36671E+01         0.00000E+00
    0.23933E+01        -0.30954E+01         0.00000E+00
    0.21669E+01        -0.25013E+01         0.00000E+00
    0.18532E+01        -0.18840E+01         0.00000E+00
    0.14154E+01        -0.12479E+01         0.00000E+00
    0.81081E+00        -0.60859E+00         0.00000E+00
    0.00000E+00         0.00000E+00         0.00000E+00
    0.52373E+01        -0.85904E+01         0.00000E+00
    0.42785E+01        -0.82512E+01         0.00000E+00
    0.36596E+01        -0.78752E+01         0.00000E+00
    0.32816E+01        -0.74369E+01         0.00000E+00
    0.30533E+01        -0.69402E+01         0.00000E+00
    0.29098E+01        -0.64015E+01         0.00000E+00
    0.28099E+01        -0.58363E+01         0.00000E+00
    0.27273E+01        -0.52549E+01         0.00000E+00
    0.26431E+01        -0.46619E+01         0.00000E+00
    0.25412E+01        -0.40578E+01         0.00000E+00
    0.24044E+01        -0.34393E+01         0.00000E+00
    0.22106E+01        -0.28005E+01         0.00000E+00
    0.19281E+01        -0.21339E+01         0.00000E+00
    0.15100E+01        -0.14352E+01         0.00000E+00
    0.89167E+00        -0.71243E+00         0.00000E+00
    0.00000E+00         0.00000E+00         0.00000E+00
    0.46771E+01        -0.97836E+01         0.00000E+00
    0.37134E+01        -0.93529E+01         0.00000E+00
    0.31689E+01        -0.88595E+01         0.00000E+00
    0.28787E+01        -0.82865E+01         0.00000E+00
    0.27203E+01        -0.76601E+01         0.00000E+00
    0.26268E+01        -0.70102E+01         0.00000E+00
    0.25635E+01        -0.63543E+01         0.00000E+00
    0.25100E+01        -0.57003E+01         0.00000E+00
    0.24524E+01        -0.50499E+01         0.00000E+00
    0.23782E+01        -0.44005E+01         0.00000E+00
    0.22739E+01        -0.37457E+01         0.00000E+00
    0.21201E+01        -0.30756E+01         0.00000E+00
    0.18865E+01        -0.23760E+01         0.00000E+00
    0.15207E+01        -0.16300E+01         0.00000E+00
    0.93354E+00        -0.82932E+00         0.00000E+00
    0.00000E+00         0.00000E+00         0.00000E+00
    0.37815E+01        -0.11029E+02         0.00000E+00
    0.28827E+01        -0.10464E+02         0.00000E+00
    0.24842E+01        -0.97916E+01         0.00000E+00
    0.23038E+01        -0.90362E+01         0.00000E+00
    0.22098E+01        -0.82639E+01         0.00000E+00
    0.21554E+01        -0.75036E+01         0.00000E+00
    0.21180E+01        -0.67647E+01         0.00000E+00
    0.20849E+01        -0.60485E+01         0.00000E+00
    0.20473E+01        -0.53515E+01         0.00000E+00
    0.19972E+01        -0.46678E+01         0.00000E+00
    0.19247E+01        -0.39883E+01         0.00000E+00
    0.18160E+01        -0.33007E+01         0.00000E+00
    0.16470E+01        -0.25868E+01         0.00000E+00
    0.13725E+01        -0.18191E+01         0.00000E+00
    0.89034E+00        -0.95786E+00         0.00000E+00
    0.00000E+00         0.00000E+00         0.00000E+00
    0.23940E+01        -0.12290E+02         0.00000E+00
    0.17313E+01        -0.11472E+02         0.00000E+00
    0.15443E+01        -0.10509E+02         0.00000E+00
    0.14534E+01        -0.95622E+01         0.00000E+00
    0.14041E+01        -0.86666E+01         0.00000E+00
    0.13737E+01        -0.78228E+01         0.00000E+00
    0.13517E+01        -0.70255E+01         0.00000E+00
    0.13319E+01        -0.62673E+01         0.00000E+00
    0.13098E+01        -0.55401E+01         0.00000E+00
    0.12812E+01        -0.48351E+01         0.00000E+00
    0.12408E+01        -0.41418E+01         0.00000E+00
    0.11810E+01        -0.34468E+01         0.00000E+00
    0.10884E+01        -0.27313E+01         0.00000E+00
    0.93641E+00        -0.19656E+01         0.00000E+00
    0.66316E+00        -0.10910E+01         0.00000E+00
    0.00000E+00         0.00000E+00         0.00000E+00
    0.00000E+00        -0.13272E+02         0.00000E+00
    0.00000E+00        -0.11919E+02         0.00000E+00
    0.00000E+00        -0.10765E+02         0.00000E+00
    0.00000E+00        -0.97386E+01         0.00000E+00
    0.00000E+00        -0.87981E+01         0.00000E+00
    0.00000E+00        -0.79259E+01         0.00000E+00
    0.00000E+00        -0.71091E+01         0.00000E+00
    0.00000E+00        -0.63371E+01         0.00000E+00
    0.00000E+00        -0.56001E+01         0.00000E+00
    0.00000E+00        -0.48881E+01         0.00000E+00
    0.00000E+00        -0.41901E+01         0.00000E+00
    0.00000E+00        -0.34929E+01         0.00000E+00
    0.00000E+00        -0.27778E+01         0.00000E+00
    0.00000E+00        -0.20152E+01         0.00000E+00
    0.00000E+00        -0.11515E+01         0.00000E+00
    0.00000E+00         0.00000E+00         0.00000E+00
CELL_DATA        450
VECTORS vDarcy double 
    0.82117E-06         0.66145E-09         0.00000E+00
    0.81783E-06         0.12204E-08         0.00000E+00
    0.81733E-06         0.10772E-08         0.00000E+00
    0.81661E-06         0.10192E-08         0.00000E+00
    0.81597E-06         0.99119E-09         0.00000E+00
    0.81536E-06         0.97248E-09         0.00000E+00
    0.81477E-06         0.95192E-09         0.00000E+00
    0.81420E-06         0.92538E-09         0.00000E+00
    0.81366E-06         0.89233E-09         0.00000E+00
    0.81313E-06         0.85453E-09         0.00000E+00
    0.81262E-06         0.81613E-09         0.00000E+00
    0.81214E-06         0.78513E-09         0.00000E+00
    0.81162E-06         0.77349E-09         0.00000E+00
    0.81132E-06         0.81659E-09         0.00000E+00
    0.80919E-06         0.42971E-09         0.00000E+00
    0.33124E-06        -0.46191E-09         0.00000E+00
    0.33000E-06        -0.68887E-09         0.00000E+00
    0.32862E-06        -0.40657E-09         0.00000E+00
    0.32764E-06        -0.34278E-09         0.00000E+00
    0.32669E-06        -0.31720E-09         0.00000E+00
    0.32577E-06        -0.30561E-09         0.00000E+00
    0.32487E-06        -0.29747E-09         0.00000E+00
    0.32400E-06        -0.28945E-09         0.00000E+00
    0.32316E-06        -0.28065E-09         0.00000E+00
    0.32236E-06        -0.27165E-09         0.00000E+00
    0.32159E-06        -0.26460E-09         0.00000E+00
    0.32084E-06        -0.26613E-09         0.00000E+00
    0.32013E-06        -0.28920E-09         0.00000E+00
    0.31918E-06        -0.45504E-09         0.00000E+00
    0.31848E-06        -0.30148E-09         0.00000E+00
    0.11147E-06        -0.12273E-09         0.00000E+00
    0.11113E-06        -0.32534E-09         0.00000E+00
    0.11053E-06        -0.38524E-09         0.00000E+00
    0.10991E-06        -0.35901E-09         0.00000E+00
    0.10932E-06        -0.34938E-09         0.00000E+00
    0.10873E-06        -0.34264E-09         0.00000E+00
    0.10816E-06        -0.33559E-09         0.00000E+00
    0.10760E-06        -0.32652E-09         0.00000E+00
    0.10706E-06        -0.31518E-09         0.00000E+00
    0.10654E-06        -0.30220E-09         0.00000E+00
    0.10605E-06        -0.28917E-09         0.00000E+00
    0.10558E-06        -0.27823E-09         0.00000E+00
    0.10513E-06        -0.27906E-09         0.00000E+00
    0.10472E-06        -0.21649E-09         0.00000E+00
    0.10448E-06        -0.74114E-10         0.00000E+00
    0.34640E-07        -0.41294E-10         0.00000E+00
    0.34512E-07        -0.11476E-09         0.00000E+00
    0.34293E-07        -0.16113E-09         0.00000E+00
    0.34029E-07        -0.17596E-09         0.00000E+00
    0.33756E-07        -0.17627E-09         0.00000E+00
    0.33484E-07        -0.17482E-09         0.00000E+00
    0.33215E-07        -0.17171E-09         0.00000E+00
    0.32953E-07        -0.16699E-09         0.00000E+00
    0.32701E-07        -0.16077E-09         0.00000E+00
    0.32460E-07        -0.15334E-09         0.00000E+00
    0.32233E-07        -0.14501E-09         0.00000E+00
    0.32021E-07        -0.13620E-09         0.00000E+00
    0.31828E-07        -0.11831E-09         0.00000E+00
    0.31674E-07        -0.84093E-10         0.00000E+00
    0.31578E-07        -0.31678E-10         0.00000E+00
    0.10583E-07        -0.13794E-10         0.00000E+00
    0.10530E-07        -0.37704E-10         0.00000E+00
    0.10447E-07        -0.53505E-10         0.00000E+00
    0.10345E-07        -0.61420E-10         0.00000E+00
    0.10235E-07        -0.63933E-10         0.00000E+00
    0.10122E-07        -0.63964E-10         0.00000E+00
    0.10011E-07        -0.63091E-10         0.00000E+00
    0.99030E-08        -0.61514E-10         0.00000E+00
    0.97992E-08        -0.59313E-10         0.00000E+00
    0.97010E-08        -0.56542E-10         0.00000E+00
    0.96094E-08        -0.53214E-10         0.00000E+00
    0.95258E-08        -0.48425E-10         0.00000E+00
    0.94530E-08        -0.40846E-10         0.00000E+00
    0.93957E-08        -0.28775E-10         0.00000E+00
    0.93600E-08        -0.10649E-10         0.00000E+00
    0.36903E-08        -0.23473E-11         0.00000E+00
    0.36659E-08        -0.59765E-11         0.00000E+00
    0.36295E-08        -0.79845E-11         0.00000E+00
    0.35854E-08        -0.90253E-11         0.00000E+00
    0.35374E-08        -0.94917E-11         0.00000E+00
    0.34884E-08        -0.97712E-11         0.00000E+00
    0.34400E-08        -0.10062E-10         0.00000E+00
    0.33933E-08        -0.10367E-10         0.00000E+00
    0.33491E-08        -0.10592E-10         0.00000E+00
    0.33078E-08        -0.10678E-10         0.00000E+00
    0.32699E-08        -0.10521E-10         0.00000E+00
    0.32360E-08        -0.99594E-11         0.00000E+00
    0.32072E-08        -0.86961E-11         0.00000E+00
    0.31849E-08        -0.63640E-11         0.00000E+00
    0.31710E-08        -0.24463E-11         0.00000E+00
    0.21400E-08         0.38726E-11         0.00000E+00
    0.21230E-08         0.10685E-10         0.00000E+00
    0.20986E-08         0.15443E-10         0.00000E+00
    0.20699E-08         0.18069E-10         0.00000E+00
    0.20393E-08         0.18901E-10         0.00000E+00
    0.20086E-08         0.18409E-10         0.00000E+00
    0.19790E-08         0.17065E-10         0.00000E+00
    0.19511E-08         0.15274E-10         0.00000E+00
    0.19252E-08         0.13321E-10         0.00000E+00
    0.19016E-08         0.11355E-10         0.00000E+00
    0.18803E-08         0.94074E-11         0.00000E+00
    0.18617E-08         0.74403E-11         0.00000E+00
    0.18461E-08         0.53975E-11         0.00000E+00
    0.18341E-08         0.32572E-11         0.00000E+00
    0.18266E-08         0.10824E-11         0.00000E+00
    0.23887E-08         0.91876E-11         0.00000E+00
    0.23680E-08         0.24674E-10         0.00000E+00
    0.23398E-08         0.34570E-10         0.00000E+00
    0.23078E-08         0.39555E-10         0.00000E+00
    0.22748E-08         0.40730E-10         0.00000E+00
    0.22428E-08         0.39306E-10         0.00000E+00
    0.22129E-08         0.36381E-10         0.00000E+00
    0.21856E-08         0.32803E-10         0.00000E+00
    0.21609E-08         0.29101E-10         0.00000E+00
    0.21388E-08         0.25492E-10         0.00000E+00
    0.21190E-08         0.21929E-10         0.00000E+00
    0.21018E-08         0.18190E-10         0.00000E+00
    0.20873E-08         0.13982E-10         0.00000E+00
    0.20760E-08         0.90365E-11         0.00000E+00
    0.20687E-08         0.31747E-11         0.00000E+00
    0.35353E-08         0.15945E-10         0.00000E+00
    0.35023E-08         0.42171E-10         0.00000E+00
    0.34595E-08         0.57793E-10         0.00000E+00
    0.34128E-08         0.64642E-10         0.00000E+00
    0.33664E-08         0.65057E-10         0.00000E+00
    0.33228E-08         0.61400E-10         0.00000E+00
    0.32833E-08         0.55707E-10         0.00000E+00
    0.32483E-08         0.49471E-10         0.00000E+00
    0.32172E-08         0.43558E-10         0.00000E+00
    0.31896E-08         0.38228E-10         0.00000E+00
    0.31649E-08         0.33254E-10         0.00000E+00
    0.31429E-08         0.28090E-10         0.00000E+00
    0.31241E-08         0.22066E-10         0.00000E+00
    0.31090E-08         0.14572E-10         0.00000E+00
    0.30989E-08         0.51953E-11         0.00000E+00
    0.55286E-08         0.25869E-10         0.00000E+00
    0.54726E-08         0.67361E-10         0.00000E+00
    0.54037E-08         0.90080E-10         0.00000E+00
    0.53314E-08         0.97983E-10         0.00000E+00
    0.52620E-08         0.95624E-10         0.00000E+00
    0.51994E-08         0.87358E-10         0.00000E+00
    0.51446E-08         0.76786E-10         0.00000E+00
    0.50974E-08         0.66428E-10         0.00000E+00
    0.50564E-08         0.57621E-10         0.00000E+00
    0.50200E-08         0.50602E-10         0.00000E+00
    0.49870E-08         0.44728E-10         0.00000E+00
    0.49568E-08         0.38800E-10         0.00000E+00
    0.49299E-08         0.31417E-10         0.00000E+00
    0.49077E-08         0.21335E-10         0.00000E+00
    0.48921E-08         0.77418E-11         0.00000E+00
    0.86542E-08         0.40639E-10         0.00000E+00
    0.85589E-08         0.10392E-09         0.00000E+00
    0.84480E-08         0.13488E-09         0.00000E+00
    0.83366E-08         0.14150E-09         0.00000E+00
    0.82344E-08         0.13230E-09         0.00000E+00
    0.81460E-08         0.11511E-09         0.00000E+00
    0.80724E-08         0.96123E-10         0.00000E+00
    0.80114E-08         0.79480E-10         0.00000E+00
    0.79598E-08         0.67169E-10         0.00000E+00
    0.79141E-08         0.59216E-10         0.00000E+00
    0.78714E-08         0.54104E-10         0.00000E+00
    0.78306E-08         0.49340E-10         0.00000E+00
    0.77922E-08         0.42106E-10         0.00000E+00
    0.77587E-08         0.29911E-10         0.00000E+00
    0.77341E-08         0.11152E-10         0.00000E+00
    0.13419E-07         0.61984E-10         0.00000E+00
    0.13259E-07         0.15504E-09         0.00000E+00
    0.13083E-07         0.19363E-09         0.00000E+00
    0.12916E-07         0.19318E-09         0.00000E+00
    0.12770E-07         0.16926E-09         0.00000E+00
    0.12651E-07         0.13553E-09         0.00000E+00
    0.12559E-07         0.10241E-09         0.00000E+00
    0.12488E-07         0.76538E-10         0.00000E+00
    0.12431E-07         0.60729E-10         0.00000E+00
    0.12379E-07         0.54399E-10         0.00000E+00
    0.12329E-07         0.54300E-10         0.00000E+00
    0.12276E-07         0.55487E-10         0.00000E+00
    0.12223E-07         0.52438E-10         0.00000E+00
    0.12172E-07         0.40238E-10         0.00000E+00
    0.12132E-07         0.15655E-10         0.00000E+00
    0.20558E-07         0.91318E-10         0.00000E+00
    0.20294E-07         0.22199E-09         0.00000E+00
    0.20022E-07         0.26295E-09         0.00000E+00
    0.19778E-07         0.24301E-09         0.00000E+00
    0.19580E-07         0.18978E-09         0.00000E+00
    0.19433E-07         0.12653E-09         0.00000E+00
    0.19332E-07         0.70364E-10         0.00000E+00
    0.19265E-07         0.31603E-10         0.00000E+00
    0.19216E-07         0.13998E-10         0.00000E+00
    0.19172E-07         0.15569E-10         0.00000E+00
    0.19122E-07         0.29839E-10         0.00000E+00
    0.19060E-07         0.47389E-10         0.00000E+00
    0.18987E-07         0.57703E-10         0.00000E+00
    0.18912E-07         0.51215E-10         0.00000E+00
    0.18847E-07         0.21350E-10         0.00000E+00
    0.31081E-07         0.12871E-09         0.00000E+00
    0.30653E-07         0.30087E-09         0.00000E+00
    0.30242E-07         0.32892E-09         0.00000E+00
    0.29900E-07         0.26496E-09         0.00000E+00
    0.29649E-07         0.15665E-09         0.00000E+00
    0.29491E-07         0.42584E-10         0.00000E+00
    0.29410E-07        -0.49995E-10         0.00000E+00
    0.29382E-07        -0.10560E-09         0.00000E+00
    0.29378E-07        -0.11964E-09         0.00000E+00
    0.29371E-07        -0.96925E-10         0.00000E+00
    0.29343E-07        -0.49626E-10         0.00000E+00
    0.29281E-07         0.50084E-11         0.00000E+00
    0.29186E-07         0.47524E-10         0.00000E+00
    0.29073E-07         0.59646E-10         0.00000E+00
    0.28965E-07         0.28006E-10         0.00000E+00
    0.46321E-07         0.17079E-09         0.00000E+00
    0.45643E-07         0.37614E-09         0.00000E+00
    0.45040E-07         0.35652E-09         0.00000E+00
    0.44585E-07         0.20329E-09         0.00000E+00
    0.44303E-07        -0.36015E-11         0.00000E+00
    0.44181E-07        -0.20205E-09         0.00000E+00
    0.44185E-07        -0.35015E-09         0.00000E+00
    0.44269E-07        -0.42568E-09         0.00000E+00
    0.44380E-07        -0.42388E-09         0.00000E+00
    0.44473E-07        -0.35469E-09         0.00000E+00
    0.44510E-07        -0.23982E-09         0.00000E+00
    0.44473E-07        -0.10961E-09         0.00000E+00
    0.44358E-07         0.10958E-11         0.00000E+00
    0.44188E-07         0.58128E-10         0.00000E+00
    0.44007E-07         0.34596E-10         0.00000E+00
    0.67980E-07         0.20690E-09         0.00000E+00
    0.66928E-07         0.40953E-09         0.00000E+00
    0.66078E-07         0.27239E-09         0.00000E+00
    0.65518E-07        -0.49070E-10         0.00000E+00
    0.65266E-07        -0.42474E-09         0.00000E+00
    0.65284E-07        -0.75806E-09         0.00000E+00
    0.65502E-07        -0.98733E-09         0.00000E+00
    0.65834E-07        -0.10826E-08         0.00000E+00
    0.66192E-07        -0.10406E-08         0.00000E+00
    0.66499E-07        -0.88015E-09         0.00000E+00
    0.66689E-07        -0.63785E-09         0.00000E+00
    0.66726E-07        -0.36467E-09         0.00000E+00
    0.66603E-07        -0.12098E-09         0.00000E+00
    0.66351E-07         0.31031E-10         0.00000E+00
    0.66042E-07         0.38261E-10         0.00000E+00
    0.98137E-07         0.21273E-09         0.00000E+00
    0.96549E-07         0.32196E-09         0.00000E+00
    0.95403E-07        -0.61998E-10         0.00000E+00
    0.94797E-07        -0.68255E-09         0.00000E+00
    0.94717E-07        -0.13348E-08         0.00000E+00
    0.95072E-07        -0.18746E-08         0.00000E+00
    0.95732E-07        -0.22162E-08         0.00000E+00
    0.96551E-07        -0.23232E-08         0.00000E+00
    0.97385E-07        -0.21976E-08         0.00000E+00
    0.98103E-07        -0.18721E-08         0.00000E+00
    0.98602E-07        -0.14049E-08         0.00000E+00
    0.98811E-07        -0.87747E-09         0.00000E+00
    0.98710E-07        -0.39020E-09         0.00000E+00
    0.98340E-07        -0.52896E-10         0.00000E+00
    0.97815E-07         0.32172E-10         0.00000E+00
    0.13921E-06         0.14027E-09         0.00000E+00
    0.13688E-06        -0.33807E-10         0.00000E+00
    0.13543E-06        -0.88916E-09         0.00000E+00
    0.13493E-06        -0.20149E-08         0.00000E+00
    0.13530E-06        -0.30999E-08         0.00000E+00
    0.13634E-06        -0.39400E-08         0.00000E+00
    0.13783E-06        -0.44257E-08         0.00000E+00
    0.13952E-06        -0.45206E-08         0.00000E+00
    0.14120E-06        -0.42397E-08         0.00000E+00
    0.14265E-06        -0.36359E-08         0.00000E+00
    0.14372E-06        -0.27958E-08         0.00000E+00
    0.14428E-06        -0.18413E-08         0.00000E+00
    0.14427E-06        -0.93157E-09         0.00000E+00
    0.14374E-06        -0.25369E-09         0.00000E+00
    0.14285E-06         0.12907E-11         0.00000E+00
    0.19381E-06        -0.96965E-10         0.00000E+00
    0.19053E-06        -0.91245E-09         0.00000E+00
    0.18886E-06        -0.26084E-08         0.00000E+00
    0.18880E-06        -0.45468E-08         0.00000E+00
    0.19010E-06        -0.62748E-08         0.00000E+00
    0.19240E-06        -0.75229E-08         0.00000E+00
    0.19532E-06        -0.81711E-08         0.00000E+00
    0.19848E-06        -0.82012E-08         0.00000E+00
    0.20155E-06        -0.76555E-08         0.00000E+00
    0.20424E-06        -0.66139E-08         0.00000E+00
    0.20629E-06        -0.51931E-08         0.00000E+00
    0.20749E-06        -0.35617E-08         0.00000E+00
    0.20773E-06        -0.19563E-08         0.00000E+00
    0.20701E-06        -0.68273E-09         0.00000E+00
    0.20554E-06        -0.85569E-10         0.00000E+00
    0.26456E-06        -0.64477E-09         0.00000E+00
    0.26012E-06        -0.27293E-08         0.00000E+00
    0.25852E-06        -0.58425E-08         0.00000E+00
    0.25950E-06        -0.90244E-08         0.00000E+00
    0.26254E-06        -0.11649E-07         0.00000E+00
    0.26699E-06        -0.13400E-07         0.00000E+00
    0.27222E-06        -0.14186E-07         0.00000E+00
    0.27770E-06        -0.14049E-07         0.00000E+00
    0.28297E-06        -0.13083E-07         0.00000E+00
    0.28761E-06        -0.11401E-07         0.00000E+00
    0.29127E-06        -0.91382E-08         0.00000E+00
    0.29361E-06        -0.64993E-08         0.00000E+00
    0.29437E-06        -0.38083E-08         0.00000E+00
    0.29345E-06        -0.15395E-08         0.00000E+00
    0.29108E-06        -0.28980E-09         0.00000E+00
    0.35368E-06        -0.17365E-08         0.00000E+00
    0.34802E-06        -0.61300E-08         0.00000E+00
    0.34710E-06        -0.11516E-07         0.00000E+00
    0.35020E-06        -0.16499E-07         0.00000E+00
    0.35625E-06        -0.20273E-07         0.00000E+00
    0.36414E-06        -0.22541E-07         0.00000E+00
    0.37293E-06        -0.23341E-07         0.00000E+00
    0.38185E-06        -0.22853E-07         0.00000E+00
    0.39034E-06        -0.21267E-07         0.00000E+00
    0.39791E-06        -0.18724E-07         0.00000E+00
    0.40408E-06        -0.15343E-07         0.00000E+00
    0.40831E-06        -0.11314E-07         0.00000E+00
    0.41010E-06        -0.70268E-08         0.00000E+00
    0.40911E-06        -0.31683E-08         0.00000E+00
    0.40544E-06        -0.72638E-09         0.00000E+00
    0.46252E-06        -0.37315E-08         0.00000E+00
    0.45589E-06        -0.12078E-07         0.00000E+00
    0.45689E-06        -0.20940E-07         0.00000E+00
    0.46387E-06        -0.28360E-07         0.00000E+00
    0.47483E-06        -0.33418E-07         0.00000E+00
    0.48796E-06        -0.36016E-07         0.00000E+00
    0.50186E-06        -0.36509E-07         0.00000E+00
    0.51560E-06        -0.35363E-07         0.00000E+00
    0.52857E-06        -0.32926E-07         0.00000E+00
    0.54027E-06        -0.29350E-07         0.00000E+00
    0.55014E-06        -0.24652E-07         0.00000E+00
    0.55739E-06        -0.18890E-07         0.00000E+00
    0.56111E-06        -0.12420E-07         0.00000E+00
    0.56043E-06        -0.61401E-08         0.00000E+00
    0.55500E-06        -0.16005E-08         0.00000E+00
    0.59088E-06        -0.71682E-08         0.00000E+00
    0.58420E-06        -0.21967E-07         0.00000E+00
    0.58939E-06        -0.35886E-07         0.00000E+00
    0.60306E-06        -0.46305E-07         0.00000E+00
    0.62166E-06        -0.52432E-07         0.00000E+00
    0.64233E-06        -0.54747E-07         0.00000E+00
    0.66317E-06        -0.54277E-07         0.00000E+00
    0.68319E-06        -0.51994E-07         0.00000E+00
    0.70194E-06        -0.48484E-07         0.00000E+00
    0.71910E-06        -0.43870E-07         0.00000E+00
    0.73414E-06        -0.37916E-07         0.00000E+00
    0.74602E-06        -0.30313E-07         0.00000E+00
    0.75316E-06        -0.21134E-07         0.00000E+00
    0.75371E-06        -0.11362E-07         0.00000E+00
    0.74627E-06        -0.32620E-08         0.00000E+00
    0.73622E-06        -0.12845E-07         0.00000E+00
    0.73167E-06        -0.37769E-07         0.00000E+00
    0.74504E-06        -0.58620E-07         0.00000E+00
    0.76975E-06        -0.72162E-07         0.00000E+00
    0.79970E-06        -0.78357E-07         0.00000E+00
    0.83061E-06        -0.79037E-07         0.00000E+00
    0.86021E-06        -0.76457E-07         0.00000E+00
    0.88780E-06        -0.72363E-07         0.00000E+00
    0.91341E-06        -0.67642E-07         0.00000E+00
    0.93725E-06        -0.62313E-07         0.00000E+00
    0.95906E-06        -0.55688E-07         0.00000E+00
    0.97768E-06        -0.46717E-07         0.00000E+00
    0.99065E-06        -0.34678E-07         0.00000E+00
    0.99438E-06        -0.20206E-07         0.00000E+00
    0.98530E-06        -0.62810E-08         0.00000E+00
    0.89256E-06        -0.21959E-07         0.00000E+00
    0.89477E-06        -0.62235E-07         0.00000E+00
    0.92321E-06        -0.91813E-07         0.00000E+00
    0.96545E-06        -0.10736E-06         0.00000E+00
    0.10114E-05        -0.11114E-06         0.00000E+00
    0.10552E-05        -0.10775E-06         0.00000E+00
    0.10949E-05        -0.10138E-06         0.00000E+00
    0.11307E-05        -0.94688E-07         0.00000E+00
    0.11637E-05        -0.88793E-07         0.00000E+00
    0.11949E-05        -0.83544E-07         0.00000E+00
    0.12249E-05        -0.77646E-07         0.00000E+00
    0.12528E-05        -0.68863E-07         0.00000E+00
    0.12752E-05        -0.54789E-07         0.00000E+00
    0.12859E-05        -0.34629E-07         0.00000E+00
    0.12772E-05        -0.11551E-07         0.00000E+00
    0.10491E-05        -0.36368E-07         0.00000E+00
    0.10674E-05        -0.99184E-07         0.00000E+00
    0.11226E-05        -0.13801E-06         0.00000E+00
    0.11916E-05        -0.15159E-06         0.00000E+00
    0.12584E-05        -0.14808E-06         0.00000E+00
    0.13169E-05        -0.13712E-06         0.00000E+00
    0.13668E-05        -0.12513E-06         0.00000E+00
    0.14104E-05        -0.11523E-06         0.00000E+00
    0.14502E-05        -0.10845E-06         0.00000E+00
    0.14886E-05        -0.10447E-06         0.00000E+00
    0.15274E-05        -0.10157E-06         0.00000E+00
    0.15669E-05        -0.96126E-07         0.00000E+00
    0.16037E-05        -0.82857E-07         0.00000E+00
    0.16283E-05        -0.57170E-07         0.00000E+00
    0.16254E-05        -0.20402E-07         0.00000E+00
    0.11878E-05        -0.59296E-07         0.00000E+00
    0.12410E-05        -0.15365E-06         0.00000E+00
    0.13432E-05        -0.19774E-06         0.00000E+00
    0.14504E-05        -0.19920E-06         0.00000E+00
    0.15408E-05        -0.18098E-06         0.00000E+00
    0.16128E-05        -0.15948E-06         0.00000E+00
    0.16713E-05        -0.14108E-06         0.00000E+00
    0.17213E-05        -0.12808E-06         0.00000E+00
    0.17665E-05        -0.12099E-06         0.00000E+00
    0.18106E-05        -0.11937E-06         0.00000E+00
    0.18569E-05        -0.12171E-06         0.00000E+00
    0.19086E-05        -0.12430E-06         0.00000E+00
    0.19653E-05        -0.11804E-06         0.00000E+00
    0.20153E-05        -0.90360E-07         0.00000E+00
    0.20310E-05        -0.34761E-07         0.00000E+00
    0.12796E-05        -0.95975E-07         0.00000E+00
    0.14082E-05        -0.23317E-06         0.00000E+00
    0.15919E-05        -0.26003E-06         0.00000E+00
    0.17441E-05        -0.23016E-06         0.00000E+00
    0.18521E-05        -0.19401E-06         0.00000E+00
    0.19332E-05        -0.16303E-06         0.00000E+00
    0.19975E-05        -0.14015E-06         0.00000E+00
    0.20518E-05        -0.12557E-06         0.00000E+00
    0.21006E-05        -0.11893E-06         0.00000E+00
    0.21481E-05        -0.11983E-06         0.00000E+00
    0.21987E-05        -0.12768E-06         0.00000E+00
    0.22582E-05        -0.14057E-06         0.00000E+00
    0.23365E-05        -0.15195E-06         0.00000E+00
    0.24281E-05        -0.13393E-06         0.00000E+00
    0.24908E-05        -0.56143E-07         0.00000E+00
    0.12706E-05        -0.18302E-06         0.00000E+00
    0.15881E-05        -0.31625E-06         0.00000E+00
    0.18868E-05        -0.26272E-06         0.00000E+00
    0.20548E-05        -0.20742E-06         0.00000E+00
    0.21700E-05        -0.16392E-06         0.00000E+00
    0.22548E-05        -0.13255E-06         0.00000E+00
    0.23222E-05        -0.11136E-06         0.00000E+00
    0.23793E-05        -0.98663E-07         0.00000E+00
    0.24304E-05        -0.93449E-07         0.00000E+00
    0.24794E-05        -0.95441E-07         0.00000E+00
    0.25305E-05        -0.10498E-06         0.00000E+00
    0.25907E-05        -0.12266E-06         0.00000E+00
    0.26720E-05        -0.14786E-06         0.00000E+00
    0.28184E-05        -0.17070E-06         0.00000E+00
    0.29860E-05        -0.87443E-07         0.00000E+00
    0.11308E-05        -0.38550E-07         0.00000E+00
    0.18539E-05        -0.94925E-07         0.00000E+00
    0.21341E-05        -0.75694E-07         0.00000E+00
    0.23040E-05        -0.60559E-07         0.00000E+00
    0.24184E-05        -0.48051E-07         0.00000E+00
    0.25043E-05        -0.39096E-07         0.00000E+00
    0.25737E-05        -0.33066E-07         0.00000E+00
    0.26327E-05        -0.29534E-07         0.00000E+00
    0.26854E-05        -0.28280E-07         0.00000E+00
    0.27350E-05        -0.29350E-07         0.00000E+00
    0.27849E-05        -0.33083E-07         0.00000E+00
    0.28409E-05        -0.40266E-07         0.00000E+00
    0.29158E-05        -0.51608E-07         0.00000E+00
    0.30379E-05        -0.72224E-07         0.00000E+00
    0.34261E-05        -0.45505E-07         0.00000E+00
POINT_DATA        496
VECTORS vDarcyNodal double 
    0.81976E-06         0.20767E-08         0.00000E+00
    0.81915E-06         0.27127E-08         0.00000E+00
    0.81797E-06         0.28927E-08         0.00000E+00
    0.81703E-06         0.23493E-08         0.00000E+00
    0.81632E-06         0.22164E-08         0.00000E+00
    0.81568E-06         0.21458E-08         0.00000E+00
    0.81508E-06         0.20969E-08         0.00000E+00
    0.81450E-06         0.20440E-08         0.00000E+00
    0.81395E-06         0.19803E-08         0.00000E+00
    0.81341E-06         0.19064E-08         0.00000E+00
    0.81290E-06         0.18294E-08         0.00000E+00
    0.81239E-06         0.17678E-08         0.00000E+00
    0.81187E-06         0.17430E-08         0.00000E+00
    0.81125E-06         0.19913E-08         0.00000E+00
    0.81050E-06         0.18029E-08         0.00000E+00
    0.81012E-06         0.13651E-08         0.00000E+00
    0.57564E-06        -0.74606E-09         0.00000E+00
    0.57486E-06        -0.82377E-09         0.00000E+00
    0.57355E-06        -0.59083E-09         0.00000E+00
    0.57258E-06        -0.25122E-09         0.00000E+00
    0.57174E-06        -0.20471E-09         0.00000E+00
    0.57095E-06        -0.18096E-09         0.00000E+00
    0.57020E-06        -0.17133E-09         0.00000E+00
    0.56947E-06        -0.16560E-09         0.00000E+00
    0.56877E-06        -0.16147E-09         0.00000E+00
    0.56809E-06        -0.15849E-09         0.00000E+00
    0.56744E-06        -0.15763E-09         0.00000E+00
    0.56680E-06        -0.16542E-09         0.00000E+00
    0.56618E-06        -0.18318E-09         0.00000E+00
    0.56551E-06        -0.39860E-09         0.00000E+00
    0.56468E-06        -0.55364E-09         0.00000E+00
    0.56420E-06        -0.50353E-09         0.00000E+00
    0.22152E-06        -0.18493E-09         0.00000E+00
    0.22097E-06        -0.33328E-09         0.00000E+00
    0.21999E-06        -0.50774E-09         0.00000E+00
    0.21917E-06        -0.49893E-09         0.00000E+00
    0.21838E-06        -0.45587E-09         0.00000E+00
    0.21762E-06        -0.44232E-09         0.00000E+00
    0.21688E-06        -0.43217E-09         0.00000E+00
    0.21616E-06        -0.42172E-09         0.00000E+00
    0.21546E-06        -0.40902E-09         0.00000E+00
    0.21478E-06        -0.39421E-09         0.00000E+00
    0.21414E-06        -0.37903E-09         0.00000E+00
    0.21352E-06        -0.36582E-09         0.00000E+00
    0.21293E-06        -0.37279E-09         0.00000E+00
    0.21235E-06        -0.34775E-09         0.00000E+00
    0.21171E-06        -0.20564E-09         0.00000E+00
    0.21136E-06        -0.10144E-09         0.00000E+00
    0.73097E-07        -0.61081E-10         0.00000E+00
    0.72972E-07        -0.11563E-09         0.00000E+00
    0.72621E-07        -0.20385E-09         0.00000E+00
    0.72180E-07        -0.24612E-09         0.00000E+00
    0.71750E-07        -0.25318E-09         0.00000E+00
    0.71321E-07        -0.25033E-09         0.00000E+00
    0.70896E-07        -0.24666E-09         0.00000E+00
    0.70480E-07        -0.24097E-09         0.00000E+00
    0.70076E-07        -0.23324E-09         0.00000E+00
    0.69689E-07        -0.22372E-09         0.00000E+00
    0.69320E-07        -0.21286E-09         0.00000E+00
    0.68971E-07        -0.20209E-09         0.00000E+00
    0.68644E-07        -0.18500E-09         0.00000E+00
    0.68329E-07        -0.14822E-09         0.00000E+00
    0.68089E-07        -0.85160E-10         0.00000E+00
    0.68006E-07        -0.46882E-10         0.00000E+00
    0.22626E-07        -0.21545E-10         0.00000E+00
    0.22579E-07        -0.40506E-10         0.00000E+00
    0.22453E-07        -0.72175E-10         0.00000E+00
    0.22281E-07        -0.91107E-10         0.00000E+00
    0.22091E-07        -0.99157E-10         0.00000E+00
    0.21899E-07        -0.10086E-09         0.00000E+00
    0.21708E-07        -0.99963E-10         0.00000E+00
    0.21520E-07        -0.97822E-10         0.00000E+00
    0.21338E-07        -0.94614E-10         0.00000E+00
    0.21164E-07        -0.90484E-10         0.00000E+00
    0.21000E-07        -0.85573E-10         0.00000E+00
    0.20846E-07        -0.79208E-10         0.00000E+00
    0.20704E-07        -0.69574E-10         0.00000E+00
    0.20582E-07        -0.54229E-10         0.00000E+00
    0.20493E-07        -0.30636E-10         0.00000E+00
    0.20458E-07        -0.16490E-10         0.00000E+00
    0.71426E-08        -0.60385E-11         0.00000E+00
    0.71226E-08        -0.10989E-10         0.00000E+00
    0.70718E-08        -0.19037E-10         0.00000E+00
    0.70036E-08        -0.23826E-10         0.00000E+00
    0.69263E-08        -0.26207E-10         0.00000E+00
    0.68457E-08        -0.27048E-10         0.00000E+00
    0.67652E-08        -0.27110E-10         0.00000E+00
    0.66864E-08        -0.26804E-10         0.00000E+00
    0.66106E-08        -0.26236E-10         0.00000E+00
    0.65386E-08        -0.25398E-10         0.00000E+00
    0.64713E-08        -0.24210E-10         0.00000E+00
    0.64092E-08        -0.22455E-10         0.00000E+00
    0.63539E-08        -0.19718E-10         0.00000E+00
    0.63078E-08        -0.15409E-10         0.00000E+00
    0.62743E-08        -0.87984E-11         0.00000E+00
    0.62614E-08        -0.48140E-11         0.00000E+00
    0.29182E-08         0.13513E-11         0.00000E+00
    0.29074E-08         0.26755E-11         0.00000E+00
    0.28809E-08         0.50880E-11         0.00000E+00
    0.28468E-08         0.68248E-11         0.00000E+00
    0.28083E-08         0.76934E-11         0.00000E+00
    0.27684E-08         0.77826E-11         0.00000E+00
    0.27287E-08         0.72705E-11         0.00000E+00
    0.26905E-08         0.63658E-11         0.00000E+00
    0.26543E-08         0.52647E-11         0.00000E+00
    0.26205E-08         0.41131E-11         0.00000E+00
    0.25894E-08         0.29959E-11         0.00000E+00
    0.25614E-08         0.19597E-11         0.00000E+00
    0.25369E-08         0.10488E-11         0.00000E+00
    0.25169E-08         0.33814E-12         0.00000E+00
    0.25026E-08        -0.18356E-13         0.00000E+00
    0.24970E-08        -0.82212E-13         0.00000E+00
    0.22670E-08         0.64013E-11         0.00000E+00
    0.22571E-08         0.11893E-10         0.00000E+00
    0.22336E-08         0.21053E-10         0.00000E+00
    0.22046E-08         0.26697E-10         0.00000E+00
    0.21731E-08         0.29281E-10         0.00000E+00
    0.21412E-08         0.29527E-10         0.00000E+00
    0.21105E-08         0.28197E-10         0.00000E+00
    0.20817E-08         0.25963E-10         0.00000E+00
    0.20553E-08         0.23318E-10         0.00000E+00
    0.20312E-08         0.20550E-10         0.00000E+00
    0.20095E-08         0.17753E-10         0.00000E+00
    0.19903E-08         0.14875E-10         0.00000E+00
    0.19737E-08         0.11777E-10         0.00000E+00
    0.19601E-08         0.83074E-11         0.00000E+00
    0.19504E-08         0.43527E-11         0.00000E+00
    0.19466E-08         0.22442E-11         0.00000E+00
    0.29654E-08         0.11984E-10         0.00000E+00
    0.29513E-08         0.21983E-10         0.00000E+00
    0.29188E-08         0.38208E-10         0.00000E+00
    0.28805E-08         0.47439E-10         0.00000E+00
    0.28403E-08         0.51006E-10         0.00000E+00
    0.28012E-08         0.50505E-10         0.00000E+00
    0.27648E-08         0.47480E-10         0.00000E+00
    0.27319E-08         0.43207E-10         0.00000E+00
    0.27025E-08         0.38570E-10         0.00000E+00
    0.26762E-08         0.34027E-10         0.00000E+00
    0.26527E-08         0.29651E-10         0.00000E+00
    0.26318E-08         0.25228E-10         0.00000E+00
    0.26136E-08         0.20380E-10         0.00000E+00
    0.25984E-08         0.14700E-10         0.00000E+00
    0.25873E-08         0.78521E-11         0.00000E+00
    0.25828E-08         0.41017E-11         0.00000E+00
    0.45369E-08         0.19920E-10         0.00000E+00
    0.45135E-08         0.36153E-10         0.00000E+00
    0.44613E-08         0.61777E-10         0.00000E+00
    0.44021E-08         0.75007E-10         0.00000E+00
    0.43425E-08         0.78692E-10         0.00000E+00
    0.42865E-08         0.75941E-10         0.00000E+00
    0.42363E-08         0.69610E-10         0.00000E+00
    0.41924E-08         0.61950E-10         0.00000E+00
    0.41541E-08         0.54436E-10         0.00000E+00
    0.41204E-08         0.47735E-10         0.00000E+00
    0.40901E-08         0.41808E-10         0.00000E+00
    0.40627E-08         0.36094E-10         0.00000E+00
    0.40381E-08         0.29755E-10         0.00000E+00
    0.40170E-08         0.21921E-10         0.00000E+00
    0.40009E-08         0.11906E-10         0.00000E+00
    0.39943E-08         0.62836E-11         0.00000E+00
    0.70987E-08         0.31838E-10         0.00000E+00
    0.70590E-08         0.57104E-10         0.00000E+00
    0.69729E-08         0.95688E-10         0.00000E+00
    0.68796E-08         0.11306E-09         0.00000E+00
    0.67894E-08         0.11490E-09         0.00000E+00
    0.67082E-08         0.10702E-09         0.00000E+00
    0.66385E-08         0.94503E-10         0.00000E+00
    0.65799E-08         0.81232E-10         0.00000E+00
    0.65304E-08         0.69582E-10         0.00000E+00
    0.64873E-08         0.60458E-10         0.00000E+00
    0.64483E-08         0.53493E-10         0.00000E+00
    0.64117E-08         0.47404E-10         0.00000E+00
    0.63774E-08         0.40432E-10         0.00000E+00
    0.63466E-08         0.30805E-10         0.00000E+00
    0.63219E-08         0.17156E-10         0.00000E+00
    0.63114E-08         0.91913E-11         0.00000E+00
    0.11047E-07         0.49467E-10         0.00000E+00
    0.10980E-07         0.87490E-10         0.00000E+00
    0.10839E-07         0.14314E-09         0.00000E+00
    0.10694E-07         0.16330E-09         0.00000E+00
    0.10561E-07         0.15886E-09         0.00000E+00
    0.10446E-07         0.14035E-09         0.00000E+00
    0.10354E-07         0.11668E-09         0.00000E+00
    0.10281E-07         0.94332E-10         0.00000E+00
    0.10222E-07         0.77036E-10         0.00000E+00
    0.10171E-07         0.65900E-10         0.00000E+00
    0.10125E-07         0.59798E-10         0.00000E+00
    0.10078E-07         0.56006E-10         0.00000E+00
    0.10031E-07         0.50976E-10         0.00000E+00
    0.99864E-08         0.41175E-10         0.00000E+00
    0.99479E-08         0.23883E-10         0.00000E+00
    0.99310E-08         0.13097E-10         0.00000E+00
    0.17003E-07         0.74530E-10         0.00000E+00
    0.16892E-07         0.12955E-09         0.00000E+00
    0.16665E-07         0.20551E-09         0.00000E+00
    0.16445E-07         0.22345E-09         0.00000E+00
    0.16253E-07         0.20351E-09         0.00000E+00
    0.16101E-07         0.16437E-09         0.00000E+00
    0.15988E-07         0.12121E-09         0.00000E+00
    0.15908E-07         0.84597E-10         0.00000E+00
    0.15849E-07         0.60235E-10         0.00000E+00
    0.15802E-07         0.49239E-10         0.00000E+00
    0.15754E-07         0.48904E-10         0.00000E+00
    0.15701E-07         0.53765E-10         0.00000E+00
    0.15640E-07         0.56913E-10         0.00000E+00
    0.15575E-07         0.51455E-10         0.00000E+00
    0.15514E-07         0.31975E-10         0.00000E+00
    0.15487E-07         0.18190E-10         0.00000E+00
    0.25838E-07         0.10812E-09         0.00000E+00
    0.25657E-07         0.18374E-09         0.00000E+00
    0.25300E-07         0.27935E-09         0.00000E+00
    0.24974E-07         0.28239E-09         0.00000E+00
    0.24713E-07         0.22917E-09         0.00000E+00
    0.24525E-07         0.15189E-09         0.00000E+00
    0.24407E-07         0.75714E-10         0.00000E+00
    0.24343E-07         0.17471E-10         0.00000E+00
    0.24311E-07        -0.14490E-10         0.00000E+00
    0.24290E-07        -0.19523E-10         0.00000E+00
    0.24260E-07        -0.33770E-11         0.00000E+00
    0.24211E-07         0.23526E-10         0.00000E+00
    0.24137E-07         0.48179E-10         0.00000E+00
    0.24044E-07         0.57418E-10         0.00000E+00
    0.23949E-07         0.40543E-10         0.00000E+00
    0.23902E-07         0.24476E-10         0.00000E+00
    0.38722E-07         0.14927E-09         0.00000E+00
    0.38433E-07         0.24574E-09         0.00000E+00
    0.37883E-07         0.35024E-09         0.00000E+00
    0.37419E-07         0.31129E-09         0.00000E+00
    0.37084E-07         0.19236E-09         0.00000E+00
    0.36885E-07         0.47475E-10         0.00000E+00
    0.36803E-07        -0.82792E-10         0.00000E+00
    0.36807E-07        -0.17258E-09         0.00000E+00
    0.36856E-07        -0.21019E-09         0.00000E+00
    0.36912E-07        -0.19651E-09         0.00000E+00
    0.36941E-07        -0.14273E-09         0.00000E+00
    0.36921E-07        -0.67851E-10         0.00000E+00
    0.36841E-07         0.44829E-11         0.00000E+00
    0.36713E-07         0.49748E-10         0.00000E+00
    0.36560E-07         0.47058E-10         0.00000E+00
    0.36482E-07         0.31490E-10         0.00000E+00
    0.57169E-07         0.19218E-09         0.00000E+00
    0.56718E-07         0.30095E-09         0.00000E+00
    0.55893E-07         0.38210E-09         0.00000E+00
    0.55263E-07         0.24841E-09         0.00000E+00
    0.54876E-07         0.76382E-11         0.00000E+00
    0.54724E-07        -0.25230E-09         0.00000E+00
    0.54767E-07        -0.46815E-09         0.00000E+00
    0.54942E-07        -0.60172E-09         0.00000E+00
    0.55179E-07        -0.63776E-09         0.00000E+00
    0.55409E-07        -0.58056E-09         0.00000E+00
    0.55575E-07        -0.45055E-09         0.00000E+00
    0.55636E-07        -0.28071E-09         0.00000E+00
    0.55573E-07        -0.11251E-09         0.00000E+00
    0.55399E-07         0.96192E-11         0.00000E+00
    0.55155E-07         0.45639E-10         0.00000E+00
    0.55022E-07         0.37647E-10         0.00000E+00
    0.83062E-07         0.22137E-09         0.00000E+00
    0.82375E-07         0.31511E-09         0.00000E+00
    0.81178E-07         0.29962E-09         0.00000E+00
    0.80374E-07        -0.24480E-10         0.00000E+00
    0.80005E-07        -0.47969E-09         0.00000E+00
    0.80032E-07        -0.92760E-09         0.00000E+00
    0.80369E-07        -0.12735E-08         0.00000E+00
    0.80902E-07        -0.14640E-08         0.00000E+00
    0.81512E-07        -0.14813E-08         0.00000E+00
    0.82086E-07        -0.13365E-08         0.00000E+00
    0.82530E-07        -0.10644E-08         0.00000E+00
    0.82771E-07        -0.71961E-09         0.00000E+00
    0.82774E-07        -0.37182E-09         0.00000E+00
    0.82548E-07        -0.99027E-10         0.00000E+00
    0.82157E-07         0.23735E-10         0.00000E+00
    0.81931E-07         0.38836E-10         0.00000E+00
    0.11864E-06         0.20380E-09         0.00000E+00
    0.11762E-06         0.21943E-09         0.00000E+00
    0.11595E-06        -0.38680E-10         0.00000E+00
    0.11501E-06        -0.71676E-09         0.00000E+00
    0.11483E-06        -0.15316E-08         0.00000E+00
    0.11528E-06        -0.22735E-08         0.00000E+00
    0.11621E-06        -0.28076E-08         0.00000E+00
    0.11741E-06        -0.30652E-08         0.00000E+00
    0.11870E-06        -0.30298E-08         0.00000E+00
    0.11990E-06        -0.27246E-08         0.00000E+00
    0.12086E-06        -0.22055E-08         0.00000E+00
    0.12146E-06        -0.15576E-08         0.00000E+00
    0.12162E-06        -0.89263E-09         0.00000E+00
    0.12135E-06        -0.34255E-09         0.00000E+00
    0.12073E-06        -0.44053E-10         0.00000E+00
    0.12035E-06         0.25561E-10         0.00000E+00
    0.16639E-06         0.76935E-10         0.00000E+00
    0.16494E-06        -0.11156E-09         0.00000E+00
    0.16271E-06        -0.87894E-09         0.00000E+00
    0.16180E-06        -0.21761E-08         0.00000E+00
    0.16212E-06        -0.35662E-08         0.00000E+00
    0.16343E-06        -0.47452E-08         0.00000E+00
    0.16543E-06        -0.55347E-08         0.00000E+00
    0.16780E-06        -0.58576E-08         0.00000E+00
    0.17025E-06        -0.57087E-08         0.00000E+00
    0.17252E-06        -0.51321E-08         0.00000E+00
    0.17437E-06        -0.42109E-08         0.00000E+00
    0.17562E-06        -0.30682E-08         0.00000E+00
    0.17612E-06        -0.18729E-08         0.00000E+00
    0.17584E-06        -0.83895E-09         0.00000E+00
    0.17487E-06        -0.20710E-09         0.00000E+00
    0.17424E-06        -0.22622E-10         0.00000E+00
    0.22891E-06        -0.26842E-09         0.00000E+00
    0.22693E-06        -0.89098E-09         0.00000E+00
    0.22414E-06        -0.26238E-08         0.00000E+00
    0.22360E-06        -0.49477E-08         0.00000E+00
    0.22500E-06        -0.72126E-08         0.00000E+00
    0.22787E-06        -0.90025E-08         0.00000E+00
    0.23170E-06        -0.10107E-07         0.00000E+00
    0.23597E-06        -0.10464E-07         0.00000E+00
    0.24028E-06        -0.10102E-07         0.00000E+00
    0.24426E-06        -0.90974E-08         0.00000E+00
    0.24757E-06        -0.75639E-08         0.00000E+00
    0.24993E-06        -0.56625E-08         0.00000E+00
    0.25108E-06        -0.36289E-08         0.00000E+00
    0.25089E-06        -0.17913E-08         0.00000E+00
    0.24944E-06        -0.55791E-09         0.00000E+00
    0.24841E-06        -0.14732E-09         0.00000E+00
    0.30856E-06        -0.10116E-08         0.00000E+00
    0.30600E-06        -0.24609E-08         0.00000E+00
    0.30285E-06        -0.58976E-08         0.00000E+00
    0.30336E-06        -0.98406E-08         0.00000E+00
    0.30682E-06        -0.13362E-07         0.00000E+00
    0.31234E-06        -0.15936E-07         0.00000E+00
    0.31907E-06        -0.17367E-07         0.00000E+00
    0.32627E-06        -0.17665E-07         0.00000E+00
    0.33338E-06        -0.16936E-07         0.00000E+00
    0.33994E-06        -0.15306E-07         0.00000E+00
    0.34551E-06        -0.12909E-07         0.00000E+00
    0.34968E-06        -0.99248E-08         0.00000E+00
    0.35201E-06        -0.66443E-08         0.00000E+00
    0.35217E-06        -0.35368E-08         0.00000E+00
    0.35008E-06        -0.12633E-08         0.00000E+00
    0.34848E-06        -0.42895E-09         0.00000E+00
    0.40706E-06        -0.24330E-08         0.00000E+00
    0.40399E-06        -0.53448E-08         0.00000E+00
    0.40105E-06        -0.11623E-07         0.00000E+00
    0.40386E-06        -0.17993E-07         0.00000E+00
    0.41094E-06        -0.23193E-07         0.00000E+00
    0.42070E-06        -0.26648E-07         0.00000E+00
    0.43180E-06        -0.28290E-07         0.00000E+00
    0.44324E-06        -0.28320E-07         0.00000E+00
    0.45433E-06        -0.26999E-07         0.00000E+00
    0.46456E-06        -0.24527E-07         0.00000E+00
    0.47346E-06        -0.21027E-07         0.00000E+00
    0.48044E-06        -0.16630E-07         0.00000E+00
    0.48480E-06        -0.11624E-07         0.00000E+00
    0.48582E-06        -0.66151E-08         0.00000E+00
    0.48304E-06        -0.26125E-08         0.00000E+00
    0.48067E-06        -0.10154E-08         0.00000E+00
    0.52487E-06        -0.49556E-08         0.00000E+00
    0.52163E-06        -0.10314E-07         0.00000E+00
    0.52020E-06        -0.21104E-07         0.00000E+00
    0.52746E-06        -0.30912E-07         0.00000E+00
    0.54055E-06        -0.38137E-07         0.00000E+00
    0.55676E-06        -0.42331E-07         0.00000E+00
    0.57409E-06        -0.43804E-07         0.00000E+00
    0.59128E-06        -0.43159E-07         0.00000E+00
    0.60764E-06        -0.40942E-07         0.00000E+00
    0.62278E-06        -0.37449E-07         0.00000E+00
    0.63628E-06        -0.32723E-07         0.00000E+00
    0.64744E-06        -0.26711E-07         0.00000E+00
    0.65515E-06        -0.19538E-07         0.00000E+00
    0.65803E-06        -0.11852E-07         0.00000E+00
    0.65478E-06        -0.50853E-08         0.00000E+00
    0.65150E-06        -0.21656E-08         0.00000E+00
    0.66042E-06        -0.92012E-08         0.00000E+00
    0.65792E-06        -0.18473E-07         0.00000E+00
    0.66060E-06        -0.36110E-07         0.00000E+00
    0.67588E-06        -0.50460E-07         0.00000E+00
    0.69848E-06        -0.59719E-07         0.00000E+00
    0.72401E-06        -0.63992E-07         0.00000E+00
    0.74967E-06        -0.64436E-07         0.00000E+00
    0.77413E-06        -0.62411E-07         0.00000E+00
    0.79697E-06        -0.58917E-07         0.00000E+00
    0.81819E-06        -0.54362E-07         0.00000E+00
    0.83765E-06        -0.48592E-07         0.00000E+00
    0.85467E-06        -0.41128E-07         0.00000E+00
    0.86770E-06        -0.31610E-07         0.00000E+00
    0.87425E-06        -0.20446E-07         0.00000E+00
    0.87146E-06        -0.94430E-08         0.00000E+00
    0.86737E-06        -0.43121E-08         0.00000E+00
    0.80912E-06        -0.16075E-07         0.00000E+00
    0.80931E-06        -0.31369E-07         0.00000E+00
    0.82103E-06        -0.58931E-07         0.00000E+00
    0.85015E-06        -0.78693E-07         0.00000E+00
    0.88717E-06        -0.89147E-07         0.00000E+00
    0.92536E-06        -0.91876E-07         0.00000E+00
    0.96134E-06        -0.89709E-07         0.00000E+00
    0.99422E-06        -0.85227E-07         0.00000E+00
    0.10243E-05        -0.80043E-07         0.00000E+00
    0.10524E-05        -0.74655E-07         0.00000E+00
    0.10790E-05        -0.68566E-07         0.00000E+00
    0.11037E-05        -0.60541E-07         0.00000E+00
    0.11248E-05        -0.49188E-07         0.00000E+00
    0.11382E-05        -0.34022E-07         0.00000E+00
    0.11382E-05        -0.16835E-07         0.00000E+00
    0.11340E-05        -0.81459E-08         0.00000E+00
    0.96196E-06        -0.26903E-07         0.00000E+00
    0.96890E-06        -0.51139E-07         0.00000E+00
    0.99887E-06        -0.92337E-07         0.00000E+00
    0.10510E-05        -0.11735E-06         0.00000E+00
    0.11087E-05        -0.12640E-06         0.00000E+00
    0.11627E-05        -0.12445E-06         0.00000E+00
    0.12102E-05        -0.11725E-06         0.00000E+00
    0.12518E-05        -0.10897E-06         0.00000E+00
    0.12892E-05        -0.10178E-06         0.00000E+00
    0.13242E-05        -0.96155E-07         0.00000E+00
    0.13584E-05        -0.91182E-07         0.00000E+00
    0.13924E-05        -0.84624E-07         0.00000E+00
    0.14248E-05        -0.73298E-07         0.00000E+00
    0.14501E-05        -0.54532E-07         0.00000E+00
    0.14580E-05        -0.28891E-07         0.00000E+00
    0.14561E-05        -0.14726E-07         0.00000E+00
    0.11032E-05        -0.43669E-07         0.00000E+00
    0.11255E-05        -0.80713E-07         0.00000E+00
    0.11910E-05        -0.13918E-06         0.00000E+00
    0.12801E-05        -0.16642E-06         0.00000E+00
    0.13647E-05        -0.16826E-06         0.00000E+00
    0.14356E-05        -0.15671E-06         0.00000E+00
    0.14942E-05        -0.14174E-06         0.00000E+00
    0.15437E-05        -0.12865E-06         0.00000E+00
    0.15875E-05        -0.11946E-06         0.00000E+00
    0.16286E-05        -0.11445E-06         0.00000E+00
    0.16697E-05        -0.11254E-06         0.00000E+00
    0.17132E-05        -0.11073E-06         0.00000E+00
    0.17598E-05        -0.10346E-06         0.00000E+00
    0.18044E-05        -0.83705E-07         0.00000E+00
    0.18306E-05        -0.47694E-07         0.00000E+00
    0.18363E-05        -0.25573E-07         0.00000E+00
    0.12063E-05        -0.69643E-07         0.00000E+00
    0.12624E-05        -0.12379E-06         0.00000E+00
    0.13991E-05        -0.20055E-06         0.00000E+00
    0.15417E-05        -0.22014E-06         0.00000E+00
    0.16533E-05        -0.20411E-06         0.00000E+00
    0.17387E-05        -0.17798E-06         0.00000E+00
    0.18060E-05        -0.15436E-06         0.00000E+00
    0.18616E-05        -0.13683E-06         0.00000E+00
    0.19104E-05        -0.12631E-06         0.00000E+00
    0.19560E-05        -0.12269E-06         0.00000E+00
    0.20022E-05        -0.12514E-06         0.00000E+00
    0.20530E-05        -0.13148E-06         0.00000E+00
    0.21131E-05        -0.13479E-06         0.00000E+00
    0.21850E-05        -0.12102E-06         0.00000E+00
    0.22488E-05        -0.75255E-07         0.00000E+00
    0.22737E-05        -0.42821E-07         0.00000E+00
    0.12077E-05        -0.10754E-06         0.00000E+00
    0.13748E-05        -0.18389E-06         0.00000E+00
    0.16414E-05        -0.26835E-06         0.00000E+00
    0.18311E-05        -0.25353E-06         0.00000E+00
    0.19611E-05        -0.20952E-06         0.00000E+00
    0.20554E-05        -0.17177E-06         0.00000E+00
    0.21284E-05        -0.14340E-06         0.00000E+00
    0.21884E-05        -0.12452E-06         0.00000E+00
    0.22407E-05        -0.11430E-06         0.00000E+00
    0.22895E-05        -0.11221E-06         0.00000E+00
    0.23385E-05        -0.11810E-06         0.00000E+00
    0.23928E-05        -0.13160E-06         0.00000E+00
    0.24603E-05        -0.15103E-06         0.00000E+00
    0.25550E-05        -0.15754E-06         0.00000E+00
    0.26864E-05        -0.11005E-06         0.00000E+00
    0.27586E-05        -0.66927E-07         0.00000E+00
    0.11703E-05        -0.17973E-06         0.00000E+00
    0.14734E-05        -0.24275E-06         0.00000E+00
    0.18796E-05        -0.26408E-06         0.00000E+00
    0.20962E-05        -0.19593E-06         0.00000E+00
    0.22360E-05        -0.15005E-06         0.00000E+00
    0.23355E-05        -0.11739E-06         0.00000E+00
    0.24126E-05        -0.95498E-07         0.00000E+00
    0.24762E-05        -0.81733E-07         0.00000E+00
    0.25317E-05        -0.74648E-07         0.00000E+00
    0.25829E-05        -0.73667E-07         0.00000E+00
    0.26333E-05        -0.79012E-07         0.00000E+00
    0.26881E-05        -0.91794E-07         0.00000E+00
    0.27565E-05        -0.11336E-06         0.00000E+00
    0.28590E-05        -0.14964E-06         0.00000E+00
    0.30618E-05        -0.13730E-06         0.00000E+00
    0.31958E-05        -0.10178E-06         0.00000E+00
    0.11693E-05         0.00000E+00         0.00000E+00
    0.15205E-05         0.00000E+00         0.00000E+00
    0.19844E-05        -0.62827E-20         0.00000E+00
    0.22115E-05         0.87091E-21         0.00000E+00
    0.23550E-05         0.63763E-20         0.00000E+00
    0.24569E-05         0.00000E+00         0.00000E+00
    0.25360E-05         0.00000E+00         0.00000E+00
    0.26014E-05        -0.76017E-20         0.00000E+00
    0.26584E-05        -0.74185E-20         0.00000E+00
    0.27108E-05         0.78469E-20         0.00000E+00
    0.27618E-05         0.76482E-20         0.00000E+00
    0.28165E-05        -0.82318E-20         0.00000E+00
    0.28840E-05         0.35611E-21         0.00000E+00
    0.29871E-05         0.81679E-20         0.00000E+00
    0.32187E-05         0.24924E-21         0.00000E+00
    0.33806E-05         0.00000E+00         0.00000E+00
CELL_DATA        450
TENSORS stressef double 
    0.57854E+07        -0.17449E+06         0.00000E+00
   -0.17449E+06         0.13526E+07         0.00000E+00
    0.00000E+00         0.00000E+00         0.14276E+07
 
    0.52011E+07        -0.10604E+06         0.00000E+00
   -0.10604E+06         0.11628E+07         0.00000E+00
    0.00000E+00         0.00000E+00         0.12728E+07
 
    0.48937E+07        -0.46420E+05         0.00000E+00
   -0.46420E+05         0.10458E+07         0.00000E+00
    0.00000E+00         0.00000E+00         0.11879E+07
 
    0.46151E+07        -0.13896E+05         0.00000E+00
   -0.13896E+05         0.99914E+06         0.00000E+00
    0.00000E+00         0.00000E+00         0.11228E+07
 
    0.43341E+07         0.64667E+04         0.00000E+00
    0.64667E+04         0.99926E+06         0.00000E+00
    0.00000E+00         0.00000E+00         0.10667E+07
 
    0.40451E+07         0.19560E+05         0.00000E+00
    0.19560E+05         0.10302E+07         0.00000E+00
    0.00000E+00         0.00000E+00         0.10151E+07
 
    0.37502E+07         0.28054E+05         0.00000E+00
    0.28054E+05         0.10816E+07         0.00000E+00
    0.00000E+00         0.00000E+00         0.96636E+06
 
    0.34531E+07         0.33428E+05         0.00000E+00
    0.33428E+05         0.11462E+07         0.00000E+00
    0.00000E+00         0.00000E+00         0.91985E+06
 
    0.31572E+07         0.36603E+05         0.00000E+00
    0.36603E+05         0.12190E+07         0.00000E+00
    0.00000E+00         0.00000E+00         0.87524E+06
 
    0.28649E+07         0.38207E+05         0.00000E+00
    0.38207E+05         0.12965E+07         0.00000E+00
    0.00000E+00         0.00000E+00         0.83228E+06
 
    0.25765E+07         0.38790E+05         0.00000E+00
    0.38790E+05         0.13762E+07         0.00000E+00
    0.00000E+00         0.00000E+00         0.79053E+06
 
    0.22880E+07         0.39076E+05         0.00000E+00
    0.39076E+05         0.14571E+07         0.00000E+00
    0.00000E+00         0.00000E+00         0.74902E+06
 
    0.19848E+07         0.41395E+05         0.00000E+00
    0.41395E+05         0.15414E+07         0.00000E+00
    0.00000E+00         0.00000E+00         0.70525E+06
 
    0.16239E+07         0.51543E+05         0.00000E+00
    0.51543E+05         0.16418E+07         0.00000E+00
    0.00000E+00         0.00000E+00         0.65315E+06
 
    0.95795E+06         0.17819E+06         0.00000E+00
    0.17819E+06         0.18392E+07         0.00000E+00
    0.00000E+00         0.00000E+00         0.55942E+06
 
    0.46689E+07        -0.14235E+06         0.00000E+00
   -0.14235E+06         0.58973E+06         0.00000E+00
    0.00000E+00         0.00000E+00         0.10517E+07
 
    0.43643E+07        -0.17162E+06         0.00000E+00
   -0.17162E+06         0.66342E+06         0.00000E+00
    0.00000E+00         0.00000E+00         0.10055E+07
 
    0.40278E+07        -0.87162E+05         0.00000E+00
   -0.87162E+05         0.67561E+06         0.00000E+00
    0.00000E+00         0.00000E+00         0.94068E+06
 
    0.37273E+07        -0.16914E+05         0.00000E+00
   -0.16914E+05         0.68795E+06         0.00000E+00
    0.00000E+00         0.00000E+00         0.88305E+06
 
    0.34298E+07         0.32675E+05         0.00000E+00
    0.32675E+05         0.71735E+06         0.00000E+00
    0.00000E+00         0.00000E+00         0.82942E+06
 
    0.31290E+07         0.66709E+05         0.00000E+00
    0.66709E+05         0.76388E+06         0.00000E+00
    0.00000E+00         0.00000E+00         0.77858E+06
 
    0.28254E+07         0.89571E+05         0.00000E+00
    0.89571E+05         0.82398E+06         0.00000E+00
    0.00000E+00         0.00000E+00         0.72987E+06
 
    0.25214E+07         0.10440E+06         0.00000E+00
    0.10440E+06         0.89387E+06         0.00000E+00
    0.00000E+00         0.00000E+00         0.68306E+06
 
    0.22202E+07         0.11342E+06         0.00000E+00
    0.11342E+06         0.97041E+06         0.00000E+00
    0.00000E+00         0.00000E+00         0.63812E+06
 
    0.19237E+07         0.11837E+06         0.00000E+00
    0.11837E+06         0.10513E+07         0.00000E+00
    0.00000E+00         0.00000E+00         0.59500E+06
 
    0.16325E+07         0.12103E+06         0.00000E+00
    0.12103E+06         0.11354E+07         0.00000E+00
    0.00000E+00         0.00000E+00         0.55357E+06
 
    0.13438E+07         0.12429E+06         0.00000E+00
    0.12429E+06         0.12232E+07         0.00000E+00
    0.00000E+00         0.00000E+00         0.51339E+06
 
    0.10499E+07         0.13543E+06         0.00000E+00
    0.13543E+06         0.13191E+07         0.00000E+00
    0.00000E+00         0.00000E+00         0.47380E+06
 
    0.72609E+06         0.18245E+06         0.00000E+00
    0.18245E+06         0.14365E+07         0.00000E+00
    0.00000E+00         0.00000E+00         0.43252E+06
 
    0.48364E+06         0.39953E+06         0.00000E+00
    0.39953E+06         0.15823E+07         0.00000E+00
    0.00000E+00         0.00000E+00         0.41319E+06
 
    0.41791E+07        -0.41071E+05         0.00000E+00
   -0.41071E+05         0.20838E+06         0.00000E+00
    0.00000E+00         0.00000E+00         0.87750E+06
 
    0.40313E+07        -0.78134E+05         0.00000E+00
   -0.78134E+05         0.31037E+06         0.00000E+00
    0.00000E+00         0.00000E+00         0.86833E+06
 
    0.37416E+07        -0.36649E+05         0.00000E+00
   -0.36649E+05         0.40897E+06         0.00000E+00
    0.00000E+00         0.00000E+00         0.83012E+06
 
    0.34294E+07         0.28936E+05         0.00000E+00
    0.28936E+05         0.48242E+06         0.00000E+00
    0.00000E+00         0.00000E+00         0.78236E+06
 
    0.31163E+07         0.86222E+05         0.00000E+00
    0.86222E+05         0.54917E+06         0.00000E+00
    0.00000E+00         0.00000E+00         0.73308E+06
 
    0.28019E+07         0.12990E+06         0.00000E+00
    0.12990E+06         0.61813E+06         0.00000E+00
    0.00000E+00         0.00000E+00         0.68401E+06
 
    0.24877E+07         0.16110E+06         0.00000E+00
    0.16110E+06         0.69196E+06         0.00000E+00
    0.00000E+00         0.00000E+00         0.63594E+06
 
    0.21759E+07         0.18227E+06         0.00000E+00
    0.18227E+06         0.77072E+06         0.00000E+00
    0.00000E+00         0.00000E+00         0.58931E+06
 
    0.18688E+07         0.19587E+06         0.00000E+00
    0.19587E+06         0.85365E+06         0.00000E+00
    0.00000E+00         0.00000E+00         0.54450E+06
 
    0.15688E+07         0.20434E+06         0.00000E+00
    0.20434E+06         0.94017E+06         0.00000E+00
    0.00000E+00         0.00000E+00         0.50178E+06
 
    0.12769E+07         0.21069E+06         0.00000E+00
    0.21069E+06         0.10304E+07         0.00000E+00
    0.00000E+00         0.00000E+00         0.46144E+06
 
    0.99361E+06         0.22008E+06         0.00000E+00
    0.22008E+06         0.11257E+07         0.00000E+00
    0.00000E+00         0.00000E+00         0.42386E+06
 
    0.71975E+06         0.24408E+06         0.00000E+00
    0.24408E+06         0.12291E+07         0.00000E+00
    0.00000E+00         0.00000E+00         0.38977E+06
 
    0.48064E+06         0.31373E+06         0.00000E+00
    0.31373E+06         0.13411E+07         0.00000E+00
    0.00000E+00         0.00000E+00         0.36435E+06
 
    0.36559E+06         0.45127E+06         0.00000E+00
    0.45127E+06         0.14099E+07         0.00000E+00
    0.00000E+00         0.00000E+00         0.35510E+06
 
    0.40394E+07         0.18681E+05         0.00000E+00
    0.18681E+05         0.70369E+05         0.00000E+00
    0.00000E+00         0.00000E+00         0.82196E+06
 
    0.39216E+07         0.31952E+05         0.00000E+00
    0.31952E+05         0.14284E+06         0.00000E+00
    0.00000E+00         0.00000E+00         0.81290E+06
 
    0.36733E+07         0.63020E+05         0.00000E+00
    0.63020E+05         0.24517E+06         0.00000E+00
    0.00000E+00         0.00000E+00         0.78369E+06
 
    0.33692E+07         0.11343E+06         0.00000E+00
    0.11343E+06         0.34460E+06         0.00000E+00
    0.00000E+00         0.00000E+00         0.74276E+06
 
    0.30477E+07         0.16557E+06         0.00000E+00
    0.16557E+06         0.43548E+06         0.00000E+00
    0.00000E+00         0.00000E+00         0.69664E+06
 
    0.27220E+07         0.20958E+06         0.00000E+00
    0.20958E+06         0.52217E+06         0.00000E+00
    0.00000E+00         0.00000E+00         0.64884E+06
 
    0.23973E+07         0.24321E+06         0.00000E+00
    0.24321E+06         0.60804E+06         0.00000E+00
    0.00000E+00         0.00000E+00         0.60106E+06
 
    0.20769E+07         0.26729E+06         0.00000E+00
    0.26729E+06         0.69489E+06         0.00000E+00
    0.00000E+00         0.00000E+00         0.55436E+06
 
    0.17637E+07         0.28381E+06         0.00000E+00
    0.28381E+06         0.78355E+06         0.00000E+00
    0.00000E+00         0.00000E+00         0.50946E+06
 
    0.14603E+07         0.29536E+06         0.00000E+00
    0.29536E+06         0.87455E+06         0.00000E+00
    0.00000E+00         0.00000E+00         0.46698E+06
 
    0.11693E+07         0.30558E+06         0.00000E+00
    0.30558E+06         0.96846E+06         0.00000E+00
    0.00000E+00         0.00000E+00         0.42755E+06
 
    0.89439E+06         0.32026E+06         0.00000E+00
    0.32026E+06         0.10657E+07         0.00000E+00
    0.00000E+00         0.00000E+00         0.39203E+06
 
    0.64594E+06         0.34956E+06         0.00000E+00
    0.34956E+06         0.11649E+07         0.00000E+00
    0.00000E+00         0.00000E+00         0.36217E+06
 
    0.45022E+06         0.40345E+06         0.00000E+00
    0.40345E+06         0.12531E+07         0.00000E+00
    0.00000E+00         0.00000E+00         0.34066E+06
 
    0.34935E+06         0.47071E+06         0.00000E+00
    0.47071E+06         0.13029E+07         0.00000E+00
    0.00000E+00         0.00000E+00         0.33046E+06
 
    0.40608E+07         0.51731E+05         0.00000E+00
    0.51731E+05         0.24575E+05         0.00000E+00
    0.00000E+00         0.00000E+00         0.81707E+06
 
    0.39195E+07         0.11629E+06         0.00000E+00
    0.11629E+06         0.73945E+05         0.00000E+00
    0.00000E+00         0.00000E+00         0.79869E+06
 
    0.36808E+07         0.16416E+06         0.00000E+00
    0.16416E+06         0.15796E+06         0.00000E+00
    0.00000E+00         0.00000E+00         0.76775E+06
 
    0.33829E+07         0.21220E+06         0.00000E+00
    0.21220E+06         0.25475E+06         0.00000E+00
    0.00000E+00         0.00000E+00         0.72754E+06
 
    0.30578E+07         0.25909E+06         0.00000E+00
    0.25909E+06         0.35173E+06         0.00000E+00
    0.00000E+00         0.00000E+00         0.68192E+06
 
    0.27237E+07         0.30004E+06         0.00000E+00
    0.30004E+06         0.44576E+06         0.00000E+00
    0.00000E+00         0.00000E+00         0.63389E+06
 
    0.23898E+07         0.33271E+06         0.00000E+00
    0.33271E+06         0.53752E+06         0.00000E+00
    0.00000E+00         0.00000E+00         0.58547E+06
 
    0.20615E+07         0.35722E+06         0.00000E+00
    0.35722E+06         0.62835E+06         0.00000E+00
    0.00000E+00         0.00000E+00         0.53797E+06
 
    0.17425E+07         0.37506E+06         0.00000E+00
    0.37506E+06         0.71943E+06         0.00000E+00
    0.00000E+00         0.00000E+00         0.49239E+06
 
    0.14362E+07         0.38860E+06         0.00000E+00
    0.38860E+06         0.81155E+06         0.00000E+00
    0.00000E+00         0.00000E+00         0.44956E+06
 
    0.11465E+07         0.40107E+06         0.00000E+00
    0.40107E+06         0.90500E+06         0.00000E+00
    0.00000E+00         0.00000E+00         0.41030E+06
 
    0.87934E+06         0.41695E+06         0.00000E+00
    0.41695E+06         0.99876E+06         0.00000E+00
    0.00000E+00         0.00000E+00         0.37562E+06
 
    0.64583E+06         0.44077E+06         0.00000E+00
    0.44077E+06         0.10882E+07         0.00000E+00
    0.00000E+00         0.00000E+00         0.34682E+06
 
    0.46311E+06         0.47233E+06         0.00000E+00
    0.47233E+06         0.11635E+07         0.00000E+00
    0.00000E+00         0.00000E+00         0.32532E+06
 
    0.34710E+06         0.49821E+06         0.00000E+00
    0.49821E+06         0.12125E+07         0.00000E+00
    0.00000E+00         0.00000E+00         0.31192E+06
 
    0.41596E+07         0.72921E+05         0.00000E+00
    0.72921E+05         0.93803E+04         0.00000E+00
    0.00000E+00         0.00000E+00         0.83380E+06
 
    0.39771E+07         0.17831E+06         0.00000E+00
    0.17831E+06         0.45601E+05         0.00000E+00
    0.00000E+00         0.00000E+00         0.80454E+06
 
    0.37240E+07         0.25063E+06         0.00000E+00
    0.25063E+06         0.11223E+06         0.00000E+00
    0.00000E+00         0.00000E+00         0.76725E+06
 
    0.34209E+07         0.30694E+06         0.00000E+00
    0.30694E+06         0.19647E+06         0.00000E+00
    0.00000E+00         0.00000E+00         0.72347E+06
 
    0.30900E+07         0.35391E+06         0.00000E+00
    0.35391E+06         0.28720E+06         0.00000E+00
    0.00000E+00         0.00000E+00         0.67544E+06
 
    0.27483E+07         0.39281E+06         0.00000E+00
    0.39281E+06         0.37854E+06         0.00000E+00
    0.00000E+00         0.00000E+00         0.62537E+06
 
    0.24065E+07         0.42383E+06         0.00000E+00
    0.42383E+06         0.46868E+06         0.00000E+00
    0.00000E+00         0.00000E+00         0.57504E+06
 
    0.20712E+07         0.44770E+06         0.00000E+00
    0.44770E+06         0.55778E+06         0.00000E+00
    0.00000E+00         0.00000E+00         0.52581E+06
 
    0.17472E+07         0.46585E+06         0.00000E+00
    0.46585E+06         0.64658E+06         0.00000E+00
    0.00000E+00         0.00000E+00         0.47875E+06
 
    0.14382E+07         0.48017E+06         0.00000E+00
    0.48017E+06         0.73566E+06         0.00000E+00
    0.00000E+00         0.00000E+00         0.43477E+06
 
    0.11489E+07         0.49295E+06         0.00000E+00
    0.49295E+06         0.82485E+06         0.00000E+00
    0.00000E+00         0.00000E+00         0.39474E+06
 
    0.88545E+06         0.50641E+06         0.00000E+00
    0.50641E+06         0.91236E+06         0.00000E+00
    0.00000E+00         0.00000E+00         0.35956E+06
 
    0.65672E+06         0.52141E+06         0.00000E+00
    0.52141E+06         0.99402E+06         0.00000E+00
    0.00000E+00         0.00000E+00         0.33015E+06
 
    0.47259E+06         0.53481E+06         0.00000E+00
    0.53481E+06         0.10636E+07         0.00000E+00
    0.00000E+00         0.00000E+00         0.30724E+06
 
    0.33878E+06         0.53763E+06         0.00000E+00
    0.53763E+06         0.11166E+07         0.00000E+00
    0.00000E+00         0.00000E+00         0.29108E+06
 
    0.43027E+07         0.89039E+05         0.00000E+00
    0.89039E+05         0.30580E+04         0.00000E+00
    0.00000E+00         0.00000E+00         0.86116E+06
 
    0.40726E+07         0.22600E+06         0.00000E+00
    0.22600E+06         0.31747E+05         0.00000E+00
    0.00000E+00         0.00000E+00         0.82088E+06
 
    0.37909E+07         0.32138E+06         0.00000E+00
    0.32138E+06         0.85060E+05         0.00000E+00
    0.00000E+00         0.00000E+00         0.77520E+06
 
    0.34711E+07         0.38975E+06         0.00000E+00
    0.38975E+06         0.15500E+06         0.00000E+00
    0.00000E+00         0.00000E+00         0.72522E+06
 
    0.31290E+07         0.44079E+06         0.00000E+00
    0.44079E+06         0.23342E+06         0.00000E+00
    0.00000E+00         0.00000E+00         0.67249E+06
 
    0.27783E+07         0.47989E+06         0.00000E+00
    0.47989E+06         0.31479E+06         0.00000E+00
    0.00000E+00         0.00000E+00         0.61862E+06
 
    0.24289E+07         0.51007E+06         0.00000E+00
    0.51007E+06         0.39648E+06         0.00000E+00
    0.00000E+00         0.00000E+00         0.56507E+06
 
    0.20874E+07         0.53342E+06         0.00000E+00
    0.53342E+06         0.47793E+06         0.00000E+00
    0.00000E+00         0.00000E+00         0.51307E+06
 
    0.17588E+07         0.55167E+06         0.00000E+00
    0.55167E+06         0.55945E+06         0.00000E+00
    0.00000E+00         0.00000E+00         0.46366E+06
 
    0.14471E+07         0.56632E+06         0.00000E+00
    0.56632E+06         0.64142E+06         0.00000E+00
    0.00000E+00         0.00000E+00         0.41770E+06
 
    0.11566E+07         0.57853E+06         0.00000E+00
    0.57853E+06         0.72348E+06         0.00000E+00
    0.00000E+00         0.00000E+00         0.37601E+06
 
    0.89273E+06         0.58874E+06         0.00000E+00
    0.58874E+06         0.80400E+06         0.00000E+00
    0.00000E+00         0.00000E+00         0.33935E+06
 
    0.66209E+06         0.59592E+06         0.00000E+00
    0.59592E+06         0.87990E+06         0.00000E+00
    0.00000E+00         0.00000E+00         0.30840E+06
 
    0.47077E+06         0.59680E+06         0.00000E+00
    0.59680E+06         0.94751E+06         0.00000E+00
    0.00000E+00         0.00000E+00         0.28366E+06
 
    0.32166E+06         0.58619E+06         0.00000E+00
    0.58619E+06         0.10048E+07         0.00000E+00
    0.00000E+00         0.00000E+00         0.26528E+06
 
    0.44762E+07         0.10248E+06         0.00000E+00
    0.10248E+06        -0.16101E+04         0.00000E+00
    0.00000E+00         0.00000E+00         0.89492E+06
 
    0.41943E+07         0.26408E+06         0.00000E+00
    0.26408E+06         0.21763E+05         0.00000E+00
    0.00000E+00         0.00000E+00         0.84321E+06
 
    0.38752E+07         0.37819E+06         0.00000E+00
    0.37819E+06         0.64140E+05         0.00000E+00
    0.00000E+00         0.00000E+00         0.78787E+06
 
    0.35303E+07         0.45793E+06         0.00000E+00
    0.45793E+06         0.11968E+06         0.00000E+00
    0.00000E+00         0.00000E+00         0.73000E+06
 
    0.31716E+07         0.51424E+06         0.00000E+00
    0.51424E+06         0.18269E+06         0.00000E+00
    0.00000E+00         0.00000E+00         0.67085E+06
 
    0.28094E+07         0.55496E+06         0.00000E+00
    0.55496E+06         0.24906E+06         0.00000E+00
    0.00000E+00         0.00000E+00         0.61169E+06
 
    0.24519E+07         0.58541E+06         0.00000E+00
    0.58541E+06         0.31667E+06         0.00000E+00
    0.00000E+00         0.00000E+00         0.55372E+06
 
    0.21048E+07         0.60907E+06         0.00000E+00
    0.60907E+06         0.38502E+06         0.00000E+00
    0.00000E+00         0.00000E+00         0.49797E+06
 
    0.17721E+07         0.62812E+06         0.00000E+00
    0.62812E+06         0.45453E+06         0.00000E+00
    0.00000E+00         0.00000E+00         0.44533E+06
 
    0.14573E+07         0.64376E+06         0.00000E+00
    0.64376E+06         0.52567E+06         0.00000E+00
    0.00000E+00         0.00000E+00         0.39659E+06
 
    0.11640E+07         0.65619E+06         0.00000E+00
    0.65619E+06         0.59832E+06         0.00000E+00
    0.00000E+00         0.00000E+00         0.35247E+06
 
    0.89659E+06         0.66458E+06         0.00000E+00
    0.66458E+06         0.67138E+06         0.00000E+00
    0.00000E+00         0.00000E+00         0.31359E+06
 
    0.66000E+06         0.66691E+06         0.00000E+00
    0.66691E+06         0.74271E+06         0.00000E+00
    0.00000E+00         0.00000E+00         0.28054E+06
 
    0.45893E+06         0.66016E+06         0.00000E+00
    0.66016E+06         0.80979E+06         0.00000E+00
    0.00000E+00         0.00000E+00         0.25374E+06
 
    0.29637E+06         0.64130E+06         0.00000E+00
    0.64130E+06         0.87086E+06         0.00000E+00
    0.00000E+00         0.00000E+00         0.23345E+06
 
    0.46724E+07         0.11379E+06         0.00000E+00
    0.11379E+06        -0.73573E+04         0.00000E+00
    0.00000E+00         0.00000E+00         0.93302E+06
 
    0.43340E+07         0.29424E+06         0.00000E+00
    0.29424E+06         0.11080E+05         0.00000E+00
    0.00000E+00         0.00000E+00         0.86901E+06
 
    0.39714E+07         0.42191E+06         0.00000E+00
    0.42191E+06         0.42939E+05         0.00000E+00
    0.00000E+00         0.00000E+00         0.80287E+06
 
    0.35956E+07         0.51002E+06         0.00000E+00
    0.51002E+06         0.83366E+05         0.00000E+00
    0.00000E+00         0.00000E+00         0.73579E+06
 
    0.32160E+07         0.57054E+06         0.00000E+00
    0.57054E+06         0.12849E+06         0.00000E+00
    0.00000E+00         0.00000E+00         0.66889E+06
 
    0.28404E+07         0.61305E+06         0.00000E+00
    0.61305E+06         0.17584E+06         0.00000E+00
    0.00000E+00         0.00000E+00         0.60325E+06
 
    0.24746E+07         0.64455E+06         0.00000E+00
    0.64455E+06         0.22450E+06         0.00000E+00
    0.00000E+00         0.00000E+00         0.53982E+06
 
    0.21223E+07         0.66968E+06         0.00000E+00
    0.66968E+06         0.27485E+06         0.00000E+00
    0.00000E+00         0.00000E+00         0.47942E+06
 
    0.17861E+07         0.69104E+06         0.00000E+00
    0.69104E+06         0.32790E+06         0.00000E+00
    0.00000E+00         0.00000E+00         0.42280E+06
 
    0.14682E+07         0.70953E+06         0.00000E+00
    0.70953E+06         0.38474E+06         0.00000E+00
    0.00000E+00         0.00000E+00         0.37059E+06
 
    0.11710E+07         0.72455E+06         0.00000E+00
    0.72455E+06         0.44583E+06         0.00000E+00
    0.00000E+00         0.00000E+00         0.32337E+06
 
    0.89778E+06         0.73417E+06         0.00000E+00
    0.73417E+06         0.51070E+06         0.00000E+00
    0.00000E+00         0.00000E+00         0.28170E+06
 
    0.65252E+06         0.73555E+06         0.00000E+00
    0.73555E+06         0.57785E+06         0.00000E+00
    0.00000E+00         0.00000E+00         0.24607E+06
 
    0.43972E+06         0.72550E+06         0.00000E+00
    0.72550E+06         0.64505E+06         0.00000E+00
    0.00000E+00         0.00000E+00         0.21695E+06
 
    0.26368E+06         0.70170E+06         0.00000E+00
    0.70170E+06         0.70989E+06         0.00000E+00
    0.00000E+00         0.00000E+00         0.19472E+06
 
    0.48850E+07         0.12279E+06         0.00000E+00
    0.12279E+06        -0.15812E+05         0.00000E+00
    0.00000E+00         0.00000E+00         0.97384E+06
 
    0.44844E+07         0.31633E+06         0.00000E+00
    0.31633E+06        -0.29019E+04         0.00000E+00
    0.00000E+00         0.00000E+00         0.89630E+06
 
    0.40735E+07         0.45191E+06         0.00000E+00
    0.45191E+06         0.17411E+05         0.00000E+00
    0.00000E+00         0.00000E+00         0.81818E+06
 
    0.36628E+07         0.54410E+06         0.00000E+00
    0.54410E+06         0.40914E+05         0.00000E+00
    0.00000E+00         0.00000E+00         0.74074E+06
 
    0.32599E+07         0.60632E+06         0.00000E+00
    0.60632E+06         0.65211E+05         0.00000E+00
    0.00000E+00         0.00000E+00         0.66502E+06
 
    0.28701E+07         0.64972E+06         0.00000E+00
    0.64972E+06         0.89562E+05         0.00000E+00
    0.00000E+00         0.00000E+00         0.59193E+06
 
    0.24964E+07         0.68263E+06         0.00000E+00
    0.68263E+06         0.11467E+06         0.00000E+00
    0.00000E+00         0.00000E+00         0.52221E+06
 
    0.21400E+07         0.71058E+06         0.00000E+00
    0.71058E+06         0.14226E+06         0.00000E+00
    0.00000E+00         0.00000E+00         0.45646E+06
 
    0.18015E+07         0.73646E+06         0.00000E+00
    0.73646E+06         0.17457E+06         0.00000E+00
    0.00000E+00         0.00000E+00         0.39522E+06
 
    0.14811E+07         0.76079E+06         0.00000E+00
    0.76079E+06         0.21367E+06         0.00000E+00
    0.00000E+00         0.00000E+00         0.33895E+06
 
    0.11796E+07         0.78207E+06         0.00000E+00
    0.78207E+06         0.26092E+06         0.00000E+00
    0.00000E+00         0.00000E+00         0.28810E+06
 
    0.89898E+06         0.79726E+06         0.00000E+00
    0.79726E+06         0.31658E+06         0.00000E+00
    0.00000E+00         0.00000E+00         0.24311E+06
 
    0.64272E+06         0.80237E+06         0.00000E+00
    0.80237E+06         0.37955E+06         0.00000E+00
    0.00000E+00         0.00000E+00         0.20445E+06
 
    0.41569E+06         0.79337E+06         0.00000E+00
    0.79337E+06         0.44746E+06         0.00000E+00
    0.00000E+00         0.00000E+00         0.17263E+06
 
    0.22401E+06         0.76749E+06         0.00000E+00
    0.76749E+06         0.51680E+06         0.00000E+00
    0.00000E+00         0.00000E+00         0.14816E+06
 
    0.51068E+07         0.12891E+06         0.00000E+00
    0.12891E+06        -0.28676E+05         0.00000E+00
    0.00000E+00         0.00000E+00         0.10156E+07
 
    0.46378E+07         0.32909E+06         0.00000E+00
    0.32909E+06        -0.22466E+05         0.00000E+00
    0.00000E+00         0.00000E+00         0.92307E+06
 
    0.41744E+07         0.46623E+06         0.00000E+00
    0.46623E+06        -0.15760E+05         0.00000E+00
    0.00000E+00         0.00000E+00         0.83173E+06
 
    0.37265E+07         0.55732E+06         0.00000E+00
    0.55732E+06        -0.12072E+05         0.00000E+00
    0.00000E+00         0.00000E+00         0.74288E+06
 
    0.32997E+07         0.61779E+06         0.00000E+00
    0.61779E+06        -0.12330E+05         0.00000E+00
    0.00000E+00         0.00000E+00         0.65747E+06
 
    0.28964E+07         0.66042E+06         0.00000E+00
    0.66042E+06        -0.15429E+05         0.00000E+00
    0.00000E+00         0.00000E+00         0.57619E+06
 
    0.25166E+07         0.69479E+06         0.00000E+00
    0.69479E+06        -0.18758E+05         0.00000E+00
    0.00000E+00         0.00000E+00         0.49957E+06
 
    0.21586E+07         0.72714E+06         0.00000E+00
    0.72714E+06        -0.18776E+05         0.00000E+00
    0.00000E+00         0.00000E+00         0.42796E+06
 
    0.18199E+07         0.76040E+06         0.00000E+00
    0.76040E+06        -0.11644E+05         0.00000E+00
    0.00000E+00         0.00000E+00         0.36165E+06
 
    0.14984E+07         0.79454E+06         0.00000E+00
    0.79454E+06         0.61257E+04         0.00000E+00
    0.00000E+00         0.00000E+00         0.30090E+06
 
    0.11928E+07         0.82701E+06         0.00000E+00
    0.82701E+06         0.37068E+05         0.00000E+00
    0.00000E+00         0.00000E+00         0.24597E+06
 
    0.90369E+06         0.85329E+06         0.00000E+00
    0.85329E+06         0.82261E+05         0.00000E+00
    0.00000E+00         0.00000E+00         0.19719E+06
 
    0.63402E+06         0.86775E+06         0.00000E+00
    0.86775E+06         0.14097E+06         0.00000E+00
    0.00000E+00         0.00000E+00         0.15500E+06
 
    0.38923E+06         0.86476E+06         0.00000E+00
    0.86476E+06         0.21046E+06         0.00000E+00
    0.00000E+00         0.00000E+00         0.11994E+06
 
    0.17751E+06         0.84002E+06         0.00000E+00
    0.84002E+06         0.28594E+06         0.00000E+00
    0.00000E+00         0.00000E+00         0.92692E+05
 
    0.53289E+07         0.13136E+06         0.00000E+00
    0.13136E+06        -0.48241E+05         0.00000E+00
    0.00000E+00         0.00000E+00         0.10561E+07
 
    0.47849E+07         0.33050E+06         0.00000E+00
    0.33050E+06        -0.50339E+05         0.00000E+00
    0.00000E+00         0.00000E+00         0.94692E+06
 
    0.42657E+07         0.46190E+06         0.00000E+00
    0.46190E+06        -0.60106E+05         0.00000E+00
    0.00000E+00         0.00000E+00         0.84111E+06
 
    0.37797E+07         0.54588E+06         0.00000E+00
    0.54588E+06        -0.80079E+05         0.00000E+00
    0.00000E+00         0.00000E+00         0.73992E+06
 
    0.33301E+07         0.60039E+06         0.00000E+00
    0.60039E+06        -0.10951E+06         0.00000E+00
    0.00000E+00         0.00000E+00         0.64413E+06
 
    0.29161E+07         0.64013E+06         0.00000E+00
    0.64013E+06        -0.14521E+06         0.00000E+00
    0.00000E+00         0.00000E+00         0.55418E+06
 
    0.25339E+07         0.67590E+06         0.00000E+00
    0.67590E+06        -0.18236E+06         0.00000E+00
    0.00000E+00         0.00000E+00         0.47031E+06
 
    0.21781E+07         0.71447E+06         0.00000E+00
    0.71447E+06        -0.21524E+06         0.00000E+00
    0.00000E+00         0.00000E+00         0.39257E+06
 
    0.18428E+07         0.75865E+06         0.00000E+00
    0.75865E+06        -0.23801E+06         0.00000E+00
    0.00000E+00         0.00000E+00         0.32096E+06
 
    0.15227E+07         0.80761E+06         0.00000E+00
    0.80761E+06        -0.24544E+06         0.00000E+00
    0.00000E+00         0.00000E+00         0.25546E+06
 
    0.12142E+07         0.85739E+06         0.00000E+00
    0.85739E+06        -0.23353E+06         0.00000E+00
    0.00000E+00         0.00000E+00         0.19612E+06
 
    0.91590E+06         0.90157E+06         0.00000E+00
    0.90157E+06        -0.20020E+06         0.00000E+00
    0.00000E+00         0.00000E+00         0.14314E+06
 
    0.63008E+06         0.93226E+06         0.00000E+00
    0.93226E+06        -0.14575E+06         0.00000E+00
    0.00000E+00         0.00000E+00         0.96866E+05
 
    0.36274E+06         0.94131E+06         0.00000E+00
    0.94131E+06        -0.73291E+05         0.00000E+00
    0.00000E+00         0.00000E+00         0.57890E+05
 
    0.12424E+06         0.92188E+06         0.00000E+00
    0.92188E+06         0.10993E+05         0.00000E+00
    0.00000E+00         0.00000E+00         0.27048E+05
 
    0.55397E+07         0.12916E+06         0.00000E+00
    0.12916E+06        -0.77774E+05         0.00000E+00
    0.00000E+00         0.00000E+00         0.10924E+07
 
    0.49142E+07         0.31793E+06         0.00000E+00
    0.31793E+06        -0.90170E+05         0.00000E+00
    0.00000E+00         0.00000E+00         0.96481E+06
 
    0.43368E+07         0.43508E+06         0.00000E+00
    0.43508E+06        -0.11997E+06         0.00000E+00
    0.00000E+00         0.00000E+00         0.84337E+06
 
    0.38138E+07         0.50501E+06         0.00000E+00
    0.50501E+06        -0.16832E+06         0.00000E+00
    0.00000E+00         0.00000E+00         0.72909E+06
 
    0.33448E+07         0.54879E+06         0.00000E+00
    0.54879E+06        -0.23241E+06         0.00000E+00
    0.00000E+00         0.00000E+00         0.62247E+06
 
    0.29249E+07         0.58320E+06         0.00000E+00
    0.58320E+06        -0.30662E+06         0.00000E+00
    0.00000E+00         0.00000E+00         0.52365E+06
 
    0.25460E+07         0.62032E+06         0.00000E+00
    0.62032E+06        -0.38357E+06         0.00000E+00
    0.00000E+00         0.00000E+00         0.43248E+06
 
    0.21982E+07         0.66733E+06         0.00000E+00
    0.66733E+06        -0.45503E+06         0.00000E+00
    0.00000E+00         0.00000E+00         0.34864E+06
 
    0.18716E+07         0.72671E+06         0.00000E+00
    0.72671E+06        -0.51283E+06         0.00000E+00
    0.00000E+00         0.00000E+00         0.27175E+06
 
    0.15570E+07         0.79653E+06         0.00000E+00
    0.79653E+06        -0.54964E+06         0.00000E+00
    0.00000E+00         0.00000E+00         0.20147E+06
 
    0.12476E+07         0.87104E+06         0.00000E+00
    0.87104E+06        -0.55975E+06         0.00000E+00
    0.00000E+00         0.00000E+00         0.13756E+06
 
    0.93984E+06         0.94142E+06         0.00000E+00
    0.94142E+06        -0.53979E+06         0.00000E+00
    0.00000E+00         0.00000E+00         0.80010E+05
 
    0.63479E+06         0.99678E+06         0.00000E+00
    0.99678E+06        -0.48943E+06         0.00000E+00
    0.00000E+00         0.00000E+00         0.29071E+05
 
    0.33874E+06         0.10255E+07         0.00000E+00
    0.10255E+07        -0.41204E+06         0.00000E+00
    0.00000E+00         0.00000E+00        -0.14660E+05
 
    0.64176E+05         0.10170E+07         0.00000E+00
    0.10170E+07        -0.31517E+06         0.00000E+00
    0.00000E+00         0.00000E+00        -0.50200E+05
 
    0.57241E+07         0.12111E+06         0.00000E+00
    0.12111E+06        -0.12193E+06         0.00000E+00
    0.00000E+00         0.00000E+00         0.11204E+07
 
    0.50113E+07         0.28821E+06         0.00000E+00
    0.28821E+06        -0.14698E+06         0.00000E+00
    0.00000E+00         0.00000E+00         0.97287E+06
 
    0.43749E+07         0.38115E+06         0.00000E+00
    0.38115E+06        -0.20102E+06         0.00000E+00
    0.00000E+00         0.00000E+00         0.83478E+06
 
    0.38178E+07         0.42917E+06         0.00000E+00
    0.42917E+06        -0.28322E+06         0.00000E+00
    0.00000E+00         0.00000E+00         0.70691E+06
 
    0.33351E+07         0.45686E+06         0.00000E+00
    0.45686E+06        -0.38823E+06         0.00000E+00
    0.00000E+00         0.00000E+00         0.58937E+06
 
    0.29167E+07         0.48336E+06         0.00000E+00
    0.48336E+06        -0.50756E+06         0.00000E+00
    0.00000E+00         0.00000E+00         0.48184E+06
 
    0.25493E+07         0.52196E+06         0.00000E+00
    0.52196E+06        -0.63085E+06         0.00000E+00
    0.00000E+00         0.00000E+00         0.38369E+06
 
    0.22177E+07         0.58015E+06         0.00000E+00
    0.58015E+06        -0.74706E+06         0.00000E+00
    0.00000E+00         0.00000E+00         0.29414E+06
 
    0.19070E+07         0.65979E+06         0.00000E+00
    0.65979E+06        -0.84536E+06         0.00000E+00
    0.00000E+00         0.00000E+00         0.21232E+06
 
    0.16035E+07         0.75759E+06         0.00000E+00
    0.75759E+06        -0.91606E+06         0.00000E+00
    0.00000E+00         0.00000E+00         0.13748E+06
 
    0.12965E+07         0.86564E+06         0.00000E+00
    0.86564E+06        -0.95139E+06         0.00000E+00
    0.00000E+00         0.00000E+00         0.69030E+05
 
    0.97971E+06         0.97217E+06         0.00000E+00
    0.97217E+06        -0.94640E+06         0.00000E+00
    0.00000E+00         0.00000E+00         0.66628E+04
 
    0.65212E+06         0.10625E+07         0.00000E+00
    0.10625E+07        -0.89980E+06         0.00000E+00
    0.00000E+00         0.00000E+00        -0.49534E+05
 
    0.31987E+06         0.11206E+07         0.00000E+00
    0.11206E+07        -0.81490E+06         0.00000E+00
    0.00000E+00         0.00000E+00        -0.99006E+05
 
   -0.27623E+04         0.11308E+07         0.00000E+00
    0.11308E+07        -0.70049E+06         0.00000E+00
    0.00000E+00         0.00000E+00        -0.14065E+06
 
    0.58629E+07         0.10583E+06         0.00000E+00
    0.10583E+06        -0.18723E+06         0.00000E+00
    0.00000E+00         0.00000E+00         0.11351E+07
 
    0.50580E+07         0.23768E+06         0.00000E+00
    0.23768E+06        -0.22767E+06         0.00000E+00
    0.00000E+00         0.00000E+00         0.96607E+06
 
    0.43638E+07         0.29483E+06         0.00000E+00
    0.29483E+06        -0.31075E+06         0.00000E+00
    0.00000E+00         0.00000E+00         0.81061E+06
 
    0.37781E+07         0.31208E+06         0.00000E+00
    0.31208E+06        -0.43300E+06         0.00000E+00
    0.00000E+00         0.00000E+00         0.66903E+06
 
    0.32903E+07         0.31792E+06         0.00000E+00
    0.31792E+06        -0.58584E+06         0.00000E+00
    0.00000E+00         0.00000E+00         0.54089E+06
 
    0.28837E+07         0.33390E+06         0.00000E+00
    0.33390E+06        -0.75738E+06         0.00000E+00
    0.00000E+00         0.00000E+00         0.42527E+06
 
    0.25387E+07         0.37445E+06         0.00000E+00
    0.37445E+06        -0.93393E+06         0.00000E+00
    0.00000E+00         0.00000E+00         0.32095E+06
 
    0.22338E+07         0.44712E+06         0.00000E+00
    0.44712E+06        -0.11013E+07         0.00000E+00
    0.00000E+00         0.00000E+00         0.22650E+06
 
    0.19483E+07         0.55295E+06         0.00000E+00
    0.55295E+06        -0.12458E+07         0.00000E+00
    0.00000E+00         0.00000E+00         0.14051E+06
 
    0.16635E+07         0.68696E+06         0.00000E+00
    0.68696E+06        -0.13550E+07         0.00000E+00
    0.00000E+00         0.00000E+00         0.61689E+05
 
    0.13639E+07         0.83878E+06         0.00000E+00
    0.83878E+06        -0.14190E+07         0.00000E+00
    0.00000E+00         0.00000E+00        -0.11020E+05
 
    0.10392E+07         0.99319E+06         0.00000E+00
    0.99319E+06        -0.14306E+07         0.00000E+00
    0.00000E+00         0.00000E+00        -0.78293E+05
 
    0.68580E+06         0.11311E+07         0.00000E+00
    0.11311E+07        -0.13873E+07         0.00000E+00
    0.00000E+00         0.00000E+00        -0.14031E+06
 
    0.30870E+06         0.12309E+07         0.00000E+00
    0.12309E+07        -0.12918E+07         0.00000E+00
    0.00000E+00         0.00000E+00        -0.19663E+06
 
   -0.76743E+05         0.12703E+07         0.00000E+00
    0.12703E+07        -0.11537E+07         0.00000E+00
    0.00000E+00         0.00000E+00        -0.24609E+06
 
    0.59313E+07         0.81725E+05         0.00000E+00
    0.81725E+05        -0.28268E+06         0.00000E+00
    0.00000E+00         0.00000E+00         0.11297E+07
 
    0.50316E+07         0.16218E+06         0.00000E+00
    0.16218E+06        -0.34161E+06         0.00000E+00
    0.00000E+00         0.00000E+00         0.93800E+06
 
    0.42835E+07         0.17028E+06         0.00000E+00
    0.17028E+06        -0.45912E+06         0.00000E+00
    0.00000E+00         0.00000E+00         0.76489E+06
 
    0.36781E+07         0.14699E+06         0.00000E+00
    0.14699E+06        -0.62816E+06         0.00000E+00
    0.00000E+00         0.00000E+00         0.60998E+06
 
    0.31968E+07         0.12494E+06         0.00000E+00
    0.12494E+06        -0.83618E+06         0.00000E+00
    0.00000E+00         0.00000E+00         0.47213E+06
 
    0.28154E+07         0.12801E+06         0.00000E+00
    0.12801E+06        -0.10673E+07         0.00000E+00
    0.00000E+00         0.00000E+00         0.34962E+06
 
    0.25063E+07         0.17149E+06         0.00000E+00
    0.17149E+06        -0.13040E+07         0.00000E+00
    0.00000E+00         0.00000E+00         0.24046E+06
 
    0.22412E+07         0.26263E+06         0.00000E+00
    0.26263E+06        -0.15288E+07         0.00000E+00
    0.00000E+00         0.00000E+00         0.14248E+06
 
    0.19927E+07         0.40137E+06         0.00000E+00
    0.40137E+06        -0.17249E+07         0.00000E+00
    0.00000E+00         0.00000E+00         0.53559E+05
 
    0.17361E+07         0.58085E+06         0.00000E+00
    0.58085E+06        -0.18774E+07         0.00000E+00
    0.00000E+00         0.00000E+00        -0.28252E+05
 
    0.14505E+07         0.78799E+06         0.00000E+00
    0.78799E+06        -0.19734E+07         0.00000E+00
    0.00000E+00         0.00000E+00        -0.10459E+06
 
    0.11205E+07         0.10039E+07         0.00000E+00
    0.10039E+07        -0.20036E+07         0.00000E+00
    0.00000E+00         0.00000E+00        -0.17662E+06
 
    0.73867E+06         0.12044E+07         0.00000E+00
    0.12044E+07        -0.19632E+07         0.00000E+00
    0.00000E+00         0.00000E+00        -0.24491E+06
 
    0.30736E+06         0.13613E+07         0.00000E+00
    0.13613E+07        -0.18536E+07         0.00000E+00
    0.00000E+00         0.00000E+00        -0.30926E+06
 
   -0.15818E+06         0.14440E+07         0.00000E+00
    0.14440E+07        -0.16845E+07         0.00000E+00
    0.00000E+00         0.00000E+00        -0.36854E+06
 
    0.58985E+07         0.46989E+05         0.00000E+00
    0.46989E+05        -0.42050E+06         0.00000E+00
    0.00000E+00         0.00000E+00         0.10956E+07
 
    0.49040E+07         0.57136E+05         0.00000E+00
    0.57136E+05        -0.50140E+06         0.00000E+00
    0.00000E+00         0.00000E+00         0.88052E+06
 
    0.41096E+07         0.12438E+04         0.00000E+00
    0.12438E+04        -0.65923E+06         0.00000E+00
    0.00000E+00         0.00000E+00         0.69007E+06
 
    0.34969E+07        -0.73031E+05         0.00000E+00
   -0.73031E+05        -0.88226E+06         0.00000E+00
    0.00000E+00         0.00000E+00         0.52292E+06
 
    0.30376E+07        -0.12893E+06         0.00000E+00
   -0.12893E+06        -0.11530E+07         0.00000E+00
    0.00000E+00         0.00000E+00         0.37693E+06
 
    0.26979E+07        -0.14063E+06         0.00000E+00
   -0.14063E+06        -0.14507E+07         0.00000E+00
    0.00000E+00         0.00000E+00         0.24943E+06
 
    0.24412E+07        -0.92538E+05         0.00000E+00
   -0.92538E+05        -0.17540E+07         0.00000E+00
    0.00000E+00         0.00000E+00         0.13744E+06
 
    0.22314E+07         0.21832E+05         0.00000E+00
    0.21832E+05        -0.20418E+07         0.00000E+00
    0.00000E+00         0.00000E+00         0.37919E+05
 
    0.20338E+07         0.20092E+06         0.00000E+00
    0.20092E+06        -0.22944E+07         0.00000E+00
    0.00000E+00         0.00000E+00        -0.52122E+05
 
    0.18172E+07         0.43588E+06         0.00000E+00
    0.43588E+06        -0.24942E+07         0.00000E+00
    0.00000E+00         0.00000E+00        -0.13541E+06
 
    0.15541E+07         0.71098E+06         0.00000E+00
    0.71098E+06        -0.26257E+07         0.00000E+00
    0.00000E+00         0.00000E+00        -0.21430E+06
 
    0.12234E+07         0.10036E+07         0.00000E+00
    0.10036E+07        -0.26764E+07         0.00000E+00
    0.00000E+00         0.00000E+00        -0.29061E+06
 
    0.81170E+06         0.12842E+07         0.00000E+00
    0.12842E+07        -0.26388E+07         0.00000E+00
    0.00000E+00         0.00000E+00        -0.36543E+06
 
    0.31691E+06         0.15172E+07         0.00000E+00
    0.15172E+07        -0.25118E+07         0.00000E+00
    0.00000E+00         0.00000E+00        -0.43897E+06
 
   -0.24797E+06         0.16620E+07         0.00000E+00
    0.16620E+07        -0.23036E+07         0.00000E+00
    0.00000E+00         0.00000E+00        -0.51032E+06
 
    0.57260E+07        -0.35873E+03         0.00000E+00
   -0.35873E+03        -0.61692E+06         0.00000E+00
    0.00000E+00         0.00000E+00         0.10218E+07
 
    0.46407E+07        -0.82358E+05         0.00000E+00
   -0.82358E+05        -0.72368E+06         0.00000E+00
    0.00000E+00         0.00000E+00         0.78341E+06
 
    0.38121E+07        -0.21871E+06         0.00000E+00
   -0.21871E+06        -0.92825E+06         0.00000E+00
    0.00000E+00         0.00000E+00         0.57677E+06
 
    0.32093E+07        -0.35470E+06         0.00000E+00
   -0.35470E+06        -0.12127E+07         0.00000E+00
    0.00000E+00         0.00000E+00         0.39931E+06
 
    0.27915E+07        -0.44979E+06         0.00000E+00
   -0.44979E+06        -0.15534E+07         0.00000E+00
    0.00000E+00         0.00000E+00         0.24764E+06
 
    0.25133E+07        -0.47705E+06         0.00000E+00
   -0.47705E+06        -0.19240E+07         0.00000E+00
    0.00000E+00         0.00000E+00         0.11786E+06
 
    0.23281E+07        -0.42156E+06         0.00000E+00
   -0.42156E+06        -0.22989E+07         0.00000E+00
    0.00000E+00         0.00000E+00         0.58421E+04
 
    0.21909E+07        -0.27842E+06         0.00000E+00
   -0.27842E+06        -0.26536E+07         0.00000E+00
    0.00000E+00         0.00000E+00        -0.92531E+05
 
    0.20600E+07        -0.51096E+05         0.00000E+00
   -0.51096E+05        -0.29661E+07         0.00000E+00
    0.00000E+00         0.00000E+00        -0.18122E+06
 
    0.18969E+07         0.24963E+06         0.00000E+00
    0.24963E+06        -0.32164E+07         0.00000E+00
    0.00000E+00         0.00000E+00        -0.26389E+06
 
    0.16676E+07         0.60575E+06         0.00000E+00
    0.60575E+06        -0.33862E+07         0.00000E+00
    0.00000E+00         0.00000E+00        -0.34373E+06
 
    0.13431E+07         0.99143E+06         0.00000E+00
    0.99143E+06        -0.34599E+07         0.00000E+00
    0.00000E+00         0.00000E+00        -0.42336E+06
 
    0.90252E+06         0.13721E+07         0.00000E+00
    0.13721E+07        -0.34257E+07         0.00000E+00
    0.00000E+00         0.00000E+00        -0.50463E+06
 
    0.33635E+06         0.17042E+07         0.00000E+00
    0.17042E+07        -0.32782E+07         0.00000E+00
    0.00000E+00         0.00000E+00        -0.58837E+06
 
   -0.34789E+06         0.19356E+07         0.00000E+00
    0.19356E+07        -0.30227E+07         0.00000E+00
    0.00000E+00         0.00000E+00        -0.67412E+06
 
    0.53665E+07        -0.62477E+05         0.00000E+00
   -0.62477E+05        -0.89320E+06         0.00000E+00
    0.00000E+00         0.00000E+00         0.89465E+06
 
    0.42001E+07        -0.26146E+06         0.00000E+00
   -0.26146E+06        -0.10302E+07         0.00000E+00
    0.00000E+00         0.00000E+00         0.63397E+06
 
    0.33553E+07        -0.49590E+06         0.00000E+00
   -0.49590E+06        -0.12885E+07         0.00000E+00
    0.00000E+00         0.00000E+00         0.41335E+06
 
    0.27850E+07        -0.70389E+06         0.00000E+00
   -0.70389E+06        -0.16420E+07         0.00000E+00
    0.00000E+00         0.00000E+00         0.22861E+06
 
    0.24327E+07        -0.84200E+06         0.00000E+00
   -0.84200E+06        -0.20590E+07         0.00000E+00
    0.00000E+00         0.00000E+00         0.74738E+05
 
    0.22388E+07        -0.88374E+06         0.00000E+00
   -0.88374E+06        -0.25070E+07         0.00000E+00
    0.00000E+00         0.00000E+00        -0.53647E+05
 
    0.21457E+07        -0.81648E+06         0.00000E+00
   -0.81648E+06        -0.29559E+07         0.00000E+00
    0.00000E+00         0.00000E+00        -0.16203E+06
 
    0.20998E+07        -0.63820E+06         0.00000E+00
   -0.63820E+06        -0.33786E+07         0.00000E+00
    0.00000E+00         0.00000E+00        -0.25577E+06
 
    0.20521E+07        -0.35476E+06         0.00000E+00
   -0.35476E+06        -0.37517E+07         0.00000E+00
    0.00000E+00         0.00000E+00        -0.33992E+06
 
    0.19579E+07         0.21418E+05         0.00000E+00
    0.21418E+05        -0.40537E+07         0.00000E+00
    0.00000E+00         0.00000E+00        -0.41917E+06
 
    0.17756E+07         0.47104E+06         0.00000E+00
    0.47104E+06        -0.42642E+07         0.00000E+00
    0.00000E+00         0.00000E+00        -0.49771E+06
 
    0.14679E+07         0.96638E+06         0.00000E+00
    0.96638E+06        -0.43635E+07         0.00000E+00
    0.00000E+00         0.00000E+00        -0.57914E+06
 
    0.10033E+07         0.14689E+07         0.00000E+00
    0.14689E+07        -0.43345E+07         0.00000E+00
    0.00000E+00         0.00000E+00        -0.66625E+06
 
    0.36120E+06         0.19272E+07         0.00000E+00
    0.19272E+07        -0.41654E+07         0.00000E+00
    0.00000E+00         0.00000E+00        -0.76083E+06
 
   -0.46113E+06         0.22765E+07         0.00000E+00
    0.22765E+07        -0.38551E+07         0.00000E+00
    0.00000E+00         0.00000E+00        -0.86324E+06
 
    0.47625E+07        -0.14172E+06         0.00000E+00
   -0.14172E+06        -0.12767E+07         0.00000E+00
    0.00000E+00         0.00000E+00         0.69715E+06
 
    0.35320E+07        -0.48553E+06         0.00000E+00
   -0.48553E+06        -0.14491E+07         0.00000E+00
    0.00000E+00         0.00000E+00         0.41657E+06
 
    0.26968E+07        -0.83620E+06         0.00000E+00
   -0.83620E+06        -0.17689E+07         0.00000E+00
    0.00000E+00         0.00000E+00         0.18558E+06
 
    0.21882E+07        -0.11248E+07         0.00000E+00
   -0.11248E+07        -0.21988E+07         0.00000E+00
    0.00000E+00         0.00000E+00        -0.21019E+04
 
    0.19298E+07        -0.13069E+07         0.00000E+00
   -0.13069E+07        -0.26971E+07         0.00000E+00
    0.00000E+00         0.00000E+00        -0.15346E+06
 
    0.18455E+07        -0.13589E+07         0.00000E+00
   -0.13589E+07        -0.32239E+07         0.00000E+00
    0.00000E+00         0.00000E+00        -0.27569E+06
 
    0.18657E+07        -0.12733E+07         0.00000E+00
   -0.12733E+07        -0.37449E+07         0.00000E+00
    0.00000E+00         0.00000E+00        -0.37585E+06
 
    0.19289E+07        -0.10527E+07         0.00000E+00
   -0.10527E+07        -0.42321E+07         0.00000E+00
    0.00000E+00         0.00000E+00        -0.46064E+06
 
    0.19806E+07        -0.70597E+06         0.00000E+00
   -0.70597E+06        -0.46622E+07         0.00000E+00
    0.00000E+00         0.00000E+00        -0.53631E+06
 
    0.19709E+07        -0.24660E+06         0.00000E+00
   -0.24660E+06        -0.50141E+07         0.00000E+00
    0.00000E+00         0.00000E+00        -0.60863E+06
 
    0.18516E+07         0.30673E+06         0.00000E+00
    0.30673E+06        -0.52660E+07         0.00000E+00
    0.00000E+00         0.00000E+00        -0.68288E+06
 
    0.15754E+07         0.92683E+06         0.00000E+00
    0.92683E+06        -0.53944E+07         0.00000E+00
    0.00000E+00         0.00000E+00        -0.76380E+06
 
    0.10977E+07         0.15736E+07         0.00000E+00
    0.15736E+07        -0.53748E+07         0.00000E+00
    0.00000E+00         0.00000E+00        -0.85541E+06
 
    0.38149E+06         0.21893E+07         0.00000E+00
    0.21893E+07        -0.51856E+07         0.00000E+00
    0.00000E+00         0.00000E+00        -0.96082E+06
 
   -0.59313E+06         0.26958E+07         0.00000E+00
    0.26958E+07        -0.48153E+07         0.00000E+00
    0.00000E+00         0.00000E+00        -0.10817E+07
 
    0.38449E+07        -0.24069E+06         0.00000E+00
   -0.24069E+06        -0.18025E+07         0.00000E+00
    0.00000E+00         0.00000E+00         0.40848E+06
 
    0.25771E+07        -0.76010E+06         0.00000E+00
   -0.76010E+06        -0.20165E+07         0.00000E+00
    0.00000E+00         0.00000E+00         0.11211E+06
 
    0.17871E+07        -0.12446E+07         0.00000E+00
   -0.12446E+07        -0.24066E+07         0.00000E+00
    0.00000E+00         0.00000E+00        -0.12390E+06
 
    0.13774E+07        -0.16189E+07         0.00000E+00
   -0.16189E+07        -0.29201E+07         0.00000E+00
    0.00000E+00         0.00000E+00        -0.30853E+06
 
    0.12458E+07        -0.18407E+07         0.00000E+00
   -0.18407E+07        -0.35020E+07         0.00000E+00
    0.00000E+00         0.00000E+00        -0.45125E+06
 
    0.12971E+07        -0.18940E+07         0.00000E+00
   -0.18940E+07        -0.41041E+07         0.00000E+00
    0.00000E+00         0.00000E+00        -0.56139E+06
 
    0.14500E+07        -0.17803E+07         0.00000E+00
   -0.17803E+07        -0.46889E+07         0.00000E+00
    0.00000E+00         0.00000E+00        -0.64777E+06
 
    0.16372E+07        -0.15095E+07         0.00000E+00
   -0.15095E+07        -0.52297E+07         0.00000E+00
    0.00000E+00         0.00000E+00        -0.71850E+06
 
    0.18017E+07        -0.10944E+07         0.00000E+00
   -0.10944E+07        -0.57068E+07         0.00000E+00
    0.00000E+00         0.00000E+00        -0.78102E+06
 
    0.18912E+07        -0.54793E+06         0.00000E+00
   -0.54793E+06        -0.61020E+07         0.00000E+00
    0.00000E+00         0.00000E+00        -0.84216E+06
 
    0.18527E+07         0.11450E+06         0.00000E+00
    0.11450E+06        -0.63942E+07         0.00000E+00
    0.00000E+00         0.00000E+00        -0.90830E+06
 
    0.16285E+07         0.87043E+06         0.00000E+00
    0.87043E+06        -0.65559E+07         0.00000E+00
    0.00000E+00         0.00000E+00        -0.98546E+06
 
    0.11573E+07         0.16825E+07         0.00000E+00
    0.16825E+07        -0.65533E+07         0.00000E+00
    0.00000E+00         0.00000E+00        -0.10792E+07
 
    0.37907E+06         0.24900E+07         0.00000E+00
    0.24900E+07        -0.63509E+07         0.00000E+00
    0.00000E+00         0.00000E+00        -0.11944E+07
 
   -0.75265E+06         0.32020E+07         0.00000E+00
    0.32020E+07        -0.59204E+07         0.00000E+00
    0.00000E+00         0.00000E+00        -0.13346E+07
 
    0.25303E+07        -0.36245E+06         0.00000E+00
   -0.36245E+06        -0.25148E+07         0.00000E+00
    0.00000E+00         0.00000E+00         0.30958E+04
 
    0.12655E+07        -0.10910E+07         0.00000E+00
   -0.10910E+07        -0.27789E+07         0.00000E+00
    0.00000E+00         0.00000E+00        -0.30267E+06
 
    0.56946E+06        -0.17244E+07         0.00000E+00
   -0.17244E+07        -0.32500E+07         0.00000E+00
    0.00000E+00         0.00000E+00        -0.53611E+06
 
    0.30511E+06        -0.21829E+07         0.00000E+00
   -0.21829E+07        -0.38536E+07         0.00000E+00
    0.00000E+00         0.00000E+00        -0.70971E+06
 
    0.33711E+06        -0.24320E+07         0.00000E+00
   -0.24320E+07        -0.45171E+07         0.00000E+00
    0.00000E+00         0.00000E+00        -0.83600E+06
 
    0.54875E+06        -0.24706E+07         0.00000E+00
   -0.24706E+07        -0.51830E+07         0.00000E+00
    0.00000E+00         0.00000E+00        -0.92684E+06
 
    0.84860E+06        -0.23151E+07         0.00000E+00
   -0.23151E+07        -0.58134E+07         0.00000E+00
    0.00000E+00         0.00000E+00        -0.99295E+06
 
    0.11679E+07        -0.19861E+07         0.00000E+00
   -0.19861E+07        -0.63870E+07         0.00000E+00
    0.00000E+00         0.00000E+00        -0.10438E+07
 
    0.14525E+07        -0.15008E+07         0.00000E+00
   -0.15008E+07        -0.68920E+07         0.00000E+00
    0.00000E+00         0.00000E+00        -0.10879E+07
 
    0.16527E+07        -0.86996E+06         0.00000E+00
   -0.86996E+06        -0.73174E+07         0.00000E+00
    0.00000E+00         0.00000E+00        -0.11329E+07
 
    0.17138E+07        -0.10125E+06         0.00000E+00
   -0.10125E+06        -0.76453E+07         0.00000E+00
    0.00000E+00         0.00000E+00        -0.11863E+07
 
    0.15688E+07         0.79374E+06         0.00000E+00
    0.79374E+06        -0.78455E+07         0.00000E+00
    0.00000E+00         0.00000E+00        -0.12553E+07
 
    0.11359E+07         0.17875E+07         0.00000E+00
    0.17875E+07        -0.78730E+07         0.00000E+00
    0.00000E+00         0.00000E+00        -0.13474E+07
 
    0.32393E+06         0.28226E+07         0.00000E+00
    0.28226E+07        -0.76723E+07         0.00000E+00
    0.00000E+00         0.00000E+00        -0.14697E+07
 
   -0.95327E+06         0.37982E+07         0.00000E+00
    0.37982E+07        -0.71897E+07         0.00000E+00
    0.00000E+00         0.00000E+00        -0.16286E+07
 
    0.71794E+06        -0.51091E+06         0.00000E+00
   -0.51091E+06        -0.34703E+07         0.00000E+00
    0.00000E+00         0.00000E+00        -0.55046E+06
 
   -0.48487E+06        -0.14849E+07         0.00000E+00
   -0.14849E+07        -0.37962E+07         0.00000E+00
    0.00000E+00         0.00000E+00        -0.85621E+06
 
   -0.10206E+07        -0.22767E+07         0.00000E+00
   -0.22767E+07        -0.43623E+07         0.00000E+00
    0.00000E+00         0.00000E+00        -0.10766E+07
 
   -0.10821E+07        -0.28063E+07         0.00000E+00
   -0.28063E+07        -0.50609E+07         0.00000E+00
    0.00000E+00         0.00000E+00        -0.12286E+07
 
   -0.84758E+06        -0.30577E+07         0.00000E+00
   -0.30577E+07        -0.57962E+07         0.00000E+00
    0.00000E+00         0.00000E+00        -0.13288E+07
 
   -0.45659E+06        -0.30559E+07         0.00000E+00
   -0.30559E+07        -0.65024E+07         0.00000E+00
    0.00000E+00         0.00000E+00        -0.13918E+07
 
   -0.56896E+04        -0.28403E+07         0.00000E+00
   -0.28403E+07        -0.71462E+07         0.00000E+00
    0.00000E+00         0.00000E+00        -0.14304E+07
 
    0.44258E+06        -0.24461E+07         0.00000E+00
   -0.24461E+07        -0.77182E+07         0.00000E+00
    0.00000E+00         0.00000E+00        -0.14551E+07
 
    0.84472E+06        -0.18946E+07         0.00000E+00
   -0.18946E+07        -0.82202E+07         0.00000E+00
    0.00000E+00         0.00000E+00        -0.14751E+07
 
    0.11608E+07        -0.11919E+07         0.00000E+00
   -0.11919E+07        -0.86537E+07         0.00000E+00
    0.00000E+00         0.00000E+00        -0.14986E+07
 
    0.13400E+07        -0.33218E+06         0.00000E+00
   -0.33218E+06        -0.90083E+07         0.00000E+00
    0.00000E+00         0.00000E+00        -0.15337E+07
 
    0.13087E+07         0.69207E+06         0.00000E+00
    0.69207E+06        -0.92531E+07         0.00000E+00
    0.00000E+00         0.00000E+00        -0.15889E+07
 
    0.96255E+06         0.18742E+07         0.00000E+00
    0.18742E+07        -0.93307E+07         0.00000E+00
    0.00000E+00         0.00000E+00        -0.16736E+07
 
    0.16898E+06         0.31707E+07         0.00000E+00
    0.31707E+07        -0.91590E+07         0.00000E+00
    0.00000E+00         0.00000E+00        -0.17980E+07
 
   -0.12155E+07         0.44780E+07         0.00000E+00
    0.44780E+07        -0.86463E+07         0.00000E+00
    0.00000E+00         0.00000E+00        -0.19724E+07
 
   -0.17164E+07        -0.69162E+06         0.00000E+00
   -0.69162E+06        -0.47420E+07         0.00000E+00
    0.00000E+00         0.00000E+00        -0.12917E+07
 
   -0.27711E+07        -0.19493E+07         0.00000E+00
   -0.19493E+07        -0.51480E+07         0.00000E+00
    0.00000E+00         0.00000E+00        -0.15838E+07
 
   -0.30557E+07        -0.28976E+07         0.00000E+00
   -0.28976E+07        -0.58271E+07         0.00000E+00
    0.00000E+00         0.00000E+00        -0.17766E+07
 
   -0.28449E+07        -0.34657E+07         0.00000E+00
   -0.34657E+07        -0.66212E+07         0.00000E+00
    0.00000E+00         0.00000E+00        -0.18932E+07
 
   -0.23713E+07        -0.36761E+07         0.00000E+00
   -0.36761E+07        -0.74050E+07         0.00000E+00
    0.00000E+00         0.00000E+00        -0.19553E+07
 
   -0.17944E+07        -0.35969E+07         0.00000E+00
   -0.35969E+07        -0.81094E+07         0.00000E+00
    0.00000E+00         0.00000E+00        -0.19808E+07
 
   -0.12048E+07        -0.33000E+07         0.00000E+00
   -0.33000E+07        -0.87155E+07         0.00000E+00
    0.00000E+00         0.00000E+00        -0.19841E+07
 
   -0.64696E+06        -0.28370E+07         0.00000E+00
   -0.28370E+07        -0.92346E+07         0.00000E+00
    0.00000E+00         0.00000E+00        -0.19763E+07
 
   -0.14360E+06        -0.22320E+07         0.00000E+00
   -0.22320E+07        -0.96892E+07         0.00000E+00
    0.00000E+00         0.00000E+00        -0.19666E+07
 
    0.28377E+06        -0.14826E+07         0.00000E+00
   -0.14826E+07        -0.10098E+08         0.00000E+00
    0.00000E+00         0.00000E+00        -0.19628E+07
 
    0.59651E+06        -0.56424E+06         0.00000E+00
   -0.56424E+06        -0.10463E+08         0.00000E+00
    0.00000E+00         0.00000E+00        -0.19734E+07
 
    0.72072E+06         0.55991E+06         0.00000E+00
    0.55991E+06        -0.10759E+08         0.00000E+00
    0.00000E+00         0.00000E+00        -0.20076E+07
 
    0.53061E+06         0.19193E+07         0.00000E+00
    0.19193E+07        -0.10915E+08         0.00000E+00
    0.00000E+00         0.00000E+00        -0.20769E+07
 
   -0.15793E+06         0.35034E+07         0.00000E+00
    0.35034E+07        -0.10818E+08         0.00000E+00
    0.00000E+00         0.00000E+00        -0.21951E+07
 
   -0.15702E+07         0.52196E+07         0.00000E+00
    0.52196E+07        -0.10318E+08         0.00000E+00
    0.00000E+00         0.00000E+00        -0.23776E+07
 
   -0.49307E+07        -0.91321E+06         0.00000E+00
   -0.91321E+06        -0.64281E+07         0.00000E+00
    0.00000E+00         0.00000E+00        -0.22718E+07
 
   -0.57091E+07        -0.24932E+07         0.00000E+00
   -0.24932E+07        -0.69433E+07         0.00000E+00
    0.00000E+00         0.00000E+00        -0.25305E+07
 
   -0.56176E+07        -0.35726E+07         0.00000E+00
   -0.35726E+07        -0.77584E+07         0.00000E+00
    0.00000E+00         0.00000E+00        -0.26752E+07
 
   -0.50552E+07        -0.41146E+07         0.00000E+00
   -0.41146E+07        -0.86357E+07         0.00000E+00
    0.00000E+00         0.00000E+00        -0.27382E+07
 
   -0.43190E+07        -0.42167E+07         0.00000E+00
   -0.42167E+07        -0.94184E+07         0.00000E+00
    0.00000E+00         0.00000E+00        -0.27475E+07
 
   -0.35729E+07        -0.40142E+07         0.00000E+00
   -0.40142E+07        -0.10051E+08         0.00000E+00
    0.00000E+00         0.00000E+00        -0.27247E+07
 
   -0.28805E+07        -0.36172E+07         0.00000E+00
   -0.36172E+07        -0.10545E+08         0.00000E+00
    0.00000E+00         0.00000E+00        -0.26850E+07
 
   -0.22521E+07        -0.30905E+07         0.00000E+00
   -0.30905E+07        -0.10943E+08         0.00000E+00
    0.00000E+00         0.00000E+00        -0.26391E+07
 
   -0.16797E+07        -0.24561E+07         0.00000E+00
   -0.24561E+07        -0.11293E+08         0.00000E+00
    0.00000E+00         0.00000E+00        -0.25946E+07
 
   -0.11581E+07        -0.16998E+07         0.00000E+00
   -0.16998E+07        -0.11634E+08         0.00000E+00
    0.00000E+00         0.00000E+00        -0.25583E+07
 
   -0.70379E+06        -0.77483E+06         0.00000E+00
   -0.77483E+06        -0.11984E+08         0.00000E+00
    0.00000E+00         0.00000E+00        -0.25376E+07
 
   -0.37803E+06         0.39321E+06         0.00000E+00
    0.39321E+06        -0.12332E+08         0.00000E+00
    0.00000E+00         0.00000E+00        -0.25420E+07
 
   -0.31863E+06         0.18899E+07         0.00000E+00
    0.18899E+07        -0.12604E+08         0.00000E+00
    0.00000E+00         0.00000E+00        -0.25846E+07
 
   -0.76736E+06         0.37683E+07         0.00000E+00
    0.37683E+07        -0.12649E+08         0.00000E+00
    0.00000E+00         0.00000E+00        -0.26833E+07
 
   -0.20641E+07         0.59762E+07         0.00000E+00
    0.59762E+07        -0.12239E+08         0.00000E+00
    0.00000E+00         0.00000E+00        -0.28607E+07
 
   -0.91370E+07        -0.11904E+07         0.00000E+00
   -0.11904E+07        -0.86675E+07         0.00000E+00
    0.00000E+00         0.00000E+00        -0.35609E+07
 
   -0.94408E+07        -0.31256E+07         0.00000E+00
   -0.31256E+07        -0.93410E+07         0.00000E+00
    0.00000E+00         0.00000E+00        -0.37564E+07
 
   -0.88019E+07        -0.42618E+07         0.00000E+00
   -0.42618E+07        -0.10314E+08         0.00000E+00
    0.00000E+00         0.00000E+00        -0.38233E+07
 
   -0.78126E+07        -0.46618E+07         0.00000E+00
   -0.46618E+07        -0.11227E+08         0.00000E+00
    0.00000E+00         0.00000E+00        -0.38080E+07
 
   -0.68255E+07        -0.45653E+07         0.00000E+00
   -0.45653E+07        -0.11910E+08         0.00000E+00
    0.00000E+00         0.00000E+00        -0.37471E+07
 
   -0.59651E+07        -0.41977E+07         0.00000E+00
   -0.41977E+07        -0.12360E+08         0.00000E+00
    0.00000E+00         0.00000E+00        -0.36650E+07
 
   -0.52330E+07        -0.36980E+07         0.00000E+00
   -0.36980E+07        -0.12646E+08         0.00000E+00
    0.00000E+00         0.00000E+00        -0.35758E+07
 
   -0.45904E+07        -0.31289E+07         0.00000E+00
   -0.31289E+07        -0.12847E+08         0.00000E+00
    0.00000E+00         0.00000E+00        -0.34874E+07
 
   -0.39937E+07        -0.25021E+07         0.00000E+00
   -0.25021E+07        -0.13029E+08         0.00000E+00
    0.00000E+00         0.00000E+00        -0.34046E+07
 
   -0.34077E+07        -0.17906E+07         0.00000E+00
   -0.17906E+07        -0.13250E+08         0.00000E+00
    0.00000E+00         0.00000E+00        -0.33314E+07
 
   -0.28166E+07        -0.92876E+06         0.00000E+00
   -0.92876E+06        -0.13547E+08         0.00000E+00
    0.00000E+00         0.00000E+00        -0.32728E+07
 
   -0.22482E+07         0.19601E+06         0.00000E+00
    0.19601E+06        -0.13936E+08         0.00000E+00
    0.00000E+00         0.00000E+00        -0.32368E+07
 
   -0.18243E+07         0.17444E+07         0.00000E+00
    0.17444E+07        -0.14361E+08         0.00000E+00
    0.00000E+00         0.00000E+00        -0.32371E+07
 
   -0.18337E+07         0.38826E+07         0.00000E+00
    0.38826E+07        -0.14646E+08         0.00000E+00
    0.00000E+00         0.00000E+00        -0.32960E+07
 
   -0.27711E+07         0.66609E+07         0.00000E+00
    0.66609E+07        -0.14453E+08         0.00000E+00
    0.00000E+00         0.00000E+00        -0.34449E+07
 
   -0.14642E+08        -0.15515E+07         0.00000E+00
   -0.15515E+07        -0.11681E+08         0.00000E+00
    0.00000E+00         0.00000E+00        -0.52646E+07
 
   -0.14146E+08        -0.38443E+07         0.00000E+00
   -0.38443E+07        -0.12593E+08         0.00000E+00
    0.00000E+00         0.00000E+00        -0.53477E+07
 
   -0.12738E+08        -0.48569E+07         0.00000E+00
   -0.48569E+07        -0.13719E+08         0.00000E+00
    0.00000E+00         0.00000E+00        -0.52913E+07
 
   -0.11297E+08        -0.49284E+07         0.00000E+00
   -0.49284E+07        -0.14523E+08         0.00000E+00
    0.00000E+00         0.00000E+00        -0.51639E+07
 
   -0.10146E+08        -0.45484E+07         0.00000E+00
   -0.45484E+07        -0.14918E+08         0.00000E+00
    0.00000E+00         0.00000E+00        -0.50128E+07
 
   -0.92739E+07        -0.40144E+07         0.00000E+00
   -0.40144E+07        -0.15038E+08         0.00000E+00
    0.00000E+00         0.00000E+00        -0.48624E+07
 
   -0.85836E+07        -0.34468E+07         0.00000E+00
   -0.34468E+07        -0.15015E+08         0.00000E+00
    0.00000E+00         0.00000E+00        -0.47197E+07
 
   -0.79870E+07        -0.28813E+07         0.00000E+00
   -0.28813E+07        -0.14948E+08         0.00000E+00
    0.00000E+00         0.00000E+00        -0.45870E+07
 
   -0.74118E+07        -0.23110E+07         0.00000E+00
   -0.23110E+07        -0.14910E+08         0.00000E+00
    0.00000E+00         0.00000E+00        -0.44645E+07
 
   -0.67973E+07        -0.16995E+07         0.00000E+00
   -0.16995E+07        -0.14962E+08         0.00000E+00
    0.00000E+00         0.00000E+00        -0.43519E+07
 
   -0.60918E+07        -0.97468E+06         0.00000E+00
   -0.97468E+06        -0.15158E+08         0.00000E+00
    0.00000E+00         0.00000E+00        -0.42500E+07
 
   -0.52627E+07        -0.51667E+04         0.00000E+00
   -0.51667E+04        -0.15546E+08         0.00000E+00
    0.00000E+00         0.00000E+00        -0.41618E+07
 
   -0.43569E+07         0.14458E+07         0.00000E+00
    0.14458E+07        -0.16139E+08         0.00000E+00
    0.00000E+00         0.00000E+00        -0.40992E+07
 
   -0.36481E+07         0.37243E+07         0.00000E+00
    0.37243E+07        -0.16781E+08         0.00000E+00
    0.00000E+00         0.00000E+00        -0.40859E+07
 
   -0.38174E+07         0.71180E+07         0.00000E+00
    0.71180E+07        -0.17014E+08         0.00000E+00
    0.00000E+00         0.00000E+00        -0.41663E+07
 
   -0.21944E+08        -0.20583E+07         0.00000E+00
   -0.20583E+07        -0.15852E+08         0.00000E+00
    0.00000E+00         0.00000E+00        -0.75594E+07
 
   -0.20077E+08        -0.45857E+07         0.00000E+00
   -0.45857E+07        -0.17166E+08         0.00000E+00
    0.00000E+00         0.00000E+00        -0.74485E+07
 
   -0.17687E+08        -0.50467E+07         0.00000E+00
   -0.50467E+07        -0.18259E+08         0.00000E+00
    0.00000E+00         0.00000E+00        -0.71892E+07
 
   -0.15946E+08        -0.45883E+07         0.00000E+00
   -0.45883E+07        -0.18556E+08         0.00000E+00
    0.00000E+00         0.00000E+00        -0.69002E+07
 
   -0.14827E+08        -0.39554E+07         0.00000E+00
   -0.39554E+07        -0.18397E+08         0.00000E+00
    0.00000E+00         0.00000E+00        -0.66448E+07
 
   -0.14062E+08        -0.33462E+07         0.00000E+00
   -0.33462E+07        -0.18044E+08         0.00000E+00
    0.00000E+00         0.00000E+00        -0.64214E+07
 
   -0.13480E+08        -0.28004E+07         0.00000E+00
   -0.28004E+07        -0.17643E+08         0.00000E+00
    0.00000E+00         0.00000E+00        -0.62246E+07
 
   -0.12966E+08        -0.23107E+07         0.00000E+00
   -0.23107E+07        -0.17276E+08         0.00000E+00
    0.00000E+00         0.00000E+00        -0.60484E+07
 
   -0.12438E+08        -0.18525E+07         0.00000E+00
   -0.18525E+07        -0.16997E+08         0.00000E+00
    0.00000E+00         0.00000E+00        -0.58869E+07
 
   -0.11820E+08        -0.13878E+07         0.00000E+00
   -0.13878E+07        -0.16853E+08         0.00000E+00
    0.00000E+00         0.00000E+00        -0.57345E+07
 
   -0.11030E+08        -0.85480E+06         0.00000E+00
   -0.85480E+06        -0.16901E+08         0.00000E+00
    0.00000E+00         0.00000E+00        -0.55860E+07
 
   -0.99671E+07        -0.13901E+06         0.00000E+00
   -0.13901E+06        -0.17215E+08         0.00000E+00
    0.00000E+00         0.00000E+00        -0.54364E+07
 
   -0.85130E+07         0.10015E+07         0.00000E+00
    0.10015E+07        -0.17897E+08         0.00000E+00
    0.00000E+00         0.00000E+00        -0.52819E+07
 
   -0.67425E+07         0.31322E+07         0.00000E+00
    0.31322E+07        -0.18997E+08         0.00000E+00
    0.00000E+00         0.00000E+00        -0.51480E+07
 
   -0.54443E+07         0.70639E+07         0.00000E+00
    0.70639E+07        -0.19978E+08         0.00000E+00
    0.00000E+00         0.00000E+00        -0.50844E+07
 
   -0.32051E+08        -0.29470E+07         0.00000E+00
   -0.29470E+07        -0.22414E+08         0.00000E+00
    0.00000E+00         0.00000E+00        -0.10893E+08
 
   -0.27778E+08        -0.47495E+07         0.00000E+00
   -0.47495E+07        -0.23976E+08         0.00000E+00
    0.00000E+00         0.00000E+00        -0.10351E+08
 
   -0.24621E+08        -0.40524E+07         0.00000E+00
   -0.40524E+07        -0.23892E+08         0.00000E+00
    0.00000E+00         0.00000E+00        -0.97026E+07
 
   -0.23034E+08        -0.32728E+07         0.00000E+00
   -0.32728E+07        -0.23132E+08         0.00000E+00
    0.00000E+00         0.00000E+00        -0.92330E+07
 
   -0.22094E+08        -0.26546E+07         0.00000E+00
   -0.26546E+07        -0.22233E+08         0.00000E+00
    0.00000E+00         0.00000E+00        -0.88655E+07
 
   -0.21468E+08        -0.21690E+07         0.00000E+00
   -0.21690E+07        -0.21369E+08         0.00000E+00
    0.00000E+00         0.00000E+00        -0.85675E+07
 
   -0.20978E+08        -0.17778E+07         0.00000E+00
   -0.17778E+07        -0.20604E+08         0.00000E+00
    0.00000E+00         0.00000E+00        -0.83164E+07
 
   -0.20518E+08        -0.14488E+07         0.00000E+00
   -0.14488E+07        -0.19964E+08         0.00000E+00
    0.00000E+00         0.00000E+00        -0.80964E+07
 
   -0.20008E+08        -0.11545E+07         0.00000E+00
   -0.11545E+07        -0.19468E+08         0.00000E+00
    0.00000E+00         0.00000E+00        -0.78953E+07
 
   -0.19368E+08        -0.86647E+06         0.00000E+00
   -0.86647E+06        -0.19142E+08         0.00000E+00
    0.00000E+00         0.00000E+00        -0.77021E+07
 
   -0.18496E+08        -0.54551E+06         0.00000E+00
   -0.54551E+06        -0.19026E+08         0.00000E+00
    0.00000E+00         0.00000E+00        -0.75044E+07
 
   -0.17232E+08        -0.12101E+06         0.00000E+00
   -0.12101E+06        -0.19197E+08         0.00000E+00
    0.00000E+00         0.00000E+00        -0.72858E+07
 
   -0.15312E+08         0.56444E+06         0.00000E+00
    0.56444E+06        -0.19802E+08         0.00000E+00
    0.00000E+00         0.00000E+00        -0.70227E+07
 
   -0.12192E+08         0.19828E+07         0.00000E+00
    0.19828E+07        -0.21130E+08         0.00000E+00
    0.00000E+00         0.00000E+00        -0.66643E+07
 
   -0.82155E+07         0.59182E+07         0.00000E+00
    0.59182E+07        -0.23396E+08         0.00000E+00
    0.00000E+00         0.00000E+00        -0.63223E+07
 
   -0.51865E+08        -0.31943E+07         0.00000E+00
   -0.31943E+07        -0.35573E+08         0.00000E+00
    0.00000E+00         0.00000E+00        -0.17488E+08
 
   -0.42277E+08        -0.21493E+07         0.00000E+00
   -0.21493E+07        -0.32623E+08         0.00000E+00
    0.00000E+00         0.00000E+00        -0.14980E+08
 
   -0.38790E+08        -0.14193E+07         0.00000E+00
   -0.14193E+07        -0.30254E+08         0.00000E+00
    0.00000E+00         0.00000E+00        -0.13809E+08
 
   -0.36851E+08        -0.10774E+07         0.00000E+00
   -0.10774E+07        -0.28338E+08         0.00000E+00
    0.00000E+00         0.00000E+00        -0.13038E+08
 
   -0.35631E+08        -0.85035E+06         0.00000E+00
   -0.85035E+06        -0.26783E+08         0.00000E+00
    0.00000E+00         0.00000E+00        -0.12483E+08
 
   -0.34765E+08        -0.68583E+06         0.00000E+00
   -0.68583E+06        -0.25505E+08         0.00000E+00
    0.00000E+00         0.00000E+00        -0.12054E+08
 
   -0.34067E+08        -0.55683E+06         0.00000E+00
   -0.55683E+06        -0.24457E+08         0.00000E+00
    0.00000E+00         0.00000E+00        -0.11705E+08
 
   -0.33419E+08        -0.44875E+06         0.00000E+00
   -0.44875E+06        -0.23607E+08         0.00000E+00
    0.00000E+00         0.00000E+00        -0.11405E+08
 
   -0.32724E+08        -0.35112E+06         0.00000E+00
   -0.35112E+06        -0.22942E+08         0.00000E+00
    0.00000E+00         0.00000E+00        -0.11133E+08
 
   -0.31886E+08        -0.25402E+06         0.00000E+00
   -0.25402E+06        -0.22464E+08         0.00000E+00
    0.00000E+00         0.00000E+00        -0.10870E+08
 
   -0.30775E+08        -0.14446E+06         0.00000E+00
   -0.14446E+06        -0.22196E+08         0.00000E+00
    0.00000E+00         0.00000E+00        -0.10594E+08
 
   -0.29189E+08        -0.11519E+03         0.00000E+00
   -0.11519E+03        -0.22199E+08         0.00000E+00
    0.00000E+00         0.00000E+00        -0.10278E+08
 
   -0.26744E+08         0.23317E+06         0.00000E+00
    0.23317E+06        -0.22606E+08         0.00000E+00
    0.00000E+00         0.00000E+00        -0.98699E+07
 
   -0.22602E+08         0.67978E+06         0.00000E+00
    0.67978E+06        -0.23758E+08         0.00000E+00
    0.00000E+00         0.00000E+00        -0.92719E+07
 
   -0.13597E+08         0.25111E+07         0.00000E+00
    0.25111E+07        -0.26758E+08         0.00000E+00
    0.00000E+00         0.00000E+00        -0.80712E+07
 
TENSORS stresstot double 
   -0.55669E+08        -0.17449E+06         0.00000E+00
   -0.17449E+06        -0.60102E+08         0.00000E+00
    0.00000E+00         0.00000E+00        -0.60027E+08
 
   -0.56255E+08        -0.10604E+06         0.00000E+00
   -0.10604E+06        -0.60293E+08         0.00000E+00
    0.00000E+00         0.00000E+00        -0.60183E+08
 
   -0.56564E+08        -0.46420E+05         0.00000E+00
   -0.46420E+05        -0.60412E+08         0.00000E+00
    0.00000E+00         0.00000E+00        -0.60270E+08
 
   -0.56844E+08        -0.13896E+05         0.00000E+00
   -0.13896E+05        -0.60460E+08         0.00000E+00
    0.00000E+00         0.00000E+00        -0.60336E+08
 
   -0.57127E+08         0.64667E+04         0.00000E+00
    0.64667E+04        -0.60462E+08         0.00000E+00
    0.00000E+00         0.00000E+00        -0.60394E+08
 
   -0.57417E+08         0.19560E+05         0.00000E+00
    0.19560E+05        -0.60432E+08         0.00000E+00
    0.00000E+00         0.00000E+00        -0.60447E+08
 
   -0.57714E+08         0.28054E+05         0.00000E+00
    0.28054E+05        -0.60382E+08         0.00000E+00
    0.00000E+00         0.00000E+00        -0.60498E+08
 
   -0.58012E+08         0.33428E+05         0.00000E+00
    0.33428E+05        -0.60319E+08         0.00000E+00
    0.00000E+00         0.00000E+00        -0.60546E+08
 
   -0.58310E+08         0.36603E+05         0.00000E+00
    0.36603E+05        -0.60248E+08         0.00000E+00
    0.00000E+00         0.00000E+00        -0.60592E+08
 
   -0.58604E+08         0.38207E+05         0.00000E+00
    0.38207E+05        -0.60172E+08         0.00000E+00
    0.00000E+00         0.00000E+00        -0.60636E+08
 
   -0.58893E+08         0.38790E+05         0.00000E+00
    0.38790E+05        -0.60094E+08         0.00000E+00
    0.00000E+00         0.00000E+00        -0.60679E+08
 
   -0.59183E+08         0.39076E+05         0.00000E+00
    0.39076E+05        -0.60014E+08         0.00000E+00
    0.00000E+00         0.00000E+00        -0.60722E+08
 
   -0.59488E+08         0.41395E+05         0.00000E+00
    0.41395E+05        -0.59931E+08         0.00000E+00
    0.00000E+00         0.00000E+00        -0.60767E+08
 
   -0.59850E+08         0.51543E+05         0.00000E+00
    0.51543E+05        -0.59832E+08         0.00000E+00
    0.00000E+00         0.00000E+00        -0.60821E+08
 
   -0.60517E+08         0.17819E+06         0.00000E+00
    0.17819E+06        -0.59636E+08         0.00000E+00
    0.00000E+00         0.00000E+00        -0.60915E+08
 
   -0.55862E+08        -0.14235E+06         0.00000E+00
   -0.14235E+06        -0.59941E+08         0.00000E+00
    0.00000E+00         0.00000E+00        -0.59479E+08
 
   -0.56165E+08        -0.17162E+06         0.00000E+00
   -0.17162E+06        -0.59866E+08         0.00000E+00
    0.00000E+00         0.00000E+00        -0.59524E+08
 
   -0.56501E+08        -0.87162E+05         0.00000E+00
   -0.87162E+05        -0.59853E+08         0.00000E+00
    0.00000E+00         0.00000E+00        -0.59588E+08
 
   -0.56801E+08        -0.16914E+05         0.00000E+00
   -0.16914E+05        -0.59840E+08         0.00000E+00
    0.00000E+00         0.00000E+00        -0.59645E+08
 
   -0.57098E+08         0.32675E+05         0.00000E+00
    0.32675E+05        -0.59810E+08         0.00000E+00
    0.00000E+00         0.00000E+00        -0.59698E+08
 
   -0.57398E+08         0.66709E+05         0.00000E+00
    0.66709E+05        -0.59763E+08         0.00000E+00
    0.00000E+00         0.00000E+00        -0.59748E+08
 
   -0.57701E+08         0.89571E+05         0.00000E+00
    0.89571E+05        -0.59702E+08         0.00000E+00
    0.00000E+00         0.00000E+00        -0.59797E+08
 
   -0.58004E+08         0.10440E+06         0.00000E+00
    0.10440E+06        -0.59632E+08         0.00000E+00
    0.00000E+00         0.00000E+00        -0.59843E+08
 
   -0.58305E+08         0.11342E+06         0.00000E+00
    0.11342E+06        -0.59555E+08         0.00000E+00
    0.00000E+00         0.00000E+00        -0.59887E+08
 
   -0.58601E+08         0.11837E+06         0.00000E+00
    0.11837E+06        -0.59474E+08         0.00000E+00
    0.00000E+00         0.00000E+00        -0.59930E+08
 
   -0.58892E+08         0.12103E+06         0.00000E+00
    0.12103E+06        -0.59389E+08         0.00000E+00
    0.00000E+00         0.00000E+00        -0.59971E+08
 
   -0.59180E+08         0.12429E+06         0.00000E+00
    0.12429E+06        -0.59301E+08         0.00000E+00
    0.00000E+00         0.00000E+00        -0.60011E+08
 
   -0.59474E+08         0.13543E+06         0.00000E+00
    0.13543E+06        -0.59204E+08         0.00000E+00
    0.00000E+00         0.00000E+00        -0.60050E+08
 
   -0.59797E+08         0.18245E+06         0.00000E+00
    0.18245E+06        -0.59087E+08         0.00000E+00
    0.00000E+00         0.00000E+00        -0.60090E+08
 
   -0.60039E+08         0.39953E+06         0.00000E+00
    0.39953E+06        -0.58940E+08         0.00000E+00
    0.00000E+00         0.00000E+00        -0.60109E+08
 
   -0.55991E+08        -0.41071E+05         0.00000E+00
   -0.41071E+05        -0.59961E+08         0.00000E+00
    0.00000E+00         0.00000E+00        -0.59292E+08
 
   -0.56138E+08        -0.78134E+05         0.00000E+00
   -0.78134E+05        -0.59859E+08         0.00000E+00
    0.00000E+00         0.00000E+00        -0.59301E+08
 
   -0.56427E+08        -0.36649E+05         0.00000E+00
   -0.36649E+05        -0.59760E+08         0.00000E+00
    0.00000E+00         0.00000E+00        -0.59339E+08
 
   -0.56739E+08         0.28936E+05         0.00000E+00
    0.28936E+05        -0.59686E+08         0.00000E+00
    0.00000E+00         0.00000E+00        -0.59386E+08
 
   -0.57051E+08         0.86222E+05         0.00000E+00
    0.86222E+05        -0.59618E+08         0.00000E+00
    0.00000E+00         0.00000E+00        -0.59435E+08
 
   -0.57365E+08         0.12990E+06         0.00000E+00
    0.12990E+06        -0.59549E+08         0.00000E+00
    0.00000E+00         0.00000E+00        -0.59483E+08
 
   -0.57679E+08         0.16110E+06         0.00000E+00
    0.16110E+06        -0.59474E+08         0.00000E+00
    0.00000E+00         0.00000E+00        -0.59531E+08
 
   -0.57990E+08         0.18227E+06         0.00000E+00
    0.18227E+06        -0.59395E+08         0.00000E+00
    0.00000E+00         0.00000E+00        -0.59577E+08
 
   -0.58297E+08         0.19587E+06         0.00000E+00
    0.19587E+06        -0.59312E+08         0.00000E+00
    0.00000E+00         0.00000E+00        -0.59621E+08
 
   -0.58596E+08         0.20434E+06         0.00000E+00
    0.20434E+06        -0.59225E+08         0.00000E+00
    0.00000E+00         0.00000E+00        -0.59663E+08
 
   -0.58887E+08         0.21069E+06         0.00000E+00
    0.21069E+06        -0.59134E+08         0.00000E+00
    0.00000E+00         0.00000E+00        -0.59703E+08
 
   -0.59170E+08         0.22008E+06         0.00000E+00
    0.22008E+06        -0.59038E+08         0.00000E+00
    0.00000E+00         0.00000E+00        -0.59740E+08
 
   -0.59444E+08         0.24408E+06         0.00000E+00
    0.24408E+06        -0.58934E+08         0.00000E+00
    0.00000E+00         0.00000E+00        -0.59774E+08
 
   -0.59682E+08         0.31373E+06         0.00000E+00
    0.31373E+06        -0.58822E+08         0.00000E+00
    0.00000E+00         0.00000E+00        -0.59799E+08
 
   -0.59797E+08         0.45127E+06         0.00000E+00
    0.45127E+06        -0.58753E+08         0.00000E+00
    0.00000E+00         0.00000E+00        -0.59808E+08
 
   -0.56011E+08         0.18681E+05         0.00000E+00
    0.18681E+05        -0.59980E+08         0.00000E+00
    0.00000E+00         0.00000E+00        -0.59228E+08
 
   -0.56128E+08         0.31952E+05         0.00000E+00
    0.31952E+05        -0.59907E+08         0.00000E+00
    0.00000E+00         0.00000E+00        -0.59237E+08
 
   -0.56376E+08         0.63020E+05         0.00000E+00
    0.63020E+05        -0.59805E+08         0.00000E+00
    0.00000E+00         0.00000E+00        -0.59266E+08
 
   -0.56680E+08         0.11343E+06         0.00000E+00
    0.11343E+06        -0.59705E+08         0.00000E+00
    0.00000E+00         0.00000E+00        -0.59307E+08
 
   -0.57001E+08         0.16557E+06         0.00000E+00
    0.16557E+06        -0.59614E+08         0.00000E+00
    0.00000E+00         0.00000E+00        -0.59353E+08
 
   -0.57327E+08         0.20958E+06         0.00000E+00
    0.20958E+06        -0.59527E+08         0.00000E+00
    0.00000E+00         0.00000E+00        -0.59400E+08
 
   -0.57651E+08         0.24321E+06         0.00000E+00
    0.24321E+06        -0.59441E+08         0.00000E+00
    0.00000E+00         0.00000E+00        -0.59448E+08
 
   -0.57971E+08         0.26729E+06         0.00000E+00
    0.26729E+06        -0.59353E+08         0.00000E+00
    0.00000E+00         0.00000E+00        -0.59494E+08
 
   -0.58284E+08         0.28381E+06         0.00000E+00
    0.28381E+06        -0.59264E+08         0.00000E+00
    0.00000E+00         0.00000E+00        -0.59539E+08
 
   -0.58587E+08         0.29536E+06         0.00000E+00
    0.29536E+06        -0.59173E+08         0.00000E+00
    0.00000E+00         0.00000E+00        -0.59581E+08
 
   -0.58878E+08         0.30558E+06         0.00000E+00
    0.30558E+06        -0.59079E+08         0.00000E+00
    0.00000E+00         0.00000E+00        -0.59620E+08
 
   -0.59153E+08         0.32026E+06         0.00000E+00
    0.32026E+06        -0.58982E+08         0.00000E+00
    0.00000E+00         0.00000E+00        -0.59655E+08
 
   -0.59401E+08         0.34956E+06         0.00000E+00
    0.34956E+06        -0.58882E+08         0.00000E+00
    0.00000E+00         0.00000E+00        -0.59685E+08
 
   -0.59597E+08         0.40345E+06         0.00000E+00
    0.40345E+06        -0.58794E+08         0.00000E+00
    0.00000E+00         0.00000E+00        -0.59706E+08
 
   -0.59697E+08         0.47071E+06         0.00000E+00
    0.47071E+06        -0.58744E+08         0.00000E+00
    0.00000E+00         0.00000E+00        -0.59716E+08
 
   -0.55952E+08         0.51731E+05         0.00000E+00
    0.51731E+05        -0.59988E+08         0.00000E+00
    0.00000E+00         0.00000E+00        -0.59196E+08
 
   -0.56094E+08         0.11629E+06         0.00000E+00
    0.11629E+06        -0.59939E+08         0.00000E+00
    0.00000E+00         0.00000E+00        -0.59214E+08
 
   -0.56332E+08         0.16416E+06         0.00000E+00
    0.16416E+06        -0.59855E+08         0.00000E+00
    0.00000E+00         0.00000E+00        -0.59245E+08
 
   -0.56630E+08         0.21220E+06         0.00000E+00
    0.21220E+06        -0.59758E+08         0.00000E+00
    0.00000E+00         0.00000E+00        -0.59285E+08
 
   -0.56955E+08         0.25909E+06         0.00000E+00
    0.25909E+06        -0.59661E+08         0.00000E+00
    0.00000E+00         0.00000E+00        -0.59331E+08
 
   -0.57289E+08         0.30004E+06         0.00000E+00
    0.30004E+06        -0.59567E+08         0.00000E+00
    0.00000E+00         0.00000E+00        -0.59379E+08
 
   -0.57623E+08         0.33271E+06         0.00000E+00
    0.33271E+06        -0.59475E+08         0.00000E+00
    0.00000E+00         0.00000E+00        -0.59427E+08
 
   -0.57951E+08         0.35722E+06         0.00000E+00
    0.35722E+06        -0.59384E+08         0.00000E+00
    0.00000E+00         0.00000E+00        -0.59474E+08
 
   -0.58270E+08         0.37506E+06         0.00000E+00
    0.37506E+06        -0.59293E+08         0.00000E+00
    0.00000E+00         0.00000E+00        -0.59520E+08
 
   -0.58576E+08         0.38860E+06         0.00000E+00
    0.38860E+06        -0.59201E+08         0.00000E+00
    0.00000E+00         0.00000E+00        -0.59563E+08
 
   -0.58866E+08         0.40107E+06         0.00000E+00
    0.40107E+06        -0.59107E+08         0.00000E+00
    0.00000E+00         0.00000E+00        -0.59602E+08
 
   -0.59133E+08         0.41695E+06         0.00000E+00
    0.41695E+06        -0.59013E+08         0.00000E+00
    0.00000E+00         0.00000E+00        -0.59636E+08
 
   -0.59366E+08         0.44077E+06         0.00000E+00
    0.44077E+06        -0.58924E+08         0.00000E+00
    0.00000E+00         0.00000E+00        -0.59665E+08
 
   -0.59549E+08         0.47233E+06         0.00000E+00
    0.47233E+06        -0.58848E+08         0.00000E+00
    0.00000E+00         0.00000E+00        -0.59687E+08
 
   -0.59665E+08         0.49821E+06         0.00000E+00
    0.49821E+06        -0.58799E+08         0.00000E+00
    0.00000E+00         0.00000E+00        -0.59700E+08
 
   -0.55842E+08         0.72921E+05         0.00000E+00
    0.72921E+05        -0.59992E+08         0.00000E+00
    0.00000E+00         0.00000E+00        -0.59168E+08
 
   -0.56024E+08         0.17831E+06         0.00000E+00
    0.17831E+06        -0.59956E+08         0.00000E+00
    0.00000E+00         0.00000E+00        -0.59197E+08
 
   -0.56277E+08         0.25063E+06         0.00000E+00
    0.25063E+06        -0.59889E+08         0.00000E+00
    0.00000E+00         0.00000E+00        -0.59234E+08
 
   -0.56581E+08         0.30694E+06         0.00000E+00
    0.30694E+06        -0.59805E+08         0.00000E+00
    0.00000E+00         0.00000E+00        -0.59278E+08
 
   -0.56911E+08         0.35391E+06         0.00000E+00
    0.35391E+06        -0.59714E+08         0.00000E+00
    0.00000E+00         0.00000E+00        -0.59326E+08
 
   -0.57253E+08         0.39281E+06         0.00000E+00
    0.39281E+06        -0.59623E+08         0.00000E+00
    0.00000E+00         0.00000E+00        -0.59376E+08
 
   -0.57595E+08         0.42383E+06         0.00000E+00
    0.42383E+06        -0.59533E+08         0.00000E+00
    0.00000E+00         0.00000E+00        -0.59426E+08
 
   -0.57930E+08         0.44770E+06         0.00000E+00
    0.44770E+06        -0.59444E+08         0.00000E+00
    0.00000E+00         0.00000E+00        -0.59475E+08
 
   -0.58254E+08         0.46585E+06         0.00000E+00
    0.46585E+06        -0.59355E+08         0.00000E+00
    0.00000E+00         0.00000E+00        -0.59523E+08
 
   -0.58563E+08         0.48017E+06         0.00000E+00
    0.48017E+06        -0.59266E+08         0.00000E+00
    0.00000E+00         0.00000E+00        -0.59566E+08
 
   -0.58852E+08         0.49295E+06         0.00000E+00
    0.49295E+06        -0.59176E+08         0.00000E+00
    0.00000E+00         0.00000E+00        -0.59606E+08
 
   -0.59116E+08         0.50641E+06         0.00000E+00
    0.50641E+06        -0.59089E+08         0.00000E+00
    0.00000E+00         0.00000E+00        -0.59642E+08
 
   -0.59344E+08         0.52141E+06         0.00000E+00
    0.52141E+06        -0.59007E+08         0.00000E+00
    0.00000E+00         0.00000E+00        -0.59671E+08
 
   -0.59529E+08         0.53481E+06         0.00000E+00
    0.53481E+06        -0.58938E+08         0.00000E+00
    0.00000E+00         0.00000E+00        -0.59694E+08
 
   -0.59662E+08         0.53763E+06         0.00000E+00
    0.53763E+06        -0.58885E+08         0.00000E+00
    0.00000E+00         0.00000E+00        -0.59710E+08
 
   -0.55694E+08         0.89039E+05         0.00000E+00
    0.89039E+05        -0.59994E+08         0.00000E+00
    0.00000E+00         0.00000E+00        -0.59135E+08
 
   -0.55924E+08         0.22600E+06         0.00000E+00
    0.22600E+06        -0.59965E+08         0.00000E+00
    0.00000E+00         0.00000E+00        -0.59176E+08
 
   -0.56206E+08         0.32138E+06         0.00000E+00
    0.32138E+06        -0.59912E+08         0.00000E+00
    0.00000E+00         0.00000E+00        -0.59221E+08
 
   -0.56526E+08         0.38975E+06         0.00000E+00
    0.38975E+06        -0.59842E+08         0.00000E+00
    0.00000E+00         0.00000E+00        -0.59271E+08
 
   -0.56868E+08         0.44079E+06         0.00000E+00
    0.44079E+06        -0.59763E+08         0.00000E+00
    0.00000E+00         0.00000E+00        -0.59324E+08
 
   -0.57218E+08         0.47989E+06         0.00000E+00
    0.47989E+06        -0.59682E+08         0.00000E+00
    0.00000E+00         0.00000E+00        -0.59378E+08
 
   -0.57568E+08         0.51007E+06         0.00000E+00
    0.51007E+06        -0.59600E+08         0.00000E+00
    0.00000E+00         0.00000E+00        -0.59432E+08
 
   -0.57909E+08         0.53342E+06         0.00000E+00
    0.53342E+06        -0.59519E+08         0.00000E+00
    0.00000E+00         0.00000E+00        -0.59484E+08
 
   -0.58238E+08         0.55167E+06         0.00000E+00
    0.55167E+06        -0.59437E+08         0.00000E+00
    0.00000E+00         0.00000E+00        -0.59533E+08
 
   -0.58550E+08         0.56632E+06         0.00000E+00
    0.56632E+06        -0.59355E+08         0.00000E+00
    0.00000E+00         0.00000E+00        -0.59579E+08
 
   -0.58840E+08         0.57853E+06         0.00000E+00
    0.57853E+06        -0.59273E+08         0.00000E+00
    0.00000E+00         0.00000E+00        -0.59621E+08
 
   -0.59104E+08         0.58874E+06         0.00000E+00
    0.58874E+06        -0.59193E+08         0.00000E+00
    0.00000E+00         0.00000E+00        -0.59658E+08
 
   -0.59335E+08         0.59592E+06         0.00000E+00
    0.59592E+06        -0.59117E+08         0.00000E+00
    0.00000E+00         0.00000E+00        -0.59688E+08
 
   -0.59526E+08         0.59680E+06         0.00000E+00
    0.59680E+06        -0.59049E+08         0.00000E+00
    0.00000E+00         0.00000E+00        -0.59713E+08
 
   -0.59675E+08         0.58619E+06         0.00000E+00
    0.58619E+06        -0.58992E+08         0.00000E+00
    0.00000E+00         0.00000E+00        -0.59732E+08
 
   -0.55517E+08         0.10248E+06         0.00000E+00
    0.10248E+06        -0.59995E+08         0.00000E+00
    0.00000E+00         0.00000E+00        -0.59098E+08
 
   -0.55799E+08         0.26408E+06         0.00000E+00
    0.26408E+06        -0.59971E+08         0.00000E+00
    0.00000E+00         0.00000E+00        -0.59150E+08
 
   -0.56118E+08         0.37819E+06         0.00000E+00
    0.37819E+06        -0.59929E+08         0.00000E+00
    0.00000E+00         0.00000E+00        -0.59205E+08
 
   -0.56463E+08         0.45793E+06         0.00000E+00
    0.45793E+06        -0.59873E+08         0.00000E+00
    0.00000E+00         0.00000E+00        -0.59263E+08
 
   -0.56822E+08         0.51424E+06         0.00000E+00
    0.51424E+06        -0.59810E+08         0.00000E+00
    0.00000E+00         0.00000E+00        -0.59322E+08
 
   -0.57184E+08         0.55496E+06         0.00000E+00
    0.55496E+06        -0.59744E+08         0.00000E+00
    0.00000E+00         0.00000E+00        -0.59382E+08
 
   -0.57541E+08         0.58541E+06         0.00000E+00
    0.58541E+06        -0.59677E+08         0.00000E+00
    0.00000E+00         0.00000E+00        -0.59440E+08
 
   -0.57889E+08         0.60907E+06         0.00000E+00
    0.60907E+06        -0.59608E+08         0.00000E+00
    0.00000E+00         0.00000E+00        -0.59495E+08
 
   -0.58221E+08         0.62812E+06         0.00000E+00
    0.62812E+06        -0.59539E+08         0.00000E+00
    0.00000E+00         0.00000E+00        -0.59548E+08
 
   -0.58536E+08         0.64376E+06         0.00000E+00
    0.64376E+06        -0.59468E+08         0.00000E+00
    0.00000E+00         0.00000E+00        -0.59597E+08
 
   -0.58829E+08         0.65619E+06         0.00000E+00
    0.65619E+06        -0.59395E+08         0.00000E+00
    0.00000E+00         0.00000E+00        -0.59641E+08
 
   -0.59097E+08         0.66458E+06         0.00000E+00
    0.66458E+06        -0.59322E+08         0.00000E+00
    0.00000E+00         0.00000E+00        -0.59680E+08
 
   -0.59334E+08         0.66691E+06         0.00000E+00
    0.66691E+06        -0.59251E+08         0.00000E+00
    0.00000E+00         0.00000E+00        -0.59713E+08
 
   -0.59535E+08         0.66016E+06         0.00000E+00
    0.66016E+06        -0.59184E+08         0.00000E+00
    0.00000E+00         0.00000E+00        -0.59740E+08
 
   -0.59697E+08         0.64130E+06         0.00000E+00
    0.64130E+06        -0.59123E+08         0.00000E+00
    0.00000E+00         0.00000E+00        -0.59760E+08
 
   -0.55316E+08         0.11379E+06         0.00000E+00
    0.11379E+06        -0.59995E+08         0.00000E+00
    0.00000E+00         0.00000E+00        -0.59055E+08
 
   -0.55654E+08         0.29424E+06         0.00000E+00
    0.29424E+06        -0.59977E+08         0.00000E+00
    0.00000E+00         0.00000E+00        -0.59119E+08
 
   -0.56017E+08         0.42191E+06         0.00000E+00
    0.42191E+06        -0.59945E+08         0.00000E+00
    0.00000E+00         0.00000E+00        -0.59185E+08
 
   -0.56393E+08         0.51002E+06         0.00000E+00
    0.51002E+06        -0.59905E+08         0.00000E+00
    0.00000E+00         0.00000E+00        -0.59253E+08
 
   -0.56772E+08         0.57054E+06         0.00000E+00
    0.57054E+06        -0.59860E+08         0.00000E+00
    0.00000E+00         0.00000E+00        -0.59320E+08
 
   -0.57148E+08         0.61305E+06         0.00000E+00
    0.61305E+06        -0.59813E+08         0.00000E+00
    0.00000E+00         0.00000E+00        -0.59385E+08
 
   -0.57514E+08         0.64455E+06         0.00000E+00
    0.64455E+06        -0.59764E+08         0.00000E+00
    0.00000E+00         0.00000E+00        -0.59449E+08
 
   -0.57866E+08         0.66968E+06         0.00000E+00
    0.66968E+06        -0.59714E+08         0.00000E+00
    0.00000E+00         0.00000E+00        -0.59509E+08
 
   -0.58203E+08         0.69104E+06         0.00000E+00
    0.69104E+06        -0.59661E+08         0.00000E+00
    0.00000E+00         0.00000E+00        -0.59566E+08
 
   -0.58521E+08         0.70953E+06         0.00000E+00
    0.70953E+06        -0.59604E+08         0.00000E+00
    0.00000E+00         0.00000E+00        -0.59618E+08
 
   -0.58818E+08         0.72455E+06         0.00000E+00
    0.72455E+06        -0.59543E+08         0.00000E+00
    0.00000E+00         0.00000E+00        -0.59666E+08
 
   -0.59091E+08         0.73417E+06         0.00000E+00
    0.73417E+06        -0.59478E+08         0.00000E+00
    0.00000E+00         0.00000E+00        -0.59707E+08
 
   -0.59337E+08         0.73555E+06         0.00000E+00
    0.73555E+06        -0.59411E+08         0.00000E+00
    0.00000E+00         0.00000E+00        -0.59743E+08
 
   -0.59549E+08         0.72550E+06         0.00000E+00
    0.72550E+06        -0.59344E+08         0.00000E+00
    0.00000E+00         0.00000E+00        -0.59772E+08
 
   -0.59725E+08         0.70170E+06         0.00000E+00
    0.70170E+06        -0.59279E+08         0.00000E+00
    0.00000E+00         0.00000E+00        -0.59794E+08
 
   -0.55096E+08         0.12279E+06         0.00000E+00
    0.12279E+06        -0.59997E+08         0.00000E+00
    0.00000E+00         0.00000E+00        -0.59007E+08
 
   -0.55496E+08         0.31633E+06         0.00000E+00
    0.31633E+06        -0.59984E+08         0.00000E+00
    0.00000E+00         0.00000E+00        -0.59085E+08
 
   -0.55908E+08         0.45191E+06         0.00000E+00
    0.45191E+06        -0.59964E+08         0.00000E+00
    0.00000E+00         0.00000E+00        -0.59163E+08
 
   -0.56318E+08         0.54410E+06         0.00000E+00
    0.54410E+06        -0.59940E+08         0.00000E+00
    0.00000E+00         0.00000E+00        -0.59240E+08
 
   -0.56721E+08         0.60632E+06         0.00000E+00
    0.60632E+06        -0.59916E+08         0.00000E+00
    0.00000E+00         0.00000E+00        -0.59316E+08
 
   -0.57111E+08         0.64972E+06         0.00000E+00
    0.64972E+06        -0.59892E+08         0.00000E+00
    0.00000E+00         0.00000E+00        -0.59390E+08
 
   -0.57485E+08         0.68263E+06         0.00000E+00
    0.68263E+06        -0.59867E+08         0.00000E+00
    0.00000E+00         0.00000E+00        -0.59459E+08
 
   -0.57842E+08         0.71058E+06         0.00000E+00
    0.71058E+06        -0.59839E+08         0.00000E+00
    0.00000E+00         0.00000E+00        -0.59525E+08
 
   -0.58180E+08         0.73646E+06         0.00000E+00
    0.73646E+06        -0.59807E+08         0.00000E+00
    0.00000E+00         0.00000E+00        -0.59587E+08
 
   -0.58501E+08         0.76079E+06         0.00000E+00
    0.76079E+06        -0.59768E+08         0.00000E+00
    0.00000E+00         0.00000E+00        -0.59643E+08
 
   -0.58802E+08         0.78207E+06         0.00000E+00
    0.78207E+06        -0.59721E+08         0.00000E+00
    0.00000E+00         0.00000E+00        -0.59694E+08
 
   -0.59083E+08         0.79726E+06         0.00000E+00
    0.79726E+06        -0.59666E+08         0.00000E+00
    0.00000E+00         0.00000E+00        -0.59739E+08
 
   -0.59339E+08         0.80237E+06         0.00000E+00
    0.80237E+06        -0.59603E+08         0.00000E+00
    0.00000E+00         0.00000E+00        -0.59778E+08
 
   -0.59567E+08         0.79337E+06         0.00000E+00
    0.79337E+06        -0.59535E+08         0.00000E+00
    0.00000E+00         0.00000E+00        -0.59810E+08
 
   -0.59758E+08         0.76749E+06         0.00000E+00
    0.76749E+06        -0.59465E+08         0.00000E+00
    0.00000E+00         0.00000E+00        -0.59834E+08
 
   -0.54863E+08         0.12891E+06         0.00000E+00
    0.12891E+06        -0.59998E+08         0.00000E+00
    0.00000E+00         0.00000E+00        -0.58954E+08
 
   -0.55332E+08         0.32909E+06         0.00000E+00
    0.32909E+06        -0.59992E+08         0.00000E+00
    0.00000E+00         0.00000E+00        -0.59046E+08
 
   -0.55795E+08         0.46623E+06         0.00000E+00
    0.46623E+06        -0.59985E+08         0.00000E+00
    0.00000E+00         0.00000E+00        -0.59138E+08
 
   -0.56243E+08         0.55732E+06         0.00000E+00
    0.55732E+06        -0.59982E+08         0.00000E+00
    0.00000E+00         0.00000E+00        -0.59227E+08
 
   -0.56670E+08         0.61779E+06         0.00000E+00
    0.61779E+06        -0.59982E+08         0.00000E+00
    0.00000E+00         0.00000E+00        -0.59313E+08
 
   -0.57074E+08         0.66042E+06         0.00000E+00
    0.66042E+06        -0.59986E+08         0.00000E+00
    0.00000E+00         0.00000E+00        -0.59394E+08
 
   -0.57454E+08         0.69479E+06         0.00000E+00
    0.69479E+06        -0.59989E+08         0.00000E+00
    0.00000E+00         0.00000E+00        -0.59471E+08
 
   -0.57812E+08         0.72714E+06         0.00000E+00
    0.72714E+06        -0.59989E+08         0.00000E+00
    0.00000E+00         0.00000E+00        -0.59543E+08
 
   -0.58151E+08         0.76040E+06         0.00000E+00
    0.76040E+06        -0.59982E+08         0.00000E+00
    0.00000E+00         0.00000E+00        -0.59609E+08
 
   -0.58473E+08         0.79454E+06         0.00000E+00
    0.79454E+06        -0.59965E+08         0.00000E+00
    0.00000E+00         0.00000E+00        -0.59670E+08
 
   -0.58778E+08         0.82701E+06         0.00000E+00
    0.82701E+06        -0.59934E+08         0.00000E+00
    0.00000E+00         0.00000E+00        -0.59725E+08
 
   -0.59067E+08         0.85329E+06         0.00000E+00
    0.85329E+06        -0.59889E+08         0.00000E+00
    0.00000E+00         0.00000E+00        -0.59774E+08
 
   -0.59337E+08         0.86775E+06         0.00000E+00
    0.86775E+06        -0.59830E+08         0.00000E+00
    0.00000E+00         0.00000E+00        -0.59816E+08
 
   -0.59582E+08         0.86476E+06         0.00000E+00
    0.86476E+06        -0.59761E+08         0.00000E+00
    0.00000E+00         0.00000E+00        -0.59851E+08
 
   -0.59794E+08         0.84002E+06         0.00000E+00
    0.84002E+06        -0.59685E+08         0.00000E+00
    0.00000E+00         0.00000E+00        -0.59879E+08
 
   -0.54623E+08         0.13136E+06         0.00000E+00
    0.13136E+06        -0.60000E+08         0.00000E+00
    0.00000E+00         0.00000E+00        -0.58896E+08
 
   -0.55167E+08         0.33050E+06         0.00000E+00
    0.33050E+06        -0.60002E+08         0.00000E+00
    0.00000E+00         0.00000E+00        -0.59005E+08
 
   -0.55686E+08         0.46190E+06         0.00000E+00
    0.46190E+06        -0.60012E+08         0.00000E+00
    0.00000E+00         0.00000E+00        -0.59111E+08
 
   -0.56173E+08         0.54588E+06         0.00000E+00
    0.54588E+06        -0.60033E+08         0.00000E+00
    0.00000E+00         0.00000E+00        -0.59213E+08
 
   -0.56623E+08         0.60039E+06         0.00000E+00
    0.60039E+06        -0.60062E+08         0.00000E+00
    0.00000E+00         0.00000E+00        -0.59309E+08
 
   -0.57037E+08         0.64013E+06         0.00000E+00
    0.64013E+06        -0.60098E+08         0.00000E+00
    0.00000E+00         0.00000E+00        -0.59399E+08
 
   -0.57419E+08         0.67590E+06         0.00000E+00
    0.67590E+06        -0.60136E+08         0.00000E+00
    0.00000E+00         0.00000E+00        -0.59483E+08
 
   -0.57775E+08         0.71447E+06         0.00000E+00
    0.71447E+06        -0.60169E+08         0.00000E+00
    0.00000E+00         0.00000E+00        -0.59561E+08
 
   -0.58111E+08         0.75865E+06         0.00000E+00
    0.75865E+06        -0.60191E+08         0.00000E+00
    0.00000E+00         0.00000E+00        -0.59632E+08
 
   -0.58431E+08         0.80761E+06         0.00000E+00
    0.80761E+06        -0.60199E+08         0.00000E+00
    0.00000E+00         0.00000E+00        -0.59698E+08
 
   -0.58739E+08         0.85739E+06         0.00000E+00
    0.85739E+06        -0.60187E+08         0.00000E+00
    0.00000E+00         0.00000E+00        -0.59758E+08
 
   -0.59038E+08         0.90157E+06         0.00000E+00
    0.90157E+06        -0.60154E+08         0.00000E+00
    0.00000E+00         0.00000E+00        -0.59811E+08
 
   -0.59324E+08         0.93226E+06         0.00000E+00
    0.93226E+06        -0.60100E+08         0.00000E+00
    0.00000E+00         0.00000E+00        -0.59857E+08
 
   -0.59591E+08         0.94131E+06         0.00000E+00
    0.94131E+06        -0.60027E+08         0.00000E+00
    0.00000E+00         0.00000E+00        -0.59896E+08
 
   -0.59830E+08         0.92188E+06         0.00000E+00
    0.92188E+06        -0.59943E+08         0.00000E+00
    0.00000E+00         0.00000E+00        -0.59927E+08
 
   -0.54385E+08         0.12916E+06         0.00000E+00
    0.12916E+06        -0.60002E+08         0.00000E+00
    0.00000E+00         0.00000E+00        -0.58832E+08
 
   -0.55010E+08         0.31793E+06         0.00000E+00
    0.31793E+06        -0.60015E+08         0.00000E+00
    0.00000E+00         0.00000E+00        -0.58960E+08
 
   -0.55588E+08         0.43508E+06         0.00000E+00
    0.43508E+06        -0.60045E+08         0.00000E+00
    0.00000E+00         0.00000E+00        -0.59082E+08
 
   -0.56112E+08         0.50501E+06         0.00000E+00
    0.50501E+06        -0.60094E+08         0.00000E+00
    0.00000E+00         0.00000E+00        -0.59196E+08
 
   -0.56581E+08         0.54879E+06         0.00000E+00
    0.54879E+06        -0.60158E+08         0.00000E+00
    0.00000E+00         0.00000E+00        -0.59303E+08
 
   -0.57001E+08         0.58320E+06         0.00000E+00
    0.58320E+06        -0.60233E+08         0.00000E+00
    0.00000E+00         0.00000E+00        -0.59402E+08
 
   -0.57380E+08         0.62032E+06         0.00000E+00
    0.62032E+06        -0.60310E+08         0.00000E+00
    0.00000E+00         0.00000E+00        -0.59494E+08
 
   -0.57728E+08         0.66733E+06         0.00000E+00
    0.66733E+06        -0.60381E+08         0.00000E+00
    0.00000E+00         0.00000E+00        -0.59578E+08
 
   -0.58055E+08         0.72671E+06         0.00000E+00
    0.72671E+06        -0.60439E+08         0.00000E+00
    0.00000E+00         0.00000E+00        -0.59655E+08
 
   -0.58369E+08         0.79653E+06         0.00000E+00
    0.79653E+06        -0.60476E+08         0.00000E+00
    0.00000E+00         0.00000E+00        -0.59725E+08
 
   -0.58679E+08         0.87104E+06         0.00000E+00
    0.87104E+06        -0.60486E+08         0.00000E+00
    0.00000E+00         0.00000E+00        -0.59789E+08
 
   -0.58987E+08         0.94142E+06         0.00000E+00
    0.94142E+06        -0.60466E+08         0.00000E+00
    0.00000E+00         0.00000E+00        -0.59847E+08
 
   -0.59292E+08         0.99678E+06         0.00000E+00
    0.99678E+06        -0.60416E+08         0.00000E+00
    0.00000E+00         0.00000E+00        -0.59898E+08
 
   -0.59588E+08         0.10255E+07         0.00000E+00
    0.10255E+07        -0.60339E+08         0.00000E+00
    0.00000E+00         0.00000E+00        -0.59941E+08
 
   -0.59863E+08         0.10170E+07         0.00000E+00
    0.10170E+07        -0.60242E+08         0.00000E+00
    0.00000E+00         0.00000E+00        -0.59977E+08
 
   -0.54159E+08         0.12111E+06         0.00000E+00
    0.12111E+06        -0.60005E+08         0.00000E+00
    0.00000E+00         0.00000E+00        -0.58763E+08
 
   -0.54872E+08         0.28821E+06         0.00000E+00
    0.28821E+06        -0.60031E+08         0.00000E+00
    0.00000E+00         0.00000E+00        -0.58911E+08
 
   -0.55509E+08         0.38115E+06         0.00000E+00
    0.38115E+06        -0.60085E+08         0.00000E+00
    0.00000E+00         0.00000E+00        -0.59049E+08
 
   -0.56067E+08         0.42917E+06         0.00000E+00
    0.42917E+06        -0.60168E+08         0.00000E+00
    0.00000E+00         0.00000E+00        -0.59178E+08
 
   -0.56550E+08         0.45686E+06         0.00000E+00
    0.45686E+06        -0.60273E+08         0.00000E+00
    0.00000E+00         0.00000E+00        -0.59296E+08
 
   -0.56968E+08         0.48336E+06         0.00000E+00
    0.48336E+06        -0.60393E+08         0.00000E+00
    0.00000E+00         0.00000E+00        -0.59403E+08
 
   -0.57336E+08         0.52196E+06         0.00000E+00
    0.52196E+06        -0.60516E+08         0.00000E+00
    0.00000E+00         0.00000E+00        -0.59501E+08
 
   -0.57667E+08         0.58015E+06         0.00000E+00
    0.58015E+06        -0.60632E+08         0.00000E+00
    0.00000E+00         0.00000E+00        -0.59591E+08
 
   -0.57978E+08         0.65979E+06         0.00000E+00
    0.65979E+06        -0.60730E+08         0.00000E+00
    0.00000E+00         0.00000E+00        -0.59672E+08
 
   -0.58281E+08         0.75759E+06         0.00000E+00
    0.75759E+06        -0.60801E+08         0.00000E+00
    0.00000E+00         0.00000E+00        -0.59747E+08
 
   -0.58588E+08         0.86564E+06         0.00000E+00
    0.86564E+06        -0.60836E+08         0.00000E+00
    0.00000E+00         0.00000E+00        -0.59815E+08
 
   -0.58905E+08         0.97217E+06         0.00000E+00
    0.97217E+06        -0.60831E+08         0.00000E+00
    0.00000E+00         0.00000E+00        -0.59878E+08
 
   -0.59232E+08         0.10625E+07         0.00000E+00
    0.10625E+07        -0.60784E+08         0.00000E+00
    0.00000E+00         0.00000E+00        -0.59934E+08
 
   -0.59565E+08         0.11206E+07         0.00000E+00
    0.11206E+07        -0.60699E+08         0.00000E+00
    0.00000E+00         0.00000E+00        -0.59984E+08
 
   -0.59887E+08         0.11308E+07         0.00000E+00
    0.11308E+07        -0.60585E+08         0.00000E+00
    0.00000E+00         0.00000E+00        -0.60025E+08
 
   -0.53959E+08         0.10583E+06         0.00000E+00
    0.10583E+06        -0.60009E+08         0.00000E+00
    0.00000E+00         0.00000E+00        -0.58686E+08
 
   -0.54764E+08         0.23768E+06         0.00000E+00
    0.23768E+06        -0.60050E+08         0.00000E+00
    0.00000E+00         0.00000E+00        -0.58856E+08
 
   -0.55459E+08         0.29483E+06         0.00000E+00
    0.29483E+06        -0.60133E+08         0.00000E+00
    0.00000E+00         0.00000E+00        -0.59012E+08
 
   -0.56045E+08         0.31208E+06         0.00000E+00
    0.31208E+06        -0.60256E+08         0.00000E+00
    0.00000E+00         0.00000E+00        -0.59154E+08
 
   -0.56533E+08         0.31792E+06         0.00000E+00
    0.31792E+06        -0.60409E+08         0.00000E+00
    0.00000E+00         0.00000E+00        -0.59282E+08
 
   -0.56939E+08         0.33390E+06         0.00000E+00
    0.33390E+06        -0.60580E+08         0.00000E+00
    0.00000E+00         0.00000E+00        -0.59398E+08
 
   -0.57284E+08         0.37445E+06         0.00000E+00
    0.37445E+06        -0.60756E+08         0.00000E+00
    0.00000E+00         0.00000E+00        -0.59502E+08
 
   -0.57588E+08         0.44712E+06         0.00000E+00
    0.44712E+06        -0.60923E+08         0.00000E+00
    0.00000E+00         0.00000E+00        -0.59595E+08
 
   -0.57873E+08         0.55295E+06         0.00000E+00
    0.55295E+06        -0.61067E+08         0.00000E+00
    0.00000E+00         0.00000E+00        -0.59681E+08
 
   -0.58157E+08         0.68696E+06         0.00000E+00
    0.68696E+06        -0.61175E+08         0.00000E+00
    0.00000E+00         0.00000E+00        -0.59759E+08
 
   -0.58456E+08         0.83878E+06         0.00000E+00
    0.83878E+06        -0.61239E+08         0.00000E+00
    0.00000E+00         0.00000E+00        -0.59831E+08
 
   -0.58780E+08         0.99319E+06         0.00000E+00
    0.99319E+06        -0.61250E+08         0.00000E+00
    0.00000E+00         0.00000E+00        -0.59898E+08
 
   -0.59134E+08         0.11311E+07         0.00000E+00
    0.11311E+07        -0.61207E+08         0.00000E+00
    0.00000E+00         0.00000E+00        -0.59960E+08
 
   -0.59511E+08         0.12309E+07         0.00000E+00
    0.12309E+07        -0.61111E+08         0.00000E+00
    0.00000E+00         0.00000E+00        -0.60016E+08
 
   -0.59896E+08         0.12703E+07         0.00000E+00
    0.12703E+07        -0.60973E+08         0.00000E+00
    0.00000E+00         0.00000E+00        -0.60066E+08
 
   -0.53799E+08         0.81725E+05         0.00000E+00
    0.81725E+05        -0.60013E+08         0.00000E+00
    0.00000E+00         0.00000E+00        -0.58601E+08
 
   -0.54699E+08         0.16218E+06         0.00000E+00
    0.16218E+06        -0.60073E+08         0.00000E+00
    0.00000E+00         0.00000E+00        -0.58793E+08
 
   -0.55448E+08         0.17028E+06         0.00000E+00
    0.17028E+06        -0.60191E+08         0.00000E+00
    0.00000E+00         0.00000E+00        -0.58967E+08
 
   -0.56054E+08         0.14699E+06         0.00000E+00
    0.14699E+06        -0.60360E+08         0.00000E+00
    0.00000E+00         0.00000E+00        -0.59122E+08
 
   -0.56534E+08         0.12494E+06         0.00000E+00
    0.12494E+06        -0.60567E+08         0.00000E+00
    0.00000E+00         0.00000E+00        -0.59259E+08
 
   -0.56915E+08         0.12801E+06         0.00000E+00
    0.12801E+06        -0.60798E+08         0.00000E+00
    0.00000E+00         0.00000E+00        -0.59381E+08
 
   -0.57222E+08         0.17149E+06         0.00000E+00
    0.17149E+06        -0.61033E+08         0.00000E+00
    0.00000E+00         0.00000E+00        -0.59488E+08
 
   -0.57486E+08         0.26263E+06         0.00000E+00
    0.26263E+06        -0.61256E+08         0.00000E+00
    0.00000E+00         0.00000E+00        -0.59585E+08
 
   -0.57732E+08         0.40137E+06         0.00000E+00
    0.40137E+06        -0.61450E+08         0.00000E+00
    0.00000E+00         0.00000E+00        -0.59672E+08
 
   -0.57987E+08         0.58085E+06         0.00000E+00
    0.58085E+06        -0.61601E+08         0.00000E+00
    0.00000E+00         0.00000E+00        -0.59752E+08
 
   -0.58272E+08         0.78799E+06         0.00000E+00
    0.78799E+06        -0.61696E+08         0.00000E+00
    0.00000E+00         0.00000E+00        -0.59827E+08
 
   -0.58601E+08         0.10039E+07         0.00000E+00
    0.10039E+07        -0.61725E+08         0.00000E+00
    0.00000E+00         0.00000E+00        -0.59898E+08
 
   -0.58982E+08         0.12044E+07         0.00000E+00
    0.12044E+07        -0.61684E+08         0.00000E+00
    0.00000E+00         0.00000E+00        -0.59966E+08
 
   -0.59413E+08         0.13613E+07         0.00000E+00
    0.13613E+07        -0.61574E+08         0.00000E+00
    0.00000E+00         0.00000E+00        -0.60030E+08
 
   -0.59879E+08         0.14440E+07         0.00000E+00
    0.14440E+07        -0.61405E+08         0.00000E+00
    0.00000E+00         0.00000E+00        -0.60089E+08
 
   -0.53699E+08         0.46989E+05         0.00000E+00
    0.46989E+05        -0.60018E+08         0.00000E+00
    0.00000E+00         0.00000E+00        -0.58502E+08
 
   -0.54694E+08         0.57136E+05         0.00000E+00
    0.57136E+05        -0.60100E+08         0.00000E+00
    0.00000E+00         0.00000E+00        -0.58718E+08
 
   -0.55489E+08         0.12438E+04         0.00000E+00
    0.12438E+04        -0.60258E+08         0.00000E+00
    0.00000E+00         0.00000E+00        -0.58908E+08
 
   -0.56101E+08        -0.73031E+05         0.00000E+00
   -0.73031E+05        -0.60480E+08         0.00000E+00
    0.00000E+00         0.00000E+00        -0.59075E+08
 
   -0.56559E+08        -0.12893E+06         0.00000E+00
   -0.12893E+06        -0.60749E+08         0.00000E+00
    0.00000E+00         0.00000E+00        -0.59219E+08
 
   -0.56896E+08        -0.14063E+06         0.00000E+00
   -0.14063E+06        -0.61044E+08         0.00000E+00
    0.00000E+00         0.00000E+00        -0.59344E+08
 
   -0.57149E+08        -0.92538E+05         0.00000E+00
   -0.92538E+05        -0.61344E+08         0.00000E+00
    0.00000E+00         0.00000E+00        -0.59452E+08
 
   -0.57355E+08         0.21832E+05         0.00000E+00
    0.21832E+05        -0.61628E+08         0.00000E+00
    0.00000E+00         0.00000E+00        -0.59548E+08
 
   -0.57548E+08         0.20092E+06         0.00000E+00
    0.20092E+06        -0.61876E+08         0.00000E+00
    0.00000E+00         0.00000E+00        -0.59634E+08
 
   -0.57761E+08         0.43588E+06         0.00000E+00
    0.43588E+06        -0.62073E+08         0.00000E+00
    0.00000E+00         0.00000E+00        -0.59714E+08
 
   -0.58021E+08         0.71098E+06         0.00000E+00
    0.71098E+06        -0.62201E+08         0.00000E+00
    0.00000E+00         0.00000E+00        -0.59790E+08
 
   -0.58350E+08         0.10036E+07         0.00000E+00
    0.10036E+07        -0.62250E+08         0.00000E+00
    0.00000E+00         0.00000E+00        -0.59864E+08
 
   -0.58761E+08         0.12842E+07         0.00000E+00
    0.12842E+07        -0.62211E+08         0.00000E+00
    0.00000E+00         0.00000E+00        -0.59938E+08
 
   -0.59255E+08         0.15172E+07         0.00000E+00
    0.15172E+07        -0.62084E+08         0.00000E+00
    0.00000E+00         0.00000E+00        -0.60011E+08
 
   -0.59820E+08         0.16620E+07         0.00000E+00
    0.16620E+07        -0.61876E+08         0.00000E+00
    0.00000E+00         0.00000E+00        -0.60082E+08
 
   -0.53682E+08        -0.35873E+03         0.00000E+00
   -0.35873E+03        -0.60025E+08         0.00000E+00
    0.00000E+00         0.00000E+00        -0.58386E+08
 
   -0.54767E+08        -0.82358E+05         0.00000E+00
   -0.82358E+05        -0.60131E+08         0.00000E+00
    0.00000E+00         0.00000E+00        -0.58624E+08
 
   -0.55595E+08        -0.21871E+06         0.00000E+00
   -0.21871E+06        -0.60335E+08         0.00000E+00
    0.00000E+00         0.00000E+00        -0.58830E+08
 
   -0.56195E+08        -0.35470E+06         0.00000E+00
   -0.35470E+06        -0.60617E+08         0.00000E+00
    0.00000E+00         0.00000E+00        -0.59005E+08
 
   -0.56609E+08        -0.44979E+06         0.00000E+00
   -0.44979E+06        -0.60954E+08         0.00000E+00
    0.00000E+00         0.00000E+00        -0.59153E+08
 
   -0.56881E+08        -0.47705E+06         0.00000E+00
   -0.47705E+06        -0.61318E+08         0.00000E+00
    0.00000E+00         0.00000E+00        -0.59276E+08
 
   -0.57059E+08        -0.42156E+06         0.00000E+00
   -0.42156E+06        -0.61686E+08         0.00000E+00
    0.00000E+00         0.00000E+00        -0.59381E+08
 
   -0.57188E+08        -0.27842E+06         0.00000E+00
   -0.27842E+06        -0.62033E+08         0.00000E+00
    0.00000E+00         0.00000E+00        -0.59472E+08
 
   -0.57311E+08        -0.51096E+05         0.00000E+00
   -0.51096E+05        -0.62337E+08         0.00000E+00
    0.00000E+00         0.00000E+00        -0.59552E+08
 
   -0.57467E+08         0.24963E+06         0.00000E+00
    0.24963E+06        -0.62581E+08         0.00000E+00
    0.00000E+00         0.00000E+00        -0.59628E+08
 
   -0.57691E+08         0.60575E+06         0.00000E+00
    0.60575E+06        -0.62745E+08         0.00000E+00
    0.00000E+00         0.00000E+00        -0.59702E+08
 
   -0.58011E+08         0.99143E+06         0.00000E+00
    0.99143E+06        -0.62814E+08         0.00000E+00
    0.00000E+00         0.00000E+00        -0.59778E+08
 
   -0.58449E+08         0.13721E+07         0.00000E+00
    0.13721E+07        -0.62777E+08         0.00000E+00
    0.00000E+00         0.00000E+00        -0.59856E+08
 
   -0.59014E+08         0.17042E+07         0.00000E+00
    0.17042E+07        -0.62629E+08         0.00000E+00
    0.00000E+00         0.00000E+00        -0.59939E+08
 
   -0.59698E+08         0.19356E+07         0.00000E+00
    0.19356E+07        -0.62373E+08         0.00000E+00
    0.00000E+00         0.00000E+00        -0.60025E+08
 
   -0.53772E+08        -0.62477E+05         0.00000E+00
   -0.62477E+05        -0.60032E+08         0.00000E+00
    0.00000E+00         0.00000E+00        -0.58244E+08
 
   -0.54938E+08        -0.26146E+06         0.00000E+00
   -0.26146E+06        -0.60168E+08         0.00000E+00
    0.00000E+00         0.00000E+00        -0.58504E+08
 
   -0.55780E+08        -0.49590E+06         0.00000E+00
   -0.49590E+06        -0.60423E+08         0.00000E+00
    0.00000E+00         0.00000E+00        -0.58722E+08
 
   -0.56344E+08        -0.70389E+06         0.00000E+00
   -0.70389E+06        -0.60771E+08         0.00000E+00
    0.00000E+00         0.00000E+00        -0.58900E+08
 
   -0.56687E+08        -0.84200E+06         0.00000E+00
   -0.84200E+06        -0.61178E+08         0.00000E+00
    0.00000E+00         0.00000E+00        -0.59045E+08
 
   -0.56869E+08        -0.88374E+06         0.00000E+00
   -0.88374E+06        -0.61614E+08         0.00000E+00
    0.00000E+00         0.00000E+00        -0.59161E+08
 
   -0.56948E+08        -0.81648E+06         0.00000E+00
   -0.81648E+06        -0.62049E+08         0.00000E+00
    0.00000E+00         0.00000E+00        -0.59256E+08
 
   -0.56979E+08        -0.63820E+06         0.00000E+00
   -0.63820E+06        -0.62458E+08         0.00000E+00
    0.00000E+00         0.00000E+00        -0.59335E+08
 
   -0.57013E+08        -0.35476E+06         0.00000E+00
   -0.35476E+06        -0.62817E+08         0.00000E+00
    0.00000E+00         0.00000E+00        -0.59405E+08
 
   -0.57094E+08         0.21418E+05         0.00000E+00
    0.21418E+05        -0.63106E+08         0.00000E+00
    0.00000E+00         0.00000E+00        -0.59471E+08
 
   -0.57266E+08         0.47104E+06         0.00000E+00
    0.47104E+06        -0.63305E+08         0.00000E+00
    0.00000E+00         0.00000E+00        -0.59539E+08
 
   -0.57565E+08         0.96638E+06         0.00000E+00
    0.96638E+06        -0.63397E+08         0.00000E+00
    0.00000E+00         0.00000E+00        -0.59612E+08
 
   -0.58025E+08         0.14689E+07         0.00000E+00
    0.14689E+07        -0.63363E+08         0.00000E+00
    0.00000E+00         0.00000E+00        -0.59694E+08
 
   -0.58664E+08         0.19272E+07         0.00000E+00
    0.19272E+07        -0.63191E+08         0.00000E+00
    0.00000E+00         0.00000E+00        -0.59787E+08
 
   -0.59486E+08         0.22765E+07         0.00000E+00
    0.22765E+07        -0.62880E+08         0.00000E+00
    0.00000E+00         0.00000E+00        -0.59888E+08
 
   -0.54001E+08        -0.14172E+06         0.00000E+00
   -0.14172E+06        -0.60040E+08         0.00000E+00
    0.00000E+00         0.00000E+00        -0.58066E+08
 
   -0.55229E+08        -0.48553E+06         0.00000E+00
   -0.48553E+06        -0.60210E+08         0.00000E+00
    0.00000E+00         0.00000E+00        -0.58344E+08
 
   -0.56057E+08        -0.83620E+06         0.00000E+00
   -0.83620E+06        -0.60522E+08         0.00000E+00
    0.00000E+00         0.00000E+00        -0.58568E+08
 
   -0.56552E+08        -0.11248E+07         0.00000E+00
   -0.11248E+07        -0.60939E+08         0.00000E+00
    0.00000E+00         0.00000E+00        -0.58743E+08
 
   -0.56793E+08        -0.13069E+07         0.00000E+00
   -0.13069E+07        -0.61419E+08         0.00000E+00
    0.00000E+00         0.00000E+00        -0.58876E+08
 
   -0.56855E+08        -0.13589E+07         0.00000E+00
   -0.13589E+07        -0.61924E+08         0.00000E+00
    0.00000E+00         0.00000E+00        -0.58976E+08
 
   -0.56810E+08        -0.12733E+07         0.00000E+00
   -0.12733E+07        -0.62420E+08         0.00000E+00
    0.00000E+00         0.00000E+00        -0.59051E+08
 
   -0.56721E+08        -0.10527E+07         0.00000E+00
   -0.10527E+07        -0.62882E+08         0.00000E+00
    0.00000E+00         0.00000E+00        -0.59110E+08
 
   -0.56644E+08        -0.70597E+06         0.00000E+00
   -0.70597E+06        -0.63287E+08         0.00000E+00
    0.00000E+00         0.00000E+00        -0.59161E+08
 
   -0.56632E+08        -0.24660E+06         0.00000E+00
   -0.24660E+06        -0.63617E+08         0.00000E+00
    0.00000E+00         0.00000E+00        -0.59211E+08
 
   -0.56732E+08         0.30673E+06         0.00000E+00
    0.30673E+06        -0.63850E+08         0.00000E+00
    0.00000E+00         0.00000E+00        -0.59267E+08
 
   -0.56994E+08         0.92683E+06         0.00000E+00
    0.92683E+06        -0.63964E+08         0.00000E+00
    0.00000E+00         0.00000E+00        -0.59333E+08
 
   -0.57462E+08         0.15736E+07         0.00000E+00
    0.15736E+07        -0.63934E+08         0.00000E+00
    0.00000E+00         0.00000E+00        -0.59415E+08
 
   -0.58173E+08         0.21893E+07         0.00000E+00
    0.21893E+07        -0.63740E+08         0.00000E+00
    0.00000E+00         0.00000E+00        -0.59515E+08
 
   -0.59146E+08         0.26958E+07         0.00000E+00
    0.26958E+07        -0.63368E+08         0.00000E+00
    0.00000E+00         0.00000E+00        -0.59634E+08
 
   -0.54403E+08        -0.24069E+06         0.00000E+00
   -0.24069E+06        -0.60050E+08         0.00000E+00
    0.00000E+00         0.00000E+00        -0.57839E+08
 
   -0.55664E+08        -0.76010E+06         0.00000E+00
   -0.76010E+06        -0.60257E+08         0.00000E+00
    0.00000E+00         0.00000E+00        -0.58129E+08
 
   -0.56438E+08        -0.12446E+07         0.00000E+00
   -0.12446E+07        -0.60632E+08         0.00000E+00
    0.00000E+00         0.00000E+00        -0.58349E+08
 
   -0.56823E+08        -0.16189E+07         0.00000E+00
   -0.16189E+07        -0.61121E+08         0.00000E+00
    0.00000E+00         0.00000E+00        -0.58509E+08
 
   -0.56922E+08        -0.18407E+07         0.00000E+00
   -0.18407E+07        -0.61669E+08         0.00000E+00
    0.00000E+00         0.00000E+00        -0.58619E+08
 
   -0.56831E+08        -0.18940E+07         0.00000E+00
   -0.18940E+07        -0.62232E+08         0.00000E+00
    0.00000E+00         0.00000E+00        -0.58690E+08
 
   -0.56636E+08        -0.17803E+07         0.00000E+00
   -0.17803E+07        -0.62775E+08         0.00000E+00
    0.00000E+00         0.00000E+00        -0.58734E+08
 
   -0.56406E+08        -0.15095E+07         0.00000E+00
   -0.15095E+07        -0.63273E+08         0.00000E+00
    0.00000E+00         0.00000E+00        -0.58762E+08
 
   -0.56201E+08        -0.10944E+07         0.00000E+00
   -0.10944E+07        -0.63709E+08         0.00000E+00
    0.00000E+00         0.00000E+00        -0.58783E+08
 
   -0.56074E+08        -0.54793E+06         0.00000E+00
   -0.54793E+06        -0.64067E+08         0.00000E+00
    0.00000E+00         0.00000E+00        -0.58807E+08
 
   -0.56080E+08         0.11450E+06         0.00000E+00
    0.11450E+06        -0.64327E+08         0.00000E+00
    0.00000E+00         0.00000E+00        -0.58841E+08
 
   -0.56279E+08         0.87043E+06         0.00000E+00
    0.87043E+06        -0.64464E+08         0.00000E+00
    0.00000E+00         0.00000E+00        -0.58893E+08
 
   -0.56733E+08         0.16825E+07         0.00000E+00
    0.16825E+07        -0.64444E+08         0.00000E+00
    0.00000E+00         0.00000E+00        -0.58969E+08
 
   -0.57501E+08         0.24900E+07         0.00000E+00
    0.24900E+07        -0.64231E+08         0.00000E+00
    0.00000E+00         0.00000E+00        -0.59075E+08
 
   -0.58629E+08         0.32020E+07         0.00000E+00
    0.32020E+07        -0.63797E+08         0.00000E+00
    0.00000E+00         0.00000E+00        -0.59211E+08
 
   -0.55016E+08        -0.36245E+06         0.00000E+00
   -0.36245E+06        -0.60061E+08         0.00000E+00
    0.00000E+00         0.00000E+00        -0.57544E+08
 
   -0.56267E+08        -0.10910E+07         0.00000E+00
   -0.10910E+07        -0.60311E+08         0.00000E+00
    0.00000E+00         0.00000E+00        -0.57835E+08
 
   -0.56933E+08        -0.17244E+07         0.00000E+00
   -0.17244E+07        -0.60753E+08         0.00000E+00
    0.00000E+00         0.00000E+00        -0.58039E+08
 
   -0.57152E+08        -0.21829E+07         0.00000E+00
   -0.21829E+07        -0.61311E+08         0.00000E+00
    0.00000E+00         0.00000E+00        -0.58167E+08
 
   -0.57063E+08        -0.24320E+07         0.00000E+00
   -0.24320E+07        -0.61917E+08         0.00000E+00
    0.00000E+00         0.00000E+00        -0.58236E+08
 
   -0.56786E+08        -0.24706E+07         0.00000E+00
   -0.24706E+07        -0.62517E+08         0.00000E+00
    0.00000E+00         0.00000E+00        -0.58261E+08
 
   -0.56417E+08        -0.23151E+07         0.00000E+00
   -0.23151E+07        -0.63079E+08         0.00000E+00
    0.00000E+00         0.00000E+00        -0.58259E+08
 
   -0.56029E+08        -0.19861E+07         0.00000E+00
   -0.19861E+07        -0.63584E+08         0.00000E+00
    0.00000E+00         0.00000E+00        -0.58241E+08
 
   -0.55680E+08        -0.15008E+07         0.00000E+00
   -0.15008E+07        -0.64024E+08         0.00000E+00
    0.00000E+00         0.00000E+00        -0.58220E+08
 
   -0.55420E+08        -0.86996E+06         0.00000E+00
   -0.86996E+06        -0.64390E+08         0.00000E+00
    0.00000E+00         0.00000E+00        -0.58205E+08
 
   -0.55307E+08        -0.10125E+06         0.00000E+00
   -0.10125E+06        -0.64666E+08         0.00000E+00
    0.00000E+00         0.00000E+00        -0.58207E+08
 
   -0.55409E+08         0.79374E+06         0.00000E+00
    0.79374E+06        -0.64824E+08         0.00000E+00
    0.00000E+00         0.00000E+00        -0.58234E+08
 
   -0.55812E+08         0.17875E+07         0.00000E+00
    0.17875E+07        -0.64821E+08         0.00000E+00
    0.00000E+00         0.00000E+00        -0.58295E+08
 
   -0.56605E+08         0.28226E+07         0.00000E+00
    0.28226E+07        -0.64602E+08         0.00000E+00
    0.00000E+00         0.00000E+00        -0.58399E+08
 
   -0.57875E+08         0.37982E+07         0.00000E+00
    0.37982E+07        -0.64111E+08         0.00000E+00
    0.00000E+00         0.00000E+00        -0.58550E+08
 
   -0.55887E+08        -0.51091E+06         0.00000E+00
   -0.51091E+06        -0.60075E+08         0.00000E+00
    0.00000E+00         0.00000E+00        -0.57155E+08
 
   -0.57063E+08        -0.14849E+07         0.00000E+00
   -0.14849E+07        -0.60374E+08         0.00000E+00
    0.00000E+00         0.00000E+00        -0.57434E+08
 
   -0.57543E+08        -0.22767E+07         0.00000E+00
   -0.22767E+07        -0.60885E+08         0.00000E+00
    0.00000E+00         0.00000E+00        -0.57599E+08
 
   -0.57526E+08        -0.28063E+07         0.00000E+00
   -0.28063E+07        -0.61505E+08         0.00000E+00
    0.00000E+00         0.00000E+00        -0.57672E+08
 
   -0.57195E+08        -0.30577E+07         0.00000E+00
   -0.30577E+07        -0.62144E+08         0.00000E+00
    0.00000E+00         0.00000E+00        -0.57676E+08
 
   -0.56699E+08        -0.30559E+07         0.00000E+00
   -0.30559E+07        -0.62745E+08         0.00000E+00
    0.00000E+00         0.00000E+00        -0.57634E+08
 
   -0.56141E+08        -0.28403E+07         0.00000E+00
   -0.28403E+07        -0.63281E+08         0.00000E+00
    0.00000E+00         0.00000E+00        -0.57566E+08
 
   -0.55588E+08        -0.24461E+07         0.00000E+00
   -0.24461E+07        -0.63748E+08         0.00000E+00
    0.00000E+00         0.00000E+00        -0.57485E+08
 
   -0.55086E+08        -0.18946E+07         0.00000E+00
   -0.18946E+07        -0.64151E+08         0.00000E+00
    0.00000E+00         0.00000E+00        -0.57406E+08
 
   -0.54678E+08        -0.11919E+07         0.00000E+00
   -0.11919E+07        -0.64493E+08         0.00000E+00
    0.00000E+00         0.00000E+00        -0.57338E+08
 
   -0.54418E+08        -0.33218E+06         0.00000E+00
   -0.33218E+06        -0.64766E+08         0.00000E+00
    0.00000E+00         0.00000E+00        -0.57292E+08
 
   -0.54381E+08         0.69207E+06         0.00000E+00
    0.69207E+06        -0.64943E+08         0.00000E+00
    0.00000E+00         0.00000E+00        -0.57279E+08
 
   -0.54676E+08         0.18742E+07         0.00000E+00
    0.18742E+07        -0.64969E+08         0.00000E+00
    0.00000E+00         0.00000E+00        -0.57312E+08
 
   -0.55436E+08         0.31707E+07         0.00000E+00
    0.31707E+07        -0.64764E+08         0.00000E+00
    0.00000E+00         0.00000E+00        -0.57403E+08
 
   -0.56806E+08         0.44780E+07         0.00000E+00
    0.44780E+07        -0.64237E+08         0.00000E+00
    0.00000E+00         0.00000E+00        -0.57563E+08
 
   -0.57066E+08        -0.69162E+06         0.00000E+00
   -0.69162E+06        -0.60092E+08         0.00000E+00
    0.00000E+00         0.00000E+00        -0.56642E+08
 
   -0.58071E+08        -0.19493E+07         0.00000E+00
   -0.19493E+07        -0.60448E+08         0.00000E+00
    0.00000E+00         0.00000E+00        -0.56884E+08
 
   -0.58258E+08        -0.28976E+07         0.00000E+00
   -0.28976E+07        -0.61030E+08         0.00000E+00
    0.00000E+00         0.00000E+00        -0.56979E+08
 
   -0.57914E+08        -0.34657E+07         0.00000E+00
   -0.34657E+07        -0.61690E+08         0.00000E+00
    0.00000E+00         0.00000E+00        -0.56962E+08
 
   -0.57285E+08        -0.36761E+07         0.00000E+00
   -0.36761E+07        -0.62319E+08         0.00000E+00
    0.00000E+00         0.00000E+00        -0.56869E+08
 
   -0.56545E+08        -0.35969E+07         0.00000E+00
   -0.35969E+07        -0.62860E+08         0.00000E+00
    0.00000E+00         0.00000E+00        -0.56732E+08
 
   -0.55794E+08        -0.33000E+07         0.00000E+00
   -0.33000E+07        -0.63305E+08         0.00000E+00
    0.00000E+00         0.00000E+00        -0.56574E+08
 
   -0.55082E+08        -0.28370E+07         0.00000E+00
   -0.28370E+07        -0.63670E+08         0.00000E+00
    0.00000E+00         0.00000E+00        -0.56412E+08
 
   -0.54434E+08        -0.22320E+07         0.00000E+00
   -0.22320E+07        -0.63980E+08         0.00000E+00
    0.00000E+00         0.00000E+00        -0.56257E+08
 
   -0.53872E+08        -0.14826E+07         0.00000E+00
   -0.14826E+07        -0.64254E+08         0.00000E+00
    0.00000E+00         0.00000E+00        -0.56119E+08
 
   -0.53437E+08        -0.56424E+06         0.00000E+00
   -0.56424E+06        -0.64497E+08         0.00000E+00
    0.00000E+00         0.00000E+00        -0.56007E+08
 
   -0.53207E+08         0.55991E+06         0.00000E+00
    0.55991E+06        -0.64687E+08         0.00000E+00
    0.00000E+00         0.00000E+00        -0.55935E+08
 
   -0.53312E+08         0.19193E+07         0.00000E+00
    0.19193E+07        -0.64758E+08         0.00000E+00
    0.00000E+00         0.00000E+00        -0.55920E+08
 
   -0.53943E+08         0.35034E+07         0.00000E+00
    0.35034E+07        -0.64603E+08         0.00000E+00
    0.00000E+00         0.00000E+00        -0.55980E+08
 
   -0.55328E+08         0.52196E+07         0.00000E+00
    0.52196E+07        -0.64075E+08         0.00000E+00
    0.00000E+00         0.00000E+00        -0.56135E+08
 
   -0.58617E+08        -0.91321E+06         0.00000E+00
   -0.91321E+06        -0.60114E+08         0.00000E+00
    0.00000E+00         0.00000E+00        -0.55958E+08
 
   -0.59304E+08        -0.24932E+07         0.00000E+00
   -0.24932E+07        -0.60538E+08         0.00000E+00
    0.00000E+00         0.00000E+00        -0.56126E+08
 
   -0.59044E+08        -0.35726E+07         0.00000E+00
   -0.35726E+07        -0.61184E+08         0.00000E+00
    0.00000E+00         0.00000E+00        -0.56101E+08
 
   -0.58261E+08        -0.41146E+07         0.00000E+00
   -0.41146E+07        -0.61841E+08         0.00000E+00
    0.00000E+00         0.00000E+00        -0.55944E+08
 
   -0.57282E+08        -0.42167E+07         0.00000E+00
   -0.42167E+07        -0.62381E+08         0.00000E+00
    0.00000E+00         0.00000E+00        -0.55710E+08
 
   -0.56292E+08        -0.40142E+07         0.00000E+00
   -0.40142E+07        -0.62770E+08         0.00000E+00
    0.00000E+00         0.00000E+00        -0.55444E+08
 
   -0.55368E+08        -0.36172E+07         0.00000E+00
   -0.36172E+07        -0.63033E+08         0.00000E+00
    0.00000E+00         0.00000E+00        -0.55173E+08
 
   -0.54524E+08        -0.30905E+07         0.00000E+00
   -0.30905E+07        -0.63215E+08         0.00000E+00
    0.00000E+00         0.00000E+00        -0.54911E+08
 
   -0.53750E+08        -0.24561E+07         0.00000E+00
   -0.24561E+07        -0.63363E+08         0.00000E+00
    0.00000E+00         0.00000E+00        -0.54665E+08
 
   -0.53039E+08        -0.16998E+07         0.00000E+00
   -0.16998E+07        -0.63515E+08         0.00000E+00
    0.00000E+00         0.00000E+00        -0.54440E+08
 
   -0.52409E+08        -0.77483E+06         0.00000E+00
   -0.77483E+06        -0.63690E+08         0.00000E+00
    0.00000E+00         0.00000E+00        -0.54243E+08
 
   -0.51924E+08         0.39321E+06         0.00000E+00
    0.39321E+06        -0.63877E+08         0.00000E+00
    0.00000E+00         0.00000E+00        -0.54088E+08
 
   -0.51729E+08         0.18899E+07         0.00000E+00
    0.18899E+07        -0.64015E+08         0.00000E+00
    0.00000E+00         0.00000E+00        -0.53995E+08
 
   -0.52080E+08         0.37683E+07         0.00000E+00
    0.37683E+07        -0.63961E+08         0.00000E+00
    0.00000E+00         0.00000E+00        -0.53995E+08
 
   -0.53325E+08         0.59762E+07         0.00000E+00
    0.59762E+07        -0.63500E+08         0.00000E+00
    0.00000E+00         0.00000E+00        -0.54122E+08
 
   -0.60616E+08        -0.11904E+07         0.00000E+00
   -0.11904E+07        -0.60146E+08         0.00000E+00
    0.00000E+00         0.00000E+00        -0.55040E+08
 
   -0.60754E+08        -0.31256E+07         0.00000E+00
   -0.31256E+07        -0.60654E+08         0.00000E+00
    0.00000E+00         0.00000E+00        -0.55070E+08
 
   -0.59824E+08        -0.42618E+07         0.00000E+00
   -0.42618E+07        -0.61336E+08         0.00000E+00
    0.00000E+00         0.00000E+00        -0.54845E+08
 
   -0.58477E+08        -0.46618E+07         0.00000E+00
   -0.46618E+07        -0.61892E+08         0.00000E+00
    0.00000E+00         0.00000E+00        -0.54473E+08
 
   -0.57122E+08        -0.45653E+07         0.00000E+00
   -0.45653E+07        -0.62206E+08         0.00000E+00
    0.00000E+00         0.00000E+00        -0.54044E+08
 
   -0.55914E+08        -0.41977E+07         0.00000E+00
   -0.41977E+07        -0.62308E+08         0.00000E+00
    0.00000E+00         0.00000E+00        -0.53614E+08
 
   -0.54864E+08        -0.36980E+07         0.00000E+00
   -0.36980E+07        -0.62277E+08         0.00000E+00
    0.00000E+00         0.00000E+00        -0.53207E+08
 
   -0.53933E+08        -0.31289E+07         0.00000E+00
   -0.31289E+07        -0.62190E+08         0.00000E+00
    0.00000E+00         0.00000E+00        -0.52830E+08
 
   -0.53071E+08        -0.25021E+07         0.00000E+00
   -0.25021E+07        -0.62106E+08         0.00000E+00
    0.00000E+00         0.00000E+00        -0.52482E+08
 
   -0.52233E+08        -0.17906E+07         0.00000E+00
   -0.17906E+07        -0.62075E+08         0.00000E+00
    0.00000E+00         0.00000E+00        -0.52157E+08
 
   -0.51401E+08        -0.92876E+06         0.00000E+00
   -0.92876E+06        -0.62132E+08         0.00000E+00
    0.00000E+00         0.00000E+00        -0.51857E+08
 
   -0.50602E+08         0.19601E+06         0.00000E+00
    0.19601E+06        -0.62289E+08         0.00000E+00
    0.00000E+00         0.00000E+00        -0.51590E+08
 
   -0.49969E+08         0.17444E+07         0.00000E+00
    0.17444E+07        -0.62506E+08         0.00000E+00
    0.00000E+00         0.00000E+00        -0.51382E+08
 
   -0.49815E+08         0.38826E+07         0.00000E+00
    0.38826E+07        -0.62628E+08         0.00000E+00
    0.00000E+00         0.00000E+00        -0.51277E+08
 
   -0.50661E+08         0.66609E+07         0.00000E+00
    0.66609E+07        -0.62344E+08         0.00000E+00
    0.00000E+00         0.00000E+00        -0.51335E+08
 
   -0.63162E+08        -0.15515E+07         0.00000E+00
   -0.15515E+07        -0.60201E+08         0.00000E+00
    0.00000E+00         0.00000E+00        -0.53785E+08
 
   -0.62359E+08        -0.38443E+07         0.00000E+00
   -0.38443E+07        -0.60806E+08         0.00000E+00
    0.00000E+00         0.00000E+00        -0.53561E+08
 
   -0.60445E+08        -0.48569E+07         0.00000E+00
   -0.48569E+07        -0.61426E+08         0.00000E+00
    0.00000E+00         0.00000E+00        -0.52999E+08
 
   -0.58438E+08        -0.49284E+07         0.00000E+00
   -0.49284E+07        -0.61664E+08         0.00000E+00
    0.00000E+00         0.00000E+00        -0.52305E+08
 
   -0.56752E+08        -0.45484E+07         0.00000E+00
   -0.45484E+07        -0.61525E+08         0.00000E+00
    0.00000E+00         0.00000E+00        -0.51619E+08
 
   -0.55409E+08        -0.40144E+07         0.00000E+00
   -0.40144E+07        -0.61173E+08         0.00000E+00
    0.00000E+00         0.00000E+00        -0.50997E+08
 
   -0.54309E+08        -0.34468E+07         0.00000E+00
   -0.34468E+07        -0.60740E+08         0.00000E+00
    0.00000E+00         0.00000E+00        -0.50445E+08
 
   -0.53351E+08        -0.28813E+07         0.00000E+00
   -0.28813E+07        -0.60312E+08         0.00000E+00
    0.00000E+00         0.00000E+00        -0.49951E+08
 
   -0.52445E+08        -0.23110E+07         0.00000E+00
   -0.23110E+07        -0.59944E+08         0.00000E+00
    0.00000E+00         0.00000E+00        -0.49498E+08
 
   -0.51516E+08        -0.16995E+07         0.00000E+00
   -0.16995E+07        -0.59681E+08         0.00000E+00
    0.00000E+00         0.00000E+00        -0.49071E+08
 
   -0.50499E+08        -0.97468E+06         0.00000E+00
   -0.97468E+06        -0.59565E+08         0.00000E+00
    0.00000E+00         0.00000E+00        -0.48657E+08
 
   -0.49354E+08        -0.51667E+04         0.00000E+00
   -0.51667E+04        -0.59638E+08         0.00000E+00
    0.00000E+00         0.00000E+00        -0.48253E+08
 
   -0.48140E+08         0.14458E+07         0.00000E+00
    0.14458E+07        -0.59922E+08         0.00000E+00
    0.00000E+00         0.00000E+00        -0.47882E+08
 
   -0.47167E+08         0.37243E+07         0.00000E+00
    0.37243E+07        -0.60300E+08         0.00000E+00
    0.00000E+00         0.00000E+00        -0.47604E+08
 
   -0.47177E+08         0.71180E+07         0.00000E+00
    0.71180E+07        -0.60374E+08         0.00000E+00
    0.00000E+00         0.00000E+00        -0.47526E+08
 
   -0.66385E+08        -0.20583E+07         0.00000E+00
   -0.20583E+07        -0.60293E+08         0.00000E+00
    0.00000E+00         0.00000E+00        -0.52000E+08
 
   -0.63910E+08        -0.45857E+07         0.00000E+00
   -0.45857E+07        -0.61000E+08         0.00000E+00
    0.00000E+00         0.00000E+00        -0.51282E+08
 
   -0.60629E+08        -0.50467E+07         0.00000E+00
   -0.50467E+07        -0.61202E+08         0.00000E+00
    0.00000E+00         0.00000E+00        -0.50132E+08
 
   -0.58029E+08        -0.45883E+07         0.00000E+00
   -0.45883E+07        -0.60639E+08         0.00000E+00
    0.00000E+00         0.00000E+00        -0.48983E+08
 
   -0.56190E+08        -0.39554E+07         0.00000E+00
   -0.39554E+07        -0.59759E+08         0.00000E+00
    0.00000E+00         0.00000E+00        -0.48007E+08
 
   -0.54835E+08        -0.33462E+07         0.00000E+00
   -0.33462E+07        -0.58817E+08         0.00000E+00
    0.00000E+00         0.00000E+00        -0.47194E+08
 
   -0.53764E+08        -0.28004E+07         0.00000E+00
   -0.28004E+07        -0.57928E+08         0.00000E+00
    0.00000E+00         0.00000E+00        -0.46509E+08
 
   -0.52831E+08        -0.23107E+07         0.00000E+00
   -0.23107E+07        -0.57141E+08         0.00000E+00
    0.00000E+00         0.00000E+00        -0.45913E+08
 
   -0.51924E+08        -0.18525E+07         0.00000E+00
   -0.18525E+07        -0.56483E+08         0.00000E+00
    0.00000E+00         0.00000E+00        -0.45373E+08
 
   -0.50943E+08        -0.13878E+07         0.00000E+00
   -0.13878E+07        -0.55976E+08         0.00000E+00
    0.00000E+00         0.00000E+00        -0.44858E+08
 
   -0.49783E+08        -0.85480E+06         0.00000E+00
   -0.85480E+06        -0.55654E+08         0.00000E+00
    0.00000E+00         0.00000E+00        -0.44339E+08
 
   -0.48326E+08        -0.13901E+06         0.00000E+00
   -0.13901E+06        -0.55574E+08         0.00000E+00
    0.00000E+00         0.00000E+00        -0.43795E+08
 
   -0.46449E+08         0.10015E+07         0.00000E+00
    0.10015E+07        -0.55832E+08         0.00000E+00
    0.00000E+00         0.00000E+00        -0.43218E+08
 
   -0.44270E+08         0.31322E+07         0.00000E+00
    0.31322E+07        -0.56525E+08         0.00000E+00
    0.00000E+00         0.00000E+00        -0.42676E+08
 
   -0.42704E+08         0.70639E+07         0.00000E+00
    0.70639E+07        -0.57237E+08         0.00000E+00
    0.00000E+00         0.00000E+00        -0.42344E+08
 
   -0.70400E+08        -0.29470E+07         0.00000E+00
   -0.29470E+07        -0.60763E+08         0.00000E+00
    0.00000E+00         0.00000E+00        -0.49242E+08
 
   -0.64740E+08        -0.47495E+07         0.00000E+00
   -0.47495E+07        -0.60938E+08         0.00000E+00
    0.00000E+00         0.00000E+00        -0.47312E+08
 
   -0.60082E+08        -0.40524E+07         0.00000E+00
   -0.40524E+07        -0.59353E+08         0.00000E+00
    0.00000E+00         0.00000E+00        -0.45164E+08
 
   -0.57369E+08        -0.32728E+07         0.00000E+00
   -0.32728E+07        -0.57467E+08         0.00000E+00
    0.00000E+00         0.00000E+00        -0.43568E+08
 
   -0.55590E+08        -0.26546E+07         0.00000E+00
   -0.26546E+07        -0.55729E+08         0.00000E+00
    0.00000E+00         0.00000E+00        -0.42361E+08
 
   -0.54323E+08        -0.21690E+07         0.00000E+00
   -0.21690E+07        -0.54224E+08         0.00000E+00
    0.00000E+00         0.00000E+00        -0.41423E+08
 
   -0.53325E+08        -0.17778E+07         0.00000E+00
   -0.17778E+07        -0.52950E+08         0.00000E+00
    0.00000E+00         0.00000E+00        -0.40663E+08
 
   -0.52440E+08        -0.14488E+07         0.00000E+00
   -0.14488E+07        -0.51886E+08         0.00000E+00
    0.00000E+00         0.00000E+00        -0.40018E+08
 
   -0.51552E+08        -0.11545E+07         0.00000E+00
   -0.11545E+07        -0.51012E+08         0.00000E+00
    0.00000E+00         0.00000E+00        -0.39439E+08
 
   -0.50550E+08        -0.86647E+06         0.00000E+00
   -0.86647E+06        -0.50323E+08         0.00000E+00
    0.00000E+00         0.00000E+00        -0.38883E+08
 
   -0.49302E+08        -0.54551E+06         0.00000E+00
   -0.54551E+06        -0.49832E+08         0.00000E+00
    0.00000E+00         0.00000E+00        -0.38310E+08
 
   -0.47622E+08        -0.12101E+06         0.00000E+00
   -0.12101E+06        -0.49587E+08         0.00000E+00
    0.00000E+00         0.00000E+00        -0.37676E+08
 
   -0.45222E+08         0.56444E+06         0.00000E+00
    0.56444E+06        -0.49712E+08         0.00000E+00
    0.00000E+00         0.00000E+00        -0.36933E+08
 
   -0.41558E+08         0.19828E+07         0.00000E+00
    0.19828E+07        -0.50495E+08         0.00000E+00
    0.00000E+00         0.00000E+00        -0.36030E+08
 
   -0.37154E+08         0.59182E+07         0.00000E+00
    0.59182E+07        -0.52334E+08         0.00000E+00
    0.00000E+00         0.00000E+00        -0.35261E+08
 
   -0.74410E+08        -0.31943E+07         0.00000E+00
   -0.31943E+07        -0.58117E+08         0.00000E+00
    0.00000E+00         0.00000E+00        -0.40032E+08
 
   -0.63840E+08        -0.21493E+07         0.00000E+00
   -0.21493E+07        -0.54186E+08         0.00000E+00
    0.00000E+00         0.00000E+00        -0.36543E+08
 
   -0.59423E+08        -0.14193E+07         0.00000E+00
   -0.14193E+07        -0.50886E+08         0.00000E+00
    0.00000E+00         0.00000E+00        -0.34441E+08
 
   -0.56871E+08        -0.10774E+07         0.00000E+00
   -0.10774E+07        -0.48358E+08         0.00000E+00
    0.00000E+00         0.00000E+00        -0.33058E+08
 
   -0.55218E+08        -0.85035E+06         0.00000E+00
   -0.85035E+06        -0.46370E+08         0.00000E+00
    0.00000E+00         0.00000E+00        -0.32070E+08
 
   -0.54033E+08        -0.68583E+06         0.00000E+00
   -0.68583E+06        -0.44773E+08         0.00000E+00
    0.00000E+00         0.00000E+00        -0.31322E+08
 
   -0.53087E+08        -0.55683E+06         0.00000E+00
   -0.55683E+06        -0.43477E+08         0.00000E+00
    0.00000E+00         0.00000E+00        -0.30725E+08
 
   -0.52235E+08        -0.44875E+06         0.00000E+00
   -0.44875E+06        -0.42423E+08         0.00000E+00
    0.00000E+00         0.00000E+00        -0.30221E+08
 
   -0.51360E+08        -0.35112E+06         0.00000E+00
   -0.35112E+06        -0.41578E+08         0.00000E+00
    0.00000E+00         0.00000E+00        -0.29769E+08
 
   -0.50350E+08        -0.25402E+06         0.00000E+00
   -0.25402E+06        -0.40927E+08         0.00000E+00
    0.00000E+00         0.00000E+00        -0.29334E+08
 
   -0.49060E+08        -0.14446E+06         0.00000E+00
   -0.14446E+06        -0.40481E+08         0.00000E+00
    0.00000E+00         0.00000E+00        -0.28879E+08
 
   -0.47273E+08        -0.11519E+03         0.00000E+00
   -0.11519E+03        -0.40283E+08         0.00000E+00
    0.00000E+00         0.00000E+00        -0.28361E+08
 
   -0.44588E+08         0.23317E+06         0.00000E+00
    0.23317E+06        -0.40450E+08         0.00000E+00
    0.00000E+00         0.00000E+00        -0.27714E+08
 
   -0.40146E+08         0.67978E+06         0.00000E+00
    0.67978E+06        -0.41303E+08         0.00000E+00
    0.00000E+00         0.00000E+00        -0.26817E+08
 
   -0.30883E+08         0.25111E+07         0.00000E+00
    0.25111E+07        -0.44044E+08         0.00000E+00
    0.00000E+00         0.00000E+00        -0.25357E+08
 
SCALARS stresss double 
LOOKUP_TABLE default
  -58598938.2768060     
  -58910072.6528137     
  -59081716.7606801     
  -59213504.9928342     
  -59327505.3787825     
  -59432309.5787630     
  -59531294.8489227     
  -59625845.0766996     
  -59716566.3090801     
  -59803933.3351207     
  -59888809.1696519     
  -59973170.7842491     
  -60062002.6734502     
  -60167533.9022119     
  -60356045.1424333     
  -58426978.8312314     
  -58518421.5646084     
  -58647241.8065351     
  -58761884.7803405     
  -58868596.5780711     
  -58969763.5936017     
  -59066689.3699191     
  -59159813.1131470     
  -59249229.3561529     
  -59335000.5418692     
  -59417413.8698530     
  -59497323.6852677     
  -59576026.4439059     
  -59657973.5617643     
  -59695976.7143172     
  -58414737.8119221     
  -58432710.5003826     
  -58508550.4139191     
  -58603456.0977292     
  -58701420.7722141     
  -58798988.4933669     
  -58894575.8142611     
  -58987271.5240307     
  -59076368.1762541     
  -59161273.5921054     
  -59241457.4618681     
  -59316149.6708732     
  -59383848.9528622     
  -59434276.8949050     
  -59452531.2128619     
  -58406180.8685192     
  -58424187.8478874     
  -58482374.3867226     
  -58563957.7494027     
  -58655909.0835160     
  -58751220.2226019     
  -58846481.4812095     
  -58939609.8997598     
  -59029134.2723128     
  -59113828.4567193     
  -59192426.2140696     
  -59263239.8572936     
  -59322735.5438473     
  -59365586.0747562     
  -59385894.0464735     
  -58378919.4347536     
  -58415639.9720660     
  -58477453.6313884     
  -58557782.0725038     
  -58648916.6354372     
  -58744856.0721019     
  -58841600.9166807     
  -58936487.3887623     
  -59027544.3317721     
  -59113113.5665272     
  -59191547.6901382     
  -59260816.2159809     
  -59318347.6776347     
  -59361280.6193246     
  -59388052.6359207     
  -58333796.1006663     
  -58392300.6256001     
  -58466860.9667904     
  -58554425.5400230     
  -58650466.9020066     
  -58750591.4593506     
  -58851237.3596028     
  -58949679.6992345     
  -59043779.8241240     
  -59131715.6927612     
  -59211751.4527376     
  -59282093.9086363     
  -59340908.4179230     
  -59386708.4364776     
  -59419028.6933956     
  -58274317.5303890     
  -58354890.3275594     
  -58446270.8302805     
  -58546248.8939860     
  -58651745.8317261     
  -58759520.2701724     
  -58866644.4246579     
  -58970659.5773382     
  -59069520.0108216     
  -59161457.8602411     
  -59244857.1582592     
  -59318193.2996686     
  -59380101.7296659     
  -59429590.0001885     
  -59466338.0039515     
  -58203099.5148437     
  -58306547.4841300     
  -58417278.4056634     
  -58533081.3364336     
  -58651448.6578159     
  -58769825.0779394     
  -58885836.7286339     
  -58997401.9320934     
  -59102727.9098025     
  -59200245.8816068     
  -59288540.6852087     
  -59366320.7235506     
  -59432454.0890419     
  -59486069.7958172     
  -59526674.1147105     
  -58122104.9738425     
  -58250165.5687169     
  -58382526.5588701     
  -58516793.7810895     
  -58650686.8495300     
  -58782076.1898002     
  -58909045.1740535     
  -59029919.0531795     
  -59143245.1826570     
  -59247740.5159347     
  -59342234.7250355     
  -59425634.5547640     
  -59496923.7687869     
  -59555194.5246473     
  -59599688.8306719     
  -58033129.6168829     
  -58188283.9153013     
  -58344653.6853233     
  -58499696.6560959     
  -58651279.8093681     
  -58797612.6096942     
  -58937203.7737083     
  -59068814.8397440     
  -59191398.5414668     
  -59304025.6442532     
  -59405812.7637011     
  -59495864.6381904     
  -59573239.0701925     
  -59636934.9260173     
  -59685897.1537063     
  -57938125.8128430     
  -58123360.6298399     
  -58306234.0726607     
  -58484164.8402235     
  -58655216.8529298     
  -58817968.2539536     
  -58971394.7505200     
  -59114758.4870996     
  -59247497.0840107     
  -59369113.6874128     
  -59479073.6289350     
  -59576714.8070611     
  -59661177.6734138     
  -59731358.4221143     
  -59785888.0355173     
  -57839392.9679245     
  -58057998.1397920     
  -58269885.9711423     
  -58472584.0676675     
  -58664477.5803335     
  -58844623.4704142     
  -59012572.4728606     
  -59168199.1052746     
  -59311539.1521898     
  -59442635.4742237     
  -59561394.8613832     
  -59667459.9598405     
  -59760101.0318354     
  -59838133.1554951     
  -59899866.2753117     
  -57739696.8169914     
  -57995078.4245758     
  -58238350.8319981     
  -58467337.0995216     
  -58680926.0212500     
  -58878828.3552060     
  -59061338.5615640     
  -59229106.9124838     
  -59382924.0568092     
  -59523518.9557901     
  -59651371.1072456     
  -59766538.8922779     
  -59868507.7014953     
  -59956064.3381616     
  -60027208.0928264     
  -57642349.8731600     
  -57937826.9093672     
  -58214508.1079411     
  -58470747.4804740     
  -58706178.0129040     
  -58921400.8345723     
  -59117682.0867024     
  -59296664.9041918     
  -59460099.7145600     
  -59609592.8535096     
  -59746371.8979496     
  -59871066.5822447     
  -59983506.8431981     
  -60082544.2347367     
  -60165909.1524490     
  -57551264.4180494     
  -57889819.3833672     
  -58201321.7716686     
  -58484954.4722203     
  -58741400.9340766     
  -58972454.6327835     
  -59180642.7208212     
  -59368873.8018258     
  -59540113.2915478     
  -59697083.8615100     
  -59841984.7645326     
  -59976223.6637270     
  -60100158.2989071     
  -60212852.4182094     
  -60311859.7641858     
  -57470978.5866501     
  -57854936.2390706     
  -58201715.9413748     
  -58511705.1115527     
  -58787022.1254569     
  -59031028.7769901     
  -59247868.4402143     
  -59442044.3856233     
  -59618041.6712799     
  -59779985.1933346     
  -59931319.3100669     
  -60074493.2373123     
  -60210641.7238866     
  -60339261.3138448     
  -60457896.6876166     
  -57406651.5843947     
  -57837262.1801190     
  -58218373.1901853     
  -58552049.1419019     
  -58842324.7239280     
  -59094593.7696688     
  -59315043.2172275     
  -59510155.6626304     
  -59686283.8833193     
  -59849280.9211836     
  -60004156.1721647     
  -60154725.0904843     
  -60303228.2113070     
  -60449912.1815317     
  -60592587.5473040     
  -57364023.4981178     
  -57840926.6159387     
  -58253444.1611662     
  -58605916.7666241     
  -58904904.2578858     
  -59158405.8031755     
  -59375159.1215230     
  -59564059.8894361     
  -59733704.1704295     
  -59892020.8448948     
  -60045937.9899845     
  -60201022.1311595     
  -60361042.4240679     
  -60527439.4063974     
  -60698713.4143510     
  -57349337.6693642     
  -57869877.4146430     
  -58308148.0605776     
  -58671545.2576060     
  -58969943.9986230     
  -59214667.4255939     
  -59417599.8281475     
  -59590515.4919967     
  -59744622.3138762     
  -59890255.6114774     
  -60036619.5039800     
  -60191466.1010611     
  -60360624.8820337     
  -60547339.8935734     
  -60751430.9427829     
  -57369228.8156374     
  -57927574.1239418     
  -58382223.0313244     
  -58744689.5091212     
  -59029232.8026943     
  -59251422.9961064     
  -59426982.2984341     
  -59571021.4902936     
  -59697653.6270462     
  -59819859.2092119     
  -59949419.6014938     
  -60096729.0387531     
  -60270332.3580620     
  -60476108.3220359     
  -60716115.2674878     
  -57430587.3381610     
  -58016568.4597192     
  -58473139.3391259     
  -58817486.2438919     
  -59069778.8308523     
  -59251055.3517757     
  -59381658.4898971     
  -59480402.4003571     
  -59564396.3857977     
  -59649278.8192530     
  -59749544.0333846     
  -59878649.0344292     
  -60048644.5399751     
  -60269181.0483709     
  -60545898.7850086     
  -57540417.0204415     
  -58137894.9520903     
  -58574888.9598577     
  -58876708.8254395     
  -59071735.4317794     
  -59188132.2191270     
  -59251690.7118356     
  -59285034.4570625     
  -59307933.4411671     
  -59338245.4710570     
  -59392961.0742330     
  -59488873.9035688     
  -59642467.2062610     
  -59868737.6060284     
  -60178907.7410191     
  -57705705.5816057     
  -58290087.8254170     
  -58675953.9120973     
  -58900881.5448746     
  -59005096.0197577     
  -59026138.8241576     
  -58995954.8947039     
  -58940485.2628551     
  -58881026.5882169     
  -58836420.8102733     
  -58825288.6154851     
  -58867676.2927711     
  -58985523.1796989     
  -59201376.9242520     
  -59535121.9347173     
  -57933299.4746860     
  -58467396.4539368     
  -58755580.9238967     
  -58855171.6889007     
  -58824125.0067468     
  -58712264.2321636     
  -58557754.4566368     
  -58388107.2205811     
  -58223666.1917163     
  -58081773.9121573     
  -57980725.9102376     
  -57942991.3322289     
  -57996881.0227072     
  -58175594.5993138     
  -58512580.1243149     
  -58229744.8602344     
  -58656096.0033546     
  -58776392.8467129     
  -58681768.1625245     
  -58457546.8089295     
  -58168793.7635249     
  -57857849.1697802     
  -57549655.4095454     
  -57259120.7000464     
  -56997962.9863873     
  -56780600.1514894     
  -56629505.4461336     
  -56579601.8418918     
  -56678784.7310481     
  -56982241.9152270     
  -58600490.8669680     
  -58826240.3229220     
  -58668274.1906549     
  -58280649.2646198     
  -57790739.2595123     
  -57278494.4575142     
  -56782929.4702528     
  -56317863.4149261     
  -55886270.8533086     
  -55488674.6284453     
  -55129853.2979087     
  -54827114.1717048     
  -54619119.8185785     
  -54573341.3641633     
  -54779891.0443466     
  -59049198.9749587     
  -58908724.5603712     
  -58289950.0520389     
  -57468837.5465509     
  -56631953.2627098     
  -55859669.8513935     
  -55164640.6762128     
  -54537684.5173760     
  -53962500.2109937     
  -53422697.3696423     
  -52906688.1594874     
  -52414959.8650544     
  -51981144.9767698     
  -51690273.0714232     
  -51692295.4228302     
  -59559458.6753100     
  -58730789.5259405     
  -57320764.1804627     
  -55883471.6995476     
  -54652240.5541052     
  -53615578.8989095     
  -52733442.3255126     
  -51961727.0376776     
  -51260220.5931616     
  -50592562.4231619     
  -49925529.2711727     
  -49231774.4394766     
  -48499508.5951325     
  -47823899.7781774     
  -47428157.3043510     
  -60135264.4386772     
  -57663160.4311876     
  -54866388.7778103     
  -52801339.4638792     
  -51226764.6244355     
  -49990112.3949655     
  -48979316.0062383     
  -48114675.0856926     
  -47334468.5900242     
  -46585344.3893878     
  -45814484.2443287     
  -44961642.1199913     
  -43955611.9563764     
  -42694154.2089373     
  -41582869.8195180     
  -57519613.8122163     
  -51522965.0592711     
  -48250163.6999936     
  -46095472.7357749     
  -44552400.7659888     
  -43375932.8946821     
  -42429599.9781542     
  -41626249.0820655     
  -40902387.5865207     
  -40203635.7620877     
  -39473346.6431939     
  -38638788.2031651     
  -37584290.2496382     
  -36088600.3453730     
  -33427710.2294224     
SCALARS 2waySource double 
LOOKUP_TABLE default
  0.000000000000000E+000
  0.000000000000000E+000
  0.000000000000000E+000
  0.000000000000000E+000
  0.000000000000000E+000
  0.000000000000000E+000
  0.000000000000000E+000
  0.000000000000000E+000
  0.000000000000000E+000
  0.000000000000000E+000
  0.000000000000000E+000
  0.000000000000000E+000
  0.000000000000000E+000
  0.000000000000000E+000
  0.000000000000000E+000
  0.000000000000000E+000
  0.000000000000000E+000
  0.000000000000000E+000
  0.000000000000000E+000
  0.000000000000000E+000
  0.000000000000000E+000
  0.000000000000000E+000
  0.000000000000000E+000
  0.000000000000000E+000
  0.000000000000000E+000
  0.000000000000000E+000
  0.000000000000000E+000
  0.000000000000000E+000
  0.000000000000000E+000
  0.000000000000000E+000
  0.000000000000000E+000
  0.000000000000000E+000
  0.000000000000000E+000
  0.000000000000000E+000
  0.000000000000000E+000
  0.000000000000000E+000
  0.000000000000000E+000
  0.000000000000000E+000
  0.000000000000000E+000
  0.000000000000000E+000
  0.000000000000000E+000
  0.000000000000000E+000
  0.000000000000000E+000
  0.000000000000000E+000
  0.000000000000000E+000
  0.000000000000000E+000
  0.000000000000000E+000
  0.000000000000000E+000
  0.000000000000000E+000
  0.000000000000000E+000
  0.000000000000000E+000
  0.000000000000000E+000
  0.000000000000000E+000
  0.000000000000000E+000
  0.000000000000000E+000
  0.000000000000000E+000
  0.000000000000000E+000
  0.000000000000000E+000
  0.000000000000000E+000
  0.000000000000000E+000
  0.000000000000000E+000
  0.000000000000000E+000
  0.000000000000000E+000
  0.000000000000000E+000
  0.000000000000000E+000
  0.000000000000000E+000
  0.000000000000000E+000
  0.000000000000000E+000
  0.000000000000000E+000
  0.000000000000000E+000
  0.000000000000000E+000
  0.000000000000000E+000
  0.000000000000000E+000
  0.000000000000000E+000
  0.000000000000000E+000
  0.000000000000000E+000
  0.000000000000000E+000
  0.000000000000000E+000
  0.000000000000000E+000
  0.000000000000000E+000
  0.000000000000000E+000
  0.000000000000000E+000
  0.000000000000000E+000
  0.000000000000000E+000
  0.000000000000000E+000
  0.000000000000000E+000
  0.000000000000000E+000
  0.000000000000000E+000
  0.000000000000000E+000
  0.000000000000000E+000
  0.000000000000000E+000
  0.000000000000000E+000
  0.000000000000000E+000
  0.000000000000000E+000
  0.000000000000000E+000
  0.000000000000000E+000
  0.000000000000000E+000
  0.000000000000000E+000
  0.000000000000000E+000
  0.000000000000000E+000
  0.000000000000000E+000
  0.000000000000000E+000
  0.000000000000000E+000
  0.000000000000000E+000
  0.000000000000000E+000
  0.000000000000000E+000
  0.000000000000000E+000
  0.000000000000000E+000
  0.000000000000000E+000
  0.000000000000000E+000
  0.000000000000000E+000
  0.000000000000000E+000
  0.000000000000000E+000
  0.000000000000000E+000
  0.000000000000000E+000
  0.000000000000000E+000
  0.000000000000000E+000
  0.000000000000000E+000
  0.000000000000000E+000
  0.000000000000000E+000
  0.000000000000000E+000
  0.000000000000000E+000
  0.000000000000000E+000
  0.000000000000000E+000
  0.000000000000000E+000
  0.000000000000000E+000
  0.000000000000000E+000
  0.000000000000000E+000
  0.000000000000000E+000
  0.000000000000000E+000
  0.000000000000000E+000
  0.000000000000000E+000
  0.000000000000000E+000
  0.000000000000000E+000
  0.000000000000000E+000
  0.000000000000000E+000
  0.000000000000000E+000
  0.000000000000000E+000
  0.000000000000000E+000
  0.000000000000000E+000
  0.000000000000000E+000
  0.000000000000000E+000
  0.000000000000000E+000
  0.000000000000000E+000
  0.000000000000000E+000
  0.000000000000000E+000
  0.000000000000000E+000
  0.000000000000000E+000
  0.000000000000000E+000
  0.000000000000000E+000
  0.000000000000000E+000
  0.000000000000000E+000
  0.000000000000000E+000
  0.000000000000000E+000
  0.000000000000000E+000
  0.000000000000000E+000
  0.000000000000000E+000
  0.000000000000000E+000
  0.000000000000000E+000
  0.000000000000000E+000
  0.000000000000000E+000
  0.000000000000000E+000
  0.000000000000000E+000
  0.000000000000000E+000
  0.000000000000000E+000
  0.000000000000000E+000
  0.000000000000000E+000
  0.000000000000000E+000
  0.000000000000000E+000
  0.000000000000000E+000
  0.000000000000000E+000
  0.000000000000000E+000
  0.000000000000000E+000
  0.000000000000000E+000
  0.000000000000000E+000
  0.000000000000000E+000
  0.000000000000000E+000
  0.000000000000000E+000
  0.000000000000000E+000
  0.000000000000000E+000
  0.000000000000000E+000
  0.000000000000000E+000
  0.000000000000000E+000
  0.000000000000000E+000
  0.000000000000000E+000
  0.000000000000000E+000
  0.000000000000000E+000
  0.000000000000000E+000
  0.000000000000000E+000
  0.000000000000000E+000
  0.000000000000000E+000
  0.000000000000000E+000
  0.000000000000000E+000
  0.000000000000000E+000
  0.000000000000000E+000
  0.000000000000000E+000
  0.000000000000000E+000
  0.000000000000000E+000
  0.000000000000000E+000
  0.000000000000000E+000
  0.000000000000000E+000
  0.000000000000000E+000
  0.000000000000000E+000
  0.000000000000000E+000
  0.000000000000000E+000
  0.000000000000000E+000
  0.000000000000000E+000
  0.000000000000000E+000
  0.000000000000000E+000
  0.000000000000000E+000
  0.000000000000000E+000
  0.000000000000000E+000
  0.000000000000000E+000
  0.000000000000000E+000
  0.000000000000000E+000
  0.000000000000000E+000
  0.000000000000000E+000
  0.000000000000000E+000
  0.000000000000000E+000
  0.000000000000000E+000
  0.000000000000000E+000
  0.000000000000000E+000
  0.000000000000000E+000
  0.000000000000000E+000
  0.000000000000000E+000
  0.000000000000000E+000
  0.000000000000000E+000
  0.000000000000000E+000
  0.000000000000000E+000
  0.000000000000000E+000
  0.000000000000000E+000
  0.000000000000000E+000
  0.000000000000000E+000
  0.000000000000000E+000
  0.000000000000000E+000
  0.000000000000000E+000
  0.000000000000000E+000
  0.000000000000000E+000
  0.000000000000000E+000
  0.000000000000000E+000
  0.000000000000000E+000
  0.000000000000000E+000
  0.000000000000000E+000
  0.000000000000000E+000
  0.000000000000000E+000
  0.000000000000000E+000
  0.000000000000000E+000
  0.000000000000000E+000
  0.000000000000000E+000
  0.000000000000000E+000
  0.000000000000000E+000
  0.000000000000000E+000
  0.000000000000000E+000
  0.000000000000000E+000
  0.000000000000000E+000
  0.000000000000000E+000
  0.000000000000000E+000
  0.000000000000000E+000
  0.000000000000000E+000
  0.000000000000000E+000
  0.000000000000000E+000
  0.000000000000000E+000
  0.000000000000000E+000
  0.000000000000000E+000
  0.000000000000000E+000
  0.000000000000000E+000
  0.000000000000000E+000
  0.000000000000000E+000
  0.000000000000000E+000
  0.000000000000000E+000
  0.000000000000000E+000
  0.000000000000000E+000
  0.000000000000000E+000
  0.000000000000000E+000
  0.000000000000000E+000
  0.000000000000000E+000
  0.000000000000000E+000
  0.000000000000000E+000
  0.000000000000000E+000
  0.000000000000000E+000
  0.000000000000000E+000
  0.000000000000000E+000
  0.000000000000000E+000
  0.000000000000000E+000
  0.000000000000000E+000
  0.000000000000000E+000
  0.000000000000000E+000
  0.000000000000000E+000
  0.000000000000000E+000
  0.000000000000000E+000
  0.000000000000000E+000
  0.000000000000000E+000
  0.000000000000000E+000
  0.000000000000000E+000
  0.000000000000000E+000
  0.000000000000000E+000
  0.000000000000000E+000
  0.000000000000000E+000
  0.000000000000000E+000
  0.000000000000000E+000
  0.000000000000000E+000
  0.000000000000000E+000
  0.000000000000000E+000
  0.000000000000000E+000
  0.000000000000000E+000
  0.000000000000000E+000
  0.000000000000000E+000
  0.000000000000000E+000
  0.000000000000000E+000
  0.000000000000000E+000
  0.000000000000000E+000
  0.000000000000000E+000
  0.000000000000000E+000
  0.000000000000000E+000
  0.000000000000000E+000
  0.000000000000000E+000
  0.000000000000000E+000
  0.000000000000000E+000
  0.000000000000000E+000
  0.000000000000000E+000
  0.000000000000000E+000
  0.000000000000000E+000
  0.000000000000000E+000
  0.000000000000000E+000
  0.000000000000000E+000
  0.000000000000000E+000
  0.000000000000000E+000
  0.000000000000000E+000
  0.000000000000000E+000
  0.000000000000000E+000
  0.000000000000000E+000
  0.000000000000000E+000
  0.000000000000000E+000
  0.000000000000000E+000
  0.000000000000000E+000
  0.000000000000000E+000
  0.000000000000000E+000
  0.000000000000000E+000
  0.000000000000000E+000
  0.000000000000000E+000
  0.000000000000000E+000
  0.000000000000000E+000
  0.000000000000000E+000
  0.000000000000000E+000
  0.000000000000000E+000
  0.000000000000000E+000
  0.000000000000000E+000
  0.000000000000000E+000
  0.000000000000000E+000
  0.000000000000000E+000
  0.000000000000000E+000
  0.000000000000000E+000
  0.000000000000000E+000
  0.000000000000000E+000
  0.000000000000000E+000
  0.000000000000000E+000
  0.000000000000000E+000
  0.000000000000000E+000
  0.000000000000000E+000
  0.000000000000000E+000
  0.000000000000000E+000
  0.000000000000000E+000
  0.000000000000000E+000
  0.000000000000000E+000
  0.000000000000000E+000
  0.000000000000000E+000
  0.000000000000000E+000
  0.000000000000000E+000
  0.000000000000000E+000
  0.000000000000000E+000
  0.000000000000000E+000
  0.000000000000000E+000
  0.000000000000000E+000
  0.000000000000000E+000
  0.000000000000000E+000
  0.000000000000000E+000
  0.000000000000000E+000
  0.000000000000000E+000
  0.000000000000000E+000
  0.000000000000000E+000
  0.000000000000000E+000
  0.000000000000000E+000
  0.000000000000000E+000
  0.000000000000000E+000
  0.000000000000000E+000
  0.000000000000000E+000
  0.000000000000000E+000
  0.000000000000000E+000
  0.000000000000000E+000
  0.000000000000000E+000
  0.000000000000000E+000
  0.000000000000000E+000
  0.000000000000000E+000
  0.000000000000000E+000
  0.000000000000000E+000
  0.000000000000000E+000
  0.000000000000000E+000
  0.000000000000000E+000
  0.000000000000000E+000
  0.000000000000000E+000
  0.000000000000000E+000
  0.000000000000000E+000
  0.000000000000000E+000
  0.000000000000000E+000
  0.000000000000000E+000
  0.000000000000000E+000
  0.000000000000000E+000
  0.000000000000000E+000
  0.000000000000000E+000
  0.000000000000000E+000
  0.000000000000000E+000
  0.000000000000000E+000
  0.000000000000000E+000
  0.000000000000000E+000
  0.000000000000000E+000
  0.000000000000000E+000
  0.000000000000000E+000
  0.000000000000000E+000
  0.000000000000000E+000
  0.000000000000000E+000
  0.000000000000000E+000
  0.000000000000000E+000
  0.000000000000000E+000
  0.000000000000000E+000
  0.000000000000000E+000
  0.000000000000000E+000
  0.000000000000000E+000
  0.000000000000000E+000
  0.000000000000000E+000
  0.000000000000000E+000
  0.000000000000000E+000
  0.000000000000000E+000
  0.000000000000000E+000
  0.000000000000000E+000
  0.000000000000000E+000
  0.000000000000000E+000
  0.000000000000000E+000
  0.000000000000000E+000
  0.000000000000000E+000
  0.000000000000000E+000
  0.000000000000000E+000
  0.000000000000000E+000
  0.000000000000000E+000
  0.000000000000000E+000
  0.000000000000000E+000
  0.000000000000000E+000
  0.000000000000000E+000
  0.000000000000000E+000
  0.000000000000000E+000
  0.000000000000000E+000
SCALARS elementIsPlast double 
LOOKUP_TABLE default
  0.000000000000000E+000
  0.000000000000000E+000
  0.000000000000000E+000
  0.000000000000000E+000
  0.000000000000000E+000
  0.000000000000000E+000
  0.000000000000000E+000
  0.000000000000000E+000
  0.000000000000000E+000
  0.000000000000000E+000
  0.000000000000000E+000
  0.000000000000000E+000
  0.000000000000000E+000
  0.000000000000000E+000
  0.000000000000000E+000
  0.000000000000000E+000
  0.000000000000000E+000
  0.000000000000000E+000
  0.000000000000000E+000
  0.000000000000000E+000
  0.000000000000000E+000
  0.000000000000000E+000
  0.000000000000000E+000
  0.000000000000000E+000
  0.000000000000000E+000
  0.000000000000000E+000
  0.000000000000000E+000
  0.000000000000000E+000
  0.000000000000000E+000
  0.000000000000000E+000
  0.000000000000000E+000
  0.000000000000000E+000
  0.000000000000000E+000
  0.000000000000000E+000
  0.000000000000000E+000
  0.000000000000000E+000
  0.000000000000000E+000
  0.000000000000000E+000
  0.000000000000000E+000
  0.000000000000000E+000
  0.000000000000000E+000
  0.000000000000000E+000
  0.000000000000000E+000
  0.000000000000000E+000
  0.000000000000000E+000
  0.000000000000000E+000
  0.000000000000000E+000
  0.000000000000000E+000
  0.000000000000000E+000
  0.000000000000000E+000
  0.000000000000000E+000
  0.000000000000000E+000
  0.000000000000000E+000
  0.000000000000000E+000
  0.000000000000000E+000
  0.000000000000000E+000
  0.000000000000000E+000
  0.000000000000000E+000
  0.000000000000000E+000
  0.000000000000000E+000
  0.000000000000000E+000
  0.000000000000000E+000
  0.000000000000000E+000
  0.000000000000000E+000
  0.000000000000000E+000
  0.000000000000000E+000
  0.000000000000000E+000
  0.000000000000000E+000
  0.000000000000000E+000
  0.000000000000000E+000
  0.000000000000000E+000
  0.000000000000000E+000
  0.000000000000000E+000
  0.000000000000000E+000
  0.000000000000000E+000
  0.000000000000000E+000
  0.000000000000000E+000
  0.000000000000000E+000
  0.000000000000000E+000
  0.000000000000000E+000
  0.000000000000000E+000
  0.000000000000000E+000
  0.000000000000000E+000
  0.000000000000000E+000
  0.000000000000000E+000
  0.000000000000000E+000
  0.000000000000000E+000
  0.000000000000000E+000
  0.000000000000000E+000
  0.000000000000000E+000
  0.000000000000000E+000
  0.000000000000000E+000
  0.000000000000000E+000
  0.000000000000000E+000
  0.000000000000000E+000
  0.000000000000000E+000
  0.000000000000000E+000
  0.000000000000000E+000
  0.000000000000000E+000
  0.000000000000000E+000
  0.000000000000000E+000
  0.000000000000000E+000
  0.000000000000000E+000
  0.000000000000000E+000
  0.000000000000000E+000
  0.000000000000000E+000
  0.000000000000000E+000
  0.000000000000000E+000
  0.000000000000000E+000
  0.000000000000000E+000
  0.000000000000000E+000
  0.000000000000000E+000
  0.000000000000000E+000
  0.000000000000000E+000
  0.000000000000000E+000
  0.000000000000000E+000
  0.000000000000000E+000
  0.000000000000000E+000
  0.000000000000000E+000
  0.000000000000000E+000
  0.000000000000000E+000
  0.000000000000000E+000
  0.000000000000000E+000
  0.000000000000000E+000
  0.000000000000000E+000
  0.000000000000000E+000
  0.000000000000000E+000
  0.000000000000000E+000
  0.000000000000000E+000
  0.000000000000000E+000
  0.000000000000000E+000
  0.000000000000000E+000
  0.000000000000000E+000
  0.000000000000000E+000
  0.000000000000000E+000
  0.000000000000000E+000
  0.000000000000000E+000
  0.000000000000000E+000
  0.000000000000000E+000
  0.000000000000000E+000
  0.000000000000000E+000
  0.000000000000000E+000
  0.000000000000000E+000
  0.000000000000000E+000
  0.000000000000000E+000
  0.000000000000000E+000
  0.000000000000000E+000
  0.000000000000000E+000
  0.000000000000000E+000
  0.000000000000000E+000
  0.000000000000000E+000
  0.000000000000000E+000
  0.000000000000000E+000
  0.000000000000000E+000
  0.000000000000000E+000
  0.000000000000000E+000
  0.000000000000000E+000
  0.000000000000000E+000
  0.000000000000000E+000
  0.000000000000000E+000
  0.000000000000000E+000
  0.000000000000000E+000
  0.000000000000000E+000
  0.000000000000000E+000
  0.000000000000000E+000
  0.000000000000000E+000
  0.000000000000000E+000
  0.000000000000000E+000
  0.000000000000000E+000
  0.000000000000000E+000
  0.000000000000000E+000
  0.000000000000000E+000
  0.000000000000000E+000
  0.000000000000000E+000
  0.000000000000000E+000
  0.000000000000000E+000
  0.000000000000000E+000
  0.000000000000000E+000
  0.000000000000000E+000
  0.000000000000000E+000
  0.000000000000000E+000
  0.000000000000000E+000
  0.000000000000000E+000
  0.000000000000000E+000
  0.000000000000000E+000
  0.000000000000000E+000
  0.000000000000000E+000
  0.000000000000000E+000
  0.000000000000000E+000
  0.000000000000000E+000
  0.000000000000000E+000
  0.000000000000000E+000
  0.000000000000000E+000
  0.000000000000000E+000
  0.000000000000000E+000
  0.000000000000000E+000
  0.000000000000000E+000
  0.000000000000000E+000
  0.000000000000000E+000
  0.000000000000000E+000
  0.000000000000000E+000
  0.000000000000000E+000
  0.000000000000000E+000
  0.000000000000000E+000
  0.000000000000000E+000
  0.000000000000000E+000
  0.000000000000000E+000
  0.000000000000000E+000
  0.000000000000000E+000
  0.000000000000000E+000
  0.000000000000000E+000
  0.000000000000000E+000
  0.000000000000000E+000
  0.000000000000000E+000
  0.000000000000000E+000
  0.000000000000000E+000
  0.000000000000000E+000
  0.000000000000000E+000
  0.000000000000000E+000
  0.000000000000000E+000
  0.000000000000000E+000
  0.000000000000000E+000
  0.000000000000000E+000
  0.000000000000000E+000
  0.000000000000000E+000
  0.000000000000000E+000
  0.000000000000000E+000
  0.000000000000000E+000
  0.000000000000000E+000
  0.000000000000000E+000
  0.000000000000000E+000
  0.000000000000000E+000
  0.000000000000000E+000
  0.000000000000000E+000
  0.000000000000000E+000
  0.000000000000000E+000
  0.000000000000000E+000
  0.000000000000000E+000
  0.000000000000000E+000
  0.000000000000000E+000
  0.000000000000000E+000
  0.000000000000000E+000
  0.000000000000000E+000
  0.000000000000000E+000
  0.000000000000000E+000
  0.000000000000000E+000
  0.000000000000000E+000
  0.000000000000000E+000
  0.000000000000000E+000
  0.000000000000000E+000
  0.000000000000000E+000
  0.000000000000000E+000
  0.000000000000000E+000
  0.000000000000000E+000
  0.000000000000000E+000
  0.000000000000000E+000
  0.000000000000000E+000
  0.000000000000000E+000
  0.000000000000000E+000
  0.000000000000000E+000
  0.000000000000000E+000
  0.000000000000000E+000
  0.000000000000000E+000
  0.000000000000000E+000
  0.000000000000000E+000
  0.000000000000000E+000
  0.000000000000000E+000
  0.000000000000000E+000
  0.000000000000000E+000
  0.000000000000000E+000
  0.000000000000000E+000
  0.000000000000000E+000
  0.000000000000000E+000
  0.000000000000000E+000
  0.000000000000000E+000
  0.000000000000000E+000
  0.000000000000000E+000
  0.000000000000000E+000
  0.000000000000000E+000
  0.000000000000000E+000
  0.000000000000000E+000
  0.000000000000000E+000
  0.000000000000000E+000
  0.000000000000000E+000
  0.000000000000000E+000
  0.000000000000000E+000
  0.000000000000000E+000
  0.000000000000000E+000
  0.000000000000000E+000
  0.000000000000000E+000
  0.000000000000000E+000
  0.000000000000000E+000
  0.000000000000000E+000
  0.000000000000000E+000
  0.000000000000000E+000
  0.000000000000000E+000
  0.000000000000000E+000
  0.000000000000000E+000
  0.000000000000000E+000
  0.000000000000000E+000
  0.000000000000000E+000
  0.000000000000000E+000
  0.000000000000000E+000
  0.000000000000000E+000
  0.000000000000000E+000
  0.000000000000000E+000
  0.000000000000000E+000
  0.000000000000000E+000
  0.000000000000000E+000
  0.000000000000000E+000
  0.000000000000000E+000
  0.000000000000000E+000
  0.000000000000000E+000
  0.000000000000000E+000
  0.000000000000000E+000
  0.000000000000000E+000
  0.000000000000000E+000
  0.000000000000000E+000
  0.000000000000000E+000
  0.000000000000000E+000
  0.000000000000000E+000
  0.000000000000000E+000
  0.000000000000000E+000
  0.000000000000000E+000
  0.000000000000000E+000
  0.000000000000000E+000
  0.000000000000000E+000
  0.000000000000000E+000
  0.000000000000000E+000
  0.000000000000000E+000
  0.000000000000000E+000
  0.000000000000000E+000
  0.000000000000000E+000
  0.000000000000000E+000
  0.000000000000000E+000
  0.000000000000000E+000
  0.000000000000000E+000
  0.000000000000000E+000
  0.000000000000000E+000
  0.000000000000000E+000
  0.000000000000000E+000
  0.000000000000000E+000
  0.000000000000000E+000
  0.000000000000000E+000
  0.000000000000000E+000
  0.000000000000000E+000
  0.000000000000000E+000
  0.000000000000000E+000
  0.000000000000000E+000
  0.000000000000000E+000
  0.000000000000000E+000
  0.000000000000000E+000
  0.000000000000000E+000
  0.000000000000000E+000
  0.000000000000000E+000
  0.000000000000000E+000
  0.000000000000000E+000
  0.000000000000000E+000
  0.000000000000000E+000
  0.000000000000000E+000
  0.000000000000000E+000
  0.000000000000000E+000
  0.000000000000000E+000
  0.000000000000000E+000
  0.000000000000000E+000
  0.000000000000000E+000
  0.000000000000000E+000
  0.000000000000000E+000
  0.000000000000000E+000
  0.000000000000000E+000
  0.000000000000000E+000
  0.000000000000000E+000
  0.000000000000000E+000
  0.000000000000000E+000
  0.000000000000000E+000
  0.000000000000000E+000
  0.000000000000000E+000
  0.000000000000000E+000
  0.000000000000000E+000
  0.000000000000000E+000
  0.000000000000000E+000
  0.000000000000000E+000
  0.000000000000000E+000
  0.000000000000000E+000
  0.000000000000000E+000
  0.000000000000000E+000
  0.000000000000000E+000
  0.000000000000000E+000
  0.000000000000000E+000
  0.000000000000000E+000
  0.000000000000000E+000
  0.000000000000000E+000
  0.000000000000000E+000
  0.000000000000000E+000
  0.000000000000000E+000
  0.000000000000000E+000
  0.000000000000000E+000
  0.000000000000000E+000
  0.000000000000000E+000
  0.000000000000000E+000
  0.000000000000000E+000
  0.000000000000000E+000
  0.000000000000000E+000
  0.000000000000000E+000
  0.000000000000000E+000
  0.000000000000000E+000
  0.000000000000000E+000
  0.000000000000000E+000
  0.000000000000000E+000
  0.000000000000000E+000
  0.000000000000000E+000
  0.000000000000000E+000
  0.000000000000000E+000
  0.000000000000000E+000
  0.000000000000000E+000
  0.000000000000000E+000
  0.000000000000000E+000
  0.000000000000000E+000
  0.000000000000000E+000
  0.000000000000000E+000
  0.000000000000000E+000
  0.000000000000000E+000
  0.000000000000000E+000
  0.000000000000000E+000
  0.000000000000000E+000
  0.000000000000000E+000
  0.000000000000000E+000
  0.000000000000000E+000
  0.000000000000000E+000
  0.000000000000000E+000
  0.000000000000000E+000
  0.000000000000000E+000
  0.000000000000000E+000
  0.000000000000000E+000
  0.000000000000000E+000
  0.000000000000000E+000
  0.000000000000000E+000
  0.000000000000000E+000
  0.000000000000000E+000
  0.000000000000000E+000
  0.000000000000000E+000
  0.000000000000000E+000
  0.000000000000000E+000
  0.000000000000000E+000
  0.000000000000000E+000
  0.000000000000000E+000
  0.000000000000000E+000
  0.000000000000000E+000
  0.000000000000000E+000
  0.000000000000000E+000
SCALARS poroL double 
LOOKUP_TABLE default
  0.262848441413557     
  0.261455120617670     
  0.260691048406287     
  0.260105633323340     
  0.259599979149815     
  0.259135563676016     
  0.258697214461871     
  0.258278673467563     
  0.257877165366924     
  0.257490509600040     
  0.257114800327986     
  0.256741164287793     
  0.256347270038634     
  0.255878366058094     
  0.255034774288931     
  0.259465546816204     
  0.259049836264401     
  0.258466120194798     
  0.257947461848102     
  0.257464814255094     
  0.257007247328871     
  0.256568831247407     
  0.256147576899672     
  0.255743061963806     
  0.255355009821663     
  0.254982122123579     
  0.254620514959745     
  0.254264240056077     
  0.253892638251887     
  0.253718733000187     
  0.257897498603736     
  0.257814969681661     
  0.257471065832978     
  0.257041233773590     
  0.256597759872496     
  0.256156123841102     
  0.255723441923222     
  0.255303823827021     
  0.254900469827997     
  0.254516060322877     
  0.254152989048871     
  0.253814714775670     
  0.253507941317986     
  0.253279120402204     
  0.253195863020565     
  0.257397666930889     
  0.257316059538217     
  0.257053199878104     
  0.256684824787141     
  0.256269733400735     
  0.255839522460286     
  0.255409548290043     
  0.254989196629738     
  0.254585099954461     
  0.254202786645655     
  0.253847963333774     
  0.253528230470379     
  0.253259527660529     
  0.253065925502514     
  0.252974095810436     
  0.257353652716102     
  0.257188220321977     
  0.256909721622660     
  0.256547817457873     
  0.256137245482367     
  0.255705040349635     
  0.255269212224575     
  0.254841754200994     
  0.254431541609697     
  0.254046040950922     
  0.253692670049229     
  0.253380574059443     
  0.253121341145207     
  0.252927876136301     
  0.252807250763431     
  0.257504163449944     
  0.257240862424852     
  0.256905289319166     
  0.256511185692480     
  0.256078930670610     
  0.255628298208624     
  0.255175317273083     
  0.254732249820986     
  0.254308720033289     
  0.253912927928529     
  0.253552686310614     
  0.253236067056808     
  0.252971330341240     
  0.252765172471486     
  0.252619697454296     
  0.257750403705200     
  0.257387879647112     
  0.256976763778397     
  0.256526986611783     
  0.256052387897271     
  0.255567542295341     
  0.255085616686514     
  0.254617670340461     
  0.254172906567367     
  0.253759279960829     
  0.253384062256060     
  0.253054114041427     
  0.252775575333743     
  0.252552911381511     
  0.252387562074075     
  0.258054301960733     
  0.257588910330716     
  0.257090839402589     
  0.256570000490752     
  0.256037646030324     
  0.255505251136669     
  0.254983482812070     
  0.254481700297012     
  0.254007967881444     
  0.253569344663226     
  0.253172199111928     
  0.252822342649817     
  0.252524866139462     
  0.252283684139449     
  0.252101011837043     
  0.258397154234770     
  0.257821094248391     
  0.257225837350080     
  0.256622087414363     
  0.256020050626933     
  0.255429271110518     
  0.254858350573934     
  0.254314815215132     
  0.253805200557862     
  0.253335283228135     
  0.252910332817851     
  0.252535269191447     
  0.252214660985706     
  0.251952584133800     
  0.251752436280700     
  0.258764567441236     
  0.258066713416154     
  0.257363627309948     
  0.256666628410283     
  0.255985223572880     
  0.255327409968200     
  0.254699866908063     
  0.254108158607667     
  0.253557003460304     
  0.253050594871638     
  0.252592918595155     
  0.252188006923248     
  0.251840093403905     
  0.251553666555258     
  0.251333449496300     
  0.259140658478056     
  0.258307628139267     
  0.257485572654456     
  0.256685903978160     
  0.255917187232668     
  0.255185731432451     
  0.254496107486298     
  0.253851635878919     
  0.253254870930623     
  0.252708080325920     
  0.252213696774093     
  0.251774711377269     
  0.251394983332950     
  0.251079450301650     
  0.250834227260623     
  0.259505185760492     
  0.258522250738931     
  0.257570031184616     
  0.256659316308179     
  0.255797142700011     
  0.254987627620842     
  0.254232754514618     
  0.253533114123974     
  0.252888608416361     
  0.252299117478054     
  0.251765120277458     
  0.251288253587890     
  0.250871789501969     
  0.250521007473469     
  0.250243427638485     
  0.259831405927832     
  0.258683324399025     
  0.257590371149099     
  0.256561799060148     
  0.255602259069180     
  0.254712885012473     
  0.253892333223068     
  0.253137763725447     
  0.252445761308659     
  0.251813198412635     
  0.251238040144465     
  0.250720086590006     
  0.250261638929748     
  0.249868062603504     
  0.249548202018799     
  0.260083903099011     
  0.258755811538133     
  0.257513047524163     
  0.256362162286126     
  0.255304295619933     
  0.254336541106509     
  0.253453245906107     
  0.252647227047790     
  0.251910902136038     
  0.251237343144007     
  0.250621266030383     
  0.250059965424606     
  0.249554191817912     
  0.249108948180325     
  0.248734154368889     
  0.260216127778297     
  0.258694609733072     
  0.257295528049024     
  0.256021249815905     
  0.254867984025147     
  0.253827461366989     
  0.252888505910153     
  0.252038480575195     
  0.251264610264060     
  0.250555205211987     
  0.249900817615242     
  0.249295363552648     
  0.248737227821531     
  0.248230341247070     
  0.247785179797621     
  0.260167559326301     
  0.258441983160467     
  0.256883971774385     
  0.255489842929313     
  0.254249126192636     
  0.253146592863558     
  0.252164110319631     
  0.251282302230956     
  0.250482029210956     
  0.249745735651627     
  0.249058728564691     
  0.248410457355583     
  0.247795846704180     
  0.247216697889939     
  0.246683119347774     
  0.259860479236519     
  0.257924673792843     
  0.256210621502087     
  0.254706279174489     
  0.253392381472576     
  0.252244862468463     
  0.251237001556524     
  0.250341268887192     
  0.249530900100918     
  0.248781282216619     
  0.248071267583256     
  0.247384542459687     
  0.246711157596609     
  0.246049280598409     
  0.245407157637881     
  0.259196366386551     
  0.257050684807391     
  0.255190899105927     
  0.253593777910000     
  0.252228734082002     
  0.251060700620199     
  0.250052579013756     
  0.249167218189768     
  0.248368976206344     
  0.247625002602651     
  0.246906436404514     
  0.246189733231947     
  0.245458312389435     
  0.244704653352813     
  0.243932876876433     
  0.258051893832147     
  0.255705709324821     
  0.253720187113704     
  0.252057468174332     
  0.250672640125869     
  0.249517180821519     
  0.248541729354795     
  0.247698113512720     
  0.246940724610547     
  0.246227467176283     
  0.245520596428433     
  0.244787783836926     
  0.244003722104322     
  0.243152501329038     
  0.242230865548786     
  0.256274383744490     
  0.253749087325950     
  0.251670223527223     
  0.249981083289031     
  0.248618836149246     
  0.247518751608317     
  0.246617328897918     
  0.245854231535131     
  0.245173197361203     
  0.244522299277771     
  0.243854045651616     
  0.243125838201008     
  0.242301265140582     
  0.241352604530773     
  0.240264754967711     
  0.253676302899086     
  0.251008971111245     
  0.248884898956076     
  0.247223193304353     
  0.245938718360955     
  0.244947467301639     
  0.244170094005631     
  0.243533505420979     
  0.242970860428450     
  0.242420602210152     
  0.241825266895997     
  0.241130819748373     
  0.240287210620784     
  0.239250725092072     
  0.237988501359422     
  0.250027861991557     
  0.247275996317839     
  0.245174977975980     
  0.243612646781211     
  0.242476023330350     
  0.241658433524017     
  0.241063441773582     
  0.240605622411682     
  0.240208920418969     
  0.239803662846728     
  0.239323304512841     
  0.238701913567080     
  0.237873350394794     
  0.236772985749939     
  0.235342603972142     
  0.245045829139970     
  0.242294070339739     
  0.240310774187447     
  0.238942508219116     
  0.238041155745992     
  0.237473745003983     
  0.237126527785614     
  0.236903941890697     
  0.236724136102024     
  0.236512852689311     
  0.236197131831267     
  0.235700001559694     
  0.234937282355947     
  0.233817885988608     
  0.232248669716472     
  0.238374910033674     
  0.235745560429026     
  0.234010913468604     
  0.232961003301127     
  0.232402676322800     
  0.232173209517395     
  0.232143513445429     
  0.232213156475141     
  0.232300964809745     
  0.232334477912543     
  0.232239666367030     
  0.231931621452416     
  0.231307593495282     
  0.230244111334323     
  0.228601159246010     
  0.229554026664521     
  0.227225636755352     
  0.225923322774698     
  0.225356354486450     
  0.225272538004819     
  0.225477734899413     
  0.225834590659185     
  0.226248096797618     
  0.226648505028972     
  0.226975043288865     
  0.227161519366293     
  0.227122442811935     
  0.226738907458078     
  0.225850193726187     
  0.224253834787755     
  0.217951953735739     
  0.216192805819867     
  0.215590671009505     
  0.215728243327102     
  0.216276107663571     
  0.217015368735333     
  0.217817632371843     
  0.218613260458947     
  0.219358474557413     
  0.220016996372855     
  0.220544626142795     
  0.220868668737077     
  0.220866222947207     
  0.220336196840106     
  0.218995916664929     
  0.202618725613360     
  0.201870409320148     
  0.202377991004527     
  0.203524541738385     
  0.204884411399394     
  0.206238787440794     
  0.207522852532833     
  0.208717065515287     
  0.209819864143629     
  0.210832887243873     
  0.211750244003637     
  0.212543443464281     
  0.213107621773499     
  0.213227297504936     
  0.212502886033340     
  0.181965533242508     
  0.182963730113325     
  0.185297144551394     
  0.187897758442324     
  0.190196491693391     
  0.192207812871995     
  0.193978239561968     
  0.195564356638703     
  0.197018301170921     
  0.198389162499446     
  0.199725555024920     
  0.201071973098509     
  0.202462487445620     
  0.203668223048754     
  0.204240662139020     
  0.151964090308945     
  0.156842592195991     
  0.162676504310115     
  0.166902800007844     
  0.170210879674009     
  0.172892050186667     
  0.175152474926522     
  0.177132441290894     
  0.178941937655041     
  0.180681274145296     
  0.182460556689078     
  0.184427846647029     
  0.186796053894165     
  0.190021298688892     
  0.193099173915606     
  9.261105873668676E-002
  0.115179916659103     
  0.125721667691846     
  0.132660615361791     
  0.137655569857078     
  0.141513273705494     
  0.144656837413741     
  0.147354115640138     
  0.149801246008070     
  0.152170723521793     
  0.154651216148252     
  0.157501032309392     
  0.161170450914356     
  0.166553066933528     
  0.177359494896973     
