# vtk DataFile Version 3.0
vtk output
ASCII
DATASET UNSTRUCTURED_GRID
POINTS       496 double 
  0.00000000E+00  3.00000000E+02  0.00000000E+00
  0.00000000E+00  2.80000000E+02  0.00000000E+00
  0.00000000E+00  2.60000000E+02  0.00000000E+00
  0.00000000E+00  2.40000000E+02  0.00000000E+00
  0.00000000E+00  2.20000000E+02  0.00000000E+00
  0.00000000E+00  2.00000000E+02  0.00000000E+00
  0.00000000E+00  1.80000000E+02  0.00000000E+00
  0.00000000E+00  1.60000000E+02  0.00000000E+00
  0.00000000E+00  1.40000000E+02  0.00000000E+00
  0.00000000E+00  1.20000000E+02  0.00000000E+00
  0.00000000E+00  1.00000000E+02  0.00000000E+00
  0.00000000E+00  8.00000000E+01  0.00000000E+00
  0.00000000E+00  6.00000000E+01  0.00000000E+00
  0.00000000E+00  4.00000000E+01  0.00000000E+00
  0.00000000E+00  2.00000000E+01  0.00000000E+00
  0.00000000E+00  4.99600361E-14  0.00000000E+00
  2.00000000E+01  3.00000000E+02  0.00000000E+00
  2.00000000E+01  2.80000000E+02  0.00000000E+00
  2.00000000E+01  2.60000000E+02  0.00000000E+00
  2.00000000E+01  2.40000000E+02  0.00000000E+00
  2.00000000E+01  2.20000000E+02  0.00000000E+00
  2.00000000E+01  2.00000000E+02  0.00000000E+00
  2.00000000E+01  1.80000000E+02  0.00000000E+00
  2.00000000E+01  1.60000000E+02  0.00000000E+00
  2.00000000E+01  1.40000000E+02  0.00000000E+00
  2.00000000E+01  1.20000000E+02  0.00000000E+00
  2.00000000E+01  1.00000000E+02  0.00000000E+00
  2.00000000E+01  8.00000000E+01  0.00000000E+00
  2.00000000E+01  6.00000000E+01  0.00000000E+00
  2.00000000E+01  4.00000000E+01  0.00000000E+00
  2.00000000E+01  2.00000000E+01  0.00000000E+00
  2.00000000E+01  4.99600361E-14  0.00000000E+00
  4.00000000E+01  3.00000000E+02  0.00000000E+00
  4.00000000E+01  2.80000000E+02  0.00000000E+00
  4.00000000E+01  2.60000000E+02  0.00000000E+00
  4.00000000E+01  2.40000000E+02  0.00000000E+00
  4.00000000E+01  2.20000000E+02  0.00000000E+00
  4.00000000E+01  2.00000000E+02  0.00000000E+00
  4.00000000E+01  1.80000000E+02  0.00000000E+00
  4.00000000E+01  1.60000000E+02  0.00000000E+00
  4.00000000E+01  1.40000000E+02  0.00000000E+00
  4.00000000E+01  1.20000000E+02  0.00000000E+00
  4.00000000E+01  1.00000000E+02  0.00000000E+00
  4.00000000E+01  8.00000000E+01  0.00000000E+00
  4.00000000E+01  6.00000000E+01  0.00000000E+00
  4.00000000E+01  4.00000000E+01  0.00000000E+00
  4.00000000E+01  2.00000000E+01  0.00000000E+00
  4.00000000E+01  4.99600361E-14  0.00000000E+00
  6.00000000E+01  3.00000000E+02  0.00000000E+00
  6.00000000E+01  2.80000000E+02  0.00000000E+00
  6.00000000E+01  2.60000000E+02  0.00000000E+00
  6.00000000E+01  2.40000000E+02  0.00000000E+00
  6.00000000E+01  2.20000000E+02  0.00000000E+00
  6.00000000E+01  2.00000000E+02  0.00000000E+00
  6.00000000E+01  1.80000000E+02  0.00000000E+00
  6.00000000E+01  1.60000000E+02  0.00000000E+00
  6.00000000E+01  1.40000000E+02  0.00000000E+00
  6.00000000E+01  1.20000000E+02  0.00000000E+00
  6.00000000E+01  1.00000000E+02  0.00000000E+00
  6.00000000E+01  8.00000000E+01  0.00000000E+00
  6.00000000E+01  6.00000000E+01  0.00000000E+00
  6.00000000E+01  4.00000000E+01  0.00000000E+00
  6.00000000E+01  2.00000000E+01  0.00000000E+00
  6.00000000E+01  4.99600361E-14  0.00000000E+00
  8.00000000E+01  3.00000000E+02  0.00000000E+00
  8.00000000E+01  2.80000000E+02  0.00000000E+00
  8.00000000E+01  2.60000000E+02  0.00000000E+00
  8.00000000E+01  2.40000000E+02  0.00000000E+00
  8.00000000E+01  2.20000000E+02  0.00000000E+00
  8.00000000E+01  2.00000000E+02  0.00000000E+00
  8.00000000E+01  1.80000000E+02  0.00000000E+00
  8.00000000E+01  1.60000000E+02  0.00000000E+00
  8.00000000E+01  1.40000000E+02  0.00000000E+00
  8.00000000E+01  1.20000000E+02  0.00000000E+00
  8.00000000E+01  1.00000000E+02  0.00000000E+00
  8.00000000E+01  8.00000000E+01  0.00000000E+00
  8.00000000E+01  6.00000000E+01  0.00000000E+00
  8.00000000E+01  4.00000000E+01  0.00000000E+00
  8.00000000E+01  2.00000000E+01  0.00000000E+00
  8.00000000E+01  4.99600361E-14  0.00000000E+00
  1.00000000E+02  3.00000000E+02  0.00000000E+00
  1.00000000E+02  2.80000000E+02  0.00000000E+00
  1.00000000E+02  2.60000000E+02  0.00000000E+00
  1.00000000E+02  2.40000000E+02  0.00000000E+00
  1.00000000E+02  2.20000000E+02  0.00000000E+00
  1.00000000E+02  2.00000000E+02  0.00000000E+00
  1.00000000E+02  1.80000000E+02  0.00000000E+00
  1.00000000E+02  1.60000000E+02  0.00000000E+00
  1.00000000E+02  1.40000000E+02  0.00000000E+00
  1.00000000E+02  1.20000000E+02  0.00000000E+00
  1.00000000E+02  1.00000000E+02  0.00000000E+00
  1.00000000E+02  8.00000000E+01  0.00000000E+00
  1.00000000E+02  6.00000000E+01  0.00000000E+00
  1.00000000E+02  4.00000000E+01  0.00000000E+00
  1.00000000E+02  2.00000000E+01  0.00000000E+00
  1.00000000E+02  4.99600361E-14  0.00000000E+00
  1.20000000E+02  3.00000000E+02  0.00000000E+00
  1.20000000E+02  2.80000000E+02  0.00000000E+00
  1.20000000E+02  2.60000000E+02  0.00000000E+00
  1.20000000E+02  2.40000000E+02  0.00000000E+00
  1.20000000E+02  2.20000000E+02  0.00000000E+00
  1.20000000E+02  2.00000000E+02  0.00000000E+00
  1.20000000E+02  1.80000000E+02  0.00000000E+00
  1.20000000E+02  1.60000000E+02  0.00000000E+00
  1.20000000E+02  1.40000000E+02  0.00000000E+00
  1.20000000E+02  1.20000000E+02  0.00000000E+00
  1.20000000E+02  1.00000000E+02  0.00000000E+00
  1.20000000E+02  8.00000000E+01  0.00000000E+00
  1.20000000E+02  6.00000000E+01  0.00000000E+00
  1.20000000E+02  4.00000000E+01  0.00000000E+00
  1.20000000E+02  2.00000000E+01  0.00000000E+00
  1.20000000E+02  4.99600361E-14  0.00000000E+00
  1.40000000E+02  3.00000000E+02  0.00000000E+00
  1.40000000E+02  2.80000000E+02  0.00000000E+00
  1.40000000E+02  2.60000000E+02  0.00000000E+00
  1.40000000E+02  2.40000000E+02  0.00000000E+00
  1.40000000E+02  2.20000000E+02  0.00000000E+00
  1.40000000E+02  2.00000000E+02  0.00000000E+00
  1.40000000E+02  1.80000000E+02  0.00000000E+00
  1.40000000E+02  1.60000000E+02  0.00000000E+00
  1.40000000E+02  1.40000000E+02  0.00000000E+00
  1.40000000E+02  1.20000000E+02  0.00000000E+00
  1.40000000E+02  1.00000000E+02  0.00000000E+00
  1.40000000E+02  8.00000000E+01  0.00000000E+00
  1.40000000E+02  6.00000000E+01  0.00000000E+00
  1.40000000E+02  4.00000000E+01  0.00000000E+00
  1.40000000E+02  2.00000000E+01  0.00000000E+00
  1.40000000E+02  4.99600361E-14  0.00000000E+00
  1.60000000E+02  3.00000000E+02  0.00000000E+00
  1.60000000E+02  2.80000000E+02  0.00000000E+00
  1.60000000E+02  2.60000000E+02  0.00000000E+00
  1.60000000E+02  2.40000000E+02  0.00000000E+00
  1.60000000E+02  2.20000000E+02  0.00000000E+00
  1.60000000E+02  2.00000000E+02  0.00000000E+00
  1.60000000E+02  1.80000000E+02  0.00000000E+00
  1.60000000E+02  1.60000000E+02  0.00000000E+00
  1.60000000E+02  1.40000000E+02  0.00000000E+00
  1.60000000E+02  1.20000000E+02  0.00000000E+00
  1.60000000E+02  1.00000000E+02  0.00000000E+00
  1.60000000E+02  8.00000000E+01  0.00000000E+00
  1.60000000E+02  6.00000000E+01  0.00000000E+00
  1.60000000E+02  4.00000000E+01  0.00000000E+00
  1.60000000E+02  2.00000000E+01  0.00000000E+00
  1.60000000E+02  4.99600361E-14  0.00000000E+00
  1.80000000E+02  3.00000000E+02  0.00000000E+00
  1.80000000E+02  2.80000000E+02  0.00000000E+00
  1.80000000E+02  2.60000000E+02  0.00000000E+00
  1.80000000E+02  2.40000000E+02  0.00000000E+00
  1.80000000E+02  2.20000000E+02  0.00000000E+00
  1.80000000E+02  2.00000000E+02  0.00000000E+00
  1.80000000E+02  1.80000000E+02  0.00000000E+00
  1.80000000E+02  1.60000000E+02  0.00000000E+00
  1.80000000E+02  1.40000000E+02  0.00000000E+00
  1.80000000E+02  1.20000000E+02  0.00000000E+00
  1.80000000E+02  1.00000000E+02  0.00000000E+00
  1.80000000E+02  8.00000000E+01  0.00000000E+00
  1.80000000E+02  6.00000000E+01  0.00000000E+00
  1.80000000E+02  4.00000000E+01  0.00000000E+00
  1.80000000E+02  2.00000000E+01  0.00000000E+00
  1.80000000E+02  4.99600361E-14  0.00000000E+00
  2.00000000E+02  3.00000000E+02  0.00000000E+00
  2.00000000E+02  2.80000000E+02  0.00000000E+00
  2.00000000E+02  2.60000000E+02  0.00000000E+00
  2.00000000E+02  2.40000000E+02  0.00000000E+00
  2.00000000E+02  2.20000000E+02  0.00000000E+00
  2.00000000E+02  2.00000000E+02  0.00000000E+00
  2.00000000E+02  1.80000000E+02  0.00000000E+00
  2.00000000E+02  1.60000000E+02  0.00000000E+00
  2.00000000E+02  1.40000000E+02  0.00000000E+00
  2.00000000E+02  1.20000000E+02  0.00000000E+00
  2.00000000E+02  1.00000000E+02  0.00000000E+00
  2.00000000E+02  8.00000000E+01  0.00000000E+00
  2.00000000E+02  6.00000000E+01  0.00000000E+00
  2.00000000E+02  4.00000000E+01  0.00000000E+00
  2.00000000E+02  2.00000000E+01  0.00000000E+00
  2.00000000E+02  4.99600361E-14  0.00000000E+00
  2.20000000E+02  3.00000000E+02  0.00000000E+00
  2.20000000E+02  2.80000000E+02  0.00000000E+00
  2.20000000E+02  2.60000000E+02  0.00000000E+00
  2.20000000E+02  2.40000000E+02  0.00000000E+00
  2.20000000E+02  2.20000000E+02  0.00000000E+00
  2.20000000E+02  2.00000000E+02  0.00000000E+00
  2.20000000E+02  1.80000000E+02  0.00000000E+00
  2.20000000E+02  1.60000000E+02  0.00000000E+00
  2.20000000E+02  1.40000000E+02  0.00000000E+00
  2.20000000E+02  1.20000000E+02  0.00000000E+00
  2.20000000E+02  1.00000000E+02  0.00000000E+00
  2.20000000E+02  8.00000000E+01  0.00000000E+00
  2.20000000E+02  6.00000000E+01  0.00000000E+00
  2.20000000E+02  4.00000000E+01  0.00000000E+00
  2.20000000E+02  2.00000000E+01  0.00000000E+00
  2.20000000E+02  4.99600361E-14  0.00000000E+00
  2.40000000E+02  3.00000000E+02  0.00000000E+00
  2.40000000E+02  2.80000000E+02  0.00000000E+00
  2.40000000E+02  2.60000000E+02  0.00000000E+00
  2.40000000E+02  2.40000000E+02  0.00000000E+00
  2.40000000E+02  2.20000000E+02  0.00000000E+00
  2.40000000E+02  2.00000000E+02  0.00000000E+00
  2.40000000E+02  1.80000000E+02  0.00000000E+00
  2.40000000E+02  1.60000000E+02  0.00000000E+00
  2.40000000E+02  1.40000000E+02  0.00000000E+00
  2.40000000E+02  1.20000000E+02  0.00000000E+00
  2.40000000E+02  1.00000000E+02  0.00000000E+00
  2.40000000E+02  8.00000000E+01  0.00000000E+00
  2.40000000E+02  6.00000000E+01  0.00000000E+00
  2.40000000E+02  4.00000000E+01  0.00000000E+00
  2.40000000E+02  2.00000000E+01  0.00000000E+00
  2.40000000E+02  4.99600361E-14  0.00000000E+00
  2.60000000E+02  3.00000000E+02  0.00000000E+00
  2.60000000E+02  2.80000000E+02  0.00000000E+00
  2.60000000E+02  2.60000000E+02  0.00000000E+00
  2.60000000E+02  2.40000000E+02  0.00000000E+00
  2.60000000E+02  2.20000000E+02  0.00000000E+00
  2.60000000E+02  2.00000000E+02  0.00000000E+00
  2.60000000E+02  1.80000000E+02  0.00000000E+00
  2.60000000E+02  1.60000000E+02  0.00000000E+00
  2.60000000E+02  1.40000000E+02  0.00000000E+00
  2.60000000E+02  1.20000000E+02  0.00000000E+00
  2.60000000E+02  1.00000000E+02  0.00000000E+00
  2.60000000E+02  8.00000000E+01  0.00000000E+00
  2.60000000E+02  6.00000000E+01  0.00000000E+00
  2.60000000E+02  4.00000000E+01  0.00000000E+00
  2.60000000E+02  2.00000000E+01  0.00000000E+00
  2.60000000E+02  4.99600361E-14  0.00000000E+00
  2.80000000E+02  3.00000000E+02  0.00000000E+00
  2.80000000E+02  2.80000000E+02  0.00000000E+00
  2.80000000E+02  2.60000000E+02  0.00000000E+00
  2.80000000E+02  2.40000000E+02  0.00000000E+00
  2.80000000E+02  2.20000000E+02  0.00000000E+00
  2.80000000E+02  2.00000000E+02  0.00000000E+00
  2.80000000E+02  1.80000000E+02  0.00000000E+00
  2.80000000E+02  1.60000000E+02  0.00000000E+00
  2.80000000E+02  1.40000000E+02  0.00000000E+00
  2.80000000E+02  1.20000000E+02  0.00000000E+00
  2.80000000E+02  1.00000000E+02  0.00000000E+00
  2.80000000E+02  8.00000000E+01  0.00000000E+00
  2.80000000E+02  6.00000000E+01  0.00000000E+00
  2.80000000E+02  4.00000000E+01  0.00000000E+00
  2.80000000E+02  2.00000000E+01  0.00000000E+00
  2.80000000E+02  4.99600361E-14  0.00000000E+00
  3.00000000E+02  3.00000000E+02  0.00000000E+00
  3.00000000E+02  2.80000000E+02  0.00000000E+00
  3.00000000E+02  2.60000000E+02  0.00000000E+00
  3.00000000E+02  2.40000000E+02  0.00000000E+00
  3.00000000E+02  2.20000000E+02  0.00000000E+00
  3.00000000E+02  2.00000000E+02  0.00000000E+00
  3.00000000E+02  1.80000000E+02  0.00000000E+00
  3.00000000E+02  1.60000000E+02  0.00000000E+00
  3.00000000E+02  1.40000000E+02  0.00000000E+00
  3.00000000E+02  1.20000000E+02  0.00000000E+00
  3.00000000E+02  1.00000000E+02  0.00000000E+00
  3.00000000E+02  8.00000000E+01  0.00000000E+00
  3.00000000E+02  6.00000000E+01  0.00000000E+00
  3.00000000E+02  4.00000000E+01  0.00000000E+00
  3.00000000E+02  2.00000000E+01  0.00000000E+00
  3.00000000E+02  4.99600361E-14  0.00000000E+00
  3.20000000E+02  3.00000000E+02  0.00000000E+00
  3.20000000E+02  2.80000000E+02  0.00000000E+00
  3.20000000E+02  2.60000000E+02  0.00000000E+00
  3.20000000E+02  2.40000000E+02  0.00000000E+00
  3.20000000E+02  2.20000000E+02  0.00000000E+00
  3.20000000E+02  2.00000000E+02  0.00000000E+00
  3.20000000E+02  1.80000000E+02  0.00000000E+00
  3.20000000E+02  1.60000000E+02  0.00000000E+00
  3.20000000E+02  1.40000000E+02  0.00000000E+00
  3.20000000E+02  1.20000000E+02  0.00000000E+00
  3.20000000E+02  1.00000000E+02  0.00000000E+00
  3.20000000E+02  8.00000000E+01  0.00000000E+00
  3.20000000E+02  6.00000000E+01  0.00000000E+00
  3.20000000E+02  4.00000000E+01  0.00000000E+00
  3.20000000E+02  2.00000000E+01  0.00000000E+00
  3.20000000E+02  4.99600361E-14  0.00000000E+00
  3.40000000E+02  3.00000000E+02  0.00000000E+00
  3.40000000E+02  2.80000000E+02  0.00000000E+00
  3.40000000E+02  2.60000000E+02  0.00000000E+00
  3.40000000E+02  2.40000000E+02  0.00000000E+00
  3.40000000E+02  2.20000000E+02  0.00000000E+00
  3.40000000E+02  2.00000000E+02  0.00000000E+00
  3.40000000E+02  1.80000000E+02  0.00000000E+00
  3.40000000E+02  1.60000000E+02  0.00000000E+00
  3.40000000E+02  1.40000000E+02  0.00000000E+00
  3.40000000E+02  1.20000000E+02  0.00000000E+00
  3.40000000E+02  1.00000000E+02  0.00000000E+00
  3.40000000E+02  8.00000000E+01  0.00000000E+00
  3.40000000E+02  6.00000000E+01  0.00000000E+00
  3.40000000E+02  4.00000000E+01  0.00000000E+00
  3.40000000E+02  2.00000000E+01  0.00000000E+00
  3.40000000E+02  4.99600361E-14  0.00000000E+00
  3.60000000E+02  3.00000000E+02  0.00000000E+00
  3.60000000E+02  2.80000000E+02  0.00000000E+00
  3.60000000E+02  2.60000000E+02  0.00000000E+00
  3.60000000E+02  2.40000000E+02  0.00000000E+00
  3.60000000E+02  2.20000000E+02  0.00000000E+00
  3.60000000E+02  2.00000000E+02  0.00000000E+00
  3.60000000E+02  1.80000000E+02  0.00000000E+00
  3.60000000E+02  1.60000000E+02  0.00000000E+00
  3.60000000E+02  1.40000000E+02  0.00000000E+00
  3.60000000E+02  1.20000000E+02  0.00000000E+00
  3.60000000E+02  1.00000000E+02  0.00000000E+00
  3.60000000E+02  8.00000000E+01  0.00000000E+00
  3.60000000E+02  6.00000000E+01  0.00000000E+00
  3.60000000E+02  4.00000000E+01  0.00000000E+00
  3.60000000E+02  2.00000000E+01  0.00000000E+00
  3.60000000E+02  4.99600361E-14  0.00000000E+00
  3.80000000E+02  3.00000000E+02  0.00000000E+00
  3.80000000E+02  2.80000000E+02  0.00000000E+00
  3.80000000E+02  2.60000000E+02  0.00000000E+00
  3.80000000E+02  2.40000000E+02  0.00000000E+00
  3.80000000E+02  2.20000000E+02  0.00000000E+00
  3.80000000E+02  2.00000000E+02  0.00000000E+00
  3.80000000E+02  1.80000000E+02  0.00000000E+00
  3.80000000E+02  1.60000000E+02  0.00000000E+00
  3.80000000E+02  1.40000000E+02  0.00000000E+00
  3.80000000E+02  1.20000000E+02  0.00000000E+00
  3.80000000E+02  1.00000000E+02  0.00000000E+00
  3.80000000E+02  8.00000000E+01  0.00000000E+00
  3.80000000E+02  6.00000000E+01  0.00000000E+00
  3.80000000E+02  4.00000000E+01  0.00000000E+00
  3.80000000E+02  2.00000000E+01  0.00000000E+00
  3.80000000E+02  4.99600361E-14  0.00000000E+00
  4.00000000E+02  3.00000000E+02  0.00000000E+00
  4.00000000E+02  2.80000000E+02  0.00000000E+00
  4.00000000E+02  2.60000000E+02  0.00000000E+00
  4.00000000E+02  2.40000000E+02  0.00000000E+00
  4.00000000E+02  2.20000000E+02  0.00000000E+00
  4.00000000E+02  2.00000000E+02  0.00000000E+00
  4.00000000E+02  1.80000000E+02  0.00000000E+00
  4.00000000E+02  1.60000000E+02  0.00000000E+00
  4.00000000E+02  1.40000000E+02  0.00000000E+00
  4.00000000E+02  1.20000000E+02  0.00000000E+00
  4.00000000E+02  1.00000000E+02  0.00000000E+00
  4.00000000E+02  8.00000000E+01  0.00000000E+00
  4.00000000E+02  6.00000000E+01  0.00000000E+00
  4.00000000E+02  4.00000000E+01  0.00000000E+00
  4.00000000E+02  2.00000000E+01  0.00000000E+00
  4.00000000E+02  4.99600361E-14  0.00000000E+00
  4.20000000E+02  3.00000000E+02  0.00000000E+00
  4.20000000E+02  2.80000000E+02  0.00000000E+00
  4.20000000E+02  2.60000000E+02  0.00000000E+00
  4.20000000E+02  2.40000000E+02  0.00000000E+00
  4.20000000E+02  2.20000000E+02  0.00000000E+00
  4.20000000E+02  2.00000000E+02  0.00000000E+00
  4.20000000E+02  1.80000000E+02  0.00000000E+00
  4.20000000E+02  1.60000000E+02  0.00000000E+00
  4.20000000E+02  1.40000000E+02  0.00000000E+00
  4.20000000E+02  1.20000000E+02  0.00000000E+00
  4.20000000E+02  1.00000000E+02  0.00000000E+00
  4.20000000E+02  8.00000000E+01  0.00000000E+00
  4.20000000E+02  6.00000000E+01  0.00000000E+00
  4.20000000E+02  4.00000000E+01  0.00000000E+00
  4.20000000E+02  2.00000000E+01  0.00000000E+00
  4.20000000E+02  4.99600361E-14  0.00000000E+00
  4.40000000E+02  3.00000000E+02  0.00000000E+00
  4.40000000E+02  2.80000000E+02  0.00000000E+00
  4.40000000E+02  2.60000000E+02  0.00000000E+00
  4.40000000E+02  2.40000000E+02  0.00000000E+00
  4.40000000E+02  2.20000000E+02  0.00000000E+00
  4.40000000E+02  2.00000000E+02  0.00000000E+00
  4.40000000E+02  1.80000000E+02  0.00000000E+00
  4.40000000E+02  1.60000000E+02  0.00000000E+00
  4.40000000E+02  1.40000000E+02  0.00000000E+00
  4.40000000E+02  1.20000000E+02  0.00000000E+00
  4.40000000E+02  1.00000000E+02  0.00000000E+00
  4.40000000E+02  8.00000000E+01  0.00000000E+00
  4.40000000E+02  6.00000000E+01  0.00000000E+00
  4.40000000E+02  4.00000000E+01  0.00000000E+00
  4.40000000E+02  2.00000000E+01  0.00000000E+00
  4.40000000E+02  4.99600361E-14  0.00000000E+00
  4.60000000E+02  3.00000000E+02  0.00000000E+00
  4.60000000E+02  2.80000000E+02  0.00000000E+00
  4.60000000E+02  2.60000000E+02  0.00000000E+00
  4.60000000E+02  2.40000000E+02  0.00000000E+00
  4.60000000E+02  2.20000000E+02  0.00000000E+00
  4.60000000E+02  2.00000000E+02  0.00000000E+00
  4.60000000E+02  1.80000000E+02  0.00000000E+00
  4.60000000E+02  1.60000000E+02  0.00000000E+00
  4.60000000E+02  1.40000000E+02  0.00000000E+00
  4.60000000E+02  1.20000000E+02  0.00000000E+00
  4.60000000E+02  1.00000000E+02  0.00000000E+00
  4.60000000E+02  8.00000000E+01  0.00000000E+00
  4.60000000E+02  6.00000000E+01  0.00000000E+00
  4.60000000E+02  4.00000000E+01  0.00000000E+00
  4.60000000E+02  2.00000000E+01  0.00000000E+00
  4.60000000E+02  4.99600361E-14  0.00000000E+00
  4.80000000E+02  3.00000000E+02  0.00000000E+00
  4.80000000E+02  2.80000000E+02  0.00000000E+00
  4.80000000E+02  2.60000000E+02  0.00000000E+00
  4.80000000E+02  2.40000000E+02  0.00000000E+00
  4.80000000E+02  2.20000000E+02  0.00000000E+00
  4.80000000E+02  2.00000000E+02  0.00000000E+00
  4.80000000E+02  1.80000000E+02  0.00000000E+00
  4.80000000E+02  1.60000000E+02  0.00000000E+00
  4.80000000E+02  1.40000000E+02  0.00000000E+00
  4.80000000E+02  1.20000000E+02  0.00000000E+00
  4.80000000E+02  1.00000000E+02  0.00000000E+00
  4.80000000E+02  8.00000000E+01  0.00000000E+00
  4.80000000E+02  6.00000000E+01  0.00000000E+00
  4.80000000E+02  4.00000000E+01  0.00000000E+00
  4.80000000E+02  2.00000000E+01  0.00000000E+00
  4.80000000E+02  4.99600361E-14  0.00000000E+00
  5.00000000E+02  3.00000000E+02  0.00000000E+00
  5.00000000E+02  2.80000000E+02  0.00000000E+00
  5.00000000E+02  2.60000000E+02  0.00000000E+00
  5.00000000E+02  2.40000000E+02  0.00000000E+00
  5.00000000E+02  2.20000000E+02  0.00000000E+00
  5.00000000E+02  2.00000000E+02  0.00000000E+00
  5.00000000E+02  1.80000000E+02  0.00000000E+00
  5.00000000E+02  1.60000000E+02  0.00000000E+00
  5.00000000E+02  1.40000000E+02  0.00000000E+00
  5.00000000E+02  1.20000000E+02  0.00000000E+00
  5.00000000E+02  1.00000000E+02  0.00000000E+00
  5.00000000E+02  8.00000000E+01  0.00000000E+00
  5.00000000E+02  6.00000000E+01  0.00000000E+00
  5.00000000E+02  4.00000000E+01  0.00000000E+00
  5.00000000E+02  2.00000000E+01  0.00000000E+00
  5.00000000E+02  4.99600361E-14  0.00000000E+00
  5.20000000E+02  3.00000000E+02  0.00000000E+00
  5.20000000E+02  2.80000000E+02  0.00000000E+00
  5.20000000E+02  2.60000000E+02  0.00000000E+00
  5.20000000E+02  2.40000000E+02  0.00000000E+00
  5.20000000E+02  2.20000000E+02  0.00000000E+00
  5.20000000E+02  2.00000000E+02  0.00000000E+00
  5.20000000E+02  1.80000000E+02  0.00000000E+00
  5.20000000E+02  1.60000000E+02  0.00000000E+00
  5.20000000E+02  1.40000000E+02  0.00000000E+00
  5.20000000E+02  1.20000000E+02  0.00000000E+00
  5.20000000E+02  1.00000000E+02  0.00000000E+00
  5.20000000E+02  8.00000000E+01  0.00000000E+00
  5.20000000E+02  6.00000000E+01  0.00000000E+00
  5.20000000E+02  4.00000000E+01  0.00000000E+00
  5.20000000E+02  2.00000000E+01  0.00000000E+00
  5.20000000E+02  4.99600361E-14  0.00000000E+00
  5.40000000E+02  3.00000000E+02  0.00000000E+00
  5.40000000E+02  2.80000000E+02  0.00000000E+00
  5.40000000E+02  2.60000000E+02  0.00000000E+00
  5.40000000E+02  2.40000000E+02  0.00000000E+00
  5.40000000E+02  2.20000000E+02  0.00000000E+00
  5.40000000E+02  2.00000000E+02  0.00000000E+00
  5.40000000E+02  1.80000000E+02  0.00000000E+00
  5.40000000E+02  1.60000000E+02  0.00000000E+00
  5.40000000E+02  1.40000000E+02  0.00000000E+00
  5.40000000E+02  1.20000000E+02  0.00000000E+00
  5.40000000E+02  1.00000000E+02  0.00000000E+00
  5.40000000E+02  8.00000000E+01  0.00000000E+00
  5.40000000E+02  6.00000000E+01  0.00000000E+00
  5.40000000E+02  4.00000000E+01  0.00000000E+00
  5.40000000E+02  2.00000000E+01  0.00000000E+00
  5.40000000E+02  4.99600361E-14  0.00000000E+00
  5.60000000E+02  3.00000000E+02  0.00000000E+00
  5.60000000E+02  2.80000000E+02  0.00000000E+00
  5.60000000E+02  2.60000000E+02  0.00000000E+00
  5.60000000E+02  2.40000000E+02  0.00000000E+00
  5.60000000E+02  2.20000000E+02  0.00000000E+00
  5.60000000E+02  2.00000000E+02  0.00000000E+00
  5.60000000E+02  1.80000000E+02  0.00000000E+00
  5.60000000E+02  1.60000000E+02  0.00000000E+00
  5.60000000E+02  1.40000000E+02  0.00000000E+00
  5.60000000E+02  1.20000000E+02  0.00000000E+00
  5.60000000E+02  1.00000000E+02  0.00000000E+00
  5.60000000E+02  8.00000000E+01  0.00000000E+00
  5.60000000E+02  6.00000000E+01  0.00000000E+00
  5.60000000E+02  4.00000000E+01  0.00000000E+00
  5.60000000E+02  2.00000000E+01  0.00000000E+00
  5.60000000E+02  4.99600361E-14  0.00000000E+00
  5.80000000E+02  3.00000000E+02  0.00000000E+00
  5.80000000E+02  2.80000000E+02  0.00000000E+00
  5.80000000E+02  2.60000000E+02  0.00000000E+00
  5.80000000E+02  2.40000000E+02  0.00000000E+00
  5.80000000E+02  2.20000000E+02  0.00000000E+00
  5.80000000E+02  2.00000000E+02  0.00000000E+00
  5.80000000E+02  1.80000000E+02  0.00000000E+00
  5.80000000E+02  1.60000000E+02  0.00000000E+00
  5.80000000E+02  1.40000000E+02  0.00000000E+00
  5.80000000E+02  1.20000000E+02  0.00000000E+00
  5.80000000E+02  1.00000000E+02  0.00000000E+00
  5.80000000E+02  8.00000000E+01  0.00000000E+00
  5.80000000E+02  6.00000000E+01  0.00000000E+00
  5.80000000E+02  4.00000000E+01  0.00000000E+00
  5.80000000E+02  2.00000000E+01  0.00000000E+00
  5.80000000E+02  4.99600361E-14  0.00000000E+00
  6.00000000E+02  3.00000000E+02  0.00000000E+00
  6.00000000E+02  2.80000000E+02  0.00000000E+00
  6.00000000E+02  2.60000000E+02  0.00000000E+00
  6.00000000E+02  2.40000000E+02  0.00000000E+00
  6.00000000E+02  2.20000000E+02  0.00000000E+00
  6.00000000E+02  2.00000000E+02  0.00000000E+00
  6.00000000E+02  1.80000000E+02  0.00000000E+00
  6.00000000E+02  1.60000000E+02  0.00000000E+00
  6.00000000E+02  1.40000000E+02  0.00000000E+00
  6.00000000E+02  1.20000000E+02  0.00000000E+00
  6.00000000E+02  1.00000000E+02  0.00000000E+00
  6.00000000E+02  8.00000000E+01  0.00000000E+00
  6.00000000E+02  6.00000000E+01  0.00000000E+00
  6.00000000E+02  4.00000000E+01  0.00000000E+00
  6.00000000E+02  2.00000000E+01  0.00000000E+00
  6.00000000E+02  4.99600361E-14  0.00000000E+00
CELLS       450      2250
         4           0           1          17          16
         4           1           2          18          17
         4           2           3          19          18
         4           3           4          20          19
         4           4           5          21          20
         4           5           6          22          21
         4           6           7          23          22
         4           7           8          24          23
         4           8           9          25          24
         4           9          10          26          25
         4          10          11          27          26
         4          11          12          28          27
         4          12          13          29          28
         4          13          14          30          29
         4          14          15          31          30
         4          16          17          33          32
         4          17          18          34          33
         4          18          19          35          34
         4          19          20          36          35
         4          20          21          37          36
         4          21          22          38          37
         4          22          23          39          38
         4          23          24          40          39
         4          24          25          41          40
         4          25          26          42          41
         4          26          27          43          42
         4          27          28          44          43
         4          28          29          45          44
         4          29          30          46          45
         4          30          31          47          46
         4          32          33          49          48
         4          33          34          50          49
         4          34          35          51          50
         4          35          36          52          51
         4          36          37          53          52
         4          37          38          54          53
         4          38          39          55          54
         4          39          40          56          55
         4          40          41          57          56
         4          41          42          58          57
         4          42          43          59          58
         4          43          44          60          59
         4          44          45          61          60
         4          45          46          62          61
         4          46          47          63          62
         4          48          49          65          64
         4          49          50          66          65
         4          50          51          67          66
         4          51          52          68          67
         4          52          53          69          68
         4          53          54          70          69
         4          54          55          71          70
         4          55          56          72          71
         4          56          57          73          72
         4          57          58          74          73
         4          58          59          75          74
         4          59          60          76          75
         4          60          61          77          76
         4          61          62          78          77
         4          62          63          79          78
         4          64          65          81          80
         4          65          66          82          81
         4          66          67          83          82
         4          67          68          84          83
         4          68          69          85          84
         4          69          70          86          85
         4          70          71          87          86
         4          71          72          88          87
         4          72          73          89          88
         4          73          74          90          89
         4          74          75          91          90
         4          75          76          92          91
         4          76          77          93          92
         4          77          78          94          93
         4          78          79          95          94
         4          80          81          97          96
         4          81          82          98          97
         4          82          83          99          98
         4          83          84         100          99
         4          84          85         101         100
         4          85          86         102         101
         4          86          87         103         102
         4          87          88         104         103
         4          88          89         105         104
         4          89          90         106         105
         4          90          91         107         106
         4          91          92         108         107
         4          92          93         109         108
         4          93          94         110         109
         4          94          95         111         110
         4          96          97         113         112
         4          97          98         114         113
         4          98          99         115         114
         4          99         100         116         115
         4         100         101         117         116
         4         101         102         118         117
         4         102         103         119         118
         4         103         104         120         119
         4         104         105         121         120
         4         105         106         122         121
         4         106         107         123         122
         4         107         108         124         123
         4         108         109         125         124
         4         109         110         126         125
         4         110         111         127         126
         4         112         113         129         128
         4         113         114         130         129
         4         114         115         131         130
         4         115         116         132         131
         4         116         117         133         132
         4         117         118         134         133
         4         118         119         135         134
         4         119         120         136         135
         4         120         121         137         136
         4         121         122         138         137
         4         122         123         139         138
         4         123         124         140         139
         4         124         125         141         140
         4         125         126         142         141
         4         126         127         143         142
         4         128         129         145         144
         4         129         130         146         145
         4         130         131         147         146
         4         131         132         148         147
         4         132         133         149         148
         4         133         134         150         149
         4         134         135         151         150
         4         135         136         152         151
         4         136         137         153         152
         4         137         138         154         153
         4         138         139         155         154
         4         139         140         156         155
         4         140         141         157         156
         4         141         142         158         157
         4         142         143         159         158
         4         144         145         161         160
         4         145         146         162         161
         4         146         147         163         162
         4         147         148         164         163
         4         148         149         165         164
         4         149         150         166         165
         4         150         151         167         166
         4         151         152         168         167
         4         152         153         169         168
         4         153         154         170         169
         4         154         155         171         170
         4         155         156         172         171
         4         156         157         173         172
         4         157         158         174         173
         4         158         159         175         174
         4         160         161         177         176
         4         161         162         178         177
         4         162         163         179         178
         4         163         164         180         179
         4         164         165         181         180
         4         165         166         182         181
         4         166         167         183         182
         4         167         168         184         183
         4         168         169         185         184
         4         169         170         186         185
         4         170         171         187         186
         4         171         172         188         187
         4         172         173         189         188
         4         173         174         190         189
         4         174         175         191         190
         4         176         177         193         192
         4         177         178         194         193
         4         178         179         195         194
         4         179         180         196         195
         4         180         181         197         196
         4         181         182         198         197
         4         182         183         199         198
         4         183         184         200         199
         4         184         185         201         200
         4         185         186         202         201
         4         186         187         203         202
         4         187         188         204         203
         4         188         189         205         204
         4         189         190         206         205
         4         190         191         207         206
         4         192         193         209         208
         4         193         194         210         209
         4         194         195         211         210
         4         195         196         212         211
         4         196         197         213         212
         4         197         198         214         213
         4         198         199         215         214
         4         199         200         216         215
         4         200         201         217         216
         4         201         202         218         217
         4         202         203         219         218
         4         203         204         220         219
         4         204         205         221         220
         4         205         206         222         221
         4         206         207         223         222
         4         208         209         225         224
         4         209         210         226         225
         4         210         211         227         226
         4         211         212         228         227
         4         212         213         229         228
         4         213         214         230         229
         4         214         215         231         230
         4         215         216         232         231
         4         216         217         233         232
         4         217         218         234         233
         4         218         219         235         234
         4         219         220         236         235
         4         220         221         237         236
         4         221         222         238         237
         4         222         223         239         238
         4         224         225         241         240
         4         225         226         242         241
         4         226         227         243         242
         4         227         228         244         243
         4         228         229         245         244
         4         229         230         246         245
         4         230         231         247         246
         4         231         232         248         247
         4         232         233         249         248
         4         233         234         250         249
         4         234         235         251         250
         4         235         236         252         251
         4         236         237         253         252
         4         237         238         254         253
         4         238         239         255         254
         4         240         241         257         256
         4         241         242         258         257
         4         242         243         259         258
         4         243         244         260         259
         4         244         245         261         260
         4         245         246         262         261
         4         246         247         263         262
         4         247         248         264         263
         4         248         249         265         264
         4         249         250         266         265
         4         250         251         267         266
         4         251         252         268         267
         4         252         253         269         268
         4         253         254         270         269
         4         254         255         271         270
         4         256         257         273         272
         4         257         258         274         273
         4         258         259         275         274
         4         259         260         276         275
         4         260         261         277         276
         4         261         262         278         277
         4         262         263         279         278
         4         263         264         280         279
         4         264         265         281         280
         4         265         266         282         281
         4         266         267         283         282
         4         267         268         284         283
         4         268         269         285         284
         4         269         270         286         285
         4         270         271         287         286
         4         272         273         289         288
         4         273         274         290         289
         4         274         275         291         290
         4         275         276         292         291
         4         276         277         293         292
         4         277         278         294         293
         4         278         279         295         294
         4         279         280         296         295
         4         280         281         297         296
         4         281         282         298         297
         4         282         283         299         298
         4         283         284         300         299
         4         284         285         301         300
         4         285         286         302         301
         4         286         287         303         302
         4         288         289         305         304
         4         289         290         306         305
         4         290         291         307         306
         4         291         292         308         307
         4         292         293         309         308
         4         293         294         310         309
         4         294         295         311         310
         4         295         296         312         311
         4         296         297         313         312
         4         297         298         314         313
         4         298         299         315         314
         4         299         300         316         315
         4         300         301         317         316
         4         301         302         318         317
         4         302         303         319         318
         4         304         305         321         320
         4         305         306         322         321
         4         306         307         323         322
         4         307         308         324         323
         4         308         309         325         324
         4         309         310         326         325
         4         310         311         327         326
         4         311         312         328         327
         4         312         313         329         328
         4         313         314         330         329
         4         314         315         331         330
         4         315         316         332         331
         4         316         317         333         332
         4         317         318         334         333
         4         318         319         335         334
         4         320         321         337         336
         4         321         322         338         337
         4         322         323         339         338
         4         323         324         340         339
         4         324         325         341         340
         4         325         326         342         341
         4         326         327         343         342
         4         327         328         344         343
         4         328         329         345         344
         4         329         330         346         345
         4         330         331         347         346
         4         331         332         348         347
         4         332         333         349         348
         4         333         334         350         349
         4         334         335         351         350
         4         336         337         353         352
         4         337         338         354         353
         4         338         339         355         354
         4         339         340         356         355
         4         340         341         357         356
         4         341         342         358         357
         4         342         343         359         358
         4         343         344         360         359
         4         344         345         361         360
         4         345         346         362         361
         4         346         347         363         362
         4         347         348         364         363
         4         348         349         365         364
         4         349         350         366         365
         4         350         351         367         366
         4         352         353         369         368
         4         353         354         370         369
         4         354         355         371         370
         4         355         356         372         371
         4         356         357         373         372
         4         357         358         374         373
         4         358         359         375         374
         4         359         360         376         375
         4         360         361         377         376
         4         361         362         378         377
         4         362         363         379         378
         4         363         364         380         379
         4         364         365         381         380
         4         365         366         382         381
         4         366         367         383         382
         4         368         369         385         384
         4         369         370         386         385
         4         370         371         387         386
         4         371         372         388         387
         4         372         373         389         388
         4         373         374         390         389
         4         374         375         391         390
         4         375         376         392         391
         4         376         377         393         392
         4         377         378         394         393
         4         378         379         395         394
         4         379         380         396         395
         4         380         381         397         396
         4         381         382         398         397
         4         382         383         399         398
         4         384         385         401         400
         4         385         386         402         401
         4         386         387         403         402
         4         387         388         404         403
         4         388         389         405         404
         4         389         390         406         405
         4         390         391         407         406
         4         391         392         408         407
         4         392         393         409         408
         4         393         394         410         409
         4         394         395         411         410
         4         395         396         412         411
         4         396         397         413         412
         4         397         398         414         413
         4         398         399         415         414
         4         400         401         417         416
         4         401         402         418         417
         4         402         403         419         418
         4         403         404         420         419
         4         404         405         421         420
         4         405         406         422         421
         4         406         407         423         422
         4         407         408         424         423
         4         408         409         425         424
         4         409         410         426         425
         4         410         411         427         426
         4         411         412         428         427
         4         412         413         429         428
         4         413         414         430         429
         4         414         415         431         430
         4         416         417         433         432
         4         417         418         434         433
         4         418         419         435         434
         4         419         420         436         435
         4         420         421         437         436
         4         421         422         438         437
         4         422         423         439         438
         4         423         424         440         439
         4         424         425         441         440
         4         425         426         442         441
         4         426         427         443         442
         4         427         428         444         443
         4         428         429         445         444
         4         429         430         446         445
         4         430         431         447         446
         4         432         433         449         448
         4         433         434         450         449
         4         434         435         451         450
         4         435         436         452         451
         4         436         437         453         452
         4         437         438         454         453
         4         438         439         455         454
         4         439         440         456         455
         4         440         441         457         456
         4         441         442         458         457
         4         442         443         459         458
         4         443         444         460         459
         4         444         445         461         460
         4         445         446         462         461
         4         446         447         463         462
         4         448         449         465         464
         4         449         450         466         465
         4         450         451         467         466
         4         451         452         468         467
         4         452         453         469         468
         4         453         454         470         469
         4         454         455         471         470
         4         455         456         472         471
         4         456         457         473         472
         4         457         458         474         473
         4         458         459         475         474
         4         459         460         476         475
         4         460         461         477         476
         4         461         462         478         477
         4         462         463         479         478
         4         464         465         481         480
         4         465         466         482         481
         4         466         467         483         482
         4         467         468         484         483
         4         468         469         485         484
         4         469         470         486         485
         4         470         471         487         486
         4         471         472         488         487
         4         472         473         489         488
         4         473         474         490         489
         4         474         475         491         490
         4         475         476         492         491
         4         476         477         493         492
         4         477         478         494         493
         4         478         479         495         494
CELL_TYPES        450
9
9
9
9
9
9
9
9
9
9
9
9
9
9
9
9
9
9
9
9
9
9
9
9
9
9
9
9
9
9
9
9
9
9
9
9
9
9
9
9
9
9
9
9
9
9
9
9
9
9
9
9
9
9
9
9
9
9
9
9
9
9
9
9
9
9
9
9
9
9
9
9
9
9
9
9
9
9
9
9
9
9
9
9
9
9
9
9
9
9
9
9
9
9
9
9
9
9
9
9
9
9
9
9
9
9
9
9
9
9
9
9
9
9
9
9
9
9
9
9
9
9
9
9
9
9
9
9
9
9
9
9
9
9
9
9
9
9
9
9
9
9
9
9
9
9
9
9
9
9
9
9
9
9
9
9
9
9
9
9
9
9
9
9
9
9
9
9
9
9
9
9
9
9
9
9
9
9
9
9
9
9
9
9
9
9
9
9
9
9
9
9
9
9
9
9
9
9
9
9
9
9
9
9
9
9
9
9
9
9
9
9
9
9
9
9
9
9
9
9
9
9
9
9
9
9
9
9
9
9
9
9
9
9
9
9
9
9
9
9
9
9
9
9
9
9
9
9
9
9
9
9
9
9
9
9
9
9
9
9
9
9
9
9
9
9
9
9
9
9
9
9
9
9
9
9
9
9
9
9
9
9
9
9
9
9
9
9
9
9
9
9
9
9
9
9
9
9
9
9
9
9
9
9
9
9
9
9
9
9
9
9
9
9
9
9
9
9
9
9
9
9
9
9
9
9
9
9
9
9
9
9
9
9
9
9
9
9
9
9
9
9
9
9
9
9
9
9
9
9
9
9
9
9
9
9
9
9
9
9
9
9
9
9
9
9
9
9
9
9
9
9
9
9
9
9
9
9
9
9
9
9
9
9
9
9
9
9
9
9
9
9
9
9
9
9
9
9
9
9
9
9
9
9
9
9
9
9
9
9
9
9
9
9
9
9
9
9
9
9
9
9
9
9
9
9
9
9
9
9
9
9
9
9
9
9
9
9
9
9
9
9
9
9
9
9
9
9
9
9
POINT_DATA       496
SCALARS p double 
LOOKUP_TABLE default
   74812553.2421678     
   74840883.1554518     
   74905847.3845326     
   74981787.1742143     
   75063121.9950948     
   75146415.6139455     
   75229589.4574450     
   75311226.6102216     
   75390298.8046057     
   75466004.5980076     
   75537656.6498405     
   75604571.8787864     
   75665931.2131524     
   75720369.7204619     
   75765979.3357526     
   75786555.5770173     
   73643992.6312509     
   73654373.3536660     
   73685565.5154462     
   73732299.5916335     
   73787303.0178151     
   73846727.1874632     
   73907994.8738146     
   73969291.6692731     
   74029241.0250037     
   74086710.3988680     
   74140660.1828127     
   74189988.8512237     
   74233294.6713698     
   74268543.8518497     
   74291132.8473534     
   74298441.8641092     
   72452518.7449149     
   72456656.6947744     
   72470853.5076182     
   72495960.3461283     
   72529383.3791104     
   72568078.6727746     
   72609700.6034512     
   72652407.2316500     
   72694707.3844713     
   72735316.5800204     
   72773028.8508775     
   72806582.8438450     
   72834523.2590618     
   72854960.8004202     
   72866527.3609224     
   72870030.5667349     
   71253967.9675893     
   71254932.5350048     
   71259750.8140948     
   71270781.4674062     
   71287918.2273239     
   71309792.1742161     
   71334760.7824602     
   71361303.9464982     
   71388066.6163147     
   71413823.9765228     
   71437421.8609586     
   71457724.9289329     
   71473602.0988975     
   71484187.3903990     
   71489438.8036614     
   71490797.0917294     
   70057135.7346267     
   70056300.8187720     
   70055521.7313646     
   70057412.4019818     
   70062931.8422576     
   70071866.8063706     
   70083404.1724986     
   70096528.1697436     
   70110206.1996124     
   70123449.6990846     
   70135333.5482880     
   70145022.4132116     
   70151873.8343279     
   70155657.8631497     
   70156869.8746652     
   70156950.0701542     
   68868116.1548443     
   68866230.1630756     
   68862033.5986965     
   68857971.1912581     
   68855398.1394685     
   68854760.4347225     
   68855896.4531074     
   68858317.1340348     
   68861398.1020779     
   68864491.6801152     
   68866998.4688475     
   68868442.5314064     
   68868581.3047898     
   68867557.2442928     
   68866042.6562836     
   68865282.0711248     
   67691248.9262110     
   67688765.2802529     
   67682507.9515255     
   67674603.4509838     
   67666484.4428130     
   67658938.8289867     
   67652255.5553006     
   67646397.4829353     
   67641151.7791641     
   67636243.6667384     
   67631425.1797910     
   67626558.4150258     
   67621705.8981523     
   67617220.2022934     
   67613800.0662509     
   67612464.7262388     
   66529356.5187482     
   66526558.6863458     
   66519103.1979160     
   66508752.2746941     
   66496866.2805216     
   66484389.9927111     
   66471909.4912674     
   66459746.0230672     
   66448056.1088253     
   66436921.6156384     
   66426427.6384213     
   66416732.3821312     
   66408129.9040665     
   66401096.5834774     
   66396301.3785968     
   66394557.1082688     
   65383759.1115845     
   65380814.7617026     
   65372682.4601573     
   65360759.8971988     
   65346270.4138286     
   65330215.0686699     
   65313375.7077960     
   65296352.5885828     
   65279618.3168031     
   65263574.7943104     
   65248606.3943449     
   65235126.2255842     
   65223611.5251382     
   65214620.2957650     
   65208777.9589262     
   65206724.1191224     
   64254219.1720996     
   64251207.1605073     
   64242656.6175988     
   64229624.6052870     
   64213179.7136098     
   64194332.3282794     
   64174001.9955445     
   64153013.5808160     
   64132111.4733425     
   64111982.1299980     
   64093277.7671180     
   64076635.8595884     
   64062689.3147165     
   64052061.3890854     
   64045339.3638320     
   64043023.5190640     
   63138886.0530760     
   63135811.2530049     
   63126881.7564761     
   63112852.5148829     
   63094648.6236785     
   63073279.2927033     
   63049778.6397497     
   63025169.1588389     
   63000441.6866726     
   62976545.3037773     
   62954381.2538411     
   62934795.7843532     
   62918567.3624328     
   62906384.2513532     
   62898809.6818354     
   62896234.4806271     
   62034271.5202300     
   62031073.1971608     
   62021608.8867801     
   62006379.7661380     
   61986199.1374736     
   61962092.0875959     
   61935213.7529371     
   61906784.6802133     
   61878040.2241781     
   61850190.0327003     
   61824383.4405541     
   61801676.8275287     
   61782999.5771629     
   61769116.2971168     
   61760584.6480732     
   61757710.5628484     
   60935265.6979819     
   60931821.2105761     
   60921481.2957111     
   60904549.2927061     
   60881775.3874592     
   60854241.3520251     
   60823256.8360192     
   60790268.0339998     
   60756778.2044389     
   60724278.2948269     
   60694185.1398709     
   60667784.5069770     
   60646176.7523580     
   60630224.0638365     
   60620500.1539695     
   60617245.5996492     
   59835187.6927888     
   59831311.6613696     
   59819567.5929583     
   59800124.6191376     
   59773735.4615207     
   59741602.8833513     
   59705251.4663752     
   59666408.2273964     
   59626894.0082901     
   59588525.7872178     
   59553028.6154224     
   59521955.2149617     
   59496611.6259467     
   59477988.6923617     
   59466701.4017704     
   59462940.6755373     
   58725854.2772925     
   58721292.6463647     
   58707411.0339777     
   58684318.5263599     
   58652856.2137708     
   58614438.4724636     
   58570894.2672639     
   58524315.5615657     
   58476917.4976897     
   58430912.0869875     
   58388394.6262752     
   58351240.6863067     
   58321011.7237317     
   58298869.1655120     
   58285499.8074334     
   58281058.8103855     
   57597642.7084445     
   57592060.7365529     
   57575069.6282077     
   57546809.5191152     
   57508322.8406113     
   57461358.6950011     
   57408173.3845299     
   57351339.3172039     
   57293570.2709020     
   57237565.9131749     
   57185874.0752598     
   57140766.7933615     
   57104126.2069884     
   57077339.0203239     
   57061202.7402501     
   57055852.1655932     
   56439519.0642412     
   56432481.7988216     
   56411116.6525279     
   56375714.1273061     
   56327670.1522261     
   56269234.6542539     
   56203254.9919846     
   56132934.2743515     
   56061616.8035956     
   55992603.8701728     
   55928995.5333444     
   55873549.7943907     
   55828550.6107783     
   55795680.3508376     
   55775899.4958227     
   55769344.9380146     
   55238999.7376410     
   55229942.6204686     
   55202566.0052957     
   55157476.8431845     
   55096635.5318805     
   55023018.5425605     
   54940279.5452310     
   54852441.3243111     
   54763636.2434352     
   54677897.0428871     
   54598986.9088650     
   54530250.9696576     
   54474471.6818181     
   54433717.4272415     
   54409185.3518875     
   54401053.4930368     
   53982008.4544469     
   53970193.9150174     
   53934678.6262271     
   53876629.0930220     
   53798871.7148356     
   53705420.7389669     
   53601018.2120770     
   53490737.8182862     
   53379677.0844001     
   53272734.3468163     
   53174445.8372779     
   53088848.1493658     
   53019332.7426707     
   52968470.5511436     
   52937803.5887715     
   52927623.1515011     
   52652580.9274890     
   52637033.4225260     
   52590590.5942270     
   52515349.1879919     
   52415445.7840217     
   52296369.4133630     
   52164320.1855758     
   52025696.8787557     
   51886744.2803234     
   51753342.4295566     
   51630887.2049744     
   51524198.5309415     
   51437396.9320702     
   51373707.7754429     
   51335181.9036388     
   51322357.3055391     
   51232348.7690958     
   51211754.2653434     
   51150673.0501461     
   51052718.1289620     
   50924010.5144965     
   50772139.4822113     
   50605246.9702842     
   50431366.4362649     
   50258046.2281760     
   50092205.4901409     
   49940124.4757956     
   49807458.8332963     
   49699179.1747932     
   49619365.9367544     
   49570832.8084549     
   49554607.2601785     
   49699694.3328911     
   49672237.5998512     
   49591474.6093709     
   49463495.1208661     
   49297459.3849180     
   49103967.5263413     
   48893729.2733971     
   48676729.3822141     
   48461889.7413293     
   48257097.5931892     
   48069417.9029667     
   47905311.0302556     
   47770703.6340627     
   47670799.5127707     
   47609573.9242308     
   47588976.8892078     
   48028390.3259982     
   47991477.4433866     
   47883978.5131583     
   47716097.8393986     
   47501735.6315157     
   47255842.5851400     
   46992476.4967693     
   46723819.9692196     
   46460039.5767851     
   46209680.0480739     
   45980273.5336410     
   45778903.1881743     
   45612512.9097764     
   45487789.1745647     
   45410497.1512550     
   45384268.4698039     
   46185381.3479681     
   46135138.1494219     
   45990660.2930984     
   45769190.2017539     
   45492192.8549854     
   45180930.7178504     
   44853682.2307463     
   44524817.2656010     
   44205223.0239634     
   43903393.6087656     
   43626670.2012055     
   43382328.9362259     
   43178288.9567234     
   43023187.4244319     
   42925563.4013010     
   42892042.9093988     
   44127031.4864513     
   44057332.5577366     
   43860282.1347847     
   43565673.4392406     
   43207354.7185112     
   42815656.2257064     
   42413730.0222352     
   42017445.6347057     
   41637184.5903778     
   41280109.2035658     
   40952251.2595109     
   40660271.8929344     
   40412798.2449189     
   40220966.1700813     
   40097597.6898477     
   40054566.8758461     
   41792381.9051369     
   41692811.8624918     
   41418021.9599402     
   41021467.9716808     
   40557765.1673736     
   40069614.7391454     
   39584447.2595172     
   39117411.2542461     
   38676087.5769442     
   38264397.3170919     
   37885451.1989553     
   37543972.3334073     
   37248527.8426345     
   37013188.1999028     
   36857260.7225445     
   36801721.6790695     
   39089980.3998858     
   38941028.6978099     
   38544816.9025802     
   38002975.1350147     
   37405031.2601431     
   36807754.4960379     
   36238004.2635931     
   35705142.6053946     
   35210611.6837726     
   34752821.2994738     
   34330154.7006932     
   33943465.3184191     
   33599512.0317624     
   33314860.3564317     
   33118144.6124794     
   33046091.6308905     
   35868574.2026935     
   35628275.2707433     
   35028400.4645566     
   34276985.9598227     
   33520381.7404677     
   32817195.4281086     
   32178255.5297310     
   31600025.6071998     
   31074241.1380586     
   30592036.4999766     
   30145792.7132468     
   29730847.0807328     
   29348271.1891692     
   29014109.7280001     
   28768313.0519622     
   28674474.1625906     
   31838009.0475870     
   31399901.3109398     
   30416529.8561838     
   29390149.8709133     
   28498629.1673972     
   27734512.7585267     
   27076537.5564133     
   26501940.6487601     
   25991356.3796987     
   25528787.4113593     
   25101181.2785738     
   24698286.9644414     
   24314181.1950095     
   23950045.4631917     
   23653362.4468030     
   23533928.3909981     
   26320100.7617346     
   25137047.5666996     
   23508300.9535806     
   22370972.6987721     
   21509240.8937269     
   20833987.4231186     
   20285261.1953393     
   19825210.4292506     
   19427962.1247244     
   19074813.7634956     
   18751382.0363583     
   18445983.2576718     
   18148486.6233806     
   17852601.8977038     
   17544200.7845699     
   17392758.0071291     
   10000000.0000000     
   10000000.0000000     
   10000000.0000000     
   10000000.0000000     
   10000000.0000000     
   10000000.0000000     
   10000000.0000000     
   10000000.0000000     
   10000000.0000000     
   10000000.0000000     
   10000000.0000000     
   10000000.0000000     
   10000000.0000000     
  10000000.00000000     
   10000000.0000000     
   10000000.0000000     
VECTORS u double 
    0.00000E+00         0.67414E+01         0.00000E+00
    0.00000E+00         0.63496E+01         0.00000E+00
    0.00000E+00         0.59494E+01         0.00000E+00
    0.00000E+00         0.55473E+01         0.00000E+00
    0.00000E+00         0.51443E+01         0.00000E+00
    0.00000E+00         0.47397E+01         0.00000E+00
    0.00000E+00         0.43324E+01         0.00000E+00
    0.00000E+00         0.39205E+01         0.00000E+00
    0.00000E+00         0.35016E+01         0.00000E+00
    0.00000E+00         0.30731E+01         0.00000E+00
    0.00000E+00         0.26315E+01         0.00000E+00
    0.00000E+00         0.21726E+01         0.00000E+00
    0.00000E+00         0.16908E+01         0.00000E+00
    0.00000E+00         0.11787E+01         0.00000E+00
    0.00000E+00         0.62435E+00         0.00000E+00
    0.00000E+00         0.00000E+00         0.00000E+00
    0.11374E+01         0.66212E+01         0.00000E+00
    0.96957E+00         0.62601E+01         0.00000E+00
    0.86805E+00         0.58779E+01         0.00000E+00
    0.79066E+00         0.54871E+01         0.00000E+00
    0.72610E+00         0.50923E+01         0.00000E+00
    0.66932E+00         0.46943E+01         0.00000E+00
    0.61737E+00         0.42924E+01         0.00000E+00
    0.56823E+00         0.38851E+01         0.00000E+00
    0.52028E+00         0.34704E+01         0.00000E+00
    0.47203E+00         0.30457E+01         0.00000E+00
    0.42189E+00         0.26075E+01         0.00000E+00
    0.36790E+00         0.21519E+01         0.00000E+00
    0.30732E+00         0.16732E+01         0.00000E+00
    0.23554E+00         0.11640E+01         0.00000E+00
    0.14349E+00         0.61273E+00         0.00000E+00
    0.00000E+00         0.00000E+00         0.00000E+00
    0.21663E+01         0.63474E+01         0.00000E+00
    0.18884E+01         0.60230E+01         0.00000E+00
    0.16876E+01         0.56765E+01         0.00000E+00
    0.15315E+01         0.53137E+01         0.00000E+00
    0.14008E+01         0.49410E+01         0.00000E+00
    0.12859E+01         0.45611E+01         0.00000E+00
    0.11808E+01         0.41747E+01         0.00000E+00
    0.10816E+01         0.37811E+01         0.00000E+00
    0.98490E+00         0.33787E+01         0.00000E+00
    0.88780E+00         0.29651E+01         0.00000E+00
    0.78716E+00         0.25375E+01         0.00000E+00
    0.67922E+00         0.20917E+01         0.00000E+00
    0.55878E+00         0.16227E+01         0.00000E+00
    0.41771E+00         0.11237E+01         0.00000E+00
    0.24069E+00         0.58545E+00         0.00000E+00
    0.00000E+00         0.00000E+00         0.00000E+00
    0.31201E+01         0.59676E+01         0.00000E+00
    0.27479E+01         0.56790E+01         0.00000E+00
    0.24593E+01         0.53695E+01         0.00000E+00
    0.22262E+01         0.50419E+01         0.00000E+00
    0.20289E+01         0.47002E+01         0.00000E+00
    0.18549E+01         0.43474E+01         0.00000E+00
    0.16958E+01         0.39849E+01         0.00000E+00
    0.15457E+01         0.36128E+01         0.00000E+00
    0.13998E+01         0.32301E+01         0.00000E+00
    0.12536E+01         0.28349E+01         0.00000E+00
    0.11028E+01         0.24247E+01         0.00000E+00
    0.94186E+00         0.19960E+01         0.00000E+00
    0.76400E+00         0.15443E+01         0.00000E+00
    0.55906E+00         0.10643E+01         0.00000E+00
    0.31168E+00         0.55062E+00         0.00000E+00
    0.00000E+00         0.00000E+00         0.00000E+00
    0.39975E+01         0.55013E+01         0.00000E+00
    0.35462E+01         0.52491E+01         0.00000E+00
    0.31800E+01         0.49777E+01         0.00000E+00
    0.28751E+01         0.46879E+01         0.00000E+00
    0.26130E+01         0.43819E+01         0.00000E+00
    0.23801E+01         0.40621E+01         0.00000E+00
    0.21669E+01         0.37300E+01         0.00000E+00
    0.19657E+01         0.33859E+01         0.00000E+00
    0.17705E+01         0.30296E+01         0.00000E+00
    0.15757E+01         0.26595E+01         0.00000E+00
    0.13755E+01         0.22737E+01         0.00000E+00
    0.11637E+01         0.18692E+01         0.00000E+00
    0.93218E+00         0.14428E+01         0.00000E+00
    0.67072E+00         0.99064E+00         0.00000E+00
    0.36565E+00         0.50994E+00         0.00000E+00
    0.00000E+00         0.00000E+00         0.00000E+00
    0.48007E+01         0.49646E+01         0.00000E+00
    0.42829E+01         0.47491E+01         0.00000E+00
    0.38486E+01         0.45162E+01         0.00000E+00
    0.34779E+01         0.42655E+01         0.00000E+00
    0.31541E+01         0.39979E+01         0.00000E+00
    0.28641E+01         0.37149E+01         0.00000E+00
    0.25974E+01         0.34177E+01         0.00000E+00
    0.23458E+01         0.31071E+01         0.00000E+00
    0.21021E+01         0.27828E+01         0.00000E+00
    0.18597E+01         0.24439E+01         0.00000E+00
    0.16120E+01         0.20889E+01         0.00000E+00
    0.13519E+01         0.17157E+01         0.00000E+00
    0.10713E+01         0.13219E+01         0.00000E+00
    0.76050E+00         0.90524E+00         0.00000E+00
    0.40776E+00         0.46439E+00         0.00000E+00
    0.00000E+00         0.00000E+00         0.00000E+00
    0.55330E+01         0.43700E+01         0.00000E+00
    0.49589E+01         0.41913E+01         0.00000E+00
    0.44649E+01         0.39971E+01         0.00000E+00
    0.40344E+01         0.37860E+01         0.00000E+00
    0.36530E+01         0.35581E+01         0.00000E+00
    0.33085E+01         0.33143E+01         0.00000E+00
    0.29903E+01         0.30556E+01         0.00000E+00
    0.26898E+01         0.27826E+01         0.00000E+00
    0.23990E+01         0.24952E+01         0.00000E+00
    0.21107E+01         0.21930E+01         0.00000E+00
    0.18178E+01         0.18749E+01         0.00000E+00
    0.15128E+01         0.15393E+01         0.00000E+00
    0.11879E+01         0.11847E+01         0.00000E+00
    0.83396E+00         0.80993E+00         0.00000E+00
    0.44139E+00         0.41460E+00         0.00000E+00
    0.00000E+00         0.00000E+00         0.00000E+00
    0.61985E+01         0.37268E+01         0.00000E+00
    0.55761E+01         0.35851E+01         0.00000E+00
    0.50293E+01         0.34295E+01         0.00000E+00
    0.45449E+01         0.32582E+01         0.00000E+00
    0.41104E+01         0.30709E+01         0.00000E+00
    0.37147E+01         0.28681E+01         0.00000E+00
    0.33478E+01         0.26504E+01         0.00000E+00
    0.30006E+01         0.24183E+01         0.00000E+00
    0.26649E+01         0.21720E+01         0.00000E+00
    0.23333E+01         0.19112E+01         0.00000E+00
    0.19980E+01         0.16351E+01         0.00000E+00
    0.16518E+01         0.13428E+01         0.00000E+00
    0.12868E+01         0.10333E+01         0.00000E+00
    0.89522E+00         0.70597E+00         0.00000E+00
    0.46890E+00         0.36103E+00         0.00000E+00
    0.00000E+00         0.00000E+00         0.00000E+00
    0.68012E+01         0.30421E+01         0.00000E+00
    0.61366E+01         0.29374E+01         0.00000E+00
    0.55430E+01         0.28203E+01         0.00000E+00
    0.50100E+01         0.26890E+01         0.00000E+00
    0.45270E+01         0.25429E+01         0.00000E+00
    0.40840E+01         0.23823E+01         0.00000E+00
    0.36716E+01         0.22076E+01         0.00000E+00
    0.32808E+01         0.20192E+01         0.00000E+00
    0.29033E+01         0.18175E+01         0.00000E+00
    0.25312E+01         0.16022E+01         0.00000E+00
    0.21569E+01         0.13728E+01         0.00000E+00
    0.17729E+01         0.11288E+01         0.00000E+00
    0.13722E+01         0.86934E+00         0.00000E+00
    0.94742E+00         0.59429E+00         0.00000E+00
    0.49203E+00         0.30402E+00         0.00000E+00
    0.00000E+00         0.00000E+00         0.00000E+00
    0.73450E+01         0.23209E+01         0.00000E+00
    0.66429E+01         0.22534E+01         0.00000E+00
    0.60074E+01         0.21748E+01         0.00000E+00
    0.54306E+01         0.20835E+01         0.00000E+00
    0.49036E+01         0.19790E+01         0.00000E+00
    0.44175E+01         0.18615E+01         0.00000E+00
    0.39634E+01         0.17314E+01         0.00000E+00
    0.35325E+01         0.15892E+01         0.00000E+00
    0.31166E+01         0.14351E+01         0.00000E+00
    0.27076E+01         0.12689E+01         0.00000E+00
    0.22978E+01         0.10904E+01         0.00000E+00
    0.18799E+01         0.89895E+00         0.00000E+00
    0.14471E+01         0.69409E+00         0.00000E+00
    0.99300E+00         0.47559E+00         0.00000E+00
    0.51215E+00         0.24383E+00         0.00000E+00
    0.00000E+00         0.00000E+00         0.00000E+00
    0.78335E+01         0.15669E+01         0.00000E+00
    0.70970E+01         0.15366E+01         0.00000E+00
    0.64237E+01         0.14964E+01         0.00000E+00
    0.58074E+01         0.14451E+01         0.00000E+00
    0.52408E+01         0.13826E+01         0.00000E+00
    0.47160E+01         0.13091E+01         0.00000E+00
    0.42245E+01         0.12251E+01         0.00000E+00
    0.37577E+01         0.11312E+01         0.00000E+00
    0.33073E+01         0.10273E+01         0.00000E+00
    0.28652E+01         0.91359E+00         0.00000E+00
    0.24237E+01         0.78955E+00         0.00000E+00
    0.19755E+01         0.65467E+00         0.00000E+00
    0.15141E+01         0.50839E+00         0.00000E+00
    0.10339E+01         0.35034E+00         0.00000E+00
    0.53032E+00         0.18062E+00         0.00000E+00
    0.00000E+00         0.00000E+00         0.00000E+00
    0.82697E+01         0.78208E+00         0.00000E+00
    0.75010E+01         0.78906E+00         0.00000E+00
    0.67929E+01         0.78722E+00         0.00000E+00
    0.61411E+01         0.77610E+00         0.00000E+00
    0.55393E+01         0.75595E+00         0.00000E+00
    0.49803E+01         0.72731E+00         0.00000E+00
    0.44559E+01         0.69083E+00         0.00000E+00
    0.39577E+01         0.64698E+00         0.00000E+00
    0.34772E+01         0.59595E+00         0.00000E+00
    0.30062E+01         0.53759E+00         0.00000E+00
    0.25369E+01         0.47143E+00         0.00000E+00
    0.20620E+01         0.39676E+00         0.00000E+00
    0.15754E+01         0.31278E+00         0.00000E+00
    0.10718E+01         0.21880E+00         0.00000E+00
    0.54744E+00         0.11448E+00         0.00000E+00
    0.00000E+00         0.00000E+00         0.00000E+00
    0.86557E+01        -0.32705E-01         0.00000E+00
    0.78560E+01         0.11668E-01         0.00000E+00
    0.71159E+01         0.48280E-01         0.00000E+00
    0.64321E+01         0.77517E-01         0.00000E+00
    0.57994E+01         0.10020E+00         0.00000E+00
    0.52108E+01         0.11729E+00         0.00000E+00
    0.46583E+01         0.12963E+00         0.00000E+00
    0.41336E+01         0.13778E+00         0.00000E+00
    0.36277E+01         0.14192E+00         0.00000E+00
    0.31323E+01         0.14177E+00         0.00000E+00
    0.26393E+01         0.13668E+00         0.00000E+00
    0.21415E+01         0.12565E+00         0.00000E+00
    0.16327E+01         0.10751E+00         0.00000E+00
    0.11080E+01         0.81093E-01         0.00000E+00
    0.56427E+00         0.45429E-01         0.00000E+00
    0.00000E+00         0.00000E+00         0.00000E+00
    0.89927E+01        -0.87760E+00         0.00000E+00
    0.81625E+01        -0.79565E+00         0.00000E+00
    0.73925E+01        -0.72042E+00         0.00000E+00
    0.66803E+01        -0.65052E+00         0.00000E+00
    0.60209E+01        -0.58439E+00         0.00000E+00
    0.54076E+01        -0.52061E+00         0.00000E+00
    0.48323E+01        -0.45803E+00         0.00000E+00
    0.42861E+01        -0.39600E+00         0.00000E+00
    0.37600E+01        -0.33437E+00         0.00000E+00
    0.32449E+01        -0.27355E+00         0.00000E+00
    0.27326E+01        -0.21448E+00         0.00000E+00
    0.22155E+01        -0.15854E+00         0.00000E+00
    0.16875E+01        -0.10739E+00         0.00000E+00
    0.11437E+01        -0.62823E-01         0.00000E+00
    0.58148E+00        -0.26565E-01         0.00000E+00
    0.00000E+00         0.00000E+00         0.00000E+00
    0.92810E+01        -0.17535E+01         0.00000E+00
    0.84202E+01        -0.16337E+01         0.00000E+00
    0.76222E+01        -0.15196E+01         0.00000E+00
    0.68848E+01        -0.14085E+01         0.00000E+00
    0.62033E+01        -0.12982E+01         0.00000E+00
    0.55704E+01        -0.11866E+01         0.00000E+00
    0.49777E+01        -0.10723E+01         0.00000E+00
    0.44157E+01        -0.95441E+00         0.00000E+00
    0.38746E+01        -0.83291E+00         0.00000E+00
    0.33450E+01        -0.70839E+00         0.00000E+00
    0.28179E+01        -0.58212E+00         0.00000E+00
    0.22854E+01        -0.45592E+00         0.00000E+00
    0.17410E+01        -0.33206E+00         0.00000E+00
    0.11799E+01        -0.21308E+00         0.00000E+00
    0.59967E+00        -0.10160E+00         0.00000E+00
    0.00000E+00         0.00000E+00         0.00000E+00
    0.95194E+01        -0.26620E+01         0.00000E+00
    0.86276E+01        -0.25039E+01         0.00000E+00
    0.78034E+01        -0.23504E+01         0.00000E+00
    0.70445E+01        -0.21975E+01         0.00000E+00
    0.63454E+01        -0.20420E+01         0.00000E+00
    0.56984E+01        -0.18813E+01         0.00000E+00
    0.50941E+01        -0.17135E+01         0.00000E+00
    0.45222E+01        -0.15377E+01         0.00000E+00
    0.39720E+01        -0.13539E+01         0.00000E+00
    0.34333E+01        -0.11630E+01         0.00000E+00
    0.28961E+01        -0.96643E+00         0.00000E+00
    0.23521E+01        -0.76671E+00         0.00000E+00
    0.17943E+01        -0.56673E+00         0.00000E+00
    0.12175E+01        -0.36988E+00         0.00000E+00
    0.61937E+00        -0.17978E+00         0.00000E+00
    0.00000E+00         0.00000E+00         0.00000E+00
    0.97052E+01        -0.36046E+01         0.00000E+00
    0.87821E+01        -0.34078E+01         0.00000E+00
    0.79337E+01        -0.32142E+01         0.00000E+00
    0.71569E+01        -0.30186E+01         0.00000E+00
    0.64453E+01        -0.28167E+01         0.00000E+00
    0.57901E+01        -0.26053E+01         0.00000E+00
    0.51805E+01        -0.23822E+01         0.00000E+00
    0.46051E+01        -0.21463E+01         0.00000E+00
    0.40520E+01        -0.18977E+01         0.00000E+00
    0.35098E+01        -0.16374E+01         0.00000E+00
    0.29677E+01        -0.13676E+01         0.00000E+00
    0.24164E+01        -0.10911E+01         0.00000E+00
    0.18481E+01        -0.81164E+00         0.00000E+00
    0.12572E+01        -0.53343E+00         0.00000E+00
    0.64107E+00        -0.26126E+00         0.00000E+00
    0.00000E+00         0.00000E+00         0.00000E+00
    0.98343E+01        -0.45832E+01         0.00000E+00
    0.88797E+01        -0.43468E+01         0.00000E+00
    0.80094E+01        -0.41122E+01         0.00000E+00
    0.72191E+01        -0.38727E+01         0.00000E+00
    0.65006E+01        -0.36229E+01         0.00000E+00
    0.58434E+01        -0.33590E+01         0.00000E+00
    0.52353E+01        -0.30784E+01         0.00000E+00
    0.46632E+01        -0.27800E+01         0.00000E+00
    0.41138E+01        -0.24640E+01         0.00000E+00
    0.35743E+01        -0.21317E+01         0.00000E+00
    0.30327E+01        -0.17857E+01         0.00000E+00
    0.24785E+01        -0.14293E+01         0.00000E+00
    0.19028E+01        -0.10669E+01         0.00000E+00
    0.12995E+01        -0.70391E+00         0.00000E+00
    0.66516E+00        -0.34615E+00         0.00000E+00
    0.00000E+00         0.00000E+00         0.00000E+00
    0.99009E+01        -0.55991E+01         0.00000E+00
    0.89152E+01        -0.53223E+01         0.00000E+00
    0.80260E+01        -0.50454E+01         0.00000E+00
    0.72269E+01        -0.47604E+01         0.00000E+00
    0.65077E+01        -0.44609E+01         0.00000E+00
    0.58557E+01        -0.41422E+01         0.00000E+00
    0.52564E+01        -0.38017E+01         0.00000E+00
    0.46948E+01        -0.34382E+01         0.00000E+00
    0.41561E+01        -0.30522E+01         0.00000E+00
    0.36258E+01        -0.26452E+01         0.00000E+00
    0.30904E+01        -0.22201E+01         0.00000E+00
    0.25380E+01        -0.17809E+01         0.00000E+00
    0.19586E+01        -0.13325E+01         0.00000E+00
    0.13447E+01        -0.88136E+00         0.00000E+00
    0.69189E+00        -0.43453E+00         0.00000E+00
    0.00000E+00         0.00000E+00         0.00000E+00
    0.98974E+01        -0.66533E+01         0.00000E+00
    0.88817E+01        -0.63347E+01         0.00000E+00
    0.79775E+01        -0.60140E+01         0.00000E+00
    0.71756E+01        -0.56814E+01         0.00000E+00
    0.64627E+01        -0.53297E+01         0.00000E+00
    0.58234E+01        -0.49537E+01         0.00000E+00
    0.52407E+01        -0.45505E+01         0.00000E+00
    0.46974E+01        -0.41193E+01         0.00000E+00
    0.41767E+01        -0.36607E+01         0.00000E+00
    0.36623E+01        -0.31764E+01         0.00000E+00
    0.31393E+01        -0.26698E+01         0.00000E+00
    0.25940E+01        -0.21452E+01         0.00000E+00
    0.20147E+01        -0.16081E+01         0.00000E+00
    0.13924E+01        -0.10657E+01         0.00000E+00
    0.72132E+00        -0.52643E+00         0.00000E+00
    0.00000E+00         0.00000E+00         0.00000E+00
    0.98145E+01        -0.77457E+01         0.00000E+00
    0.87710E+01        -0.73836E+01         0.00000E+00
    0.78569E+01        -0.70169E+01         0.00000E+00
    0.70590E+01        -0.66342E+01         0.00000E+00
    0.63605E+01        -0.62272E+01         0.00000E+00
    0.57423E+01        -0.57907E+01         0.00000E+00
    0.51846E+01        -0.53218E+01         0.00000E+00
    0.46676E+01        -0.48200E+01         0.00000E+00
    0.41723E+01        -0.42862E+01         0.00000E+00
    0.36809E+01        -0.37226E+01         0.00000E+00
    0.31767E+01        -0.31325E+01         0.00000E+00
    0.26441E+01        -0.25206E+01         0.00000E+00
    0.20697E+01        -0.18927E+01         0.00000E+00
    0.14420E+01        -0.12565E+01         0.00000E+00
    0.75320E+00        -0.62179E+00         0.00000E+00
    0.00000E+00         0.00000E+00         0.00000E+00
    0.96406E+01        -0.88750E+01         0.00000E+00
    0.85732E+01        -0.84672E+01         0.00000E+00
    0.76557E+01        -0.80518E+01         0.00000E+00
    0.68703E+01        -0.76155E+01         0.00000E+00
    0.61954E+01        -0.71495E+01         0.00000E+00
    0.56075E+01        -0.66486E+01         0.00000E+00
    0.50834E+01        -0.61104E+01         0.00000E+00
    0.46007E+01        -0.55349E+01         0.00000E+00
    0.41385E+01        -0.49238E+01         0.00000E+00
    0.36771E+01        -0.42793E+01         0.00000E+00
    0.31983E+01        -0.36048E+01         0.00000E+00
    0.26848E+01        -0.29046E+01         0.00000E+00
    0.21205E+01        -0.21848E+01         0.00000E+00
    0.14916E+01        -0.14532E+01         0.00000E+00
    0.78680E+00        -0.72044E+00         0.00000E+00
    0.00000E+00         0.00000E+00         0.00000E+00
    0.93620E+01        -0.10038E+02         0.00000E+00
    0.82764E+01        -0.95821E+01         0.00000E+00
    0.73643E+01        -0.91142E+01         0.00000E+00
    0.66017E+01        -0.86199E+01         0.00000E+00
    0.59608E+01        -0.80899E+01         0.00000E+00
    0.54131E+01        -0.75197E+01         0.00000E+00
    0.49314E+01        -0.69081E+01         0.00000E+00
    0.44909E+01        -0.62561E+01         0.00000E+00
    0.40688E+01        -0.55658E+01         0.00000E+00
    0.36443E+01        -0.48398E+01         0.00000E+00
    0.31977E+01        -0.40811E+01         0.00000E+00
    0.27100E+01        -0.32934E+01         0.00000E+00
    0.21626E+01        -0.24820E+01         0.00000E+00
    0.15379E+01        -0.16545E+01         0.00000E+00
    0.82065E+00        -0.82209E+00         0.00000E+00
    0.00000E+00         0.00000E+00         0.00000E+00
    0.89627E+01        -0.11231E+02         0.00000E+00
    0.78670E+01        -0.10723E+02         0.00000E+00
    0.69717E+01        -0.10197E+02         0.00000E+00
    0.62445E+01        -0.96387E+01         0.00000E+00
    0.56495E+01        -0.90384E+01         0.00000E+00
    0.51523E+01        -0.83931E+01         0.00000E+00
    0.47215E+01        -0.77034E+01         0.00000E+00
    0.43302E+01        -0.69720E+01         0.00000E+00
    0.39545E+01        -0.62017E+01         0.00000E+00
    0.35730E+01        -0.53949E+01         0.00000E+00
    0.31653E+01        -0.45541E+01         0.00000E+00
    0.27109E+01        -0.36815E+01         0.00000E+00
    0.21884E+01        -0.27810E+01         0.00000E+00
    0.15759E+01        -0.18589E+01         0.00000E+00
    0.85226E+00        -0.92631E+00         0.00000E+00
    0.00000E+00         0.00000E+00         0.00000E+00
    0.84232E+01        -0.12446E+02         0.00000E+00
    0.73290E+01        -0.11880E+02         0.00000E+00
    0.64657E+01        -0.11290E+02         0.00000E+00
    0.57893E+01        -0.10660E+02         0.00000E+00
    0.52536E+01        -0.99805E+01         0.00000E+00
    0.48170E+01        -0.92528E+01         0.00000E+00
    0.44446E+01        -0.84802E+01         0.00000E+00
    0.41080E+01        -0.76671E+01         0.00000E+00
    0.37835E+01        -0.68171E+01         0.00000E+00
    0.34502E+01        -0.59322E+01         0.00000E+00
    0.30877E+01        -0.50136E+01         0.00000E+00
    0.26745E+01        -0.40614E+01         0.00000E+00
    0.21868E+01        -0.30769E+01         0.00000E+00
    0.15974E+01        -0.20641E+01         0.00000E+00
    0.87754E+00        -0.10325E+01         0.00000E+00
    0.00000E+00         0.00000E+00         0.00000E+00
    0.77205E+01        -0.13673E+02         0.00000E+00
    0.66439E+01        -0.13042E+02         0.00000E+00
    0.58329E+01        -0.12378E+02         0.00000E+00
    0.52262E+01        -0.11664E+02         0.00000E+00
    0.47641E+01        -0.10895E+02         0.00000E+00
    0.43973E+01        -0.10077E+02         0.00000E+00
    0.40886E+01        -0.92170E+01         0.00000E+00
    0.38100E+01        -0.83213E+01         0.00000E+00
    0.35395E+01        -0.73938E+01         0.00000E+00
    0.32579E+01        -0.64360E+01         0.00000E+00
    0.29460E+01        -0.54466E+01         0.00000E+00
    0.25824E+01        -0.44233E+01         0.00000E+00
    0.21413E+01        -0.33635E+01         0.00000E+00
    0.15901E+01        -0.22669E+01         0.00000E+00
    0.89007E+00        -0.11399E+01         0.00000E+00
    0.00000E+00         0.00000E+00         0.00000E+00
    0.68253E+01        -0.14896E+02         0.00000E+00
    0.57897E+01        -0.14191E+02         0.00000E+00
    0.50588E+01        -0.13439E+02         0.00000E+00
    0.45446E+01        -0.12625E+02         0.00000E+00
    0.41697E+01        -0.11753E+02         0.00000E+00
    0.38790E+01        -0.10837E+02         0.00000E+00
    0.36361E+01        -0.98863E+01         0.00000E+00
    0.34159E+01        -0.89099E+01         0.00000E+00
    0.31999E+01        -0.79103E+01         0.00000E+00
    0.29716E+01        -0.68872E+01         0.00000E+00
    0.27146E+01        -0.58372E+01         0.00000E+00
    0.24090E+01        -0.47546E+01         0.00000E+00
    0.20282E+01        -0.36320E+01         0.00000E+00
    0.15354E+01        -0.24631E+01         0.00000E+00
    0.87974E+00        -0.12476E+01         0.00000E+00
    0.00000E+00         0.00000E+00         0.00000E+00
    0.56994E+01        -0.16096E+02         0.00000E+00
    0.47402E+01        -0.15299E+02         0.00000E+00
    0.41285E+01        -0.14437E+02         0.00000E+00
    0.37315E+01        -0.13502E+02         0.00000E+00
    0.34534E+01        -0.12513E+02         0.00000E+00
    0.32399E+01        -0.11494E+02         0.00000E+00
    0.30606E+01        -0.10456E+02         0.00000E+00
    0.28963E+01        -0.94051E+01         0.00000E+00
    0.27332E+01        -0.83424E+01         0.00000E+00
    0.25586E+01        -0.72649E+01         0.00000E+00
    0.23596E+01        -0.61668E+01         0.00000E+00
    0.21194E+01        -0.50394E+01         0.00000E+00
    0.18140E+01        -0.38708E+01         0.00000E+00
    0.14051E+01        -0.26462E+01         0.00000E+00
    0.83028E+00        -0.13540E+01         0.00000E+00
    0.00000E+00         0.00000E+00         0.00000E+00
    0.42865E+01        -0.17240E+02         0.00000E+00
    0.34643E+01        -0.16324E+02         0.00000E+00
    0.30261E+01        -0.15313E+02         0.00000E+00
    0.27647E+01        -0.14229E+02         0.00000E+00
    0.25823E+01        -0.13119E+02         0.00000E+00
    0.24406E+01        -0.12004E+02         0.00000E+00
    0.23198E+01        -0.10890E+02         0.00000E+00
    0.22077E+01        -0.97788E+01         0.00000E+00
    0.20953E+01        -0.86667E+01         0.00000E+00
    0.19743E+01        -0.75485E+01         0.00000E+00
    0.18358E+01        -0.64164E+01         0.00000E+00
    0.16676E+01        -0.52595E+01         0.00000E+00
    0.14516E+01        -0.40630E+01         0.00000E+00
    0.11557E+01        -0.28053E+01         0.00000E+00
    0.71396E+00        -0.14560E+01         0.00000E+00
    0.00000E+00         0.00000E+00         0.00000E+00
    0.24875E+01        -0.18281E+02         0.00000E+00
    0.19319E+01        -0.17171E+02         0.00000E+00
    0.17165E+01        -0.15947E+02         0.00000E+00
    0.15818E+01        -0.14717E+02         0.00000E+00
    0.14856E+01        -0.13509E+02         0.00000E+00
    0.14093E+01        -0.12324E+02         0.00000E+00
    0.13435E+01        -0.11159E+02         0.00000E+00
    0.12822E+01        -0.10007E+02         0.00000E+00
    0.12211E+01        -0.88641E+01         0.00000E+00
    0.11557E+01        -0.77211E+01         0.00000E+00
    0.10815E+01        -0.65692E+01         0.00000E+00
    0.99196E+00        -0.53967E+01         0.00000E+00
    0.87728E+00        -0.41877E+01         0.00000E+00
    0.71900E+00        -0.29185E+01         0.00000E+00
    0.47771E+00        -0.15474E+01         0.00000E+00
    0.00000E+00         0.00000E+00         0.00000E+00
    0.00000E+00        -0.18988E+02         0.00000E+00
    0.00000E+00        -0.17526E+02         0.00000E+00
    0.00000E+00        -0.16168E+02         0.00000E+00
    0.00000E+00        -0.14879E+02         0.00000E+00
    0.00000E+00        -0.13636E+02         0.00000E+00
    0.00000E+00        -0.12427E+02         0.00000E+00
    0.00000E+00        -0.11244E+02         0.00000E+00
    0.00000E+00        -0.10080E+02         0.00000E+00
    0.00000E+00        -0.89263E+01         0.00000E+00
    0.00000E+00        -0.77754E+01         0.00000E+00
    0.00000E+00        -0.66174E+01         0.00000E+00
    0.00000E+00        -0.54402E+01         0.00000E+00
    0.00000E+00        -0.42281E+01         0.00000E+00
    0.00000E+00        -0.29571E+01         0.00000E+00
    0.00000E+00        -0.15871E+01         0.00000E+00
    0.00000E+00         0.00000E+00         0.00000E+00
CELL_DATA        450
VECTORS vDarcy double 
    0.11629E-05         0.19115E-07         0.00000E+00
    0.11442E-05         0.45714E-07         0.00000E+00
    0.11406E-05         0.56656E-07         0.00000E+00
    0.11385E-05         0.61469E-07         0.00000E+00
    0.11373E-05         0.63023E-07         0.00000E+00
    0.11365E-05         0.62625E-07         0.00000E+00
    0.11359E-05         0.60956E-07         0.00000E+00
    0.11354E-05         0.58398E-07         0.00000E+00
    0.11350E-05         0.55159E-07         0.00000E+00
    0.11346E-05         0.51332E-07         0.00000E+00
    0.11342E-05         0.46895E-07         0.00000E+00
    0.11337E-05         0.41677E-07         0.00000E+00
    0.11329E-05         0.35227E-07         0.00000E+00
    0.11318E-05         0.26375E-07         0.00000E+00
    0.11224E-05         0.10563E-07         0.00000E+00
    0.11398E-05         0.69265E-08         0.00000E+00
    0.11159E-05         0.20996E-07         0.00000E+00
    0.11034E-05         0.32342E-07         0.00000E+00
    0.10969E-05         0.38888E-07         0.00000E+00
    0.10928E-05         0.42273E-07         0.00000E+00
    0.10900E-05         0.43522E-07         0.00000E+00
    0.10880E-05         0.43267E-07         0.00000E+00
    0.10863E-05         0.41891E-07         0.00000E+00
    0.10848E-05         0.39613E-07         0.00000E+00
    0.10835E-05         0.36525E-07         0.00000E+00
    0.10820E-05         0.32598E-07         0.00000E+00
    0.10802E-05         0.27661E-07         0.00000E+00
    0.10775E-05         0.21334E-07         0.00000E+00
    0.10719E-05         0.12900E-07         0.00000E+00
    0.10619E-05         0.40245E-08         0.00000E+00
    0.11018E-05         0.23422E-08         0.00000E+00
    0.10801E-05         0.85123E-08         0.00000E+00
    0.10650E-05         0.15798E-07         0.00000E+00
    0.10552E-05         0.21628E-07         0.00000E+00
    0.10485E-05         0.25406E-07         0.00000E+00
    0.10438E-05         0.27438E-07         0.00000E+00
    0.10401E-05         0.28070E-07         0.00000E+00
    0.10372E-05         0.27574E-07         0.00000E+00
    0.10346E-05         0.26126E-07         0.00000E+00
    0.10321E-05         0.23815E-07         0.00000E+00
    0.10295E-05         0.20655E-07         0.00000E+00
    0.10264E-05         0.16597E-07         0.00000E+00
    0.10221E-05         0.11607E-07         0.00000E+00
    0.10158E-05         0.62174E-08         0.00000E+00
    0.10076E-05         0.17771E-08         0.00000E+00
    0.10570E-05         0.57208E-10         0.00000E+00
    0.10385E-05         0.17456E-08         0.00000E+00
    0.10236E-05         0.54708E-08         0.00000E+00
    0.10124E-05         0.94068E-08         0.00000E+00
    0.10041E-05         0.12560E-07         0.00000E+00
    0.99775E-06         0.14632E-07         0.00000E+00
    0.99274E-06         0.15651E-07         0.00000E+00
    0.98858E-06         0.15723E-07         0.00000E+00
    0.98491E-06         0.14957E-07         0.00000E+00
    0.98144E-06         0.13432E-07         0.00000E+00
    0.97785E-06         0.11216E-07         0.00000E+00
    0.97381E-06         0.84015E-08         0.00000E+00
    0.96894E-06         0.52535E-08         0.00000E+00
    0.96306E-06         0.23391E-08         0.00000E+00
    0.95646E-06         0.51599E-09         0.00000E+00
    0.10091E-05        -0.11541E-08         0.00000E+00
    0.99352E-06        -0.20740E-08         0.00000E+00
    0.97986E-06        -0.88929E-09         0.00000E+00
    0.96855E-06         0.11856E-08         0.00000E+00
    0.95945E-06         0.32833E-08         0.00000E+00
    0.95213E-06         0.49360E-08         0.00000E+00
    0.94611E-06         0.59646E-08         0.00000E+00
    0.94101E-06         0.63410E-08         0.00000E+00
    0.93647E-06         0.61007E-08         0.00000E+00
    0.93220E-06         0.53080E-08         0.00000E+00
    0.92794E-06         0.40594E-08         0.00000E+00
    0.92344E-06         0.25216E-08         0.00000E+00
    0.91853E-06         0.98590E-09         0.00000E+00
    0.91327E-06        -0.10715E-09         0.00000E+00
    0.90803E-06        -0.23923E-09         0.00000E+00
    0.96045E-06        -0.17826E-08         0.00000E+00
    0.94738E-06        -0.42019E-08         0.00000E+00
    0.93515E-06        -0.47361E-08         0.00000E+00
    0.92436E-06        -0.41662E-08         0.00000E+00
    0.91515E-06        -0.31404E-08         0.00000E+00
    0.90737E-06        -0.20977E-08         0.00000E+00
    0.90076E-06        -0.12818E-08         0.00000E+00
    0.89504E-06        -0.79663E-09         0.00000E+00
    0.88992E-06        -0.65951E-09         0.00000E+00
    0.88516E-06        -0.83051E-09         0.00000E+00
    0.88054E-06        -0.12165E-08         0.00000E+00
    0.87590E-06        -0.16590E-08         0.00000E+00
    0.87120E-06        -0.19222E-08         0.00000E+00
    0.86657E-06        -0.17088E-08         0.00000E+00
    0.86237E-06        -0.72152E-09         0.00000E+00
    0.91267E-06        -0.20740E-08         0.00000E+00
    0.90163E-06        -0.53164E-08         0.00000E+00
    0.89081E-06        -0.69817E-08         0.00000E+00
    0.88081E-06        -0.75448E-08         0.00000E+00
    0.87190E-06        -0.74471E-08         0.00000E+00
    0.86411E-06        -0.70320E-08         0.00000E+00
    0.85732E-06        -0.65273E-08         0.00000E+00
    0.85133E-06        -0.60586E-08         0.00000E+00
    0.84595E-06        -0.56726E-08         0.00000E+00
    0.84098E-06        -0.53560E-08         0.00000E+00
    0.83627E-06        -0.50429E-08         0.00000E+00
    0.83172E-06        -0.46178E-08         0.00000E+00
    0.82734E-06        -0.39224E-08         0.00000E+00
    0.82329E-06        -0.27792E-08         0.00000E+00
    0.81985E-06        -0.10367E-08         0.00000E+00
    0.86704E-06        -0.21728E-08         0.00000E+00
    0.85760E-06        -0.58321E-08         0.00000E+00
    0.84804E-06        -0.82326E-08         0.00000E+00
    0.83894E-06        -0.96266E-08         0.00000E+00
    0.83060E-06        -0.10282E-07         0.00000E+00
    0.82312E-06        -0.10435E-07         0.00000E+00
    0.81648E-06        -0.10263E-07         0.00000E+00
    0.81056E-06        -0.98804E-08         0.00000E+00
    0.80522E-06        -0.93451E-08         0.00000E+00
    0.80031E-06        -0.86671E-08         0.00000E+00
    0.79573E-06        -0.78161E-08         0.00000E+00
    0.79143E-06        -0.67289E-08         0.00000E+00
    0.78743E-06        -0.53219E-08         0.00000E+00
    0.78388E-06        -0.35124E-08         0.00000E+00
    0.78100E-06        -0.12488E-08         0.00000E+00
    0.82461E-06        -0.21741E-08         0.00000E+00
    0.81637E-06        -0.60273E-08         0.00000E+00
    0.80791E-06        -0.89162E-08         0.00000E+00
    0.79972E-06        -0.10926E-07         0.00000E+00
    0.79209E-06        -0.12184E-07         0.00000E+00
    0.78517E-06        -0.12827E-07         0.00000E+00
    0.77896E-06        -0.12971E-07         0.00000E+00
    0.77339E-06        -0.12706E-07         0.00000E+00
    0.76836E-06        -0.12089E-07         0.00000E+00
    0.76376E-06        -0.11148E-07         0.00000E+00
    0.75951E-06        -0.98875E-08         0.00000E+00
    0.75557E-06        -0.82942E-08         0.00000E+00
    0.75198E-06        -0.63497E-08         0.00000E+00
    0.74886E-06        -0.40451E-08         0.00000E+00
    0.74640E-06        -0.14015E-08         0.00000E+00
    0.78621E-06        -0.21453E-08         0.00000E+00
    0.77883E-06        -0.61017E-08         0.00000E+00
    0.77129E-06        -0.93490E-08         0.00000E+00
    0.76399E-06        -0.11842E-07         0.00000E+00
    0.75719E-06        -0.13597E-07         0.00000E+00
    0.75100E-06        -0.14661E-07         0.00000E+00
    0.74544E-06        -0.15093E-07         0.00000E+00
    0.74047E-06        -0.14953E-07         0.00000E+00
    0.73598E-06        -0.14292E-07         0.00000E+00
    0.73190E-06        -0.13152E-07         0.00000E+00
    0.72814E-06        -0.11566E-07         0.00000E+00
    0.72467E-06        -0.95657E-08         0.00000E+00
    0.72152E-06        -0.71878E-08         0.00000E+00
    0.71879E-06        -0.44831E-08         0.00000E+00
    0.71661E-06        -0.15283E-08         0.00000E+00
    0.75246E-06        -0.21365E-08         0.00000E+00
    0.74567E-06        -0.62062E-08         0.00000E+00
    0.73890E-06        -0.97746E-08         0.00000E+00
    0.73246E-06        -0.12694E-07         0.00000E+00
    0.72655E-06        -0.14886E-07         0.00000E+00
    0.72125E-06        -0.16325E-07         0.00000E+00
    0.71654E-06        -0.17020E-07         0.00000E+00
    0.71237E-06        -0.16999E-07         0.00000E+00
    0.70864E-06        -0.16307E-07         0.00000E+00
    0.70526E-06        -0.14994E-07         0.00000E+00
    0.70213E-06        -0.13121E-07         0.00000E+00
    0.69923E-06        -0.10758E-07         0.00000E+00
    0.69655E-06        -0.79886E-08         0.00000E+00
    0.69417E-06        -0.49134E-08         0.00000E+00
    0.69220E-06        -0.16567E-08         0.00000E+00
    0.72380E-06        -0.21872E-08         0.00000E+00
    0.71738E-06        -0.64596E-08         0.00000E+00
    0.71126E-06        -0.10388E-07         0.00000E+00
    0.70568E-06        -0.13739E-07         0.00000E+00
    0.70074E-06        -0.16357E-07         0.00000E+00
    0.69645E-06        -0.18154E-07         0.00000E+00
    0.69278E-06        -0.19093E-07         0.00000E+00
    0.68961E-06        -0.19178E-07         0.00000E+00
    0.68683E-06        -0.18445E-07         0.00000E+00
    0.68431E-06        -0.16955E-07         0.00000E+00
    0.68196E-06        -0.14791E-07         0.00000E+00
    0.67971E-06        -0.12059E-07         0.00000E+00
    0.67754E-06        -0.88830E-08         0.00000E+00
    0.67549E-06        -0.54109E-08         0.00000E+00
    0.67364E-06        -0.18103E-08         0.00000E+00
    0.70048E-06        -0.23302E-08         0.00000E+00
    0.69426E-06        -0.69614E-08         0.00000E+00
    0.68873E-06        -0.11355E-07         0.00000E+00
    0.68401E-06        -0.15199E-07         0.00000E+00
    0.68012E-06        -0.18274E-07         0.00000E+00
    0.67700E-06        -0.20436E-07         0.00000E+00
    0.67453E-06        -0.21613E-07         0.00000E+00
    0.67256E-06        -0.21786E-07         0.00000E+00
    0.67091E-06        -0.20986E-07         0.00000E+00
    0.66944E-06        -0.19284E-07         0.00000E+00
    0.66801E-06        -0.16788E-07         0.00000E+00
    0.66650E-06        -0.13633E-07         0.00000E+00
    0.66488E-06        -0.99873E-08         0.00000E+00
    0.66315E-06        -0.60422E-08         0.00000E+00
    0.66137E-06        -0.20102E-08         0.00000E+00
    0.68256E-06        -0.25950E-08         0.00000E+00
    0.67643E-06        -0.78005E-08         0.00000E+00
    0.67147E-06        -0.12819E-07         0.00000E+00
    0.66767E-06        -0.17269E-07         0.00000E+00
    0.66495E-06        -0.20868E-07         0.00000E+00
    0.66315E-06        -0.23428E-07         0.00000E+00
    0.66208E-06        -0.24844E-07         0.00000E+00
    0.66150E-06        -0.25083E-07         0.00000E+00
    0.66120E-06        -0.24176E-07         0.00000E+00
    0.66096E-06        -0.22204E-07         0.00000E+00
    0.66058E-06        -0.19299E-07         0.00000E+00
    0.65993E-06        -0.15631E-07         0.00000E+00
    0.65892E-06        -0.11407E-07         0.00000E+00
    0.65751E-06        -0.68686E-08         0.00000E+00
    0.65575E-06        -0.22760E-08         0.00000E+00
    0.66992E-06        -0.30102E-08         0.00000E+00
    0.66383E-06        -0.90620E-08         0.00000E+00
    0.65946E-06        -0.14920E-07         0.00000E+00
    0.65668E-06        -0.20129E-07         0.00000E+00
    0.65529E-06        -0.24351E-07         0.00000E+00
    0.65502E-06        -0.27360E-07         0.00000E+00
    0.65557E-06        -0.29025E-07         0.00000E+00
    0.65662E-06        -0.29306E-07         0.00000E+00
    0.65788E-06        -0.28237E-07         0.00000E+00
    0.65906E-06        -0.25915E-07         0.00000E+00
    0.65991E-06        -0.22497E-07         0.00000E+00
    0.66024E-06        -0.18188E-07         0.00000E+00
    0.65990E-06        -0.13242E-07         0.00000E+00
    0.65883E-06        -0.79479E-08         0.00000E+00
    0.65703E-06        -0.26264E-08         0.00000E+00
    0.66225E-06        -0.36058E-08         0.00000E+00
    0.65621E-06        -0.10833E-07         0.00000E+00
    0.65253E-06        -0.17791E-07         0.00000E+00
    0.65095E-06        -0.23951E-07         0.00000E+00
    0.65110E-06        -0.28922E-07         0.00000E+00
    0.65260E-06        -0.32443E-07         0.00000E+00
    0.65503E-06        -0.34370E-07         0.00000E+00
    0.65797E-06        -0.34662E-07         0.00000E+00
    0.66103E-06        -0.33364E-07         0.00000E+00
    0.66386E-06        -0.30595E-07         0.00000E+00
    0.66612E-06        -0.26537E-07         0.00000E+00
    0.66757E-06        -0.21433E-07         0.00000E+00
    0.66800E-06        -0.15584E-07         0.00000E+00
    0.66729E-06        -0.93368E-08         0.00000E+00
    0.66541E-06        -0.30803E-08         0.00000E+00
    0.65908E-06        -0.44142E-08         0.00000E+00
    0.65317E-06        -0.13204E-07         0.00000E+00
    0.65035E-06        -0.21571E-07         0.00000E+00
    0.65020E-06        -0.28905E-07         0.00000E+00
    0.65219E-06        -0.34766E-07         0.00000E+00
    0.65577E-06        -0.38867E-07         0.00000E+00
    0.66038E-06        -0.41064E-07         0.00000E+00
    0.66551E-06        -0.41328E-07         0.00000E+00
    0.67065E-06        -0.39724E-07         0.00000E+00
    0.67537E-06        -0.36395E-07         0.00000E+00
    0.67927E-06        -0.31554E-07         0.00000E+00
    0.68201E-06        -0.25481E-07         0.00000E+00
    0.68332E-06        -0.18523E-07         0.00000E+00
    0.68301E-06        -0.11092E-07         0.00000E+00
    0.68101E-06        -0.36569E-08         0.00000E+00
    0.65976E-06        -0.54715E-08         0.00000E+00
    0.65413E-06        -0.16276E-07         0.00000E+00
    0.65245E-06        -0.26403E-07         0.00000E+00
    0.65407E-06        -0.35156E-07         0.00000E+00
    0.65826E-06        -0.42049E-07         0.00000E+00
    0.66429E-06        -0.46791E-07         0.00000E+00
    0.67145E-06        -0.49252E-07         0.00000E+00
    0.67910E-06        -0.49434E-07         0.00000E+00
    0.68663E-06        -0.47435E-07         0.00000E+00
    0.69352E-06        -0.43429E-07         0.00000E+00
    0.69929E-06        -0.37658E-07         0.00000E+00
    0.70353E-06        -0.30432E-07         0.00000E+00
    0.70586E-06        -0.22144E-07         0.00000E+00
    0.70602E-06        -0.13271E-07         0.00000E+00
    0.70385E-06        -0.43769E-08         0.00000E+00
    0.66349E-06        -0.68183E-08         0.00000E+00
    0.65841E-06        -0.20156E-07         0.00000E+00
    0.65824E-06        -0.32431E-07         0.00000E+00
    0.66207E-06        -0.42855E-07         0.00000E+00
    0.66893E-06        -0.50911E-07         0.00000E+00
    0.67786E-06        -0.56323E-07         0.00000E+00
    0.68798E-06        -0.59013E-07         0.00000E+00
    0.69851E-06        -0.59039E-07         0.00000E+00
    0.70875E-06        -0.56549E-07         0.00000E+00
    0.71811E-06        -0.51753E-07         0.00000E+00
    0.72603E-06        -0.44915E-07         0.00000E+00
    0.73199E-06        -0.36364E-07         0.00000E+00
    0.73554E-06        -0.26523E-07         0.00000E+00
    0.73626E-06        -0.15933E-07         0.00000E+00
    0.73391E-06        -0.52632E-08         0.00000E+00
    0.66928E-06        -0.85008E-08         0.00000E+00
    0.66514E-06        -0.24961E-07         0.00000E+00
    0.66703E-06        -0.39802E-07         0.00000E+00
    0.67368E-06        -0.52135E-07         0.00000E+00
    0.68379E-06        -0.61436E-07         0.00000E+00
    0.69614E-06        -0.67495E-07         0.00000E+00
    0.70966E-06        -0.70328E-07         0.00000E+00
    0.72343E-06        -0.70092E-07         0.00000E+00
    0.73671E-06        -0.67011E-07         0.00000E+00
    0.74883E-06        -0.61332E-07         0.00000E+00
    0.75918E-06        -0.53327E-07         0.00000E+00
    0.76715E-06        -0.43317E-07         0.00000E+00
    0.77216E-06        -0.31726E-07         0.00000E+00
    0.77362E-06        -0.19141E-07         0.00000E+00
    0.77110E-06        -0.63420E-08         0.00000E+00
    0.67598E-06        -0.10573E-07         0.00000E+00
    0.67337E-06        -0.30824E-07         0.00000E+00
    0.67806E-06        -0.48658E-07         0.00000E+00
    0.68831E-06        -0.63088E-07         0.00000E+00
    0.70240E-06        -0.73628E-07         0.00000E+00
    0.71877E-06        -0.80205E-07         0.00000E+00
    0.73613E-06        -0.83014E-07         0.00000E+00
    0.75350E-06        -0.82370E-07         0.00000E+00
    0.77008E-06        -0.78600E-07         0.00000E+00
    0.78522E-06        -0.71991E-07         0.00000E+00
    0.79828E-06        -0.62793E-07         0.00000E+00
    0.80859E-06        -0.51270E-07         0.00000E+00
    0.81538E-06        -0.37796E-07         0.00000E+00
    0.81785E-06        -0.22959E-07         0.00000E+00
    0.81528E-06        -0.76449E-08         0.00000E+00
    0.68227E-06        -0.13102E-07         0.00000E+00
    0.68203E-06        -0.37896E-07         0.00000E+00
    0.69056E-06        -0.59136E-07         0.00000E+00
    0.70545E-06        -0.75738E-07         0.00000E+00
    0.72438E-06        -0.87348E-07         0.00000E+00
    0.74541E-06        -0.94157E-07         0.00000E+00
    0.76704E-06        -0.96654E-07         0.00000E+00
    0.78825E-06        -0.95397E-07         0.00000E+00
    0.80830E-06        -0.90856E-07         0.00000E+00
    0.82664E-06        -0.83350E-07         0.00000E+00
    0.84268E-06        -0.73058E-07         0.00000E+00
    0.85568E-06        -0.60112E-07         0.00000E+00
    0.86469E-06        -0.44742E-07         0.00000E+00
    0.86860E-06        -0.27456E-07         0.00000E+00
    0.86624E-06        -0.92108E-08         0.00000E+00
    0.68661E-06        -0.16176E-07         0.00000E+00
    0.68994E-06        -0.46364E-07         0.00000E+00
    0.70376E-06        -0.71352E-07         0.00000E+00
    0.72465E-06        -0.89996E-07         0.00000E+00
    0.74949E-06        -0.10224E-06         0.00000E+00
    0.77583E-06        -0.10874E-06         0.00000E+00
    0.80203E-06        -0.11048E-06         0.00000E+00
    0.82714E-06        -0.10834E-06         0.00000E+00
    0.85065E-06        -0.10298E-06         0.00000E+00
    0.87221E-06        -0.94734E-07         0.00000E+00
    0.89139E-06        -0.83640E-07         0.00000E+00
    0.90748E-06        -0.69586E-07         0.00000E+00
    0.91932E-06        -0.52512E-07         0.00000E+00
    0.92535E-06        -0.32702E-07         0.00000E+00
    0.92375E-06        -0.11089E-07         0.00000E+00
    0.68718E-06        -0.19927E-07         0.00000E+00
    0.69587E-06        -0.56476E-07         0.00000E+00
    0.71705E-06        -0.85386E-07         0.00000E+00
    0.74575E-06        -0.10556E-06         0.00000E+00
    0.77770E-06        -0.11756E-06         0.00000E+00
    0.80991E-06        -0.12290E-06         0.00000E+00
    0.84075E-06        -0.12323E-06         0.00000E+00
    0.86954E-06        -0.11990E-06         0.00000E+00
    0.89618E-06        -0.11375E-06         0.00000E+00
    0.92073E-06        -0.10507E-06         0.00000E+00
    0.94307E-06        -0.93726E-07         0.00000E+00
    0.96263E-06        -0.79205E-07         0.00000E+00
    0.97810E-06        -0.60947E-07         0.00000E+00
    0.98733E-06        -0.38754E-07         0.00000E+00
    0.98751E-06        -0.13343E-07         0.00000E+00
    0.68180E-06        -0.24559E-07         0.00000E+00
    0.69856E-06        -0.68572E-07         0.00000E+00
    0.73013E-06        -0.10120E-06         0.00000E+00
    0.76901E-06        -0.12171E-06         0.00000E+00
    0.80934E-06        -0.13198E-06         0.00000E+00
    0.84770E-06        -0.13488E-06         0.00000E+00
    0.88280E-06        -0.13302E-06         0.00000E+00
    0.91460E-06        -0.12820E-06         0.00000E+00
    0.94366E-06        -0.12138E-06         0.00000E+00
    0.97062E-06        -0.11279E-06         0.00000E+00
    0.99588E-06        -0.10203E-06         0.00000E+00
    0.10192E-05        -0.88106E-07         0.00000E+00
    0.10393E-05        -0.69676E-07         0.00000E+00
    0.10534E-05        -0.45628E-07         0.00000E+00
    0.10572E-05        -0.16049E-07         0.00000E+00
    0.66772E-06        -0.30425E-07         0.00000E+00
    0.69686E-06        -0.83128E-07         0.00000E+00
    0.74338E-06        -0.11840E-06         0.00000E+00
    0.79545E-06        -0.13684E-06         0.00000E+00
    0.84514E-06        -0.14301E-06         0.00000E+00
    0.88922E-06        -0.14195E-06         0.00000E+00
    0.92755E-06        -0.13722E-06         0.00000E+00
    0.96120E-06        -0.13079E-06         0.00000E+00
    0.99154E-06        -0.12357E-06         0.00000E+00
    0.10199E-05        -0.11569E-06         0.00000E+00
    0.10474E-05        -0.10658E-06         0.00000E+00
    0.10746E-05        -0.94776E-07         0.00000E+00
    0.11005E-05        -0.77885E-07         0.00000E+00
    0.11219E-05        -0.53193E-07         0.00000E+00
    0.11324E-05        -0.19279E-07         0.00000E+00
    0.64120E-06        -0.38197E-07         0.00000E+00
    0.69022E-06        -0.10067E-06         0.00000E+00
    0.75872E-06        -0.13548E-06         0.00000E+00
    0.82716E-06        -0.14722E-06         0.00000E+00
    0.88586E-06        -0.14629E-06         0.00000E+00
    0.93395E-06        -0.14023E-06         0.00000E+00
    0.97377E-06        -0.13251E-06         0.00000E+00
    0.10077E-05        -0.12475E-06         0.00000E+00
    0.10379E-05        -0.11759E-06         0.00000E+00
    0.10663E-05        -0.11103E-06         0.00000E+00
    0.10948E-05        -0.10452E-06         0.00000E+00
    0.11252E-05        -0.96582E-07         0.00000E+00
    0.11578E-05        -0.83776E-07         0.00000E+00
    0.11898E-05        -0.60865E-07         0.00000E+00
    0.12126E-05        -0.23064E-07         0.00000E+00
    0.59689E-06        -0.49030E-07         0.00000E+00
    0.68008E-06        -0.12180E-06         0.00000E+00
    0.78155E-06        -0.14628E-06         0.00000E+00
    0.86688E-06        -0.14419E-06         0.00000E+00
    0.93069E-06        -0.13515E-06         0.00000E+00
    0.97987E-06        -0.12478E-06         0.00000E+00
    0.10190E-05        -0.11517E-06         0.00000E+00
    0.10516E-05        -0.10705E-06         0.00000E+00
    0.10803E-05        -0.10060E-06         0.00000E+00
    0.11075E-05        -0.95743E-07         0.00000E+00
    0.11354E-05        -0.92142E-07         0.00000E+00
    0.11667E-05        -0.88859E-07         0.00000E+00
    0.12057E-05        -0.83373E-07         0.00000E+00
    0.12523E-05        -0.66738E-07         0.00000E+00
    0.12964E-05        -0.26960E-07         0.00000E+00
    0.52507E-06        -0.72255E-07         0.00000E+00
    0.67919E-06        -0.13470E-06         0.00000E+00
    0.82178E-06        -0.12767E-06         0.00000E+00
    0.91136E-06        -0.11406E-06         0.00000E+00
    0.97499E-06        -0.10104E-06         0.00000E+00
    0.10221E-05        -0.90080E-07         0.00000E+00
    0.10589E-05        -0.81344E-07         0.00000E+00
    0.10891E-05        -0.74675E-07         0.00000E+00
    0.11155E-05        -0.69904E-07         0.00000E+00
    0.11405E-05        -0.66900E-07         0.00000E+00
    0.11665E-05        -0.65560E-07         0.00000E+00
    0.11967E-05        -0.65684E-07         0.00000E+00
    0.12363E-05        -0.66537E-07         0.00000E+00
    0.12998E-05        -0.64430E-07         0.00000E+00
    0.13805E-05        -0.30525E-07         0.00000E+00
    0.43145E-06        -0.16226E-07         0.00000E+00
    0.72221E-06        -0.41064E-07         0.00000E+00
    0.85824E-06        -0.37718E-07         0.00000E+00
    0.94592E-06        -0.34134E-07         0.00000E+00
    0.10061E-05        -0.30406E-07         0.00000E+00
    0.10504E-05        -0.27291E-07         0.00000E+00
    0.10848E-05        -0.24815E-07         0.00000E+00
    0.11130E-05        -0.22964E-07         0.00000E+00
    0.11376E-05        -0.21712E-07         0.00000E+00
    0.11607E-05        -0.21060E-07         0.00000E+00
    0.11848E-05        -0.21040E-07         0.00000E+00
    0.12130E-05        -0.21745E-07         0.00000E+00
    0.12510E-05        -0.23133E-07         0.00000E+00
    0.13103E-05        -0.26245E-07         0.00000E+00
    0.14537E-05        -0.14739E-07         0.00000E+00
POINT_DATA        496
VECTORS vDarcyNodal double 
    0.11541E-05         0.27978E-07         0.00000E+00
    0.11500E-05         0.44874E-07         0.00000E+00
    0.11437E-05         0.65957E-07         0.00000E+00
    0.11404E-05         0.71742E-07         0.00000E+00
    0.11386E-05         0.73452E-07         0.00000E+00
    0.11374E-05         0.72844E-07         0.00000E+00
    0.11366E-05         0.70877E-07         0.00000E+00
    0.11360E-05         0.68031E-07         0.00000E+00
    0.11355E-05         0.64571E-07         0.00000E+00
    0.11350E-05         0.60640E-07         0.00000E+00
    0.11345E-05         0.56278E-07         0.00000E+00
    0.11339E-05         0.51428E-07         0.00000E+00
    0.11332E-05         0.45815E-07         0.00000E+00
    0.11317E-05         0.39021E-07         0.00000E+00
    0.11291E-05         0.25433E-07         0.00000E+00
    0.11274E-05         0.15589E-07         0.00000E+00
    0.11454E-05         0.10078E-07         0.00000E+00
    0.11377E-05         0.19668E-07         0.00000E+00
    0.11262E-05         0.35940E-07         0.00000E+00
    0.11204E-05         0.45805E-07         0.00000E+00
    0.11169E-05         0.50416E-07         0.00000E+00
    0.11146E-05         0.52162E-07         0.00000E+00
    0.11129E-05         0.52061E-07         0.00000E+00
    0.11117E-05         0.50692E-07         0.00000E+00
    0.11106E-05         0.48379E-07         0.00000E+00
    0.11097E-05         0.45280E-07         0.00000E+00
    0.11087E-05         0.41424E-07         0.00000E+00
    0.11076E-05         0.36679E-07         0.00000E+00
    0.11061E-05         0.30703E-07         0.00000E+00
    0.11036E-05         0.22308E-07         0.00000E+00
    0.10987E-05         0.11378E-07         0.00000E+00
    0.10954E-05         0.54892E-08         0.00000E+00
    0.11186E-05         0.38735E-08         0.00000E+00
    0.11075E-05         0.83980E-08         0.00000E+00
    0.10902E-05         0.17600E-07         0.00000E+00
    0.10800E-05         0.25637E-07         0.00000E+00
    0.10735E-05         0.30949E-07         0.00000E+00
    0.10690E-05         0.33829E-07         0.00000E+00
    0.10657E-05         0.34917E-07         0.00000E+00
    0.10631E-05         0.34648E-07         0.00000E+00
    0.10609E-05         0.33304E-07         0.00000E+00
    0.10589E-05         0.31032E-07         0.00000E+00
    0.10569E-05         0.27871E-07         0.00000E+00
    0.10547E-05         0.23748E-07         0.00000E+00
    0.10518E-05         0.18454E-07         0.00000E+00
    0.10475E-05         0.12061E-07         0.00000E+00
    0.10404E-05         0.56145E-08         0.00000E+00
    0.10358E-05         0.25845E-08         0.00000E+00
    0.10783E-05         0.86837E-09         0.00000E+00
    0.10682E-05         0.25538E-08         0.00000E+00
    0.10509E-05         0.68658E-08         0.00000E+00
    0.10386E-05         0.11969E-07         0.00000E+00
    0.10299E-05         0.16269E-07         0.00000E+00
    0.10236E-05         0.19194E-07         0.00000E+00
    0.10187E-05         0.20764E-07         0.00000E+00
    0.10148E-05         0.21161E-07         0.00000E+00
    0.10115E-05         0.20554E-07         0.00000E+00
    0.10084E-05         0.19059E-07         0.00000E+00
    0.10054E-05         0.16739E-07         0.00000E+00
    0.10022E-05         0.13631E-07         0.00000E+00
    0.99823E-06         0.98566E-08         0.00000E+00
    0.99307E-06         0.58362E-08         0.00000E+00
    0.98637E-06         0.24128E-08         0.00000E+00
    0.98263E-06         0.98374E-09         0.00000E+00
    0.10324E-05        -0.72254E-09         0.00000E+00
    0.10239E-05        -0.69199E-09         0.00000E+00
    0.10082E-05         0.45663E-09         0.00000E+00
    0.99566E-06         0.30437E-08         0.00000E+00
    0.98587E-06         0.58454E-08         0.00000E+00
    0.97826E-06         0.81481E-08         0.00000E+00
    0.97219E-06         0.96659E-08         0.00000E+00
    0.96719E-06         0.10354E-07         0.00000E+00
    0.96287E-06         0.10259E-07         0.00000E+00
    0.95893E-06         0.94533E-08         0.00000E+00
    0.95509E-06         0.80192E-08         0.00000E+00
    0.95106E-06         0.60801E-08         0.00000E+00
    0.94657E-06         0.38697E-08         0.00000E+00
    0.94140E-06         0.18015E-08         0.00000E+00
    0.93562E-06         0.46240E-09         0.00000E+00
    0.93262E-06         0.56964E-10         0.00000E+00
    0.98444E-06        -0.15694E-08         0.00000E+00
    0.97723E-06        -0.25027E-08         0.00000E+00
    0.96355E-06        -0.33536E-08         0.00000E+00
    0.95162E-06        -0.26546E-08         0.00000E+00
    0.94162E-06        -0.12675E-08         0.00000E+00
    0.93338E-06         0.18749E-09         0.00000E+00
    0.92655E-06         0.13518E-08         0.00000E+00
    0.92076E-06         0.20655E-08         0.00000E+00
    0.91570E-06         0.22896E-08         0.00000E+00
    0.91109E-06         0.20524E-08         0.00000E+00
    0.90667E-06         0.14325E-08         0.00000E+00
    0.90222E-06         0.56935E-09         0.00000E+00
    0.89758E-06        -0.31209E-09         0.00000E+00
    0.89272E-06        -0.89194E-09         0.00000E+00
    0.88784E-06        -0.79504E-09         0.00000E+00
    0.88545E-06        -0.52926E-09         0.00000E+00
    0.93638E-06        -0.19885E-08         0.00000E+00
    0.93030E-06        -0.34648E-08         0.00000E+00
    0.91845E-06        -0.55462E-08         0.00000E+00
    0.90750E-06        -0.61885E-08         0.00000E+00
    0.89783E-06        -0.59639E-08         0.00000E+00
    0.88948E-06        -0.53409E-08         0.00000E+00
    0.88232E-06        -0.46430E-08         0.00000E+00
    0.87611E-06        -0.40566E-08         0.00000E+00
    0.87063E-06        -0.36632E-08         0.00000E+00
    0.86563E-06        -0.34680E-08         0.00000E+00
    0.86091E-06        -0.34158E-08         0.00000E+00
    0.85632E-06        -0.33942E-08         0.00000E+00
    0.85178E-06        -0.32328E-08         0.00000E+00
    0.84734E-06        -0.27168E-08         0.00000E+00
    0.84322E-06        -0.16253E-08         0.00000E+00
    0.84128E-06        -0.90922E-09         0.00000E+00
    0.88976E-06        -0.21574E-08         0.00000E+00
    0.88460E-06        -0.39186E-08         0.00000E+00
    0.87432E-06        -0.67322E-08         0.00000E+00
    0.86444E-06        -0.83027E-08         0.00000E+00
    0.85538E-06        -0.89788E-08         0.00000E+00
    0.84730E-06        -0.90792E-08         0.00000E+00
    0.84018E-06        -0.88521E-08         0.00000E+00
    0.83391E-06        -0.84641E-08         0.00000E+00
    0.82831E-06        -0.80056E-08         0.00000E+00
    0.82321E-06        -0.75042E-08         0.00000E+00
    0.81847E-06        -0.69350E-08         0.00000E+00
    0.81396E-06        -0.62286E-08         0.00000E+00
    0.80967E-06        -0.52803E-08         0.00000E+00
    0.80566E-06        -0.39682E-08         0.00000E+00
    0.80215E-06        -0.21831E-08         0.00000E+00
    0.80055E-06        -0.11607E-08         0.00000E+00
    0.84578E-06        -0.21888E-08         0.00000E+00
    0.84132E-06        -0.40848E-08         0.00000E+00
    0.83234E-06        -0.73237E-08         0.00000E+00
    0.82349E-06        -0.95363E-08         0.00000E+00
    0.81518E-06        -0.10898E-07         0.00000E+00
    0.80762E-06        -0.11598E-07         0.00000E+00
    0.80085E-06        -0.11800E-07         0.00000E+00
    0.79482E-06        -0.11631E-07         0.00000E+00
    0.78941E-06        -0.11172E-07         0.00000E+00
    0.78448E-06        -0.10464E-07         0.00000E+00
    0.77994E-06        -0.95109E-08         0.00000E+00
    0.77570E-06        -0.82868E-08         0.00000E+00
    0.77175E-06        -0.67493E-08         0.00000E+00
    0.76818E-06        -0.48531E-08         0.00000E+00
    0.76515E-06        -0.25720E-08         0.00000E+00
    0.76379E-06        -0.13340E-08         0.00000E+00
    0.80538E-06        -0.21610E-08         0.00000E+00
    0.80145E-06        -0.41174E-08         0.00000E+00
    0.79349E-06        -0.76162E-08         0.00000E+00
    0.78559E-06        -0.10294E-07         0.00000E+00
    0.77811E-06        -0.12190E-07         0.00000E+00
    0.77125E-06        -0.13384E-07         0.00000E+00
    0.76507E-06        -0.13963E-07         0.00000E+00
    0.75954E-06        -0.14008E-07         0.00000E+00
    0.75457E-06        -0.13584E-07         0.00000E+00
    0.75006E-06        -0.12737E-07         0.00000E+00
    0.74592E-06        -0.11494E-07         0.00000E+00
    0.74209E-06        -0.98700E-08         0.00000E+00
    0.73856E-06        -0.78765E-08         0.00000E+00
    0.73541E-06        -0.55303E-08         0.00000E+00
    0.73276E-06        -0.28692E-08         0.00000E+00
    0.73159E-06        -0.14664E-08         0.00000E+00
    0.76930E-06        -0.21309E-08         0.00000E+00
    0.76573E-06        -0.41304E-08         0.00000E+00
    0.75856E-06        -0.78318E-08         0.00000E+00
    0.75153E-06        -0.10888E-07         0.00000E+00
    0.74492E-06        -0.13231E-07         0.00000E+00
    0.73890E-06        -0.14848E-07         0.00000E+00
    0.73349E-06        -0.15759E-07         0.00000E+00
    0.72868E-06        -0.16004E-07         0.00000E+00
    0.72438E-06        -0.15626E-07         0.00000E+00
    0.72050E-06        -0.14674E-07         0.00000E+00
    0.71694E-06        -0.13195E-07         0.00000E+00
    0.71365E-06        -0.11238E-07         0.00000E+00
    0.71061E-06        -0.88595E-08         0.00000E+00
    0.70787E-06        -0.61293E-08         0.00000E+00
    0.70554E-06        -0.31368E-08         0.00000E+00
    0.70449E-06        -0.15876E-08         0.00000E+00
    0.73807E-06        -0.21424E-08         0.00000E+00
    0.73474E-06        -0.42113E-08         0.00000E+00
    0.72818E-06        -0.81436E-08         0.00000E+00
    0.72194E-06        -0.11568E-07         0.00000E+00
    0.71623E-06        -0.14328E-07         0.00000E+00
    0.71115E-06        -0.16335E-07         0.00000E+00
    0.70669E-06        -0.17552E-07         0.00000E+00
    0.70280E-06        -0.17978E-07         0.00000E+00
    0.69938E-06        -0.17642E-07         0.00000E+00
    0.69632E-06        -0.16591E-07         0.00000E+00
    0.69350E-06        -0.14889E-07         0.00000E+00
    0.69087E-06        -0.12616E-07         0.00000E+00
    0.68838E-06        -0.98678E-08         0.00000E+00
    0.68606E-06        -0.67598E-08         0.00000E+00
    0.68398E-06        -0.34271E-08         0.00000E+00
    0.68302E-06        -0.17228E-08         0.00000E+00
    0.71203E-06        -0.22306E-08         0.00000E+00
    0.70885E-06        -0.44313E-08         0.00000E+00
    0.70276E-06        -0.86934E-08         0.00000E+00
    0.69727E-06        -0.12540E-07         0.00000E+00
    0.69250E-06        -0.15740E-07         0.00000E+00
    0.68847E-06        -0.18140E-07         0.00000E+00
    0.68512E-06        -0.19653E-07         0.00000E+00
    0.68235E-06        -0.20248E-07         0.00000E+00
    0.68000E-06        -0.19936E-07         0.00000E+00
    0.67794E-06        -0.18766E-07         0.00000E+00
    0.67603E-06        -0.16819E-07         0.00000E+00
    0.67417E-06        -0.14203E-07         0.00000E+00
    0.67230E-06        -0.11050E-07         0.00000E+00
    0.67041E-06        -0.75180E-08         0.00000E+00
    0.66855E-06        -0.37862E-08         0.00000E+00
    0.66764E-06        -0.18939E-08         0.00000E+00
    0.69134E-06        -0.24259E-08         0.00000E+00
    0.68825E-06        -0.48514E-08         0.00000E+00
    0.68253E-06        -0.96030E-08         0.00000E+00
    0.67778E-06        -0.13983E-07         0.00000E+00
    0.67403E-06        -0.17691E-07         0.00000E+00
    0.67119E-06        -0.20519E-07         0.00000E+00
    0.66912E-06        -0.22338E-07         0.00000E+00
    0.66765E-06        -0.23090E-07         0.00000E+00
    0.66658E-06        -0.22776E-07         0.00000E+00
    0.66571E-06        -0.21448E-07         0.00000E+00
    0.66487E-06        -0.19203E-07         0.00000E+00
    0.66391E-06        -0.16176E-07         0.00000E+00
    0.66273E-06        -0.12539E-07         0.00000E+00
    0.66130E-06        -0.84904E-08         0.00000E+00
    0.65962E-06        -0.42557E-08         0.00000E+00
    0.65873E-06        -0.21212E-08         0.00000E+00
    0.67598E-06        -0.27566E-08         0.00000E+00
    0.67292E-06        -0.55284E-08         0.00000E+00
    0.66754E-06        -0.10984E-07         0.00000E+00
    0.66359E-06        -0.16057E-07         0.00000E+00
    0.66096E-06        -0.20383E-07         0.00000E+00
    0.65947E-06        -0.23703E-07         0.00000E+00
    0.65888E-06        -0.25853E-07         0.00000E+00
    0.65893E-06        -0.26754E-07         0.00000E+00
    0.65935E-06        -0.26402E-07         0.00000E+00
    0.65988E-06        -0.24857E-07         0.00000E+00
    0.66028E-06        -0.22234E-07         0.00000E+00
    0.66036E-06        -0.18697E-07         0.00000E+00
    0.65996E-06        -0.14456E-07         0.00000E+00
    0.65902E-06        -0.97570E-08         0.00000E+00
    0.65750E-06        -0.48746E-08         0.00000E+00
    0.65661E-06        -0.24236E-08         0.00000E+00
    0.66572E-06        -0.32515E-08         0.00000E+00
    0.66269E-06        -0.65187E-08         0.00000E+00
    0.65767E-06        -0.12947E-07         0.00000E+00
    0.65461E-06        -0.18918E-07         0.00000E+00
    0.65328E-06        -0.24005E-07         0.00000E+00
    0.65335E-06        -0.27902E-07         0.00000E+00
    0.65448E-06        -0.30419E-07         0.00000E+00
    0.65630E-06        -0.31462E-07         0.00000E+00
    0.65845E-06        -0.31029E-07         0.00000E+00
    0.66060E-06        -0.29192E-07         0.00000E+00
    0.66243E-06        -0.26088E-07         0.00000E+00
    0.66370E-06        -0.21913E-07         0.00000E+00
    0.66420E-06        -0.16916E-07         0.00000E+00
    0.66379E-06        -0.11394E-07         0.00000E+00
    0.66242E-06        -0.56804E-08         0.00000E+00
    0.66150E-06        -0.28196E-08         0.00000E+00
    0.66018E-06        -0.39409E-08         0.00000E+00
    0.65720E-06        -0.78813E-08         0.00000E+00
    0.65263E-06        -0.15601E-07         0.00000E+00
    0.65065E-06        -0.22717E-07         0.00000E+00
    0.65083E-06        -0.28736E-07         0.00000E+00
    0.65274E-06        -0.33313E-07         0.00000E+00
    0.65586E-06        -0.36236E-07         0.00000E+00
    0.65973E-06        -0.37412E-07         0.00000E+00
    0.66389E-06        -0.36845E-07         0.00000E+00
    0.66790E-06        -0.34627E-07         0.00000E+00
    0.67140E-06        -0.30921E-07         0.00000E+00
    0.67404E-06        -0.25956E-07         0.00000E+00
    0.67556E-06        -0.20024E-07         0.00000E+00
    0.67576E-06        -0.13475E-07         0.00000E+00
    0.67454E-06        -0.67107E-08         0.00000E+00
    0.67356E-06        -0.33280E-08         0.00000E+00
    0.65878E-06        -0.48584E-08         0.00000E+00
    0.65592E-06        -0.96798E-08         0.00000E+00
    0.65198E-06        -0.19064E-07         0.00000E+00
    0.65132E-06        -0.27605E-07         0.00000E+00
    0.65335E-06        -0.34747E-07         0.00000E+00
    0.65742E-06        -0.40110E-07         0.00000E+00
    0.66289E-06        -0.43477E-07         0.00000E+00
    0.66914E-06        -0.44764E-07         0.00000E+00
    0.67560E-06        -0.44001E-07         0.00000E+00
    0.68176E-06        -0.41303E-07         0.00000E+00
    0.68716E-06        -0.36864E-07         0.00000E+00
    0.69138E-06        -0.30944E-07         0.00000E+00
    0.69409E-06        -0.23877E-07         0.00000E+00
    0.69499E-06        -0.16071E-07         0.00000E+00
    0.69392E-06        -0.80035E-08         0.00000E+00
    0.69287E-06        -0.39684E-08         0.00000E+00
    0.66080E-06        -0.60412E-08         0.00000E+00
    0.65816E-06        -0.11983E-07         0.00000E+00
    0.65513E-06        -0.23455E-07         0.00000E+00
    0.65617E-06        -0.33732E-07         0.00000E+00
    0.66046E-06        -0.42193E-07         0.00000E+00
    0.66712E-06        -0.48439E-07         0.00000E+00
    0.67532E-06        -0.52267E-07         0.00000E+00
    0.68431E-06        -0.53629E-07         0.00000E+00
    0.69341E-06        -0.52592E-07         0.00000E+00
    0.70201E-06        -0.49311E-07         0.00000E+00
    0.70958E-06        -0.44007E-07         0.00000E+00
    0.71563E-06        -0.36968E-07         0.00000E+00
    0.71972E-06        -0.28563E-07         0.00000E+00
    0.72145E-06        -0.19252E-07         0.00000E+00
    0.72056E-06        -0.95985E-08         0.00000E+00
    0.71943E-06        -0.47624E-08         0.00000E+00
    0.66533E-06        -0.75311E-08         0.00000E+00
    0.66309E-06        -0.14867E-07         0.00000E+00
    0.66137E-06        -0.28900E-07         0.00000E+00
    0.66463E-06        -0.41240E-07         0.00000E+00
    0.67170E-06        -0.51203E-07         0.00000E+00
    0.68146E-06        -0.58396E-07         0.00000E+00
    0.69286E-06        -0.62666E-07         0.00000E+00
    0.70498E-06        -0.64032E-07         0.00000E+00
    0.71705E-06        -0.62631E-07         0.00000E+00
    0.72840E-06        -0.58664E-07         0.00000E+00
    0.73843E-06        -0.52379E-07         0.00000E+00
    0.74657E-06        -0.44079E-07         0.00000E+00
    0.75227E-06        -0.34147E-07         0.00000E+00
    0.75503E-06        -0.23085E-07         0.00000E+00
    0.75439E-06        -0.11538E-07         0.00000E+00
    0.75318E-06        -0.57338E-08         0.00000E+00
    0.67128E-06        -0.93754E-08         0.00000E+00
    0.66970E-06        -0.18414E-07         0.00000E+00
    0.66990E-06        -0.35530E-07         0.00000E+00
    0.67605E-06        -0.50254E-07         0.00000E+00
    0.68661E-06        -0.61857E-07         0.00000E+00
    0.70008E-06        -0.69994E-07         0.00000E+00
    0.71517E-06        -0.74617E-07         0.00000E+00
    0.73082E-06        -0.75871E-07         0.00000E+00
    0.74618E-06        -0.73995E-07         0.00000E+00
    0.76055E-06        -0.69253E-07         0.00000E+00
    0.77331E-06        -0.61914E-07         0.00000E+00
    0.78383E-06        -0.52263E-07         0.00000E+00
    0.79145E-06        -0.40665E-07         0.00000E+00
    0.79549E-06        -0.27627E-07         0.00000E+00
    0.79526E-06        -0.13867E-07         0.00000E+00
    0.79401E-06        -0.69109E-08         0.00000E+00
    0.67741E-06        -0.11630E-07         0.00000E+00
    0.67686E-06        -0.22719E-07         0.00000E+00
    0.67981E-06        -0.43475E-07         0.00000E+00
    0.68980E-06        -0.60870E-07         0.00000E+00
    0.70472E-06        -0.74156E-07         0.00000E+00
    0.72262E-06        -0.83112E-07         0.00000E+00
    0.74192E-06        -0.87891E-07         0.00000E+00
    0.76145E-06        -0.88842E-07         0.00000E+00
    0.78033E-06        -0.86361E-07         0.00000E+00
    0.79793E-06        -0.80791E-07         0.00000E+00
    0.81365E-06        -0.72400E-07         0.00000E+00
    0.82686E-06        -0.61412E-07         0.00000E+00
    0.83677E-06        -0.48103E-07         0.00000E+00
    0.84246E-06        -0.32927E-07         0.00000E+00
    0.84295E-06        -0.16635E-07         0.00000E+00
    0.84177E-06        -0.83277E-08         0.00000E+00
    0.68224E-06        -0.14364E-07         0.00000E+00
    0.68327E-06        -0.27892E-07         0.00000E+00
    0.69017E-06        -0.52870E-07         0.00000E+00
    0.70528E-06        -0.73132E-07         0.00000E+00
    0.72566E-06        -0.87973E-07         0.00000E+00
    0.74880E-06        -0.97427E-07         0.00000E+00
    0.77280E-06        -0.10200E-06         0.00000E+00
    0.79644E-06        -0.10235E-06         0.00000E+00
    0.81894E-06        -0.99116E-07         0.00000E+00
    0.83983E-06        -0.92726E-07         0.00000E+00
    0.85865E-06        -0.83412E-07         0.00000E+00
    0.87483E-06        -0.71264E-07         0.00000E+00
    0.88749E-06        -0.56368E-07         0.00000E+00
    0.89540E-06        -0.39010E-07         0.00000E+00
    0.89711E-06        -0.19899E-07         0.00000E+00
    0.89622E-06        -0.10027E-07         0.00000E+00
    0.68404E-06        -0.17673E-07         0.00000E+00
    0.68745E-06        -0.34074E-07         0.00000E+00
    0.70005E-06        -0.63852E-07         0.00000E+00
    0.72204E-06        -0.86993E-07         0.00000E+00
    0.74928E-06        -0.10296E-06         0.00000E+00
    0.77850E-06        -0.11229E-06         0.00000E+00
    0.80757E-06        -0.11605E-06         0.00000E+00
    0.83532E-06        -0.11540E-06         0.00000E+00
    0.86128E-06        -0.11125E-06         0.00000E+00
    0.88529E-06        -0.10414E-06         0.00000E+00
    0.90719E-06        -0.94221E-07         0.00000E+00
    0.92657E-06        -0.81337E-07         0.00000E+00
    0.94252E-06        -0.65238E-07         0.00000E+00
    0.95348E-06        -0.45863E-07         0.00000E+00
    0.95731E-06        -0.23718E-07         0.00000E+00
    0.95714E-06        -0.12064E-07         0.00000E+00
    0.68071E-06        -0.21692E-07         0.00000E+00
    0.68775E-06        -0.41457E-07         0.00000E+00
    0.70864E-06        -0.76551E-07         0.00000E+00
    0.73996E-06        -0.10223E-06         0.00000E+00
    0.77575E-06        -0.11843E-06         0.00000E+00
    0.81183E-06        -0.12656E-06         0.00000E+00
    0.84601E-06        -0.12863E-06         0.00000E+00
    0.87753E-06        -0.12645E-06         0.00000E+00
    0.90643E-06        -0.12125E-06         0.00000E+00
    0.93308E-06        -0.11366E-06         0.00000E+00
    0.95776E-06        -0.10368E-06         0.00000E+00
    0.98042E-06        -0.90813E-07         0.00000E+00
    0.10003E-05        -0.74281E-07         0.00000E+00
    0.10155E-05        -0.53389E-07         0.00000E+00
    0.10229E-05        -0.28148E-07         0.00000E+00
    0.10242E-05        -0.14507E-07         0.00000E+00
    0.66957E-06        -0.26636E-07         0.00000E+00
    0.68224E-06        -0.50307E-07         0.00000E+00
    0.71550E-06        -0.91038E-07         0.00000E+00
    0.75958E-06        -0.11826E-06         0.00000E+00
    0.80575E-06        -0.13298E-06         0.00000E+00
    0.84905E-06        -0.13830E-06         0.00000E+00
    0.88784E-06        -0.13756E-06         0.00000E+00
    0.92228E-06        -0.13330E-06         0.00000E+00
    0.95320E-06        -0.12703E-06         0.00000E+00
    0.98161E-06        -0.11933E-06         0.00000E+00
    0.10084E-05        -0.11007E-06         0.00000E+00
    0.10342E-05        -0.98361E-07         0.00000E+00
    0.10585E-05        -0.82687E-07         0.00000E+00
    0.10795E-05        -0.61315E-07         0.00000E+00
    0.10930E-05        -0.33214E-07         0.00000E+00
    0.10971E-05        -0.17435E-07         0.00000E+00
    0.64695E-06        -0.32852E-07         0.00000E+00
    0.66885E-06        -0.60991E-07         0.00000E+00
    0.72113E-06        -0.10713E-06         0.00000E+00
    0.78261E-06        -0.13360E-06         0.00000E+00
    0.84047E-06        -0.14397E-06         0.00000E+00
    0.89026E-06        -0.14432E-06         0.00000E+00
    0.93236E-06        -0.13972E-06         0.00000E+00
    0.96835E-06        -0.13313E-06         0.00000E+00
    0.10000E-05        -0.12595E-06         0.00000E+00
    0.10290E-05        -0.11867E-06         0.00000E+00
    0.10569E-05        -0.11101E-06         0.00000E+00
    0.10850E-05        -0.10186E-06         0.00000E+00
    0.11141E-05        -0.88940E-07         0.00000E+00
    0.11428E-05        -0.68951E-07         0.00000E+00
    0.11660E-05        -0.38817E-07         0.00000E+00
    0.11753E-05        -0.20905E-07         0.00000E+00
    0.60741E-06        -0.40948E-07         0.00000E+00
    0.64539E-06        -0.73862E-07         0.00000E+00
    0.72902E-06        -0.12366E-06         0.00000E+00
    0.81246E-06        -0.14448E-06         0.00000E+00
    0.88053E-06        -0.14615E-06         0.00000E+00
    0.93451E-06        -0.13973E-06         0.00000E+00
    0.97785E-06        -0.13117E-06         0.00000E+00
    0.10137E-05        -0.12266E-06         0.00000E+00
    0.10447E-05        -0.11513E-06         0.00000E+00
    0.10730E-05        -0.10879E-06         0.00000E+00
    0.11007E-05        -0.10338E-06         0.00000E+00
    0.11298E-05        -0.98026E-07         0.00000E+00
    0.11626E-05        -0.90168E-07         0.00000E+00
    0.12007E-05        -0.74592E-07         0.00000E+00
    0.12395E-05        -0.44478E-07         0.00000E+00
    0.12576E-05        -0.24909E-07         0.00000E+00
    0.53723E-06        -0.51189E-07         0.00000E+00
    0.61648E-06        -0.88775E-07         0.00000E+00
    0.74905E-06        -0.13569E-06         0.00000E+00
    0.85022E-06        -0.14050E-06         0.00000E+00
    0.92360E-06        -0.13001E-06         0.00000E+00
    0.97834E-06        -0.11822E-06         0.00000E+00
    0.10207E-05        -0.10750E-06         0.00000E+00
    0.10550E-05        -0.98659E-07         0.00000E+00
    0.10843E-05        -0.91816E-07         0.00000E+00
    0.11109E-05        -0.86917E-07         0.00000E+00
    0.11372E-05        -0.83812E-07         0.00000E+00
    0.11657E-05        -0.82109E-07         0.00000E+00
    0.12001E-05        -0.80859E-07         0.00000E+00
    0.12458E-05        -0.74137E-07         0.00000E+00
    0.13074E-05        -0.48324E-07         0.00000E+00
    0.13419E-05        -0.28557E-07         0.00000E+00
    0.46977E-06        -0.68955E-07         0.00000E+00
    0.59567E-06        -0.97004E-07         0.00000E+00
    0.77620E-06        -0.11494E-06         0.00000E+00
    0.88555E-06        -0.97510E-07         0.00000E+00
    0.95973E-06        -0.84000E-07         0.00000E+00
    0.10131E-05        -0.73029E-07         0.00000E+00
    0.10536E-05        -0.64619E-07         0.00000E+00
    0.10860E-05        -0.58312E-07         0.00000E+00
    0.11135E-05        -0.53808E-07         0.00000E+00
    0.11384E-05        -0.50923E-07         0.00000E+00
    0.11631E-05        -0.49589E-07         0.00000E+00
    0.11902E-05        -0.49861E-07         0.00000E+00
    0.12242E-05        -0.51688E-07         0.00000E+00
    0.12731E-05        -0.56023E-07         0.00000E+00
    0.13576E-05        -0.45445E-07         0.00000E+00
    0.14116E-05        -0.31805E-07         0.00000E+00
    0.44768E-06         0.00000E+00         0.00000E+00
    0.58925E-06         0.00000E+00         0.00000E+00
    0.78855E-06        -0.25481E-20         0.00000E+00
    0.90029E-06         0.45037E-21         0.00000E+00
    0.97413E-06         0.26285E-20         0.00000E+00
    0.10267E-05         0.00000E+00         0.00000E+00
    0.10663E-05         0.00000E+00         0.00000E+00
    0.10979E-05        -0.32302E-20         0.00000E+00
    0.11246E-05        -0.30956E-20         0.00000E+00
    0.11488E-05         0.33353E-20         0.00000E+00
    0.11728E-05         0.33353E-20         0.00000E+00
    0.11992E-05        -0.35739E-20         0.00000E+00
    0.12327E-05         0.14598E-21         0.00000E+00
    0.12822E-05         0.35658E-20         0.00000E+00
    0.13762E-05         0.19814E-21         0.00000E+00
    0.14390E-05         0.00000E+00         0.00000E+00
CELL_DATA        450
TENSORS stressef double 
    0.25108E+08        -0.16759E+06         0.00000E+00
   -0.16759E+06         0.14120E+08         0.00000E+00
    0.00000E+00         0.00000E+00         0.79994E+07
 
    0.22591E+08        -0.24792E+06         0.00000E+00
   -0.24792E+06         0.13797E+08         0.00000E+00
    0.00000E+00         0.00000E+00         0.72777E+07
 
    0.20633E+08        -0.22608E+06         0.00000E+00
   -0.22608E+06         0.13418E+08         0.00000E+00
    0.00000E+00         0.00000E+00         0.68100E+07
 
    0.19069E+08        -0.19818E+06         0.00000E+00
   -0.19818E+06         0.13078E+08         0.00000E+00
    0.00000E+00         0.00000E+00         0.64295E+07
 
    0.17734E+08        -0.16927E+06         0.00000E+00
   -0.16927E+06         0.12794E+08         0.00000E+00
    0.00000E+00         0.00000E+00         0.61055E+07
 
    0.16544E+08        -0.13983E+06         0.00000E+00
   -0.13983E+06         0.12566E+08         0.00000E+00
    0.00000E+00         0.00000E+00         0.58220E+07
 
    0.15449E+08        -0.10946E+06         0.00000E+00
   -0.10946E+06         0.12395E+08         0.00000E+00
    0.00000E+00         0.00000E+00         0.55689E+07
 
    0.14410E+08        -0.77554E+05         0.00000E+00
   -0.77554E+05         0.12285E+08         0.00000E+00
    0.00000E+00         0.00000E+00         0.53390E+07
 
    0.13396E+08        -0.43209E+05         0.00000E+00
   -0.43209E+05         0.12237E+08         0.00000E+00
    0.00000E+00         0.00000E+00         0.51266E+07
 
    0.12376E+08        -0.51173E+04         0.00000E+00
   -0.51173E+04         0.12258E+08         0.00000E+00
    0.00000E+00         0.00000E+00         0.49268E+07
 
    0.11316E+08         0.38856E+05         0.00000E+00
    0.38856E+05         0.12356E+08         0.00000E+00
    0.00000E+00         0.00000E+00         0.47345E+07
 
    0.10170E+08         0.92558E+05         0.00000E+00
    0.92558E+05         0.12547E+08         0.00000E+00
    0.00000E+00         0.00000E+00         0.45435E+07
 
    0.88688E+07         0.16442E+06         0.00000E+00
    0.16442E+06         0.12856E+08         0.00000E+00
    0.00000E+00         0.00000E+00         0.43450E+07
 
    0.72824E+07         0.27399E+06         0.00000E+00
    0.27399E+06         0.13337E+08         0.00000E+00
    0.00000E+00         0.00000E+00         0.41239E+07
 
    0.50306E+07         0.54944E+06         0.00000E+00
    0.54944E+06         0.14144E+08         0.00000E+00
    0.00000E+00         0.00000E+00         0.38349E+07
 
    0.23546E+08        -0.27153E+06         0.00000E+00
   -0.27153E+06         0.13028E+08         0.00000E+00
    0.00000E+00         0.00000E+00         0.73148E+07
 
    0.21339E+08        -0.56778E+06         0.00000E+00
   -0.56778E+06         0.12925E+08         0.00000E+00
    0.00000E+00         0.00000E+00         0.68528E+07
 
    0.19432E+08        -0.58925E+06         0.00000E+00
   -0.58925E+06         0.12708E+08         0.00000E+00
    0.00000E+00         0.00000E+00         0.64278E+07
 
    0.17861E+08        -0.53959E+06         0.00000E+00
   -0.53959E+06         0.12460E+08         0.00000E+00
    0.00000E+00         0.00000E+00         0.60643E+07
 
    0.16509E+08        -0.46960E+06         0.00000E+00
   -0.46960E+06         0.12230E+08         0.00000E+00
    0.00000E+00         0.00000E+00         0.57478E+07
 
    0.15301E+08        -0.39055E+06         0.00000E+00
   -0.39055E+06         0.12037E+08         0.00000E+00
    0.00000E+00         0.00000E+00         0.54676E+07
 
    0.14189E+08        -0.30512E+06         0.00000E+00
   -0.30512E+06         0.11890E+08         0.00000E+00
    0.00000E+00         0.00000E+00         0.52158E+07
 
    0.13136E+08        -0.21302E+06         0.00000E+00
   -0.21302E+06         0.11796E+08         0.00000E+00
    0.00000E+00         0.00000E+00         0.49863E+07
 
    0.12111E+08        -0.11230E+06         0.00000E+00
   -0.11230E+06         0.11760E+08         0.00000E+00
    0.00000E+00         0.00000E+00         0.47741E+07
 
    0.11083E+08         0.63701E+03         0.00000E+00
    0.63701E+03         0.11790E+08         0.00000E+00
    0.00000E+00         0.00000E+00         0.45746E+07
 
    0.10022E+08         0.13205E+06         0.00000E+00
    0.13205E+06         0.11896E+08         0.00000E+00
    0.00000E+00         0.00000E+00         0.43835E+07
 
    0.88854E+07         0.29352E+06         0.00000E+00
    0.29352E+06         0.12093E+08         0.00000E+00
    0.00000E+00         0.00000E+00         0.41956E+07
 
    0.76186E+07         0.50907E+06         0.00000E+00
    0.50907E+06         0.12407E+08         0.00000E+00
    0.00000E+00         0.00000E+00         0.40050E+07
 
    0.61307E+07         0.83968E+06         0.00000E+00
    0.83968E+06         0.12882E+08         0.00000E+00
    0.00000E+00         0.00000E+00         0.38026E+07
 
    0.44083E+07         0.14871E+07         0.00000E+00
    0.14871E+07         0.13583E+08         0.00000E+00
    0.00000E+00         0.00000E+00         0.35983E+07
 
    0.21851E+08        -0.30669E+06         0.00000E+00
   -0.30669E+06         0.11848E+08         0.00000E+00
    0.00000E+00         0.00000E+00         0.67399E+07
 
    0.19946E+08        -0.67305E+06         0.00000E+00
   -0.67305E+06         0.11821E+08         0.00000E+00
    0.00000E+00         0.00000E+00         0.63534E+07
 
    0.18209E+08        -0.79006E+06         0.00000E+00
   -0.79006E+06         0.11743E+08         0.00000E+00
    0.00000E+00         0.00000E+00         0.59906E+07
 
    0.16681E+08        -0.76950E+06         0.00000E+00
   -0.76950E+06         0.11612E+08         0.00000E+00
    0.00000E+00         0.00000E+00         0.56587E+07
 
    0.15336E+08        -0.68987E+06         0.00000E+00
   -0.68987E+06         0.11466E+08         0.00000E+00
    0.00000E+00         0.00000E+00         0.53604E+07
 
    0.14125E+08        -0.58096E+06         0.00000E+00
   -0.58096E+06         0.11332E+08         0.00000E+00
    0.00000E+00         0.00000E+00         0.50914E+07
 
    0.13007E+08        -0.45333E+06         0.00000E+00
   -0.45333E+06         0.11228E+08         0.00000E+00
    0.00000E+00         0.00000E+00         0.48470E+07
 
    0.11948E+08        -0.30964E+06         0.00000E+00
   -0.30964E+06         0.11166E+08         0.00000E+00
    0.00000E+00         0.00000E+00         0.46228E+07
 
    0.10921E+08        -0.14836E+06         0.00000E+00
   -0.14836E+06         0.11154E+08         0.00000E+00
    0.00000E+00         0.00000E+00         0.44151E+07
 
    0.98991E+07         0.35499E+05         0.00000E+00
    0.35499E+05         0.11203E+08         0.00000E+00
    0.00000E+00         0.00000E+00         0.42203E+07
 
    0.88541E+07         0.25148E+06         0.00000E+00
    0.25148E+06         0.11323E+08         0.00000E+00
    0.00000E+00         0.00000E+00         0.40354E+07
 
    0.77557E+07         0.51728E+06         0.00000E+00
    0.51728E+06         0.11529E+08         0.00000E+00
    0.00000E+00         0.00000E+00         0.38569E+07
 
    0.65702E+07         0.86748E+06         0.00000E+00
    0.86748E+06         0.11840E+08         0.00000E+00
    0.00000E+00         0.00000E+00         0.36821E+07
 
    0.52817E+07         0.13757E+07         0.00000E+00
    0.13757E+07         0.12279E+08         0.00000E+00
    0.00000E+00         0.00000E+00         0.35121E+07
 
    0.39446E+07         0.21564E+07         0.00000E+00
    0.21564E+07         0.12820E+08         0.00000E+00
    0.00000E+00         0.00000E+00         0.33530E+07
 
    0.20120E+08        -0.30280E+06         0.00000E+00
   -0.30280E+06         0.10663E+08         0.00000E+00
    0.00000E+00         0.00000E+00         0.61567E+07
 
    0.18492E+08        -0.69555E+06         0.00000E+00
   -0.69555E+06         0.10675E+08         0.00000E+00
    0.00000E+00         0.00000E+00         0.58333E+07
 
    0.16934E+08        -0.86574E+06         0.00000E+00
   -0.86574E+06         0.10664E+08         0.00000E+00
    0.00000E+00         0.00000E+00         0.55196E+07
 
    0.15498E+08        -0.88716E+06         0.00000E+00
   -0.88716E+06         0.10621E+08         0.00000E+00
    0.00000E+00         0.00000E+00         0.52238E+07
 
    0.14193E+08        -0.81946E+06         0.00000E+00
   -0.81946E+06         0.10554E+08         0.00000E+00
    0.00000E+00         0.00000E+00         0.49495E+07
 
    0.12999E+08        -0.69929E+06         0.00000E+00
   -0.69929E+06         0.10486E+08         0.00000E+00
    0.00000E+00         0.00000E+00         0.46969E+07
 
    0.11889E+08        -0.54375E+06         0.00000E+00
   -0.54375E+06         0.10432E+08         0.00000E+00
    0.00000E+00         0.00000E+00         0.44643E+07
 
    0.10839E+08        -0.35919E+06         0.00000E+00
   -0.35919E+06         0.10409E+08         0.00000E+00
    0.00000E+00         0.00000E+00         0.42495E+07
 
    0.98231E+07        -0.14552E+06         0.00000E+00
   -0.14552E+06         0.10427E+08         0.00000E+00
    0.00000E+00         0.00000E+00         0.40500E+07
 
    0.88204E+07         0.10244E+06         0.00000E+00
    0.10244E+06         0.10497E+08         0.00000E+00
    0.00000E+00         0.00000E+00         0.38635E+07
 
    0.78098E+07         0.39572E+06         0.00000E+00
    0.39572E+06         0.10631E+08         0.00000E+00
    0.00000E+00         0.00000E+00         0.36882E+07
 
    0.67724E+07         0.75429E+06         0.00000E+00
    0.75429E+06         0.10840E+08         0.00000E+00
    0.00000E+00         0.00000E+00         0.35225E+07
 
    0.56985E+07         0.12130E+07         0.00000E+00
    0.12130E+07         0.11134E+08         0.00000E+00
    0.00000E+00         0.00000E+00         0.33665E+07
 
    0.46026E+07         0.18252E+07         0.00000E+00
    0.18252E+07         0.11509E+08         0.00000E+00
    0.00000E+00         0.00000E+00         0.32224E+07
 
    0.35456E+07         0.26527E+07         0.00000E+00
    0.26527E+07         0.11934E+08         0.00000E+00
    0.00000E+00         0.00000E+00         0.30959E+07
 
    0.18408E+08        -0.28094E+06         0.00000E+00
   -0.28094E+06         0.94739E+07         0.00000E+00
    0.00000E+00         0.00000E+00         0.55764E+07
 
    0.17015E+08        -0.67087E+06         0.00000E+00
   -0.67087E+06         0.95066E+07         0.00000E+00
    0.00000E+00         0.00000E+00         0.53043E+07
 
    0.15628E+08        -0.86721E+06         0.00000E+00
   -0.86721E+06         0.95377E+07         0.00000E+00
    0.00000E+00         0.00000E+00         0.50332E+07
 
    0.14304E+08        -0.91874E+06         0.00000E+00
   -0.91874E+06         0.95505E+07         0.00000E+00
    0.00000E+00         0.00000E+00         0.47708E+07
 
    0.13064E+08        -0.86875E+06         0.00000E+00
   -0.86875E+06         0.95452E+07         0.00000E+00
    0.00000E+00         0.00000E+00         0.45219E+07
 
    0.11909E+08        -0.74849E+06         0.00000E+00
   -0.74849E+06         0.95324E+07         0.00000E+00
    0.00000E+00         0.00000E+00         0.42883E+07
 
    0.10826E+08        -0.57653E+06         0.00000E+00
   -0.57653E+06         0.95263E+07         0.00000E+00
    0.00000E+00         0.00000E+00         0.40705E+07
 
    0.97988E+07        -0.36143E+06         0.00000E+00
   -0.36143E+06         0.95403E+07         0.00000E+00
    0.00000E+00         0.00000E+00         0.38678E+07
 
    0.88087E+07        -0.10465E+06         0.00000E+00
   -0.10465E+06         0.95867E+07         0.00000E+00
    0.00000E+00         0.00000E+00         0.36791E+07
 
    0.78398E+07         0.19813E+06         0.00000E+00
    0.19813E+06         0.96767E+07         0.00000E+00
    0.00000E+00         0.00000E+00         0.35033E+07
 
    0.68783E+07         0.55725E+06         0.00000E+00
    0.55725E+06         0.98199E+07         0.00000E+00
    0.00000E+00         0.00000E+00         0.33396E+07
 
    0.59161E+07         0.99065E+06         0.00000E+00
    0.99065E+06         0.10024E+08         0.00000E+00
    0.00000E+00         0.00000E+00         0.31880E+07
 
    0.49570E+07         0.15253E+07         0.00000E+00
    0.15253E+07         0.10289E+08         0.00000E+00
    0.00000E+00         0.00000E+00         0.30493E+07
 
    0.40253E+07         0.21953E+07         0.00000E+00
    0.21953E+07         0.10606E+08         0.00000E+00
    0.00000E+00         0.00000E+00         0.29262E+07
 
    0.31744E+07         0.30328E+07         0.00000E+00
    0.30328E+07         0.10943E+08         0.00000E+00
    0.00000E+00         0.00000E+00         0.28235E+07
 
    0.16743E+08        -0.25207E+06         0.00000E+00
   -0.25207E+06         0.82925E+07         0.00000E+00
    0.00000E+00         0.00000E+00         0.50072E+07
 
    0.15545E+08        -0.61933E+06         0.00000E+00
   -0.61933E+06         0.83350E+07         0.00000E+00
    0.00000E+00         0.00000E+00         0.47760E+07
 
    0.14313E+08        -0.82281E+06         0.00000E+00
   -0.82281E+06         0.83896E+07         0.00000E+00
    0.00000E+00         0.00000E+00         0.45406E+07
 
    0.13104E+08        -0.89227E+06         0.00000E+00
   -0.89227E+06         0.84374E+07         0.00000E+00
    0.00000E+00         0.00000E+00         0.43082E+07
 
    0.11945E+08        -0.85708E+06         0.00000E+00
   -0.85708E+06         0.84733E+07         0.00000E+00
    0.00000E+00         0.00000E+00         0.40836E+07
 
    0.10847E+08        -0.74098E+06         0.00000E+00
   -0.74098E+06         0.85017E+07         0.00000E+00
    0.00000E+00         0.00000E+00         0.38698E+07
 
    0.98083E+07        -0.56000E+06         0.00000E+00
   -0.56000E+06         0.85323E+07         0.00000E+00
    0.00000E+00         0.00000E+00         0.36681E+07
 
    0.88191E+07        -0.32286E+06         0.00000E+00
   -0.32286E+06         0.85763E+07         0.00000E+00
    0.00000E+00         0.00000E+00         0.34791E+07
 
    0.78685E+07        -0.32088E+05         0.00000E+00
   -0.32088E+05         0.86450E+07         0.00000E+00
    0.00000E+00         0.00000E+00         0.33027E+07
 
    0.69460E+07         0.31512E+06         0.00000E+00
    0.31512E+06         0.87483E+07         0.00000E+00
    0.00000E+00         0.00000E+00         0.31389E+07
 
    0.60441E+07         0.72675E+06         0.00000E+00
    0.72675E+06         0.88940E+07         0.00000E+00
    0.00000E+00         0.00000E+00         0.29876E+07
 
    0.51619E+07         0.12160E+07         0.00000E+00
    0.12160E+07         0.90861E+07         0.00000E+00
    0.00000E+00         0.00000E+00         0.28496E+07
 
    0.43095E+07         0.18009E+07         0.00000E+00
    0.18009E+07         0.93219E+07         0.00000E+00
    0.00000E+00         0.00000E+00         0.27263E+07
 
    0.35126E+07         0.25008E+07         0.00000E+00
    0.25008E+07         0.95883E+07         0.00000E+00
    0.00000E+00         0.00000E+00         0.26202E+07
 
    0.28153E+07         0.33307E+07         0.00000E+00
    0.33307E+07         0.98600E+07         0.00000E+00
    0.00000E+00         0.00000E+00         0.25351E+07
 
    0.15142E+08        -0.22066E+06         0.00000E+00
   -0.22066E+06         0.71233E+07         0.00000E+00
    0.00000E+00         0.00000E+00         0.44530E+07
 
    0.14101E+08        -0.55452E+06         0.00000E+00
   -0.55452E+06         0.71693E+07         0.00000E+00
    0.00000E+00         0.00000E+00         0.42540E+07
 
    0.13006E+08        -0.75236E+06         0.00000E+00
   -0.75236E+06         0.72348E+07         0.00000E+00
    0.00000E+00         0.00000E+00         0.40482E+07
 
    0.11908E+08        -0.82982E+06         0.00000E+00
   -0.82982E+06         0.73013E+07         0.00000E+00
    0.00000E+00         0.00000E+00         0.38418E+07
 
    0.10837E+08        -0.80473E+06         0.00000E+00
   -0.80473E+06         0.73609E+07         0.00000E+00
    0.00000E+00         0.00000E+00         0.36395E+07
 
    0.98088E+07        -0.69317E+06         0.00000E+00
   -0.69317E+06         0.74146E+07         0.00000E+00
    0.00000E+00         0.00000E+00         0.34447E+07
 
    0.88277E+07        -0.50722E+06         0.00000E+00
   -0.50722E+06         0.74686E+07         0.00000E+00
    0.00000E+00         0.00000E+00         0.32593E+07
 
    0.78908E+07        -0.25436E+06         0.00000E+00
   -0.25436E+06         0.75316E+07         0.00000E+00
    0.00000E+00         0.00000E+00         0.30845E+07
 
    0.69922E+07         0.62428E+05         0.00000E+00
    0.62428E+05         0.76132E+07         0.00000E+00
    0.00000E+00         0.00000E+00         0.29211E+07
 
    0.61262E+07         0.44423E+06         0.00000E+00
    0.44423E+06         0.77217E+07         0.00000E+00
    0.00000E+00         0.00000E+00         0.27696E+07
 
    0.52903E+07         0.89585E+06         0.00000E+00
    0.89585E+06         0.78631E+07         0.00000E+00
    0.00000E+00         0.00000E+00         0.26307E+07
 
    0.44876E+07         0.14252E+07         0.00000E+00
    0.14252E+07         0.80394E+07         0.00000E+00
    0.00000E+00         0.00000E+00         0.25054E+07
 
    0.37304E+07         0.20422E+07         0.00000E+00
    0.20422E+07         0.82463E+07         0.00000E+00
    0.00000E+00         0.00000E+00         0.23953E+07
 
    0.30426E+07         0.27556E+07         0.00000E+00
    0.27556E+07         0.84717E+07         0.00000E+00
    0.00000E+00         0.00000E+00         0.23029E+07
 
    0.24602E+07         0.35697E+07         0.00000E+00
    0.35697E+07         0.86946E+07         0.00000E+00
    0.00000E+00         0.00000E+00         0.22310E+07
 
    0.13609E+08        -0.18929E+06         0.00000E+00
   -0.18929E+06         0.59689E+07         0.00000E+00
    0.00000E+00         0.00000E+00         0.39157E+07
 
    0.12694E+08        -0.48543E+06         0.00000E+00
   -0.48543E+06         0.60141E+07         0.00000E+00
    0.00000E+00         0.00000E+00         0.37416E+07
 
    0.11717E+08        -0.67044E+06         0.00000E+00
   -0.67044E+06         0.60812E+07         0.00000E+00
    0.00000E+00         0.00000E+00         0.35596E+07
 
    0.10723E+08        -0.74914E+06         0.00000E+00
   -0.74914E+06         0.61531E+07         0.00000E+00
    0.00000E+00         0.00000E+00         0.33752E+07
 
    0.97419E+07        -0.72994E+06         0.00000E+00
   -0.72994E+06         0.62215E+07         0.00000E+00
    0.00000E+00         0.00000E+00         0.31927E+07
 
    0.87916E+07        -0.62195E+06         0.00000E+00
   -0.62195E+06         0.62854E+07         0.00000E+00
    0.00000E+00         0.00000E+00         0.30154E+07
 
    0.78792E+07        -0.43303E+06         0.00000E+00
   -0.43303E+06         0.63487E+07         0.00000E+00
    0.00000E+00         0.00000E+00         0.28456E+07
 
    0.70058E+07        -0.16878E+06         0.00000E+00
   -0.16878E+06         0.64184E+07         0.00000E+00
    0.00000E+00         0.00000E+00         0.26848E+07
 
    0.61694E+07         0.16776E+06         0.00000E+00
    0.16776E+06         0.65021E+07         0.00000E+00
    0.00000E+00         0.00000E+00         0.25343E+07
 
    0.53679E+07         0.57605E+06         0.00000E+00
    0.57605E+06         0.66070E+07         0.00000E+00
    0.00000E+00         0.00000E+00         0.23950E+07
 
    0.46014E+07         0.10577E+07         0.00000E+00
    0.10577E+07         0.67378E+07         0.00000E+00
    0.00000E+00         0.00000E+00         0.22678E+07
 
    0.38751E+07         0.16156E+07         0.00000E+00
    0.16156E+07         0.68953E+07         0.00000E+00
    0.00000E+00         0.00000E+00         0.21541E+07
 
    0.32015E+07         0.22529E+07         0.00000E+00
    0.22529E+07         0.70752E+07         0.00000E+00
    0.00000E+00         0.00000E+00         0.20553E+07
 
    0.26015E+07         0.29709E+07         0.00000E+00
    0.29709E+07         0.72670E+07         0.00000E+00
    0.00000E+00         0.00000E+00         0.19737E+07
 
    0.21044E+07         0.37664E+07         0.00000E+00
    0.37664E+07         0.74538E+07         0.00000E+00
    0.00000E+00         0.00000E+00         0.19116E+07
 
    0.12146E+08        -0.15989E+06         0.00000E+00
   -0.15989E+06         0.48300E+07         0.00000E+00
    0.00000E+00         0.00000E+00         0.33952E+07
 
    0.11328E+08        -0.41876E+06         0.00000E+00
   -0.41876E+06         0.48707E+07         0.00000E+00
    0.00000E+00         0.00000E+00         0.32398E+07
 
    0.10451E+08        -0.58829E+06         0.00000E+00
   -0.58829E+06         0.49319E+07         0.00000E+00
    0.00000E+00         0.00000E+00         0.30765E+07
 
    0.95527E+07        -0.66468E+06         0.00000E+00
   -0.66468E+06         0.49984E+07         0.00000E+00
    0.00000E+00         0.00000E+00         0.29102E+07
 
    0.86614E+07        -0.64860E+06         0.00000E+00
   -0.64860E+06         0.50626E+07         0.00000E+00
    0.00000E+00         0.00000E+00         0.27448E+07
 
    0.77936E+07        -0.54312E+06         0.00000E+00
   -0.54312E+06         0.51229E+07         0.00000E+00
    0.00000E+00         0.00000E+00         0.25833E+07
 
    0.69578E+07        -0.35213E+06         0.00000E+00
   -0.35213E+06         0.51821E+07         0.00000E+00
    0.00000E+00         0.00000E+00         0.24280E+07
 
    0.61569E+07        -0.79237E+05         0.00000E+00
   -0.79237E+05         0.52460E+07         0.00000E+00
    0.00000E+00         0.00000E+00         0.22806E+07
 
    0.53909E+07         0.27270E+06         0.00000E+00
    0.27270E+06         0.53212E+07         0.00000E+00
    0.00000E+00         0.00000E+00         0.21424E+07
 
    0.46594E+07         0.70172E+06         0.00000E+00
    0.70172E+06         0.54138E+07         0.00000E+00
    0.00000E+00         0.00000E+00         0.20146E+07
 
    0.39640E+07         0.12065E+07         0.00000E+00
    0.12065E+07         0.55278E+07         0.00000E+00
    0.00000E+00         0.00000E+00         0.18984E+07
 
    0.33104E+07         0.17856E+07         0.00000E+00
    0.17856E+07         0.56640E+07         0.00000E+00
    0.00000E+00         0.00000E+00         0.17949E+07
 
    0.27098E+07         0.24369E+07         0.00000E+00
    0.24369E+07         0.58186E+07         0.00000E+00
    0.00000E+00         0.00000E+00         0.17057E+07
 
    0.21800E+07         0.31556E+07         0.00000E+00
    0.31556E+07         0.59828E+07         0.00000E+00
    0.00000E+00         0.00000E+00         0.16326E+07
 
    0.17453E+07         0.39333E+07         0.00000E+00
    0.39333E+07         0.61431E+07         0.00000E+00
    0.00000E+00         0.00000E+00         0.15777E+07
 
    0.10746E+08        -0.13412E+06         0.00000E+00
   -0.13412E+06         0.37056E+07         0.00000E+00
    0.00000E+00         0.00000E+00         0.28903E+07
 
    0.10002E+08        -0.35992E+06         0.00000E+00
   -0.35992E+06         0.37386E+07         0.00000E+00
    0.00000E+00         0.00000E+00         0.27481E+07
 
    0.92082E+07        -0.51502E+06         0.00000E+00
   -0.51502E+06         0.37874E+07         0.00000E+00
    0.00000E+00         0.00000E+00         0.25991E+07
 
    0.83978E+07        -0.58841E+06         0.00000E+00
   -0.58841E+06         0.38393E+07         0.00000E+00
    0.00000E+00         0.00000E+00         0.24474E+07
 
    0.75942E+07        -0.57435E+06         0.00000E+00
   -0.57435E+06         0.38879E+07         0.00000E+00
    0.00000E+00         0.00000E+00         0.22964E+07
 
    0.68119E+07        -0.47079E+06         0.00000E+00
   -0.47079E+06         0.39321E+07         0.00000E+00
    0.00000E+00         0.00000E+00         0.21488E+07
 
    0.60586E+07        -0.27811E+06         0.00000E+00
   -0.27811E+06         0.39748E+07         0.00000E+00
    0.00000E+00         0.00000E+00         0.20067E+07
 
    0.53371E+07         0.19305E+04         0.00000E+00
    0.19305E+04         0.40212E+07         0.00000E+00
    0.00000E+00         0.00000E+00         0.18717E+07
 
    0.46477E+07         0.36675E+06         0.00000E+00
    0.36675E+06         0.40775E+07         0.00000E+00
    0.00000E+00         0.00000E+00         0.17450E+07
 
    0.39905E+07         0.81316E+06         0.00000E+00
    0.81316E+06         0.41495E+07         0.00000E+00
    0.00000E+00         0.00000E+00         0.16280E+07
 
    0.33671E+07         0.13373E+07         0.00000E+00
    0.13373E+07         0.42411E+07         0.00000E+00
    0.00000E+00         0.00000E+00         0.15216E+07
 
    0.27823E+07         0.19342E+07         0.00000E+00
    0.19342E+07         0.43534E+07         0.00000E+00
    0.00000E+00         0.00000E+00         0.14272E+07
 
    0.22457E+07         0.25971E+07         0.00000E+00
    0.25971E+07         0.44837E+07         0.00000E+00
    0.00000E+00         0.00000E+00         0.13459E+07
 
    0.17719E+07         0.33167E+07         0.00000E+00
    0.33167E+07         0.46252E+07         0.00000E+00
    0.00000E+00         0.00000E+00         0.12794E+07
 
    0.13809E+07         0.40802E+07         0.00000E+00
    0.40802E+07         0.47665E+07         0.00000E+00
    0.00000E+00         0.00000E+00         0.12295E+07
 
    0.93993E+07        -0.11351E+06         0.00000E+00
   -0.11351E+06         0.25929E+07         0.00000E+00
    0.00000E+00         0.00000E+00         0.23984E+07
 
    0.87083E+07        -0.31358E+06         0.00000E+00
   -0.31358E+06         0.26153E+07         0.00000E+00
    0.00000E+00         0.00000E+00         0.22647E+07
 
    0.79844E+07        -0.45828E+06         0.00000E+00
   -0.45828E+06         0.26459E+07         0.00000E+00
    0.00000E+00         0.00000E+00         0.21261E+07
 
    0.72545E+07        -0.53042E+06         0.00000E+00
   -0.53042E+06         0.26749E+07         0.00000E+00
    0.00000E+00         0.00000E+00         0.19859E+07
 
    0.65368E+07        -0.51888E+06         0.00000E+00
   -0.51888E+06         0.26979E+07         0.00000E+00
    0.00000E+00         0.00000E+00         0.18469E+07
 
    0.58422E+07        -0.41731E+06         0.00000E+00
   -0.41731E+06         0.27150E+07         0.00000E+00
    0.00000E+00         0.00000E+00         0.17114E+07
 
    0.51760E+07        -0.22309E+06         0.00000E+00
   -0.22309E+06         0.27298E+07         0.00000E+00
    0.00000E+00         0.00000E+00         0.15812E+07
 
    0.45395E+07         0.63618E+05         0.00000E+00
    0.63618E+05         0.27479E+07         0.00000E+00
    0.00000E+00         0.00000E+00         0.14575E+07
 
    0.39320E+07         0.44046E+06         0.00000E+00
    0.44046E+06         0.27757E+07         0.00000E+00
    0.00000E+00         0.00000E+00         0.13416E+07
 
    0.33526E+07         0.90321E+06         0.00000E+00
    0.90321E+06         0.28194E+07         0.00000E+00
    0.00000E+00         0.00000E+00         0.12344E+07
 
    0.28016E+07         0.14458E+07         0.00000E+00
    0.14458E+07         0.28833E+07         0.00000E+00
    0.00000E+00         0.00000E+00         0.11370E+07
 
    0.22824E+07         0.20602E+07         0.00000E+00
    0.20602E+07         0.29692E+07         0.00000E+00
    0.00000E+00         0.00000E+00         0.10503E+07
 
    0.18021E+07         0.27359E+07         0.00000E+00
    0.27359E+07         0.30758E+07         0.00000E+00
    0.00000E+00         0.00000E+00         0.97557E+06
 
    0.13725E+07         0.34597E+07         0.00000E+00
    0.34597E+07         0.31978E+07         0.00000E+00
    0.00000E+00         0.00000E+00         0.91407E+06
 
    0.10099E+07         0.42151E+07         0.00000E+00
    0.42151E+07         0.33263E+07         0.00000E+00
    0.00000E+00         0.00000E+00         0.86725E+06
 
    0.80905E+07        -0.99461E+05         0.00000E+00
   -0.99461E+05         0.14878E+07         0.00000E+00
    0.00000E+00         0.00000E+00         0.19157E+07
 
    0.74358E+07        -0.28384E+06         0.00000E+00
   -0.28384E+06         0.14967E+07         0.00000E+00
    0.00000E+00         0.00000E+00         0.17865E+07
 
    0.67710E+07        -0.42463E+06         0.00000E+00
   -0.42463E+06         0.15039E+07         0.00000E+00
    0.00000E+00         0.00000E+00         0.16550E+07
 
    0.61159E+07        -0.49930E+06         0.00000E+00
   -0.49930E+06         0.15027E+07         0.00000E+00
    0.00000E+00         0.00000E+00         0.15237E+07
 
    0.54829E+07        -0.49214E+06         0.00000E+00
   -0.49214E+06         0.14910E+07         0.00000E+00
    0.00000E+00         0.00000E+00         0.13948E+07
 
    0.48781E+07        -0.39325E+06         0.00000E+00
   -0.39325E+06         0.14710E+07         0.00000E+00
    0.00000E+00         0.00000E+00         0.12698E+07
 
    0.43033E+07        -0.19753E+06         0.00000E+00
   -0.19753E+06         0.14477E+07         0.00000E+00
    0.00000E+00         0.00000E+00         0.11502E+07
 
    0.37570E+07         0.96162E+05         0.00000E+00
    0.96162E+05         0.14277E+07         0.00000E+00
    0.00000E+00         0.00000E+00         0.10369E+07
 
    0.32360E+07         0.48560E+06         0.00000E+00
    0.48560E+06         0.14184E+07         0.00000E+00
    0.00000E+00         0.00000E+00         0.93089E+06
 
    0.27374E+07         0.96563E+06         0.00000E+00
    0.96563E+06         0.14266E+07         0.00000E+00
    0.00000E+00         0.00000E+00         0.83281E+06
 
    0.22596E+07         0.15283E+07         0.00000E+00
    0.15283E+07         0.14576E+07         0.00000E+00
    0.00000E+00         0.00000E+00         0.74344E+06
 
    0.18034E+07         0.21627E+07         0.00000E+00
    0.21627E+07         0.15146E+07         0.00000E+00
    0.00000E+00         0.00000E+00         0.66359E+06
 
    0.13734E+07         0.28553E+07         0.00000E+00
    0.28553E+07         0.15974E+07         0.00000E+00
    0.00000E+00         0.00000E+00         0.59416E+06
 
    0.97823E+06         0.35891E+07         0.00000E+00
    0.35891E+07         0.17028E+07         0.00000E+00
    0.00000E+00         0.00000E+00         0.53621E+06
 
    0.63120E+06         0.43444E+07         0.00000E+00
    0.43444E+07         0.18235E+07         0.00000E+00
    0.00000E+00         0.00000E+00         0.49093E+06
 
    0.68005E+07        -0.93225E+05         0.00000E+00
   -0.93225E+05         0.38427E+06         0.00000E+00
    0.00000E+00         0.00000E+00         0.14370E+07
 
    0.61690E+07        -0.27431E+06         0.00000E+00
   -0.27431E+06         0.37724E+06         0.00000E+00
    0.00000E+00         0.00000E+00         0.13093E+07
 
    0.55556E+07        -0.41974E+06         0.00000E+00
   -0.41974E+06         0.35618E+06         0.00000E+00
    0.00000E+00         0.00000E+00         0.11824E+07
 
    0.49720E+07        -0.50234E+06         0.00000E+00
   -0.50234E+06         0.31788E+06         0.00000E+00
    0.00000E+00         0.00000E+00         0.10580E+07
 
    0.44238E+07        -0.50255E+06         0.00000E+00
   -0.50255E+06         0.26350E+06         0.00000E+00
    0.00000E+00         0.00000E+00         0.93747E+06
 
    0.39118E+07        -0.40755E+06         0.00000E+00
   -0.40755E+06         0.19760E+06         0.00000E+00
    0.00000E+00         0.00000E+00         0.82188E+06
 
    0.34329E+07        -0.21026E+06         0.00000E+00
   -0.21026E+06         0.12711E+06         0.00000E+00
    0.00000E+00         0.00000E+00         0.71199E+06
 
    0.29817E+07         0.91399E+05         0.00000E+00
    0.91399E+05         0.60357E+05         0.00000E+00
    0.00000E+00         0.00000E+00         0.60841E+06
 
    0.25519E+07         0.49521E+06         0.00000E+00
    0.49521E+06         0.60072E+04         0.00000E+00
    0.00000E+00         0.00000E+00         0.51159E+06
 
    0.21376E+07         0.99509E+06         0.00000E+00
    0.99509E+06        -0.27804E+05         0.00000E+00
    0.00000E+00         0.00000E+00         0.42196E+06
 
    0.17341E+07         0.15813E+07         0.00000E+00
    0.15813E+07        -0.34350E+05         0.00000E+00
    0.00000E+00         0.00000E+00         0.33995E+06
 
    0.13394E+07         0.22408E+07         0.00000E+00
    0.22408E+07        -0.90783E+04         0.00000E+00
    0.00000E+00         0.00000E+00         0.26606E+06
 
    0.95491E+06         0.29566E+07         0.00000E+00
    0.29566E+07         0.49719E+05         0.00000E+00
    0.00000E+00         0.00000E+00         0.20093E+06
 
    0.58624E+06         0.37088E+07         0.00000E+00
    0.37088E+07         0.14036E+06         0.00000E+00
    0.00000E+00         0.00000E+00         0.14532E+06
 
    0.24362E+06         0.44740E+07         0.00000E+00
    0.44740E+07         0.25741E+06         0.00000E+00
    0.00000E+00         0.00000E+00         0.10021E+06
 
    0.55061E+07        -0.95929E+05         0.00000E+00
   -0.95929E+05        -0.72497E+06         0.00000E+00
    0.00000E+00         0.00000E+00         0.95623E+06
 
    0.48892E+07        -0.28811E+06         0.00000E+00
   -0.28811E+06        -0.75040E+06         0.00000E+00
    0.00000E+00         0.00000E+00         0.82777E+06
 
    0.43227E+07        -0.44841E+06         0.00000E+00
   -0.44841E+06        -0.80420E+06         0.00000E+00
    0.00000E+00         0.00000E+00         0.70370E+06
 
    0.38098E+07        -0.54563E+06         0.00000E+00
   -0.54563E+06        -0.88557E+06         0.00000E+00
    0.00000E+00         0.00000E+00         0.58484E+06
 
    0.33486E+07        -0.55704E+06         0.00000E+00
   -0.55704E+06        -0.98986E+06         0.00000E+00
    0.00000E+00         0.00000E+00         0.47175E+06
 
    0.29333E+07        -0.46748E+06         0.00000E+00
   -0.46748E+06        -0.11095E+07         0.00000E+00
    0.00000E+00         0.00000E+00         0.36477E+06
 
    0.25555E+07        -0.26845E+06         0.00000E+00
   -0.26845E+06        -0.12351E+07         0.00000E+00
    0.00000E+00         0.00000E+00         0.26408E+06
 
    0.22051E+07         0.42717E+05         0.00000E+00
    0.42717E+05        -0.13563E+07         0.00000E+00
    0.00000E+00         0.00000E+00         0.16976E+06
 
    0.18717E+07         0.46363E+06         0.00000E+00
    0.46363E+06        -0.14626E+07         0.00000E+00
    0.00000E+00         0.00000E+00         0.81811E+05
 
    0.15455E+07         0.98727E+06         0.00000E+00
    0.98727E+06        -0.15443E+07         0.00000E+00
    0.00000E+00         0.00000E+00         0.24413E+03
 
    0.12184E+07         0.16024E+07         0.00000E+00
    0.16024E+07        -0.15928E+07         0.00000E+00
    0.00000E+00         0.00000E+00        -0.74884E+05
 
    0.88478E+06         0.22935E+07         0.00000E+00
    0.22935E+07        -0.16019E+07         0.00000E+00
    0.00000E+00         0.00000E+00        -0.14342E+06
 
    0.54259E+06         0.30411E+07         0.00000E+00
    0.30411E+07        -0.15679E+07         0.00000E+00
    0.00000E+00         0.00000E+00        -0.20505E+06
 
    0.19396E+06         0.38218E+07         0.00000E+00
    0.38218E+07        -0.14905E+07         0.00000E+00
    0.00000E+00         0.00000E+00        -0.25931E+06
 
   -0.15392E+06         0.46088E+07         0.00000E+00
    0.46088E+07        -0.13735E+07         0.00000E+00
    0.00000E+00         0.00000E+00        -0.30548E+06
 
    0.41808E+07        -0.10854E+06         0.00000E+00
   -0.10854E+06        -0.18488E+07         0.00000E+00
    0.00000E+00         0.00000E+00         0.46640E+06
 
    0.35743E+07        -0.32790E+06         0.00000E+00
   -0.32790E+06        -0.18949E+07         0.00000E+00
    0.00000E+00         0.00000E+00         0.33588E+06
 
    0.30540E+07        -0.51461E+06         0.00000E+00
   -0.51461E+06        -0.19855E+07         0.00000E+00
    0.00000E+00         0.00000E+00         0.21370E+06
 
    0.26140E+07        -0.63408E+06         0.00000E+00
   -0.63408E+06        -0.21154E+07         0.00000E+00
    0.00000E+00         0.00000E+00         0.99717E+05
 
    0.22441E+07        -0.66103E+06         0.00000E+00
   -0.66103E+06        -0.22759E+07         0.00000E+00
    0.00000E+00         0.00000E+00        -0.63627E+04
 
    0.19313E+07        -0.57864E+06         0.00000E+00
   -0.57864E+06        -0.24561E+07         0.00000E+00
    0.00000E+00         0.00000E+00        -0.10495E+06
 
    0.16609E+07        -0.37753E+06         0.00000E+00
   -0.37753E+06        -0.26436E+07         0.00000E+00
    0.00000E+00         0.00000E+00        -0.19653E+06
 
    0.14176E+07        -0.54838E+05         0.00000E+00
   -0.54838E+05        -0.28257E+07         0.00000E+00
    0.00000E+00         0.00000E+00        -0.28161E+06
 
    0.11863E+07         0.38662E+06         0.00000E+00
    0.38662E+06        -0.29898E+07         0.00000E+00
    0.00000E+00         0.00000E+00        -0.36070E+06
 
    0.95291E+06         0.93888E+06         0.00000E+00
    0.93888E+06        -0.31243E+07         0.00000E+00
    0.00000E+00         0.00000E+00        -0.43428E+06
 
    0.70529E+06         0.15892E+07         0.00000E+00
    0.15892E+07        -0.32188E+07         0.00000E+00
    0.00000E+00         0.00000E+00        -0.50270E+06
 
    0.43379E+06         0.23201E+07         0.00000E+00
    0.23201E+07        -0.32649E+07         0.00000E+00
    0.00000E+00         0.00000E+00        -0.56622E+06
 
    0.13223E+06         0.31096E+07         0.00000E+00
    0.31096E+07        -0.32567E+07         0.00000E+00
    0.00000E+00         0.00000E+00        -0.62490E+06
 
   -0.20117E+06         0.39310E+07         0.00000E+00
    0.39310E+07        -0.31918E+07         0.00000E+00
    0.00000E+00         0.00000E+00        -0.67859E+06
 
   -0.56267E+06         0.47535E+07         0.00000E+00
    0.47535E+07        -0.30717E+07         0.00000E+00
    0.00000E+00         0.00000E+00        -0.72688E+06
 
    0.27949E+07        -0.13185E+06         0.00000E+00
   -0.13185E+06        -0.29976E+07         0.00000E+00
    0.00000E+00         0.00000E+00        -0.40540E+05
 
    0.21992E+07        -0.39580E+06         0.00000E+00
   -0.39580E+06        -0.30663E+07         0.00000E+00
    0.00000E+00         0.00000E+00        -0.17341E+06
 
    0.17287E+07        -0.62144E+06         0.00000E+00
   -0.62144E+06        -0.31974E+07         0.00000E+00
    0.00000E+00         0.00000E+00        -0.29375E+06
 
    0.13671E+07        -0.77134E+06         0.00000E+00
   -0.77134E+06        -0.33806E+07         0.00000E+00
    0.00000E+00         0.00000E+00        -0.40271E+06
 
    0.10953E+07        -0.81840E+06         0.00000E+00
   -0.81840E+06        -0.36028E+07         0.00000E+00
    0.00000E+00         0.00000E+00        -0.50150E+06
 
    0.89256E+06        -0.74482E+06         0.00000E+00
   -0.74482E+06        -0.38491E+07         0.00000E+00
    0.00000E+00         0.00000E+00        -0.59130E+06
 
    0.73725E+06        -0.54099E+06         0.00000E+00
   -0.54099E+06        -0.41039E+07         0.00000E+00
    0.00000E+00         0.00000E+00        -0.67334E+06
 
    0.60829E+06        -0.20435E+06         0.00000E+00
   -0.20435E+06        -0.43520E+07         0.00000E+00
    0.00000E+00         0.00000E+00        -0.74874E+06
 
    0.48564E+06         0.26158E+06         0.00000E+00
    0.26158E+06        -0.45786E+07         0.00000E+00
    0.00000E+00         0.00000E+00        -0.81859E+06
 
    0.35070E+06         0.84788E+06         0.00000E+00
    0.84788E+06        -0.47700E+07         0.00000E+00
    0.00000E+00         0.00000E+00        -0.88386E+06
 
    0.18686E+06         0.15405E+07         0.00000E+00
    0.15405E+07        -0.49139E+07         0.00000E+00
    0.00000E+00         0.00000E+00        -0.94541E+06
 
   -0.20046E+05         0.23204E+07         0.00000E+00
    0.23204E+07        -0.49996E+07         0.00000E+00
    0.00000E+00         0.00000E+00        -0.10039E+07
 
   -0.28087E+06         0.31630E+07         0.00000E+00
    0.31630E+07        -0.50186E+07         0.00000E+00
    0.00000E+00         0.00000E+00        -0.10599E+07
 
   -0.60203E+06         0.40386E+07         0.00000E+00
    0.40386E+07        -0.49658E+07         0.00000E+00
    0.00000E+00         0.00000E+00        -0.11136E+07
 
   -0.98402E+06         0.49124E+07         0.00000E+00
    0.49124E+07        -0.48402E+07         0.00000E+00
    0.00000E+00         0.00000E+00        -0.11649E+07
 
    0.13159E+07        -0.16649E+06         0.00000E+00
   -0.16649E+06        -0.41830E+07         0.00000E+00
    0.00000E+00         0.00000E+00        -0.57343E+06
 
    0.73687E+06        -0.49343E+06         0.00000E+00
   -0.49343E+06        -0.42763E+07         0.00000E+00
    0.00000E+00         0.00000E+00        -0.70789E+06
 
    0.32383E+06        -0.77104E+06         0.00000E+00
   -0.77104E+06        -0.44513E+07         0.00000E+00
    0.00000E+00         0.00000E+00        -0.82550E+06
 
    0.49812E+05        -0.95970E+06         0.00000E+00
   -0.95970E+06        -0.46921E+07         0.00000E+00
    0.00000E+00         0.00000E+00        -0.92845E+06
 
   -0.11417E+06        -0.10312E+07         0.00000E+00
   -0.10312E+07        -0.49803E+07         0.00000E+00
    0.00000E+00         0.00000E+00        -0.10189E+07
 
   -0.19758E+06        -0.96764E+06         0.00000E+00
   -0.96764E+06        -0.52968E+07         0.00000E+00
    0.00000E+00         0.00000E+00        -0.10989E+07
 
   -0.22903E+06        -0.76002E+06         0.00000E+00
   -0.76002E+06        -0.56228E+07         0.00000E+00
    0.00000E+00         0.00000E+00        -0.11704E+07
 
   -0.23555E+06        -0.40668E+06         0.00000E+00
   -0.40668E+06        -0.59401E+07         0.00000E+00
    0.00000E+00         0.00000E+00        -0.12351E+07
 
   -0.24222E+06         0.87850E+05         0.00000E+00
    0.87850E+05        -0.62321E+07         0.00000E+00
    0.00000E+00         0.00000E+00        -0.12949E+07
 
   -0.27219E+06         0.71369E+06         0.00000E+00
    0.71369E+06        -0.64834E+07         0.00000E+00
    0.00000E+00         0.00000E+00        -0.13511E+07
 
   -0.34667E+06         0.14558E+07         0.00000E+00
    0.14558E+07        -0.66794E+07         0.00000E+00
    0.00000E+00         0.00000E+00        -0.14052E+07
 
   -0.48471E+06         0.22939E+07         0.00000E+00
    0.22939E+07        -0.68071E+07         0.00000E+00
    0.00000E+00         0.00000E+00        -0.14584E+07
 
   -0.70253E+06         0.32017E+07         0.00000E+00
    0.32017E+07        -0.68551E+07         0.00000E+00
    0.00000E+00         0.00000E+00        -0.15115E+07
 
   -0.10122E+07         0.41464E+07         0.00000E+00
    0.41464E+07        -0.68148E+07         0.00000E+00
    0.00000E+00         0.00000E+00        -0.15654E+07
 
   -0.14196E+07         0.50889E+07         0.00000E+00
    0.50889E+07        -0.66821E+07         0.00000E+00
    0.00000E+00         0.00000E+00        -0.16203E+07
 
   -0.29130E+06        -0.21290E+06         0.00000E+00
   -0.21290E+06        -0.54184E+07         0.00000E+00
    0.00000E+00         0.00000E+00        -0.11419E+07
 
   -0.84240E+06        -0.62185E+06         0.00000E+00
   -0.62185E+06        -0.55382E+07         0.00000E+00
    0.00000E+00         0.00000E+00        -0.12761E+07
 
   -0.11852E+07        -0.96459E+06         0.00000E+00
   -0.96459E+06        -0.57602E+07         0.00000E+00
    0.00000E+00         0.00000E+00        -0.13891E+07
 
   -0.13587E+07        -0.11999E+07         0.00000E+00
   -0.11999E+07        -0.60620E+07         0.00000E+00
    0.00000E+00         0.00000E+00        -0.14841E+07
 
   -0.14025E+07        -0.12994E+07         0.00000E+00
   -0.12994E+07        -0.64195E+07         0.00000E+00
    0.00000E+00         0.00000E+00        -0.15644E+07
 
   -0.13553E+07        -0.12462E+07         0.00000E+00
   -0.12462E+07        -0.68088E+07         0.00000E+00
    0.00000E+00         0.00000E+00        -0.16328E+07
 
   -0.12531E+07        -0.10330E+07         0.00000E+00
   -0.10330E+07        -0.72073E+07         0.00000E+00
    0.00000E+00         0.00000E+00        -0.16921E+07
 
   -0.11287E+07        -0.65990E+06         0.00000E+00
   -0.65990E+06        -0.75949E+07         0.00000E+00
    0.00000E+00         0.00000E+00        -0.17447E+07
 
   -0.10117E+07        -0.13280E+06         0.00000E+00
   -0.13280E+06        -0.79532E+07         0.00000E+00
    0.00000E+00         0.00000E+00        -0.17930E+07
 
   -0.92953E+06         0.53756E+06         0.00000E+00
    0.53756E+06        -0.82653E+07         0.00000E+00
    0.00000E+00         0.00000E+00        -0.18390E+07
 
   -0.90776E+06         0.13357E+07         0.00000E+00
    0.13357E+07        -0.85152E+07         0.00000E+00
    0.00000E+00         0.00000E+00        -0.18846E+07
 
   -0.97063E+06         0.22409E+07         0.00000E+00
    0.22409E+07        -0.86871E+07         0.00000E+00
    0.00000E+00         0.00000E+00        -0.19316E+07
 
   -0.11405E+07         0.32258E+07         0.00000E+00
    0.32258E+07        -0.87665E+07         0.00000E+00
    0.00000E+00         0.00000E+00        -0.19814E+07
 
   -0.14364E+07         0.42554E+07         0.00000E+00
    0.42554E+07        -0.87403E+07         0.00000E+00
    0.00000E+00         0.00000E+00        -0.20353E+07
 
   -0.18715E+07         0.52861E+07         0.00000E+00
    0.52861E+07        -0.85999E+07         0.00000E+00
    0.00000E+00         0.00000E+00        -0.20943E+07
 
   -0.20640E+07        -0.27141E+06         0.00000E+00
   -0.27141E+06        -0.67188E+07         0.00000E+00
    0.00000E+00         0.00000E+00        -0.17566E+07
 
   -0.25701E+07        -0.78162E+06         0.00000E+00
   -0.78162E+06        -0.68670E+07         0.00000E+00
    0.00000E+00         0.00000E+00        -0.18874E+07
 
   -0.28248E+07        -0.12022E+07         0.00000E+00
   -0.12022E+07        -0.71391E+07         0.00000E+00
    0.00000E+00         0.00000E+00        -0.19928E+07
 
   -0.28804E+07        -0.14908E+07         0.00000E+00
   -0.14908E+07        -0.75049E+07         0.00000E+00
    0.00000E+00         0.00000E+00        -0.20771E+07
 
   -0.27888E+07        -0.16203E+07         0.00000E+00
   -0.16203E+07        -0.79335E+07         0.00000E+00
    0.00000E+00         0.00000E+00        -0.21445E+07
 
   -0.25983E+07        -0.15763E+07         0.00000E+00
   -0.15763E+07        -0.83957E+07         0.00000E+00
    0.00000E+00         0.00000E+00        -0.21988E+07
 
   -0.23523E+07        -0.13548E+07         0.00000E+00
   -0.13548E+07        -0.88655E+07         0.00000E+00
    0.00000E+00         0.00000E+00        -0.22436E+07
 
   -0.20886E+07        -0.95855E+06         0.00000E+00
   -0.95855E+06        -0.93211E+07         0.00000E+00
    0.00000E+00         0.00000E+00        -0.22820E+07
 
   -0.18407E+07        -0.39547E+06         0.00000E+00
   -0.39547E+06        -0.97435E+07         0.00000E+00
    0.00000E+00         0.00000E+00        -0.23168E+07
 
   -0.16390E+07         0.32311E+06         0.00000E+00
    0.32311E+06        -0.10115E+08         0.00000E+00
    0.00000E+00         0.00000E+00        -0.23508E+07
 
   -0.15129E+07         0.11822E+07         0.00000E+00
    0.11822E+07        -0.10419E+08         0.00000E+00
    0.00000E+00         0.00000E+00        -0.23864E+07
 
   -0.14920E+07         0.21617E+07         0.00000E+00
    0.21617E+07        -0.10637E+08         0.00000E+00
    0.00000E+00         0.00000E+00        -0.24259E+07
 
   -0.16055E+07         0.32348E+07         0.00000E+00
    0.32348E+07        -0.10751E+08         0.00000E+00
    0.00000E+00         0.00000E+00        -0.24713E+07
 
   -0.18813E+07         0.43652E+07         0.00000E+00
    0.43652E+07        -0.10742E+08         0.00000E+00
    0.00000E+00         0.00000E+00        -0.25247E+07
 
   -0.23423E+07         0.55054E+07         0.00000E+00
    0.55054E+07        -0.10596E+08         0.00000E+00
    0.00000E+00         0.00000E+00        -0.25876E+07
 
   -0.40424E+07        -0.34224E+06         0.00000E+00
   -0.34224E+06        -0.81015E+07         0.00000E+00
    0.00000E+00         0.00000E+00        -0.24288E+07
 
   -0.44796E+07        -0.97285E+06         0.00000E+00
   -0.97285E+06        -0.82805E+07         0.00000E+00
    0.00000E+00         0.00000E+00        -0.25520E+07
 
   -0.46223E+07        -0.14827E+07         0.00000E+00
   -0.14827E+07        -0.86058E+07         0.00000E+00
    0.00000E+00         0.00000E+00        -0.26456E+07
 
   -0.45384E+07        -0.18292E+07         0.00000E+00
   -0.18292E+07        -0.90380E+07         0.00000E+00
    0.00000E+00         0.00000E+00        -0.27153E+07
 
   -0.42933E+07        -0.19880E+07         0.00000E+00
   -0.19880E+07        -0.95376E+07         0.00000E+00
    0.00000E+00         0.00000E+00        -0.27662E+07
 
   -0.39460E+07        -0.19497E+07         0.00000E+00
   -0.19497E+07        -0.10070E+08         0.00000E+00
    0.00000E+00         0.00000E+00        -0.28031E+07
 
   -0.35466E+07        -0.17154E+07         0.00000E+00
   -0.17154E+07        -0.10606E+08         0.00000E+00
    0.00000E+00         0.00000E+00        -0.28304E+07
 
   -0.31368E+07        -0.12926E+07         0.00000E+00
   -0.12926E+07        -0.11123E+08         0.00000E+00
    0.00000E+00         0.00000E+00        -0.28519E+07
 
   -0.27518E+07        -0.69125E+06         0.00000E+00
   -0.69125E+06        -0.11603E+08         0.00000E+00
    0.00000E+00         0.00000E+00        -0.28709E+07
 
   -0.24237E+07         0.76926E+05         0.00000E+00
    0.76926E+05        -0.12030E+08         0.00000E+00
    0.00000E+00         0.00000E+00        -0.28906E+07
 
   -0.21844E+07         0.99869E+06         0.00000E+00
    0.99869E+06        -0.12386E+08         0.00000E+00
    0.00000E+00         0.00000E+00        -0.29141E+07
 
   -0.20683E+07         0.20569E+07         0.00000E+00
    0.20569E+07        -0.12652E+08         0.00000E+00
    0.00000E+00         0.00000E+00        -0.29441E+07
 
   -0.21126E+07         0.32272E+07         0.00000E+00
    0.32272E+07        -0.12805E+08         0.00000E+00
    0.00000E+00         0.00000E+00        -0.29834E+07
 
   -0.23562E+07         0.44738E+07         0.00000E+00
    0.44738E+07        -0.12818E+08         0.00000E+00
    0.00000E+00         0.00000E+00        -0.30349E+07
 
   -0.28352E+07         0.57465E+07         0.00000E+00
    0.57465E+07        -0.12669E+08         0.00000E+00
    0.00000E+00         0.00000E+00        -0.31009E+07
 
   -0.62695E+07        -0.42564E+06         0.00000E+00
   -0.42564E+06        -0.95868E+07         0.00000E+00
    0.00000E+00         0.00000E+00        -0.31713E+07
 
   -0.66067E+07        -0.11954E+07         0.00000E+00
   -0.11954E+07        -0.97996E+07         0.00000E+00
    0.00000E+00         0.00000E+00        -0.32812E+07
 
   -0.66066E+07        -0.18037E+07         0.00000E+00
   -0.18037E+07        -0.10182E+08         0.00000E+00
    0.00000E+00         0.00000E+00        -0.33577E+07
 
   -0.63561E+07        -0.22090E+07         0.00000E+00
   -0.22090E+07        -0.10682E+08         0.00000E+00
    0.00000E+00         0.00000E+00        -0.34076E+07
 
   -0.59370E+07        -0.23922E+07         0.00000E+00
   -0.23922E+07        -0.11250E+08         0.00000E+00
    0.00000E+00         0.00000E+00        -0.34375E+07
 
   -0.54195E+07        -0.23524E+07         0.00000E+00
   -0.23524E+07        -0.11845E+08         0.00000E+00
    0.00000E+00         0.00000E+00        -0.34529E+07
 
   -0.48593E+07        -0.20991E+07         0.00000E+00
   -0.20991E+07        -0.12436E+08         0.00000E+00
    0.00000E+00         0.00000E+00        -0.34591E+07
 
   -0.42995E+07        -0.16459E+07         0.00000E+00
   -0.16459E+07        -0.13002E+08         0.00000E+00
    0.00000E+00         0.00000E+00        -0.34603E+07
 
   -0.37743E+07        -0.10061E+07         0.00000E+00
   -0.10061E+07        -0.13528E+08         0.00000E+00
    0.00000E+00         0.00000E+00        -0.34605E+07
 
   -0.33146E+07        -0.19061E+06         0.00000E+00
   -0.19061E+06        -0.14001E+08         0.00000E+00
    0.00000E+00         0.00000E+00        -0.34631E+07
 
   -0.29526E+07         0.79097E+06         0.00000E+00
    0.79097E+06        -0.14406E+08         0.00000E+00
    0.00000E+00         0.00000E+00        -0.34717E+07
 
   -0.27269E+07         0.19272E+07         0.00000E+00
    0.19272E+07        -0.14721E+08         0.00000E+00
    0.00000E+00         0.00000E+00        -0.34895E+07
 
   -0.26833E+07         0.31995E+07         0.00000E+00
    0.31995E+07        -0.14918E+08         0.00000E+00
    0.00000E+00         0.00000E+00        -0.35203E+07
 
   -0.28747E+07         0.45761E+07         0.00000E+00
    0.45761E+07        -0.14963E+08         0.00000E+00
    0.00000E+00         0.00000E+00        -0.35676E+07
 
   -0.33551E+07         0.60056E+07         0.00000E+00
    0.60056E+07        -0.14820E+08         0.00000E+00
    0.00000E+00         0.00000E+00        -0.36351E+07
 
   -0.87929E+07        -0.52211E+06         0.00000E+00
   -0.52211E+06        -0.11199E+08         0.00000E+00
    0.00000E+00         0.00000E+00        -0.39984E+07
 
   -0.89896E+07        -0.14489E+07         0.00000E+00
   -0.14489E+07        -0.11450E+08         0.00000E+00
    0.00000E+00         0.00000E+00        -0.40880E+07
 
   -0.88072E+07        -0.21615E+07         0.00000E+00
   -0.21615E+07        -0.11895E+08         0.00000E+00
    0.00000E+00         0.00000E+00        -0.41404E+07
 
   -0.83576E+07        -0.26203E+07         0.00000E+00
   -0.26203E+07        -0.12464E+08         0.00000E+00
    0.00000E+00         0.00000E+00        -0.41642E+07
 
   -0.77422E+07        -0.28167E+07         0.00000E+00
   -0.28167E+07        -0.13094E+08         0.00000E+00
    0.00000E+00         0.00000E+00        -0.41672E+07
 
   -0.70429E+07        -0.27632E+07         0.00000E+00
   -0.27632E+07        -0.13738E+08         0.00000E+00
    0.00000E+00         0.00000E+00        -0.41562E+07
 
   -0.63188E+07        -0.24819E+07         0.00000E+00
   -0.24819E+07        -0.14365E+08         0.00000E+00
    0.00000E+00         0.00000E+00        -0.41368E+07
 
   -0.56104E+07        -0.19952E+07         0.00000E+00
   -0.19952E+07        -0.14960E+08         0.00000E+00
    0.00000E+00         0.00000E+00        -0.41140E+07
 
   -0.49467E+07        -0.13197E+07         0.00000E+00
   -0.13197E+07        -0.15513E+08         0.00000E+00
    0.00000E+00         0.00000E+00        -0.40919E+07
 
   -0.43530E+07        -0.46452E+06         0.00000E+00
   -0.46452E+06        -0.16017E+08         0.00000E+00
    0.00000E+00         0.00000E+00        -0.40741E+07
 
   -0.38593E+07         0.56702E+06         0.00000E+00
    0.56702E+06        -0.16463E+08         0.00000E+00
    0.00000E+00         0.00000E+00        -0.40644E+07
 
   -0.35059E+07         0.17731E+07         0.00000E+00
    0.17731E+07        -0.16827E+08         0.00000E+00
    0.00000E+00         0.00000E+00        -0.40666E+07
 
   -0.33483E+07         0.31461E+07         0.00000E+00
    0.31461E+07        -0.17078E+08         0.00000E+00
    0.00000E+00         0.00000E+00        -0.40852E+07
 
   -0.34564E+07         0.46627E+07         0.00000E+00
    0.46627E+07        -0.17168E+08         0.00000E+00
    0.00000E+00         0.00000E+00        -0.41249E+07
 
   -0.39086E+07         0.62742E+07         0.00000E+00
    0.62742E+07        -0.17045E+08         0.00000E+00
    0.00000E+00         0.00000E+00        -0.41908E+07
 
   -0.11667E+08        -0.63271E+06         0.00000E+00
   -0.63271E+06        -0.12969E+08         0.00000E+00
    0.00000E+00         0.00000E+00        -0.49272E+07
 
   -0.11671E+08        -0.17336E+07         0.00000E+00
   -0.17336E+07        -0.13266E+08         0.00000E+00
    0.00000E+00         0.00000E+00        -0.49872E+07
 
   -0.11255E+08        -0.25499E+07         0.00000E+00
   -0.25499E+07        -0.13779E+08         0.00000E+00
    0.00000E+00         0.00000E+00        -0.50068E+07
 
   -0.10567E+08        -0.30480E+07         0.00000E+00
   -0.30480E+07        -0.14415E+08         0.00000E+00
    0.00000E+00         0.00000E+00        -0.49965E+07
 
   -0.97329E+07        -0.32371E+07         0.00000E+00
   -0.32371E+07        -0.15095E+08         0.00000E+00
    0.00000E+00         0.00000E+00        -0.49656E+07
 
   -0.88449E+07        -0.31512E+07         0.00000E+00
   -0.31512E+07        -0.15766E+08         0.00000E+00
    0.00000E+00         0.00000E+00        -0.49222E+07
 
   -0.79612E+07        -0.28304E+07         0.00000E+00
   -0.28304E+07        -0.16401E+08         0.00000E+00
    0.00000E+00         0.00000E+00        -0.48725E+07
 
   -0.71136E+07        -0.23081E+07         0.00000E+00
   -0.23081E+07        -0.16994E+08         0.00000E+00
    0.00000E+00         0.00000E+00        -0.48214E+07
 
   -0.63199E+07        -0.16043E+07         0.00000E+00
   -0.16043E+07        -0.17546E+08         0.00000E+00
    0.00000E+00         0.00000E+00        -0.47731E+07
 
   -0.55948E+07        -0.72443E+06         0.00000E+00
   -0.72443E+06        -0.18061E+08         0.00000E+00
    0.00000E+00         0.00000E+00        -0.47311E+07
 
   -0.49611E+07         0.33775E+06         0.00000E+00
    0.33775E+06        -0.18534E+08         0.00000E+00
    0.00000E+00         0.00000E+00        -0.46991E+07
 
   -0.44586E+07         0.15952E+07         0.00000E+00
    0.15952E+07        -0.18948E+08         0.00000E+00
    0.00000E+00         0.00000E+00        -0.46813E+07
 
   -0.41513E+07         0.30576E+07         0.00000E+00
    0.30576E+07        -0.19262E+08         0.00000E+00
    0.00000E+00         0.00000E+00        -0.46827E+07
 
   -0.41298E+07         0.47180E+07         0.00000E+00
    0.47180E+07        -0.19418E+08         0.00000E+00
    0.00000E+00         0.00000E+00        -0.47096E+07
 
   -0.45055E+07         0.65362E+07         0.00000E+00
    0.65362E+07        -0.19339E+08         0.00000E+00
    0.00000E+00         0.00000E+00        -0.47689E+07
 
   -0.14957E+08        -0.75965E+06         0.00000E+00
   -0.75965E+06        -0.14936E+08         0.00000E+00
    0.00000E+00         0.00000E+00        -0.59787E+07
 
   -0.14697E+08        -0.20500E+07         0.00000E+00
   -0.20500E+07        -0.15290E+08         0.00000E+00
    0.00000E+00         0.00000E+00        -0.59974E+07
 
   -0.13983E+08        -0.29593E+07         0.00000E+00
   -0.29593E+07        -0.15881E+08         0.00000E+00
    0.00000E+00         0.00000E+00        -0.59728E+07
 
   -0.13010E+08        -0.34677E+07         0.00000E+00
   -0.34677E+07        -0.16580E+08         0.00000E+00
    0.00000E+00         0.00000E+00        -0.59181E+07
 
   -0.11938E+08        -0.36163E+07         0.00000E+00
   -0.36163E+07        -0.17286E+08         0.00000E+00
    0.00000E+00         0.00000E+00        -0.58448E+07
 
   -0.10863E+08        -0.34722E+07         0.00000E+00
   -0.34722E+07        -0.17947E+08         0.00000E+00
    0.00000E+00         0.00000E+00        -0.57622E+07
 
   -0.98356E+07        -0.30995E+07         0.00000E+00
   -0.30995E+07        -0.18548E+08         0.00000E+00
    0.00000E+00         0.00000E+00        -0.56767E+07
 
   -0.88688E+07        -0.25430E+07         0.00000E+00
   -0.25430E+07        -0.19096E+08         0.00000E+00
    0.00000E+00         0.00000E+00        -0.55930E+07
 
   -0.79623E+07        -0.18247E+07         0.00000E+00
   -0.18247E+07        -0.19611E+08         0.00000E+00
    0.00000E+00         0.00000E+00        -0.55146E+07
 
   -0.71145E+07        -0.94428E+06         0.00000E+00
   -0.94428E+06        -0.20107E+08         0.00000E+00
    0.00000E+00         0.00000E+00        -0.54443E+07
 
   -0.63353E+07         0.11743E+06         0.00000E+00
    0.11743E+06        -0.20591E+08         0.00000E+00
    0.00000E+00         0.00000E+00        -0.53853E+07
 
   -0.56586E+07         0.13934E+07         0.00000E+00
    0.13934E+07        -0.21051E+08         0.00000E+00
    0.00000E+00         0.00000E+00        -0.53418E+07
 
   -0.51542E+07         0.29197E+07         0.00000E+00
    0.29197E+07        -0.21444E+08         0.00000E+00
    0.00000E+00         0.00000E+00        -0.53196E+07
 
   -0.49364E+07         0.47171E+07         0.00000E+00
    0.47171E+07        -0.21694E+08         0.00000E+00
    0.00000E+00         0.00000E+00        -0.53262E+07
 
   -0.51602E+07         0.67650E+07         0.00000E+00
    0.67650E+07        -0.21694E+08         0.00000E+00
    0.00000E+00         0.00000E+00        -0.53709E+07
 
   -0.18746E+08        -0.90727E+06         0.00000E+00
   -0.90727E+06        -0.17157E+08         0.00000E+00
    0.00000E+00         0.00000E+00        -0.71806E+07
 
   -0.18125E+08        -0.23992E+07         0.00000E+00
   -0.23992E+07        -0.17586E+08         0.00000E+00
    0.00000E+00         0.00000E+00        -0.71422E+07
 
   -0.17024E+08        -0.33722E+07         0.00000E+00
   -0.33722E+07        -0.18266E+08         0.00000E+00
    0.00000E+00         0.00000E+00        -0.70580E+07
 
   -0.15718E+08        -0.38392E+07         0.00000E+00
   -0.38392E+07        -0.19011E+08         0.00000E+00
    0.00000E+00         0.00000E+00        -0.69458E+07
 
   -0.14397E+08        -0.38985E+07         0.00000E+00
   -0.38985E+07        -0.19702E+08         0.00000E+00
    0.00000E+00         0.00000E+00        -0.68197E+07
 
   -0.13155E+08        -0.36660E+07         0.00000E+00
   -0.36660E+07        -0.20296E+08         0.00000E+00
    0.00000E+00         0.00000E+00        -0.66902E+07
 
   -0.12014E+08        -0.32320E+07         0.00000E+00
   -0.32320E+07        -0.20803E+08         0.00000E+00
    0.00000E+00         0.00000E+00        -0.65634E+07
 
   -0.10959E+08        -0.26500E+07         0.00000E+00
   -0.26500E+07        -0.21255E+08         0.00000E+00
    0.00000E+00         0.00000E+00        -0.64429E+07
 
   -0.99664E+07        -0.19397E+07         0.00000E+00
   -0.19397E+07        -0.21686E+08         0.00000E+00
    0.00000E+00         0.00000E+00        -0.63306E+07
 
   -0.90113E+07        -0.10929E+07         0.00000E+00
   -0.10929E+07        -0.22128E+08         0.00000E+00
    0.00000E+00         0.00000E+00        -0.62279E+07
 
   -0.80853E+07        -0.75767E+05         0.00000E+00
   -0.75767E+05        -0.22599E+08         0.00000E+00
    0.00000E+00         0.00000E+00        -0.61368E+07
 
   -0.72076E+07         0.11687E+07         0.00000E+00
    0.11687E+07        -0.23097E+08         0.00000E+00
    0.00000E+00         0.00000E+00        -0.60609E+07
 
   -0.64462E+07         0.27131E+07         0.00000E+00
    0.27131E+07        -0.23584E+08         0.00000E+00
    0.00000E+00         0.00000E+00        -0.60061E+07
 
   -0.59381E+07         0.46232E+07         0.00000E+00
    0.46232E+07        -0.23970E+08         0.00000E+00
    0.00000E+00         0.00000E+00        -0.59816E+07
 
   -0.58954E+07         0.69174E+07         0.00000E+00
    0.69174E+07        -0.24104E+08         0.00000E+00
    0.00000E+00         0.00000E+00        -0.59998E+07
 
   -0.23150E+08        -0.10840E+07         0.00000E+00
   -0.10840E+07        -0.19713E+08         0.00000E+00
    0.00000E+00         0.00000E+00        -0.85726E+07
 
   -0.22023E+08        -0.27813E+07         0.00000E+00
   -0.27813E+07        -0.20248E+08         0.00000E+00
    0.00000E+00         0.00000E+00        -0.84542E+07
 
   -0.20420E+08        -0.37525E+07         0.00000E+00
   -0.37525E+07        -0.21024E+08         0.00000E+00
    0.00000E+00         0.00000E+00        -0.82889E+07
 
   -0.18735E+08        -0.40919E+07         0.00000E+00
   -0.40919E+07        -0.21771E+08         0.00000E+00
    0.00000E+00         0.00000E+00        -0.81013E+07
 
   -0.17182E+08        -0.40003E+07         0.00000E+00
   -0.40003E+07        -0.22367E+08         0.00000E+00
    0.00000E+00         0.00000E+00        -0.79099E+07
 
   -0.15815E+08        -0.36547E+07         0.00000E+00
   -0.36547E+07        -0.22811E+08         0.00000E+00
    0.00000E+00         0.00000E+00        -0.77253E+07
 
   -0.14607E+08        -0.31635E+07         0.00000E+00
   -0.31635E+07        -0.23153E+08         0.00000E+00
    0.00000E+00         0.00000E+00        -0.75521E+07
 
   -0.13506E+08        -0.25773E+07         0.00000E+00
   -0.25773E+07        -0.23449E+08         0.00000E+00
    0.00000E+00         0.00000E+00        -0.73910E+07
 
   -0.12458E+08        -0.19076E+07         0.00000E+00
   -0.19076E+07        -0.23750E+08         0.00000E+00
    0.00000E+00         0.00000E+00        -0.72415E+07
 
   -0.11416E+08        -0.11369E+07         0.00000E+00
   -0.11369E+07        -0.24097E+08         0.00000E+00
    0.00000E+00         0.00000E+00        -0.71026E+07
 
   -0.10348E+08        -0.21916E+06         0.00000E+00
   -0.21916E+06        -0.24523E+08         0.00000E+00
    0.00000E+00         0.00000E+00        -0.69742E+07
 
   -0.92452E+07         0.92536E+06         0.00000E+00
    0.92536E+06        -0.25044E+08         0.00000E+00
    0.00000E+00         0.00000E+00        -0.68578E+07
 
   -0.81565E+07         0.24137E+07         0.00000E+00
    0.24137E+07        -0.25638E+08         0.00000E+00
    0.00000E+00         0.00000E+00        -0.67588E+07
 
   -0.72296E+07         0.43824E+07         0.00000E+00
    0.43824E+07        -0.26209E+08         0.00000E+00
    0.00000E+00         0.00000E+00        -0.66877E+07
 
   -0.67469E+07         0.69256E+07         0.00000E+00
    0.69256E+07        -0.26557E+08         0.00000E+00
    0.00000E+00         0.00000E+00        -0.66608E+07
 
   -0.28346E+08        -0.13070E+07         0.00000E+00
   -0.13070E+07        -0.22741E+08         0.00000E+00
    0.00000E+00         0.00000E+00        -0.10217E+08
 
   -0.26481E+08        -0.31852E+07         0.00000E+00
   -0.31852E+07        -0.23430E+08         0.00000E+00
    0.00000E+00         0.00000E+00        -0.99822E+07
 
   -0.24230E+08        -0.40154E+07         0.00000E+00
   -0.40154E+07        -0.24282E+08         0.00000E+00
    0.00000E+00         0.00000E+00        -0.97025E+07
 
   -0.22159E+08        -0.40980E+07         0.00000E+00
   -0.40980E+07        -0.24917E+08         0.00000E+00
    0.00000E+00         0.00000E+00        -0.94152E+07
 
   -0.20439E+08        -0.38029E+07         0.00000E+00
   -0.38029E+07        -0.25279E+08         0.00000E+00
    0.00000E+00         0.00000E+00        -0.91436E+07
 
   -0.19019E+08        -0.33508E+07         0.00000E+00
   -0.33508E+07        -0.25464E+08         0.00000E+00
    0.00000E+00         0.00000E+00        -0.88964E+07
 
   -0.17798E+08        -0.28345E+07         0.00000E+00
   -0.28345E+07        -0.25565E+08         0.00000E+00
    0.00000E+00         0.00000E+00        -0.86725E+07
 
   -0.16687E+08        -0.22839E+07         0.00000E+00
   -0.22839E+07        -0.25653E+08         0.00000E+00
    0.00000E+00         0.00000E+00        -0.84681E+07
 
   -0.15610E+08        -0.16966E+07         0.00000E+00
   -0.16966E+07        -0.25784E+08         0.00000E+00
    0.00000E+00         0.00000E+00        -0.82788E+07
 
   -0.14501E+08        -0.10475E+07         0.00000E+00
   -0.10475E+07        -0.26001E+08         0.00000E+00
    0.00000E+00         0.00000E+00        -0.81005E+07
 
   -0.13301E+08        -0.28625E+06         0.00000E+00
   -0.28625E+06        -0.26346E+08         0.00000E+00
    0.00000E+00         0.00000E+00        -0.79295E+07
 
   -0.11962E+08         0.67694E+06         0.00000E+00
    0.67694E+06        -0.26857E+08         0.00000E+00
    0.00000E+00         0.00000E+00        -0.77637E+07
 
   -0.10476E+08         0.20002E+07         0.00000E+00
    0.20002E+07        -0.27552E+08         0.00000E+00
    0.00000E+00         0.00000E+00        -0.76056E+07
 
   -0.89629E+07         0.39210E+07         0.00000E+00
    0.39210E+07        -0.28362E+08         0.00000E+00
    0.00000E+00         0.00000E+00        -0.74650E+07
 
   -0.77764E+07         0.66817E+07         0.00000E+00
    0.66817E+07        -0.29044E+08         0.00000E+00
    0.00000E+00         0.00000E+00        -0.73642E+07
 
   -0.34632E+08        -0.16133E+07         0.00000E+00
   -0.16133E+07        -0.26494E+08         0.00000E+00
    0.00000E+00         0.00000E+00        -0.12225E+08
 
   -0.31629E+08        -0.35477E+07         0.00000E+00
   -0.35477E+07        -0.27419E+08         0.00000E+00
    0.00000E+00         0.00000E+00        -0.11810E+08
 
   -0.28601E+08        -0.39402E+07         0.00000E+00
   -0.39402E+07        -0.28187E+08         0.00000E+00
    0.00000E+00         0.00000E+00        -0.11357E+08
 
   -0.26251E+08        -0.36402E+07         0.00000E+00
   -0.36402E+07        -0.28422E+08         0.00000E+00
    0.00000E+00         0.00000E+00        -0.10935E+08
 
   -0.24491E+08        -0.31731E+07         0.00000E+00
   -0.31731E+07        -0.28362E+08         0.00000E+00
    0.00000E+00         0.00000E+00        -0.10570E+08
 
   -0.23088E+08        -0.26868E+07         0.00000E+00
   -0.26868E+07        -0.28185E+08         0.00000E+00
    0.00000E+00         0.00000E+00        -0.10255E+08
 
   -0.21888E+08        -0.22161E+07         0.00000E+00
   -0.22161E+07        -0.27994E+08         0.00000E+00
    0.00000E+00         0.00000E+00        -0.99763E+07
 
   -0.20780E+08        -0.17595E+07         0.00000E+00
   -0.17595E+07        -0.27849E+08         0.00000E+00
    0.00000E+00         0.00000E+00        -0.97257E+07
 
   -0.19679E+08        -0.13014E+07         0.00000E+00
   -0.13014E+07        -0.27791E+08         0.00000E+00
    0.00000E+00         0.00000E+00        -0.94940E+07
 
   -0.18507E+08        -0.81467E+06         0.00000E+00
   -0.81467E+06        -0.27858E+08         0.00000E+00
    0.00000E+00         0.00000E+00        -0.92731E+07
 
   -0.17185E+08        -0.25545E+06         0.00000E+00
   -0.25545E+06        -0.28091E+08         0.00000E+00
    0.00000E+00         0.00000E+00        -0.90551E+07
 
   -0.15617E+08         0.45470E+06         0.00000E+00
    0.45470E+06        -0.28541E+08         0.00000E+00
    0.00000E+00         0.00000E+00        -0.88317E+07
 
   -0.13694E+08         0.14727E+07         0.00000E+00
    0.14727E+07        -0.29281E+08         0.00000E+00
    0.00000E+00         0.00000E+00        -0.85950E+07
 
   -0.11400E+08         0.31475E+07         0.00000E+00
    0.31475E+07        -0.30365E+08         0.00000E+00
    0.00000E+00         0.00000E+00        -0.83530E+07
 
   -0.90981E+07         0.60092E+07         0.00000E+00
    0.60092E+07        -0.31546E+08         0.00000E+00
    0.00000E+00         0.00000E+00        -0.81288E+07
 
   -0.42641E+08        -0.21244E+07         0.00000E+00
   -0.21244E+07        -0.31755E+08         0.00000E+00
    0.00000E+00         0.00000E+00        -0.14879E+08
 
   -0.37788E+08        -0.34435E+07         0.00000E+00
   -0.34435E+07        -0.32730E+08         0.00000E+00
    0.00000E+00         0.00000E+00        -0.14104E+08
 
   -0.34121E+08        -0.30224E+07         0.00000E+00
   -0.30224E+07        -0.32627E+08         0.00000E+00
    0.00000E+00         0.00000E+00        -0.13350E+08
 
   -0.31768E+08        -0.24974E+07         0.00000E+00
   -0.24974E+07        -0.32088E+08         0.00000E+00
    0.00000E+00         0.00000E+00        -0.12771E+08
 
   -0.30035E+08        -0.20511E+07         0.00000E+00
   -0.20511E+07        -0.31474E+08         0.00000E+00
    0.00000E+00         0.00000E+00        -0.12302E+08
 
   -0.28639E+08        -0.16753E+07         0.00000E+00
   -0.16753E+07        -0.30903E+08         0.00000E+00
    0.00000E+00         0.00000E+00        -0.11908E+08
 
   -0.27417E+08        -0.13489E+07         0.00000E+00
   -0.13489E+07        -0.30424E+08         0.00000E+00
    0.00000E+00         0.00000E+00        -0.11568E+08
 
   -0.26262E+08        -0.10519E+07         0.00000E+00
   -0.10519E+07        -0.30059E+08         0.00000E+00
    0.00000E+00         0.00000E+00        -0.11264E+08
 
   -0.25091E+08        -0.76555E+06         0.00000E+00
   -0.76555E+06        -0.29827E+08         0.00000E+00
    0.00000E+00         0.00000E+00        -0.10983E+08
 
   -0.23822E+08        -0.46944E+06         0.00000E+00
   -0.46944E+06        -0.29747E+08         0.00000E+00
    0.00000E+00         0.00000E+00        -0.10714E+08
 
   -0.22359E+08        -0.13507E+06         0.00000E+00
   -0.13507E+06        -0.29854E+08         0.00000E+00
    0.00000E+00         0.00000E+00        -0.10443E+08
 
   -0.20571E+08         0.28710E+06         0.00000E+00
    0.28710E+06        -0.30201E+08         0.00000E+00
    0.00000E+00         0.00000E+00        -0.10154E+08
 
   -0.18253E+08         0.90121E+06         0.00000E+00
    0.90121E+06        -0.30885E+08         0.00000E+00
    0.00000E+00         0.00000E+00        -0.98276E+07
 
   -0.15034E+08         0.19940E+07         0.00000E+00
    0.19940E+07        -0.32095E+08         0.00000E+00
    0.00000E+00         0.00000E+00        -0.94258E+07
 
   -0.10968E+08         0.45848E+07         0.00000E+00
    0.45848E+07        -0.34027E+08         0.00000E+00
    0.00000E+00         0.00000E+00        -0.89991E+07
 
   -0.56248E+08        -0.21087E+07         0.00000E+00
   -0.21087E+07        -0.40854E+08         0.00000E+00
    0.00000E+00         0.00000E+00        -0.19421E+08
 
   -0.47710E+08        -0.15000E+07         0.00000E+00
   -0.15000E+07        -0.38826E+08         0.00000E+00
    0.00000E+00         0.00000E+00        -0.17307E+08
 
   -0.43641E+08        -0.10319E+07         0.00000E+00
   -0.10319E+07        -0.37137E+08         0.00000E+00
    0.00000E+00         0.00000E+00        -0.16156E+08
 
   -0.40892E+08        -0.79831E+06         0.00000E+00
   -0.79831E+06        -0.35760E+08         0.00000E+00
    0.00000E+00         0.00000E+00        -0.15330E+08
 
   -0.38816E+08        -0.63416E+06         0.00000E+00
   -0.63416E+06        -0.34643E+08         0.00000E+00
    0.00000E+00         0.00000E+00        -0.14692E+08
 
   -0.37109E+08        -0.50739E+06         0.00000E+00
   -0.50739E+06        -0.33739E+08         0.00000E+00
    0.00000E+00         0.00000E+00        -0.14170E+08
 
   -0.35606E+08        -0.40094E+06         0.00000E+00
   -0.40094E+06        -0.33021E+08         0.00000E+00
    0.00000E+00         0.00000E+00        -0.13725E+08
 
   -0.34194E+08        -0.30526E+06         0.00000E+00
   -0.30526E+06        -0.32472E+08         0.00000E+00
    0.00000E+00         0.00000E+00        -0.13333E+08
 
   -0.32780E+08        -0.21313E+06         0.00000E+00
   -0.21313E+06        -0.32090E+08         0.00000E+00
    0.00000E+00         0.00000E+00        -0.12974E+08
 
   -0.31274E+08        -0.11749E+06         0.00000E+00
   -0.11749E+06        -0.31881E+08         0.00000E+00
    0.00000E+00         0.00000E+00        -0.12631E+08
 
   -0.29565E+08        -0.89766E+04         0.00000E+00
   -0.89766E+04        -0.31867E+08         0.00000E+00
    0.00000E+00         0.00000E+00        -0.12286E+08
 
   -0.27495E+08         0.12819E+06         0.00000E+00
    0.12819E+06        -0.32094E+08         0.00000E+00
    0.00000E+00         0.00000E+00        -0.11918E+08
 
   -0.24792E+08         0.32985E+06         0.00000E+00
    0.32985E+06        -0.32658E+08         0.00000E+00
    0.00000E+00         0.00000E+00        -0.11490E+08
 
   -0.20911E+08         0.67865E+06         0.00000E+00
    0.67865E+06        -0.33781E+08         0.00000E+00
    0.00000E+00         0.00000E+00        -0.10939E+08
 
   -0.14015E+08         0.18250E+07         0.00000E+00
    0.18250E+07        -0.36154E+08         0.00000E+00
    0.00000E+00         0.00000E+00        -0.10034E+08
 
TENSORS stresstot double 
   -0.49130E+08        -0.16759E+06         0.00000E+00
   -0.16759E+06        -0.60118E+08         0.00000E+00
    0.00000E+00         0.00000E+00        -0.66239E+08
 
   -0.51680E+08        -0.24792E+06         0.00000E+00
   -0.24792E+06        -0.60475E+08         0.00000E+00
    0.00000E+00         0.00000E+00        -0.66994E+08
 
   -0.53694E+08        -0.22608E+06         0.00000E+00
   -0.22608E+06        -0.60909E+08         0.00000E+00
    0.00000E+00         0.00000E+00        -0.67516E+08
 
   -0.55322E+08        -0.19818E+06         0.00000E+00
   -0.19818E+06        -0.61313E+08         0.00000E+00
    0.00000E+00         0.00000E+00        -0.67962E+08
 
   -0.56727E+08        -0.16927E+06         0.00000E+00
   -0.16927E+06        -0.61667E+08         0.00000E+00
    0.00000E+00         0.00000E+00        -0.68355E+08
 
   -0.57988E+08        -0.13983E+06         0.00000E+00
   -0.13983E+06        -0.61967E+08         0.00000E+00
    0.00000E+00         0.00000E+00        -0.68711E+08
 
   -0.59156E+08        -0.10946E+06         0.00000E+00
   -0.10946E+06        -0.62209E+08         0.00000E+00
    0.00000E+00         0.00000E+00        -0.69036E+08
 
   -0.60265E+08        -0.77554E+05         0.00000E+00
   -0.77554E+05        -0.62390E+08         0.00000E+00
    0.00000E+00         0.00000E+00        -0.69336E+08
 
   -0.61347E+08        -0.43209E+05         0.00000E+00
   -0.43209E+05        -0.62506E+08         0.00000E+00
    0.00000E+00         0.00000E+00        -0.69616E+08
 
   -0.62432E+08        -0.51173E+04         0.00000E+00
   -0.51173E+04        -0.62550E+08         0.00000E+00
    0.00000E+00         0.00000E+00        -0.69881E+08
 
   -0.63552E+08         0.38856E+05         0.00000E+00
    0.38856E+05        -0.62512E+08         0.00000E+00
    0.00000E+00         0.00000E+00        -0.70134E+08
 
   -0.64753E+08         0.92558E+05         0.00000E+00
    0.92558E+05        -0.62376E+08         0.00000E+00
    0.00000E+00         0.00000E+00        -0.70380E+08
 
   -0.66103E+08         0.16442E+06         0.00000E+00
    0.16442E+06        -0.62116E+08         0.00000E+00
    0.00000E+00         0.00000E+00        -0.70627E+08
 
   -0.67729E+08         0.27399E+06         0.00000E+00
    0.27399E+06        -0.61674E+08         0.00000E+00
    0.00000E+00         0.00000E+00        -0.70888E+08
 
   -0.70005E+08         0.54944E+06         0.00000E+00
    0.54944E+06        -0.60892E+08         0.00000E+00
    0.00000E+00         0.00000E+00        -0.71201E+08
 
   -0.49506E+08        -0.27153E+06         0.00000E+00
   -0.27153E+06        -0.60024E+08         0.00000E+00
    0.00000E+00         0.00000E+00        -0.65737E+08
 
   -0.51727E+08        -0.56778E+06         0.00000E+00
   -0.56778E+06        -0.60142E+08         0.00000E+00
    0.00000E+00         0.00000E+00        -0.66214E+08
 
   -0.53665E+08        -0.58925E+06         0.00000E+00
   -0.58925E+06        -0.60389E+08         0.00000E+00
    0.00000E+00         0.00000E+00        -0.66668E+08
 
   -0.55275E+08        -0.53959E+06         0.00000E+00
   -0.53959E+06        -0.60676E+08         0.00000E+00
    0.00000E+00         0.00000E+00        -0.67072E+08
 
   -0.56674E+08        -0.46960E+06         0.00000E+00
   -0.46960E+06        -0.60953E+08         0.00000E+00
    0.00000E+00         0.00000E+00        -0.67435E+08
 
   -0.57932E+08        -0.39055E+06         0.00000E+00
   -0.39055E+06        -0.61196E+08         0.00000E+00
    0.00000E+00         0.00000E+00        -0.67765E+08
 
   -0.59096E+08        -0.30512E+06         0.00000E+00
   -0.30512E+06        -0.61395E+08         0.00000E+00
    0.00000E+00         0.00000E+00        -0.68069E+08
 
   -0.60200E+08        -0.21302E+06         0.00000E+00
   -0.21302E+06        -0.61541E+08         0.00000E+00
    0.00000E+00         0.00000E+00        -0.68350E+08
 
   -0.61276E+08        -0.11230E+06         0.00000E+00
   -0.11230E+06        -0.61627E+08         0.00000E+00
    0.00000E+00         0.00000E+00        -0.68612E+08
 
   -0.62351E+08         0.63701E+03         0.00000E+00
    0.63701E+03        -0.61644E+08         0.00000E+00
    0.00000E+00         0.00000E+00        -0.68859E+08
 
   -0.63456E+08         0.13205E+06         0.00000E+00
    0.13205E+06        -0.61582E+08         0.00000E+00
    0.00000E+00         0.00000E+00        -0.69094E+08
 
   -0.64631E+08         0.29352E+06         0.00000E+00
    0.29352E+06        -0.61423E+08         0.00000E+00
    0.00000E+00         0.00000E+00        -0.69320E+08
 
   -0.65929E+08         0.50907E+06         0.00000E+00
    0.50907E+06        -0.61141E+08         0.00000E+00
    0.00000E+00         0.00000E+00        -0.69543E+08
 
   -0.67440E+08         0.83968E+06         0.00000E+00
    0.83968E+06        -0.60688E+08         0.00000E+00
    0.00000E+00         0.00000E+00        -0.69768E+08
 
   -0.69173E+08         0.14871E+07         0.00000E+00
    0.14871E+07        -0.59998E+08         0.00000E+00
    0.00000E+00         0.00000E+00        -0.69983E+08
 
   -0.50003E+08        -0.30669E+06         0.00000E+00
   -0.30669E+06        -0.60006E+08         0.00000E+00
    0.00000E+00         0.00000E+00        -0.65115E+08
 
   -0.51914E+08        -0.67305E+06         0.00000E+00
   -0.67305E+06        -0.60040E+08         0.00000E+00
    0.00000E+00         0.00000E+00        -0.65507E+08
 
   -0.53665E+08        -0.79006E+06         0.00000E+00
   -0.79006E+06        -0.60131E+08         0.00000E+00
    0.00000E+00         0.00000E+00        -0.65884E+08
 
   -0.55215E+08        -0.76950E+06         0.00000E+00
   -0.76950E+06        -0.60284E+08         0.00000E+00
    0.00000E+00         0.00000E+00        -0.66237E+08
 
   -0.56587E+08        -0.68987E+06         0.00000E+00
   -0.68987E+06        -0.60458E+08         0.00000E+00
    0.00000E+00         0.00000E+00        -0.66563E+08
 
   -0.57831E+08        -0.58096E+06         0.00000E+00
   -0.58096E+06        -0.60623E+08         0.00000E+00
    0.00000E+00         0.00000E+00        -0.66864E+08
 
   -0.58983E+08        -0.45333E+06         0.00000E+00
   -0.45333E+06        -0.60761E+08         0.00000E+00
    0.00000E+00         0.00000E+00        -0.67143E+08
 
   -0.60076E+08        -0.30964E+06         0.00000E+00
   -0.30964E+06        -0.60858E+08         0.00000E+00
    0.00000E+00         0.00000E+00        -0.67401E+08
 
   -0.61137E+08        -0.14836E+06         0.00000E+00
   -0.14836E+06        -0.60904E+08         0.00000E+00
    0.00000E+00         0.00000E+00        -0.67643E+08
 
   -0.62191E+08         0.35499E+05         0.00000E+00
    0.35499E+05        -0.60887E+08         0.00000E+00
    0.00000E+00         0.00000E+00        -0.67870E+08
 
   -0.63265E+08         0.25148E+06         0.00000E+00
    0.25148E+06        -0.60796E+08         0.00000E+00
    0.00000E+00         0.00000E+00        -0.68083E+08
 
   -0.64387E+08         0.51728E+06         0.00000E+00
    0.51728E+06        -0.60614E+08         0.00000E+00
    0.00000E+00         0.00000E+00        -0.68286E+08
 
   -0.65592E+08         0.86748E+06         0.00000E+00
    0.86748E+06        -0.60322E+08         0.00000E+00
    0.00000E+00         0.00000E+00        -0.68480E+08
 
   -0.66892E+08         0.13757E+07         0.00000E+00
    0.13757E+07        -0.59895E+08         0.00000E+00
    0.00000E+00         0.00000E+00        -0.68662E+08
 
   -0.68235E+08         0.21564E+07         0.00000E+00
    0.21564E+07        -0.59359E+08         0.00000E+00
    0.00000E+00         0.00000E+00        -0.68826E+08
 
   -0.50535E+08        -0.30280E+06         0.00000E+00
   -0.30280E+06        -0.59993E+08         0.00000E+00
    0.00000E+00         0.00000E+00        -0.64499E+08
 
   -0.52165E+08        -0.69555E+06         0.00000E+00
   -0.69555E+06        -0.59982E+08         0.00000E+00
    0.00000E+00         0.00000E+00        -0.64823E+08
 
   -0.53727E+08        -0.86574E+06         0.00000E+00
   -0.86574E+06        -0.59997E+08         0.00000E+00
    0.00000E+00         0.00000E+00        -0.65141E+08
 
   -0.55171E+08        -0.88716E+06         0.00000E+00
   -0.88716E+06        -0.60049E+08         0.00000E+00
    0.00000E+00         0.00000E+00        -0.65446E+08
 
   -0.56490E+08        -0.81946E+06         0.00000E+00
   -0.81946E+06        -0.60129E+08         0.00000E+00
    0.00000E+00         0.00000E+00        -0.65734E+08
 
   -0.57701E+08        -0.69929E+06         0.00000E+00
   -0.69929E+06        -0.60214E+08         0.00000E+00
    0.00000E+00         0.00000E+00        -0.66003E+08
 
   -0.58830E+08        -0.54375E+06         0.00000E+00
   -0.54375E+06        -0.60287E+08         0.00000E+00
    0.00000E+00         0.00000E+00        -0.66255E+08
 
   -0.59900E+08        -0.35919E+06         0.00000E+00
   -0.35919E+06        -0.60330E+08         0.00000E+00
    0.00000E+00         0.00000E+00        -0.66490E+08
 
   -0.60936E+08        -0.14552E+06         0.00000E+00
   -0.14552E+06        -0.60332E+08         0.00000E+00
    0.00000E+00         0.00000E+00        -0.66709E+08
 
   -0.61957E+08         0.10244E+06         0.00000E+00
    0.10244E+06        -0.60280E+08         0.00000E+00
    0.00000E+00         0.00000E+00        -0.66914E+08
 
   -0.62984E+08         0.39572E+06         0.00000E+00
    0.39572E+06        -0.60163E+08         0.00000E+00
    0.00000E+00         0.00000E+00        -0.67106E+08
 
   -0.64035E+08         0.75429E+06         0.00000E+00
    0.75429E+06        -0.59967E+08         0.00000E+00
    0.00000E+00         0.00000E+00        -0.67285E+08
 
   -0.65118E+08         0.12130E+07         0.00000E+00
    0.12130E+07        -0.59682E+08         0.00000E+00
    0.00000E+00         0.00000E+00        -0.67450E+08
 
   -0.66219E+08         0.18252E+07         0.00000E+00
    0.18252E+07        -0.59312E+08         0.00000E+00
    0.00000E+00         0.00000E+00        -0.67599E+08
 
   -0.67278E+08         0.26527E+07         0.00000E+00
    0.26527E+07        -0.58890E+08         0.00000E+00
    0.00000E+00         0.00000E+00        -0.67728E+08
 
   -0.51054E+08        -0.28094E+06         0.00000E+00
   -0.28094E+06        -0.59988E+08         0.00000E+00
    0.00000E+00         0.00000E+00        -0.63886E+08
 
   -0.52445E+08        -0.67087E+06         0.00000E+00
   -0.67087E+06        -0.59953E+08         0.00000E+00
    0.00000E+00         0.00000E+00        -0.64156E+08
 
   -0.53830E+08        -0.86721E+06         0.00000E+00
   -0.86721E+06        -0.59920E+08         0.00000E+00
    0.00000E+00         0.00000E+00        -0.64425E+08
 
   -0.55155E+08        -0.91874E+06         0.00000E+00
   -0.91874E+06        -0.59908E+08         0.00000E+00
    0.00000E+00         0.00000E+00        -0.64688E+08
 
   -0.56397E+08        -0.86875E+06         0.00000E+00
   -0.86875E+06        -0.59916E+08         0.00000E+00
    0.00000E+00         0.00000E+00        -0.64939E+08
 
   -0.57557E+08        -0.74849E+06         0.00000E+00
   -0.74849E+06        -0.59934E+08         0.00000E+00
    0.00000E+00         0.00000E+00        -0.65178E+08
 
   -0.58647E+08        -0.57653E+06         0.00000E+00
   -0.57653E+06        -0.59947E+08         0.00000E+00
    0.00000E+00         0.00000E+00        -0.65403E+08
 
   -0.59683E+08        -0.36143E+06         0.00000E+00
   -0.36143E+06        -0.59941E+08         0.00000E+00
    0.00000E+00         0.00000E+00        -0.65614E+08
 
   -0.60681E+08        -0.10465E+06         0.00000E+00
   -0.10465E+06        -0.59903E+08         0.00000E+00
    0.00000E+00         0.00000E+00        -0.65811E+08
 
   -0.61658E+08         0.19813E+06         0.00000E+00
    0.19813E+06        -0.59821E+08         0.00000E+00
    0.00000E+00         0.00000E+00        -0.65994E+08
 
   -0.62626E+08         0.55725E+06         0.00000E+00
    0.55725E+06        -0.59684E+08         0.00000E+00
    0.00000E+00         0.00000E+00        -0.66164E+08
 
   -0.63592E+08         0.99065E+06         0.00000E+00
    0.99065E+06        -0.59485E+08         0.00000E+00
    0.00000E+00         0.00000E+00        -0.66321E+08
 
   -0.64554E+08         0.15253E+07         0.00000E+00
    0.15253E+07        -0.59222E+08         0.00000E+00
    0.00000E+00         0.00000E+00        -0.66462E+08
 
   -0.65486E+08         0.21953E+07         0.00000E+00
    0.21953E+07        -0.58906E+08         0.00000E+00
    0.00000E+00         0.00000E+00        -0.66585E+08
 
   -0.66337E+08         0.30328E+07         0.00000E+00
    0.30328E+07        -0.58568E+08         0.00000E+00
    0.00000E+00         0.00000E+00        -0.66688E+08
 
   -0.51535E+08        -0.25207E+06         0.00000E+00
   -0.25207E+06        -0.59986E+08         0.00000E+00
    0.00000E+00         0.00000E+00        -0.63271E+08
 
   -0.52730E+08        -0.61933E+06         0.00000E+00
   -0.61933E+06        -0.59940E+08         0.00000E+00
    0.00000E+00         0.00000E+00        -0.63499E+08
 
   -0.53956E+08        -0.82281E+06         0.00000E+00
   -0.82281E+06        -0.59880E+08         0.00000E+00
    0.00000E+00         0.00000E+00        -0.63729E+08
 
   -0.55160E+08        -0.89227E+06         0.00000E+00
   -0.89227E+06        -0.59826E+08         0.00000E+00
    0.00000E+00         0.00000E+00        -0.63955E+08
 
   -0.56314E+08        -0.85708E+06         0.00000E+00
   -0.85708E+06        -0.59786E+08         0.00000E+00
    0.00000E+00         0.00000E+00        -0.64175E+08
 
   -0.57408E+08        -0.74098E+06         0.00000E+00
   -0.74098E+06        -0.59754E+08         0.00000E+00
    0.00000E+00         0.00000E+00        -0.64386E+08
 
   -0.58445E+08        -0.56000E+06         0.00000E+00
   -0.56000E+06        -0.59721E+08         0.00000E+00
    0.00000E+00         0.00000E+00        -0.64585E+08
 
   -0.59433E+08        -0.32286E+06         0.00000E+00
   -0.32286E+06        -0.59675E+08         0.00000E+00
    0.00000E+00         0.00000E+00        -0.64773E+08
 
   -0.60382E+08        -0.32088E+05         0.00000E+00
   -0.32088E+05        -0.59606E+08         0.00000E+00
    0.00000E+00         0.00000E+00        -0.64948E+08
 
   -0.61304E+08         0.31512E+06         0.00000E+00
    0.31512E+06        -0.59501E+08         0.00000E+00
    0.00000E+00         0.00000E+00        -0.65111E+08
 
   -0.62204E+08         0.72675E+06         0.00000E+00
    0.72675E+06        -0.59354E+08         0.00000E+00
    0.00000E+00         0.00000E+00        -0.65261E+08
 
   -0.63084E+08         0.12160E+07         0.00000E+00
    0.12160E+07        -0.59160E+08         0.00000E+00
    0.00000E+00         0.00000E+00        -0.65397E+08
 
   -0.63934E+08         0.18009E+07         0.00000E+00
    0.18009E+07        -0.58922E+08         0.00000E+00
    0.00000E+00         0.00000E+00        -0.65517E+08
 
   -0.64729E+08         0.25008E+07         0.00000E+00
    0.25008E+07        -0.58653E+08         0.00000E+00
    0.00000E+00         0.00000E+00        -0.65621E+08
 
   -0.65424E+08         0.33307E+07         0.00000E+00
    0.33307E+07        -0.58379E+08         0.00000E+00
    0.00000E+00         0.00000E+00        -0.65704E+08
 
   -0.51967E+08        -0.22066E+06         0.00000E+00
   -0.22066E+06        -0.59986E+08         0.00000E+00
    0.00000E+00         0.00000E+00        -0.62656E+08
 
   -0.53003E+08        -0.55452E+06         0.00000E+00
   -0.55452E+06        -0.59935E+08         0.00000E+00
    0.00000E+00         0.00000E+00        -0.62850E+08
 
   -0.54090E+08        -0.75236E+06         0.00000E+00
   -0.75236E+06        -0.59861E+08         0.00000E+00
    0.00000E+00         0.00000E+00        -0.63048E+08
 
   -0.55179E+08        -0.82982E+06         0.00000E+00
   -0.82982E+06        -0.59785E+08         0.00000E+00
    0.00000E+00         0.00000E+00        -0.63245E+08
 
   -0.56240E+08        -0.80473E+06         0.00000E+00
   -0.80473E+06        -0.59716E+08         0.00000E+00
    0.00000E+00         0.00000E+00        -0.63437E+08
 
   -0.57258E+08        -0.69317E+06         0.00000E+00
   -0.69317E+06        -0.59652E+08         0.00000E+00
    0.00000E+00         0.00000E+00        -0.63622E+08
 
   -0.58230E+08        -0.50722E+06         0.00000E+00
   -0.50722E+06        -0.59589E+08         0.00000E+00
    0.00000E+00         0.00000E+00        -0.63798E+08
 
   -0.59158E+08        -0.25436E+06         0.00000E+00
   -0.25436E+06        -0.59517E+08         0.00000E+00
    0.00000E+00         0.00000E+00        -0.63964E+08
 
   -0.60048E+08         0.62428E+05         0.00000E+00
    0.62428E+05        -0.59427E+08         0.00000E+00
    0.00000E+00         0.00000E+00        -0.64120E+08
 
   -0.60907E+08         0.44423E+06         0.00000E+00
    0.44423E+06        -0.59311E+08         0.00000E+00
    0.00000E+00         0.00000E+00        -0.64263E+08
 
   -0.61735E+08         0.89585E+06         0.00000E+00
    0.89585E+06        -0.59162E+08         0.00000E+00
    0.00000E+00         0.00000E+00        -0.64395E+08
 
   -0.62531E+08         0.14252E+07         0.00000E+00
    0.14252E+07        -0.58979E+08         0.00000E+00
    0.00000E+00         0.00000E+00        -0.64513E+08
 
   -0.63282E+08         0.20422E+07         0.00000E+00
    0.20422E+07        -0.58766E+08         0.00000E+00
    0.00000E+00         0.00000E+00        -0.64617E+08
 
   -0.63965E+08         0.27556E+07         0.00000E+00
    0.27556E+07        -0.58535E+08         0.00000E+00
    0.00000E+00         0.00000E+00        -0.64704E+08
 
   -0.64544E+08         0.35697E+07         0.00000E+00
    0.35697E+07        -0.58310E+08         0.00000E+00
    0.00000E+00         0.00000E+00        -0.64773E+08
 
   -0.52346E+08        -0.18929E+06         0.00000E+00
   -0.18929E+06        -0.59986E+08         0.00000E+00
    0.00000E+00         0.00000E+00        -0.62039E+08
 
   -0.53256E+08        -0.48543E+06         0.00000E+00
   -0.48543E+06        -0.59936E+08         0.00000E+00
    0.00000E+00         0.00000E+00        -0.62208E+08
 
   -0.54224E+08        -0.67044E+06         0.00000E+00
   -0.67044E+06        -0.59859E+08         0.00000E+00
    0.00000E+00         0.00000E+00        -0.62381E+08
 
   -0.55205E+08        -0.74914E+06         0.00000E+00
   -0.74914E+06        -0.59775E+08         0.00000E+00
    0.00000E+00         0.00000E+00        -0.62553E+08
 
   -0.56173E+08        -0.72994E+06         0.00000E+00
   -0.72994E+06        -0.59693E+08         0.00000E+00
    0.00000E+00         0.00000E+00        -0.62722E+08
 
   -0.57108E+08        -0.62195E+06         0.00000E+00
   -0.62195E+06        -0.59615E+08         0.00000E+00
    0.00000E+00         0.00000E+00        -0.62885E+08
 
   -0.58006E+08        -0.43303E+06         0.00000E+00
   -0.43303E+06        -0.59537E+08         0.00000E+00
    0.00000E+00         0.00000E+00        -0.63040E+08
 
   -0.58865E+08        -0.16878E+06         0.00000E+00
   -0.16878E+06        -0.59453E+08         0.00000E+00
    0.00000E+00         0.00000E+00        -0.63186E+08
 
   -0.59688E+08         0.16776E+06         0.00000E+00
    0.16776E+06        -0.59355E+08         0.00000E+00
    0.00000E+00         0.00000E+00        -0.63323E+08
 
   -0.60476E+08         0.57605E+06         0.00000E+00
    0.57605E+06        -0.59237E+08         0.00000E+00
    0.00000E+00         0.00000E+00        -0.63449E+08
 
   -0.61230E+08         0.10577E+07         0.00000E+00
    0.10577E+07        -0.59094E+08         0.00000E+00
    0.00000E+00         0.00000E+00        -0.63564E+08
 
   -0.61946E+08         0.16156E+07         0.00000E+00
    0.16156E+07        -0.58926E+08         0.00000E+00
    0.00000E+00         0.00000E+00        -0.63667E+08
 
   -0.62610E+08         0.22529E+07         0.00000E+00
    0.22529E+07        -0.58737E+08         0.00000E+00
    0.00000E+00         0.00000E+00        -0.63757E+08
 
   -0.63204E+08         0.29709E+07         0.00000E+00
    0.29709E+07        -0.58538E+08         0.00000E+00
    0.00000E+00         0.00000E+00        -0.63832E+08
 
   -0.63697E+08         0.37664E+07         0.00000E+00
    0.37664E+07        -0.58348E+08         0.00000E+00
    0.00000E+00         0.00000E+00        -0.63890E+08
 
   -0.52672E+08        -0.15989E+06         0.00000E+00
   -0.15989E+06        -0.59987E+08         0.00000E+00
    0.00000E+00         0.00000E+00        -0.61422E+08
 
   -0.53484E+08        -0.41876E+06         0.00000E+00
   -0.41876E+06        -0.59941E+08         0.00000E+00
    0.00000E+00         0.00000E+00        -0.61572E+08
 
   -0.54351E+08        -0.58829E+06         0.00000E+00
   -0.58829E+06        -0.59870E+08         0.00000E+00
    0.00000E+00         0.00000E+00        -0.61725E+08
 
   -0.55235E+08        -0.66468E+06         0.00000E+00
   -0.66468E+06        -0.59789E+08         0.00000E+00
    0.00000E+00         0.00000E+00        -0.61877E+08
 
   -0.56110E+08        -0.64860E+06         0.00000E+00
   -0.64860E+06        -0.59708E+08         0.00000E+00
    0.00000E+00         0.00000E+00        -0.62026E+08
 
   -0.56959E+08        -0.54312E+06         0.00000E+00
   -0.54312E+06        -0.59630E+08         0.00000E+00
    0.00000E+00         0.00000E+00        -0.62170E+08
 
   -0.57776E+08        -0.35213E+06         0.00000E+00
   -0.35213E+06        -0.59552E+08         0.00000E+00
    0.00000E+00         0.00000E+00        -0.62306E+08
 
   -0.58558E+08        -0.79237E+05         0.00000E+00
   -0.79237E+05        -0.59469E+08         0.00000E+00
    0.00000E+00         0.00000E+00        -0.62435E+08
 
   -0.59306E+08         0.27270E+06         0.00000E+00
    0.27270E+06        -0.59376E+08         0.00000E+00
    0.00000E+00         0.00000E+00        -0.62554E+08
 
   -0.60020E+08         0.70172E+06         0.00000E+00
    0.70172E+06        -0.59266E+08         0.00000E+00
    0.00000E+00         0.00000E+00        -0.62665E+08
 
   -0.60699E+08         0.12065E+07         0.00000E+00
    0.12065E+07        -0.59136E+08         0.00000E+00
    0.00000E+00         0.00000E+00        -0.62765E+08
 
   -0.61339E+08         0.17856E+07         0.00000E+00
    0.17856E+07        -0.58986E+08         0.00000E+00
    0.00000E+00         0.00000E+00        -0.62855E+08
 
   -0.61928E+08         0.24369E+07         0.00000E+00
    0.24369E+07        -0.58820E+08         0.00000E+00
    0.00000E+00         0.00000E+00        -0.62933E+08
 
   -0.62450E+08         0.31556E+07         0.00000E+00
    0.31556E+07        -0.58647E+08         0.00000E+00
    0.00000E+00         0.00000E+00        -0.62998E+08
 
   -0.62881E+08         0.39333E+07         0.00000E+00
    0.39333E+07        -0.58483E+08         0.00000E+00
    0.00000E+00         0.00000E+00        -0.63048E+08
 
   -0.52949E+08        -0.13412E+06         0.00000E+00
   -0.13412E+06        -0.59989E+08         0.00000E+00
    0.00000E+00         0.00000E+00        -0.60805E+08
 
   -0.53687E+08        -0.35992E+06         0.00000E+00
   -0.35992E+06        -0.59951E+08         0.00000E+00
    0.00000E+00         0.00000E+00        -0.60941E+08
 
   -0.54470E+08        -0.51502E+06         0.00000E+00
   -0.51502E+06        -0.59891E+08         0.00000E+00
    0.00000E+00         0.00000E+00        -0.61079E+08
 
   -0.55265E+08        -0.58841E+06         0.00000E+00
   -0.58841E+06        -0.59823E+08         0.00000E+00
    0.00000E+00         0.00000E+00        -0.61215E+08
 
   -0.56050E+08        -0.57435E+06         0.00000E+00
   -0.57435E+06        -0.59756E+08         0.00000E+00
    0.00000E+00         0.00000E+00        -0.61347E+08
 
   -0.56811E+08        -0.47079E+06         0.00000E+00
   -0.47079E+06        -0.59691E+08         0.00000E+00
    0.00000E+00         0.00000E+00        -0.61474E+08
 
   -0.57542E+08        -0.27811E+06         0.00000E+00
   -0.27811E+06        -0.59626E+08         0.00000E+00
    0.00000E+00         0.00000E+00        -0.61594E+08
 
   -0.58241E+08         0.19305E+04         0.00000E+00
    0.19305E+04        -0.59556E+08         0.00000E+00
    0.00000E+00         0.00000E+00        -0.61706E+08
 
   -0.58908E+08         0.36675E+06         0.00000E+00
    0.36675E+06        -0.59478E+08         0.00000E+00
    0.00000E+00         0.00000E+00        -0.61810E+08
 
   -0.59543E+08         0.81316E+06         0.00000E+00
    0.81316E+06        -0.59385E+08         0.00000E+00
    0.00000E+00         0.00000E+00        -0.61906E+08
 
   -0.60148E+08         0.13373E+07         0.00000E+00
    0.13373E+07        -0.59274E+08         0.00000E+00
    0.00000E+00         0.00000E+00        -0.61993E+08
 
   -0.60716E+08         0.19342E+07         0.00000E+00
    0.19342E+07        -0.59145E+08         0.00000E+00
    0.00000E+00         0.00000E+00        -0.62071E+08
 
   -0.61239E+08         0.25971E+07         0.00000E+00
    0.25971E+07        -0.59001E+08         0.00000E+00
    0.00000E+00         0.00000E+00        -0.62139E+08
 
   -0.61704E+08         0.33167E+07         0.00000E+00
    0.33167E+07        -0.58850E+08         0.00000E+00
    0.00000E+00         0.00000E+00        -0.62196E+08
 
   -0.62090E+08         0.40802E+07         0.00000E+00
    0.40802E+07        -0.58704E+08         0.00000E+00
    0.00000E+00         0.00000E+00        -0.62241E+08
 
   -0.53186E+08        -0.11351E+06         0.00000E+00
   -0.11351E+06        -0.59992E+08         0.00000E+00
    0.00000E+00         0.00000E+00        -0.60187E+08
 
   -0.53871E+08        -0.31358E+06         0.00000E+00
   -0.31358E+06        -0.59964E+08         0.00000E+00
    0.00000E+00         0.00000E+00        -0.60314E+08
 
   -0.54582E+08        -0.45828E+06         0.00000E+00
   -0.45828E+06        -0.59921E+08         0.00000E+00
    0.00000E+00         0.00000E+00        -0.60441E+08
 
   -0.55295E+08        -0.53042E+06         0.00000E+00
   -0.53042E+06        -0.59875E+08         0.00000E+00
    0.00000E+00         0.00000E+00        -0.60564E+08
 
   -0.55992E+08        -0.51888E+06         0.00000E+00
   -0.51888E+06        -0.59831E+08         0.00000E+00
    0.00000E+00         0.00000E+00        -0.60682E+08
 
   -0.56663E+08        -0.41731E+06         0.00000E+00
   -0.41731E+06        -0.59790E+08         0.00000E+00
    0.00000E+00         0.00000E+00        -0.60794E+08
 
   -0.57303E+08        -0.22309E+06         0.00000E+00
   -0.22309E+06        -0.59749E+08         0.00000E+00
    0.00000E+00         0.00000E+00        -0.60898E+08
 
   -0.57913E+08         0.63618E+05         0.00000E+00
    0.63618E+05        -0.59705E+08         0.00000E+00
    0.00000E+00         0.00000E+00        -0.60995E+08
 
   -0.58494E+08         0.44046E+06         0.00000E+00
    0.44046E+06        -0.59651E+08         0.00000E+00
    0.00000E+00         0.00000E+00        -0.61085E+08
 
   -0.59049E+08         0.90321E+06         0.00000E+00
    0.90321E+06        -0.59582E+08         0.00000E+00
    0.00000E+00         0.00000E+00        -0.61167E+08
 
   -0.59577E+08         0.14458E+07         0.00000E+00
    0.14458E+07        -0.59496E+08         0.00000E+00
    0.00000E+00         0.00000E+00        -0.61242E+08
 
   -0.60077E+08         0.20602E+07         0.00000E+00
    0.20602E+07        -0.59390E+08         0.00000E+00
    0.00000E+00         0.00000E+00        -0.61309E+08
 
   -0.60542E+08         0.27359E+07         0.00000E+00
    0.27359E+07        -0.59268E+08         0.00000E+00
    0.00000E+00         0.00000E+00        -0.61369E+08
 
   -0.60961E+08         0.34597E+07         0.00000E+00
    0.34597E+07        -0.59136E+08         0.00000E+00
    0.00000E+00         0.00000E+00        -0.61420E+08
 
   -0.61318E+08         0.42151E+07         0.00000E+00
    0.42151E+07        -0.59002E+08         0.00000E+00
    0.00000E+00         0.00000E+00        -0.61461E+08
 
   -0.53393E+08        -0.99461E+05         0.00000E+00
   -0.99461E+05        -0.59995E+08         0.00000E+00
    0.00000E+00         0.00000E+00        -0.59567E+08
 
   -0.54041E+08        -0.28384E+06         0.00000E+00
   -0.28384E+06        -0.59980E+08         0.00000E+00
    0.00000E+00         0.00000E+00        -0.59690E+08
 
   -0.54692E+08        -0.42463E+06         0.00000E+00
   -0.42463E+06        -0.59960E+08         0.00000E+00
    0.00000E+00         0.00000E+00        -0.59809E+08
 
   -0.55329E+08        -0.49930E+06         0.00000E+00
   -0.49930E+06        -0.59942E+08         0.00000E+00
    0.00000E+00         0.00000E+00        -0.59921E+08
 
   -0.55938E+08        -0.49214E+06         0.00000E+00
   -0.49214E+06        -0.59930E+08         0.00000E+00
    0.00000E+00         0.00000E+00        -0.60026E+08
 
   -0.56516E+08        -0.39325E+06         0.00000E+00
   -0.39325E+06        -0.59923E+08         0.00000E+00
    0.00000E+00         0.00000E+00        -0.60124E+08
 
   -0.57061E+08        -0.19753E+06         0.00000E+00
   -0.19753E+06        -0.59916E+08         0.00000E+00
    0.00000E+00         0.00000E+00        -0.60214E+08
 
   -0.57576E+08         0.96162E+05         0.00000E+00
    0.96162E+05        -0.59905E+08         0.00000E+00
    0.00000E+00         0.00000E+00        -0.60296E+08
 
   -0.58066E+08         0.48560E+06         0.00000E+00
    0.48560E+06        -0.59884E+08         0.00000E+00
    0.00000E+00         0.00000E+00        -0.60371E+08
 
   -0.58536E+08         0.96563E+06         0.00000E+00
    0.96563E+06        -0.59847E+08         0.00000E+00
    0.00000E+00         0.00000E+00        -0.60440E+08
 
   -0.58987E+08         0.15283E+07         0.00000E+00
    0.15283E+07        -0.59789E+08         0.00000E+00
    0.00000E+00         0.00000E+00        -0.60504E+08
 
   -0.59421E+08         0.21627E+07         0.00000E+00
    0.21627E+07        -0.59710E+08         0.00000E+00
    0.00000E+00         0.00000E+00        -0.60561E+08
 
   -0.59834E+08         0.28553E+07         0.00000E+00
    0.28553E+07        -0.59610E+08         0.00000E+00
    0.00000E+00         0.00000E+00        -0.60613E+08
 
   -0.60217E+08         0.35891E+07         0.00000E+00
    0.35891E+07        -0.59492E+08         0.00000E+00
    0.00000E+00         0.00000E+00        -0.60659E+08
 
   -0.60558E+08         0.43444E+07         0.00000E+00
    0.43444E+07        -0.59366E+08         0.00000E+00
    0.00000E+00         0.00000E+00        -0.60698E+08
 
   -0.53583E+08        -0.93225E+05         0.00000E+00
   -0.93225E+05        -0.59999E+08         0.00000E+00
    0.00000E+00         0.00000E+00        -0.58946E+08
 
   -0.54207E+08        -0.27431E+06         0.00000E+00
   -0.27431E+06        -0.59999E+08         0.00000E+00
    0.00000E+00         0.00000E+00        -0.59067E+08
 
   -0.54806E+08        -0.41974E+06         0.00000E+00
   -0.41974E+06        -0.60005E+08         0.00000E+00
    0.00000E+00         0.00000E+00        -0.59179E+08
 
   -0.55368E+08        -0.50234E+06         0.00000E+00
   -0.50234E+06        -0.60022E+08         0.00000E+00
    0.00000E+00         0.00000E+00        -0.59282E+08
 
   -0.55889E+08        -0.50255E+06         0.00000E+00
   -0.50255E+06        -0.60049E+08         0.00000E+00
    0.00000E+00         0.00000E+00        -0.59375E+08
 
   -0.56369E+08        -0.40755E+06         0.00000E+00
   -0.40755E+06        -0.60083E+08         0.00000E+00
    0.00000E+00         0.00000E+00        -0.59459E+08
 
   -0.56813E+08        -0.21026E+06         0.00000E+00
   -0.21026E+06        -0.60119E+08         0.00000E+00
    0.00000E+00         0.00000E+00        -0.59534E+08
 
   -0.57228E+08         0.91399E+05         0.00000E+00
    0.91399E+05        -0.60150E+08         0.00000E+00
    0.00000E+00         0.00000E+00        -0.59602E+08
 
   -0.57622E+08         0.49521E+06         0.00000E+00
    0.49521E+06        -0.60168E+08         0.00000E+00
    0.00000E+00         0.00000E+00        -0.59663E+08
 
   -0.58002E+08         0.99509E+06         0.00000E+00
    0.99509E+06        -0.60168E+08         0.00000E+00
    0.00000E+00         0.00000E+00        -0.59718E+08
 
   -0.58375E+08         0.15813E+07         0.00000E+00
    0.15813E+07        -0.60144E+08         0.00000E+00
    0.00000E+00         0.00000E+00        -0.59769E+08
 
   -0.58744E+08         0.22408E+07         0.00000E+00
    0.22408E+07        -0.60092E+08         0.00000E+00
    0.00000E+00         0.00000E+00        -0.59817E+08
 
   -0.59108E+08         0.29566E+07         0.00000E+00
    0.29566E+07        -0.60013E+08         0.00000E+00
    0.00000E+00         0.00000E+00        -0.59862E+08
 
   -0.59463E+08         0.37088E+07         0.00000E+00
    0.37088E+07        -0.59908E+08         0.00000E+00
    0.00000E+00         0.00000E+00        -0.59904E+08
 
   -0.59798E+08         0.44740E+07         0.00000E+00
    0.44740E+07        -0.59784E+08         0.00000E+00
    0.00000E+00         0.00000E+00        -0.59942E+08
 
   -0.53772E+08        -0.95929E+05         0.00000E+00
   -0.95929E+05        -0.60003E+08         0.00000E+00
    0.00000E+00         0.00000E+00        -0.58322E+08
 
   -0.54381E+08        -0.28811E+06         0.00000E+00
   -0.28811E+06        -0.60020E+08         0.00000E+00
    0.00000E+00         0.00000E+00        -0.58442E+08
 
   -0.54930E+08        -0.44841E+06         0.00000E+00
   -0.44841E+06        -0.60057E+08         0.00000E+00
    0.00000E+00         0.00000E+00        -0.58549E+08
 
   -0.55418E+08        -0.54563E+06         0.00000E+00
   -0.54563E+06        -0.60113E+08         0.00000E+00
    0.00000E+00         0.00000E+00        -0.58643E+08
 
   -0.55847E+08        -0.55704E+06         0.00000E+00
   -0.55704E+06        -0.60186E+08         0.00000E+00
    0.00000E+00         0.00000E+00        -0.58724E+08
 
   -0.56225E+08        -0.46748E+06         0.00000E+00
   -0.46748E+06        -0.60268E+08         0.00000E+00
    0.00000E+00         0.00000E+00        -0.58793E+08
 
   -0.56561E+08        -0.26845E+06         0.00000E+00
   -0.26845E+06        -0.60352E+08         0.00000E+00
    0.00000E+00         0.00000E+00        -0.58853E+08
 
   -0.56869E+08         0.42717E+05         0.00000E+00
    0.42717E+05        -0.60430E+08         0.00000E+00
    0.00000E+00         0.00000E+00        -0.58904E+08
 
   -0.57159E+08         0.46363E+06         0.00000E+00
    0.46363E+06        -0.60493E+08         0.00000E+00
    0.00000E+00         0.00000E+00        -0.58949E+08
 
   -0.57445E+08         0.98727E+06         0.00000E+00
    0.98727E+06        -0.60534E+08         0.00000E+00
    0.00000E+00         0.00000E+00        -0.58990E+08
 
   -0.57735E+08         0.16024E+07         0.00000E+00
    0.16024E+07        -0.60546E+08         0.00000E+00
    0.00000E+00         0.00000E+00        -0.59029E+08
 
   -0.58038E+08         0.22935E+07         0.00000E+00
    0.22935E+07        -0.60525E+08         0.00000E+00
    0.00000E+00         0.00000E+00        -0.59066E+08
 
   -0.58356E+08         0.30411E+07         0.00000E+00
    0.30411E+07        -0.60466E+08         0.00000E+00
    0.00000E+00         0.00000E+00        -0.59104E+08
 
   -0.58688E+08         0.38218E+07         0.00000E+00
    0.38218E+07        -0.60373E+08         0.00000E+00
    0.00000E+00         0.00000E+00        -0.59142E+08
 
   -0.59028E+08         0.46088E+07         0.00000E+00
    0.46088E+07        -0.60248E+08         0.00000E+00
    0.00000E+00         0.00000E+00        -0.59180E+08
 
   -0.53978E+08        -0.10854E+06         0.00000E+00
   -0.10854E+06        -0.60008E+08         0.00000E+00
    0.00000E+00         0.00000E+00        -0.57693E+08
 
   -0.54575E+08        -0.32790E+06         0.00000E+00
   -0.32790E+06        -0.60044E+08         0.00000E+00
    0.00000E+00         0.00000E+00        -0.57813E+08
 
   -0.55074E+08        -0.51461E+06         0.00000E+00
   -0.51461E+06        -0.60114E+08         0.00000E+00
    0.00000E+00         0.00000E+00        -0.57915E+08
 
   -0.55484E+08        -0.63408E+06         0.00000E+00
   -0.63408E+06        -0.60213E+08         0.00000E+00
    0.00000E+00         0.00000E+00        -0.57998E+08
 
   -0.55815E+08        -0.66103E+06         0.00000E+00
   -0.66103E+06        -0.60335E+08         0.00000E+00
    0.00000E+00         0.00000E+00        -0.58066E+08
 
   -0.56082E+08        -0.57864E+06         0.00000E+00
   -0.57864E+06        -0.60470E+08         0.00000E+00
    0.00000E+00         0.00000E+00        -0.58119E+08
 
   -0.56303E+08        -0.37753E+06         0.00000E+00
   -0.37753E+06        -0.60607E+08         0.00000E+00
    0.00000E+00         0.00000E+00        -0.58160E+08
 
   -0.56494E+08        -0.54838E+05         0.00000E+00
   -0.54838E+05        -0.60737E+08         0.00000E+00
    0.00000E+00         0.00000E+00        -0.58193E+08
 
   -0.56673E+08         0.38662E+06         0.00000E+00
    0.38662E+06        -0.60850E+08         0.00000E+00
    0.00000E+00         0.00000E+00        -0.58220E+08
 
   -0.56858E+08         0.93888E+06         0.00000E+00
    0.93888E+06        -0.60935E+08         0.00000E+00
    0.00000E+00         0.00000E+00        -0.58245E+08
 
   -0.57061E+08         0.15892E+07         0.00000E+00
    0.15892E+07        -0.60985E+08         0.00000E+00
    0.00000E+00         0.00000E+00        -0.58269E+08
 
   -0.57295E+08         0.23201E+07         0.00000E+00
    0.23201E+07        -0.60994E+08         0.00000E+00
    0.00000E+00         0.00000E+00        -0.58296E+08
 
   -0.57568E+08         0.31096E+07         0.00000E+00
    0.31096E+07        -0.60957E+08         0.00000E+00
    0.00000E+00         0.00000E+00        -0.58325E+08
 
   -0.57882E+08         0.39310E+07         0.00000E+00
    0.39310E+07        -0.60873E+08         0.00000E+00
    0.00000E+00         0.00000E+00        -0.58359E+08
 
   -0.58234E+08         0.47535E+07         0.00000E+00
    0.47535E+07        -0.60743E+08         0.00000E+00
    0.00000E+00         0.00000E+00        -0.58398E+08
 
   -0.54221E+08        -0.13185E+06         0.00000E+00
   -0.13185E+06        -0.60013E+08         0.00000E+00
    0.00000E+00         0.00000E+00        -0.57056E+08
 
   -0.54803E+08        -0.39580E+06         0.00000E+00
   -0.39580E+06        -0.60069E+08         0.00000E+00
    0.00000E+00         0.00000E+00        -0.57176E+08
 
   -0.55249E+08        -0.62144E+06         0.00000E+00
   -0.62144E+06        -0.60175E+08         0.00000E+00
    0.00000E+00         0.00000E+00        -0.57271E+08
 
   -0.55573E+08        -0.77134E+06         0.00000E+00
   -0.77134E+06        -0.60320E+08         0.00000E+00
    0.00000E+00         0.00000E+00        -0.57342E+08
 
   -0.55796E+08        -0.81840E+06         0.00000E+00
   -0.81840E+06        -0.60494E+08         0.00000E+00
    0.00000E+00         0.00000E+00        -0.57393E+08
 
   -0.55943E+08        -0.74482E+06         0.00000E+00
   -0.74482E+06        -0.60685E+08         0.00000E+00
    0.00000E+00         0.00000E+00        -0.57427E+08
 
   -0.56037E+08        -0.54099E+06         0.00000E+00
   -0.54099E+06        -0.60878E+08         0.00000E+00
    0.00000E+00         0.00000E+00        -0.57447E+08
 
   -0.56102E+08        -0.20435E+06         0.00000E+00
   -0.20435E+06        -0.61062E+08         0.00000E+00
    0.00000E+00         0.00000E+00        -0.57459E+08
 
   -0.56161E+08         0.26158E+06         0.00000E+00
    0.26158E+06        -0.61225E+08         0.00000E+00
    0.00000E+00         0.00000E+00        -0.57465E+08
 
   -0.56236E+08         0.84788E+06         0.00000E+00
    0.84788E+06        -0.61356E+08         0.00000E+00
    0.00000E+00         0.00000E+00        -0.57470E+08
 
   -0.56345E+08         0.15405E+07         0.00000E+00
    0.15405E+07        -0.61446E+08         0.00000E+00
    0.00000E+00         0.00000E+00        -0.57478E+08
 
   -0.56507E+08         0.23204E+07         0.00000E+00
    0.23204E+07        -0.61486E+08         0.00000E+00
    0.00000E+00         0.00000E+00        -0.57491E+08
 
   -0.56732E+08         0.31630E+07         0.00000E+00
    0.31630E+07        -0.61470E+08         0.00000E+00
    0.00000E+00         0.00000E+00        -0.57511E+08
 
   -0.57030E+08         0.40386E+07         0.00000E+00
    0.40386E+07        -0.61393E+08         0.00000E+00
    0.00000E+00         0.00000E+00        -0.57541E+08
 
   -0.57400E+08         0.49124E+07         0.00000E+00
    0.49124E+07        -0.61256E+08         0.00000E+00
    0.00000E+00         0.00000E+00        -0.57580E+08
 
   -0.54519E+08        -0.16649E+06         0.00000E+00
   -0.16649E+06        -0.60018E+08         0.00000E+00
    0.00000E+00         0.00000E+00        -0.56409E+08
 
   -0.55082E+08        -0.49343E+06         0.00000E+00
   -0.49343E+06        -0.60095E+08         0.00000E+00
    0.00000E+00         0.00000E+00        -0.56527E+08
 
   -0.55463E+08        -0.77104E+06         0.00000E+00
   -0.77104E+06        -0.60238E+08         0.00000E+00
    0.00000E+00         0.00000E+00        -0.56612E+08
 
   -0.55690E+08        -0.95970E+06         0.00000E+00
   -0.95970E+06        -0.60431E+08         0.00000E+00
    0.00000E+00         0.00000E+00        -0.56668E+08
 
   -0.55793E+08        -0.10312E+07         0.00000E+00
   -0.10312E+07        -0.60659E+08         0.00000E+00
    0.00000E+00         0.00000E+00        -0.56698E+08
 
   -0.55807E+08        -0.96764E+06         0.00000E+00
   -0.96764E+06        -0.60906E+08         0.00000E+00
    0.00000E+00         0.00000E+00        -0.56708E+08
 
   -0.55761E+08        -0.76002E+06         0.00000E+00
   -0.76002E+06        -0.61155E+08         0.00000E+00
    0.00000E+00         0.00000E+00        -0.56703E+08
 
   -0.55688E+08        -0.40668E+06         0.00000E+00
   -0.40668E+06        -0.61393E+08         0.00000E+00
    0.00000E+00         0.00000E+00        -0.56688E+08
 
   -0.55616E+08         0.87850E+05         0.00000E+00
    0.87850E+05        -0.61606E+08         0.00000E+00
    0.00000E+00         0.00000E+00        -0.56669E+08
 
   -0.55572E+08         0.71369E+06         0.00000E+00
    0.71369E+06        -0.61783E+08         0.00000E+00
    0.00000E+00         0.00000E+00        -0.56651E+08
 
   -0.55580E+08         0.14558E+07         0.00000E+00
    0.14558E+07        -0.61912E+08         0.00000E+00
    0.00000E+00         0.00000E+00        -0.56638E+08
 
   -0.55661E+08         0.22939E+07         0.00000E+00
    0.22939E+07        -0.61984E+08         0.00000E+00
    0.00000E+00         0.00000E+00        -0.56635E+08
 
   -0.55836E+08         0.32017E+07         0.00000E+00
    0.32017E+07        -0.61988E+08         0.00000E+00
    0.00000E+00         0.00000E+00        -0.56645E+08
 
   -0.56116E+08         0.41464E+07         0.00000E+00
    0.41464E+07        -0.61918E+08         0.00000E+00
    0.00000E+00         0.00000E+00        -0.56669E+08
 
   -0.56509E+08         0.50889E+07         0.00000E+00
    0.50889E+07        -0.61771E+08         0.00000E+00
    0.00000E+00         0.00000E+00        -0.56709E+08
 
   -0.54897E+08        -0.21290E+06         0.00000E+00
   -0.21290E+06        -0.60024E+08         0.00000E+00
    0.00000E+00         0.00000E+00        -0.55747E+08
 
   -0.55427E+08        -0.62185E+06         0.00000E+00
   -0.62185E+06        -0.60123E+08         0.00000E+00
    0.00000E+00         0.00000E+00        -0.55860E+08
 
   -0.55728E+08        -0.96459E+06         0.00000E+00
   -0.96459E+06        -0.60303E+08         0.00000E+00
    0.00000E+00         0.00000E+00        -0.55932E+08
 
   -0.55841E+08        -0.11999E+07         0.00000E+00
   -0.11999E+07        -0.60544E+08         0.00000E+00
    0.00000E+00         0.00000E+00        -0.55967E+08
 
   -0.55808E+08        -0.12994E+07         0.00000E+00
   -0.12994E+07        -0.60826E+08         0.00000E+00
    0.00000E+00         0.00000E+00        -0.55970E+08
 
   -0.55673E+08        -0.12462E+07         0.00000E+00
   -0.12462E+07        -0.61126E+08         0.00000E+00
    0.00000E+00         0.00000E+00        -0.55950E+08
 
   -0.55474E+08        -0.10330E+07         0.00000E+00
   -0.10330E+07        -0.61428E+08         0.00000E+00
    0.00000E+00         0.00000E+00        -0.55913E+08
 
   -0.55250E+08        -0.65990E+06         0.00000E+00
   -0.65990E+06        -0.61717E+08         0.00000E+00
    0.00000E+00         0.00000E+00        -0.55866E+08
 
   -0.55035E+08        -0.13280E+06         0.00000E+00
   -0.13280E+06        -0.61977E+08         0.00000E+00
    0.00000E+00         0.00000E+00        -0.55816E+08
 
   -0.54861E+08         0.53756E+06         0.00000E+00
    0.53756E+06        -0.62196E+08         0.00000E+00
    0.00000E+00         0.00000E+00        -0.55770E+08
 
   -0.54756E+08         0.13357E+07         0.00000E+00
    0.13357E+07        -0.62363E+08         0.00000E+00
    0.00000E+00         0.00000E+00        -0.55733E+08
 
   -0.54749E+08         0.22409E+07         0.00000E+00
    0.22409E+07        -0.62465E+08         0.00000E+00
    0.00000E+00         0.00000E+00        -0.55710E+08
 
   -0.54864E+08         0.32258E+07         0.00000E+00
    0.32258E+07        -0.62490E+08         0.00000E+00
    0.00000E+00         0.00000E+00        -0.55705E+08
 
   -0.55124E+08         0.42554E+07         0.00000E+00
    0.42554E+07        -0.62428E+08         0.00000E+00
    0.00000E+00         0.00000E+00        -0.55723E+08
 
   -0.55540E+08         0.52861E+07         0.00000E+00
    0.52861E+07        -0.62269E+08         0.00000E+00
    0.00000E+00         0.00000E+00        -0.55763E+08
 
   -0.55374E+08        -0.27141E+06         0.00000E+00
   -0.27141E+06        -0.60029E+08         0.00000E+00
    0.00000E+00         0.00000E+00        -0.55067E+08
 
   -0.55853E+08        -0.78162E+06         0.00000E+00
   -0.78162E+06        -0.60150E+08         0.00000E+00
    0.00000E+00         0.00000E+00        -0.55171E+08
 
   -0.56054E+08        -0.12022E+07         0.00000E+00
   -0.12022E+07        -0.60368E+08         0.00000E+00
    0.00000E+00         0.00000E+00        -0.55222E+08
 
   -0.56032E+08        -0.14908E+07         0.00000E+00
   -0.14908E+07        -0.60656E+08         0.00000E+00
    0.00000E+00         0.00000E+00        -0.55229E+08
 
   -0.55843E+08        -0.16203E+07         0.00000E+00
   -0.16203E+07        -0.60988E+08         0.00000E+00
    0.00000E+00         0.00000E+00        -0.55198E+08
 
   -0.55540E+08        -0.15763E+07         0.00000E+00
   -0.15763E+07        -0.61337E+08         0.00000E+00
    0.00000E+00         0.00000E+00        -0.55141E+08
 
   -0.55173E+08        -0.13548E+07         0.00000E+00
   -0.13548E+07        -0.61686E+08         0.00000E+00
    0.00000E+00         0.00000E+00        -0.55064E+08
 
   -0.54784E+08        -0.95855E+06         0.00000E+00
   -0.95855E+06        -0.62017E+08         0.00000E+00
    0.00000E+00         0.00000E+00        -0.54978E+08
 
   -0.54414E+08        -0.39547E+06         0.00000E+00
   -0.39547E+06        -0.62317E+08         0.00000E+00
    0.00000E+00         0.00000E+00        -0.54890E+08
 
   -0.54097E+08         0.32311E+06         0.00000E+00
    0.32311E+06        -0.62573E+08         0.00000E+00
    0.00000E+00         0.00000E+00        -0.54809E+08
 
   -0.53868E+08         0.11822E+07         0.00000E+00
    0.11822E+07        -0.62774E+08         0.00000E+00
    0.00000E+00         0.00000E+00        -0.54741E+08
 
   -0.53759E+08         0.21617E+07         0.00000E+00
    0.21617E+07        -0.62905E+08         0.00000E+00
    0.00000E+00         0.00000E+00        -0.54693E+08
 
   -0.53805E+08         0.32348E+07         0.00000E+00
    0.32348E+07        -0.62951E+08         0.00000E+00
    0.00000E+00         0.00000E+00        -0.54671E+08
 
   -0.54035E+08         0.43652E+07         0.00000E+00
    0.43652E+07        -0.62896E+08         0.00000E+00
    0.00000E+00         0.00000E+00        -0.54678E+08
 
   -0.54473E+08         0.55054E+07         0.00000E+00
    0.55054E+07        -0.62726E+08         0.00000E+00
    0.00000E+00         0.00000E+00        -0.54718E+08
 
   -0.55976E+08        -0.34224E+06         0.00000E+00
   -0.34224E+06        -0.60035E+08         0.00000E+00
    0.00000E+00         0.00000E+00        -0.54362E+08
 
   -0.56377E+08        -0.97285E+06         0.00000E+00
   -0.97285E+06        -0.60178E+08         0.00000E+00
    0.00000E+00         0.00000E+00        -0.54450E+08
 
   -0.56450E+08        -0.14827E+07         0.00000E+00
   -0.14827E+07        -0.60433E+08         0.00000E+00
    0.00000E+00         0.00000E+00        -0.54473E+08
 
   -0.56265E+08        -0.18292E+07         0.00000E+00
   -0.18292E+07        -0.60765E+08         0.00000E+00
    0.00000E+00         0.00000E+00        -0.54442E+08
 
   -0.55895E+08        -0.19880E+07         0.00000E+00
   -0.19880E+07        -0.61140E+08         0.00000E+00
    0.00000E+00         0.00000E+00        -0.54368E+08
 
   -0.55405E+08        -0.19497E+07         0.00000E+00
   -0.19497E+07        -0.61529E+08         0.00000E+00
    0.00000E+00         0.00000E+00        -0.54263E+08
 
   -0.54853E+08        -0.17154E+07         0.00000E+00
   -0.17154E+07        -0.61912E+08         0.00000E+00
    0.00000E+00         0.00000E+00        -0.54137E+08
 
   -0.54287E+08        -0.12926E+07         0.00000E+00
   -0.12926E+07        -0.62273E+08         0.00000E+00
    0.00000E+00         0.00000E+00        -0.54002E+08
 
   -0.53749E+08        -0.69125E+06         0.00000E+00
   -0.69125E+06        -0.62600E+08         0.00000E+00
    0.00000E+00         0.00000E+00        -0.53868E+08
 
   -0.53278E+08         0.76926E+05         0.00000E+00
    0.76926E+05        -0.62884E+08         0.00000E+00
    0.00000E+00         0.00000E+00        -0.53745E+08
 
   -0.52910E+08         0.99869E+06         0.00000E+00
    0.99869E+06        -0.63112E+08         0.00000E+00
    0.00000E+00         0.00000E+00        -0.53640E+08
 
   -0.52685E+08         0.20569E+07         0.00000E+00
    0.20569E+07        -0.63269E+08         0.00000E+00
    0.00000E+00         0.00000E+00        -0.53561E+08
 
   -0.52645E+08         0.32272E+07         0.00000E+00
    0.32272E+07        -0.63337E+08         0.00000E+00
    0.00000E+00         0.00000E+00        -0.53516E+08
 
   -0.52831E+08         0.44738E+07         0.00000E+00
    0.44738E+07        -0.63293E+08         0.00000E+00
    0.00000E+00         0.00000E+00        -0.53510E+08
 
   -0.53281E+08         0.57465E+07         0.00000E+00
    0.57465E+07        -0.63115E+08         0.00000E+00
    0.00000E+00         0.00000E+00        -0.53547E+08
 
   -0.56723E+08        -0.42564E+06         0.00000E+00
   -0.42564E+06        -0.60041E+08         0.00000E+00
    0.00000E+00         0.00000E+00        -0.53625E+08
 
   -0.57013E+08        -0.11954E+07         0.00000E+00
   -0.11954E+07        -0.60206E+08         0.00000E+00
    0.00000E+00         0.00000E+00        -0.53688E+08
 
   -0.56921E+08        -0.18037E+07         0.00000E+00
   -0.18037E+07        -0.60497E+08         0.00000E+00
    0.00000E+00         0.00000E+00        -0.53672E+08
 
   -0.56541E+08        -0.22090E+07         0.00000E+00
   -0.22090E+07        -0.60867E+08         0.00000E+00
    0.00000E+00         0.00000E+00        -0.53592E+08
 
   -0.55961E+08        -0.23922E+07         0.00000E+00
   -0.23922E+07        -0.61275E+08         0.00000E+00
    0.00000E+00         0.00000E+00        -0.53462E+08
 
   -0.55263E+08        -0.23524E+07         0.00000E+00
   -0.23524E+07        -0.61689E+08         0.00000E+00
    0.00000E+00         0.00000E+00        -0.53297E+08
 
   -0.54511E+08        -0.20991E+07         0.00000E+00
   -0.20991E+07        -0.62088E+08         0.00000E+00
    0.00000E+00         0.00000E+00        -0.53111E+08
 
   -0.53757E+08        -0.16459E+07         0.00000E+00
   -0.16459E+07        -0.62459E+08         0.00000E+00
    0.00000E+00         0.00000E+00        -0.52917E+08
 
   -0.53042E+08        -0.10061E+07         0.00000E+00
   -0.10061E+07        -0.62795E+08         0.00000E+00
    0.00000E+00         0.00000E+00        -0.52728E+08
 
   -0.52404E+08        -0.19061E+06         0.00000E+00
   -0.19061E+06        -0.63091E+08         0.00000E+00
    0.00000E+00         0.00000E+00        -0.52553E+08
 
   -0.51883E+08         0.79097E+06         0.00000E+00
    0.79097E+06        -0.63336E+08         0.00000E+00
    0.00000E+00         0.00000E+00        -0.52402E+08
 
   -0.51523E+08         0.19272E+07         0.00000E+00
    0.19272E+07        -0.63516E+08         0.00000E+00
    0.00000E+00         0.00000E+00        -0.52285E+08
 
   -0.51373E+08         0.31995E+07         0.00000E+00
    0.31995E+07        -0.63608E+08         0.00000E+00
    0.00000E+00         0.00000E+00        -0.52210E+08
 
   -0.51492E+08         0.45761E+07         0.00000E+00
    0.45761E+07        -0.63581E+08         0.00000E+00
    0.00000E+00         0.00000E+00        -0.52185E+08
 
   -0.51936E+08         0.60056E+07         0.00000E+00
    0.60056E+07        -0.63401E+08         0.00000E+00
    0.00000E+00         0.00000E+00        -0.52216E+08
 
   -0.57641E+08        -0.52211E+06         0.00000E+00
   -0.52211E+06        -0.60047E+08         0.00000E+00
    0.00000E+00         0.00000E+00        -0.52846E+08
 
   -0.57774E+08        -0.14489E+07         0.00000E+00
   -0.14489E+07        -0.60235E+08         0.00000E+00
    0.00000E+00         0.00000E+00        -0.52873E+08
 
   -0.57471E+08        -0.21615E+07         0.00000E+00
   -0.21615E+07        -0.60559E+08         0.00000E+00
    0.00000E+00         0.00000E+00        -0.52804E+08
 
   -0.56852E+08        -0.26203E+07         0.00000E+00
   -0.26203E+07        -0.60958E+08         0.00000E+00
    0.00000E+00         0.00000E+00        -0.52659E+08
 
   -0.56032E+08        -0.28167E+07         0.00000E+00
   -0.28167E+07        -0.61384E+08         0.00000E+00
    0.00000E+00         0.00000E+00        -0.52457E+08
 
   -0.55104E+08        -0.27632E+07         0.00000E+00
   -0.27632E+07        -0.61799E+08         0.00000E+00
    0.00000E+00         0.00000E+00        -0.52218E+08
 
   -0.54140E+08        -0.24819E+07         0.00000E+00
   -0.24819E+07        -0.62187E+08         0.00000E+00
    0.00000E+00         0.00000E+00        -0.51959E+08
 
   -0.53191E+08        -0.19952E+07         0.00000E+00
   -0.19952E+07        -0.62540E+08         0.00000E+00
    0.00000E+00         0.00000E+00        -0.51695E+08
 
   -0.52294E+08        -0.13197E+07         0.00000E+00
   -0.13197E+07        -0.62860E+08         0.00000E+00
    0.00000E+00         0.00000E+00        -0.51439E+08
 
   -0.51482E+08        -0.46452E+06         0.00000E+00
   -0.46452E+06        -0.63147E+08         0.00000E+00
    0.00000E+00         0.00000E+00        -0.51203E+08
 
   -0.50793E+08         0.56702E+06         0.00000E+00
    0.56702E+06        -0.63396E+08         0.00000E+00
    0.00000E+00         0.00000E+00        -0.50998E+08
 
   -0.50273E+08         0.17731E+07         0.00000E+00
    0.17731E+07        -0.63594E+08         0.00000E+00
    0.00000E+00         0.00000E+00        -0.50833E+08
 
   -0.49984E+08         0.31461E+07         0.00000E+00
    0.31461E+07        -0.63713E+08         0.00000E+00
    0.00000E+00         0.00000E+00        -0.50721E+08
 
   -0.50001E+08         0.46627E+07         0.00000E+00
    0.46627E+07        -0.63713E+08         0.00000E+00
    0.00000E+00         0.00000E+00        -0.50670E+08
 
   -0.50407E+08         0.62742E+07         0.00000E+00
    0.62742E+07        -0.63544E+08         0.00000E+00
    0.00000E+00         0.00000E+00        -0.50689E+08
 
   -0.58752E+08        -0.63271E+06         0.00000E+00
   -0.63271E+06        -0.60054E+08         0.00000E+00
    0.00000E+00         0.00000E+00        -0.52012E+08
 
   -0.58671E+08        -0.17336E+07         0.00000E+00
   -0.17336E+07        -0.60266E+08         0.00000E+00
    0.00000E+00         0.00000E+00        -0.51988E+08
 
   -0.58095E+08        -0.25499E+07         0.00000E+00
   -0.25499E+07        -0.60619E+08         0.00000E+00
    0.00000E+00         0.00000E+00        -0.51847E+08
 
   -0.57187E+08        -0.30480E+07         0.00000E+00
   -0.30480E+07        -0.61035E+08         0.00000E+00
    0.00000E+00         0.00000E+00        -0.51616E+08
 
   -0.56091E+08        -0.32371E+07         0.00000E+00
   -0.32371E+07        -0.61453E+08         0.00000E+00
    0.00000E+00         0.00000E+00        -0.51323E+08
 
   -0.54916E+08        -0.31512E+07         0.00000E+00
   -0.31512E+07        -0.61837E+08         0.00000E+00
    0.00000E+00         0.00000E+00        -0.50993E+08
 
   -0.53735E+08        -0.28304E+07         0.00000E+00
   -0.28304E+07        -0.62175E+08         0.00000E+00
    0.00000E+00         0.00000E+00        -0.50646E+08
 
   -0.52592E+08        -0.23081E+07         0.00000E+00
   -0.23081E+07        -0.62472E+08         0.00000E+00
    0.00000E+00         0.00000E+00        -0.50300E+08
 
   -0.51514E+08        -0.16043E+07         0.00000E+00
   -0.16043E+07        -0.62740E+08         0.00000E+00
    0.00000E+00         0.00000E+00        -0.49968E+08
 
   -0.50525E+08        -0.72443E+06         0.00000E+00
   -0.72443E+06        -0.62991E+08         0.00000E+00
    0.00000E+00         0.00000E+00        -0.49661E+08
 
   -0.49653E+08         0.33775E+06         0.00000E+00
    0.33775E+06        -0.63226E+08         0.00000E+00
    0.00000E+00         0.00000E+00        -0.49391E+08
 
   -0.48947E+08         0.15952E+07         0.00000E+00
    0.15952E+07        -0.63436E+08         0.00000E+00
    0.00000E+00         0.00000E+00        -0.49169E+08
 
   -0.48477E+08         0.30576E+07         0.00000E+00
    0.30576E+07        -0.63588E+08         0.00000E+00
    0.00000E+00         0.00000E+00        -0.49008E+08
 
   -0.48342E+08         0.47180E+07         0.00000E+00
    0.47180E+07        -0.63630E+08         0.00000E+00
    0.00000E+00         0.00000E+00        -0.48921E+08
 
   -0.48659E+08         0.65362E+07         0.00000E+00
    0.65362E+07        -0.63492E+08         0.00000E+00
    0.00000E+00         0.00000E+00        -0.48922E+08
 
   -0.60083E+08        -0.75965E+06         0.00000E+00
   -0.75965E+06        -0.60063E+08         0.00000E+00
    0.00000E+00         0.00000E+00        -0.51105E+08
 
   -0.59708E+08        -0.20500E+07         0.00000E+00
   -0.20500E+07        -0.60301E+08         0.00000E+00
    0.00000E+00         0.00000E+00        -0.51008E+08
 
   -0.58779E+08        -0.29593E+07         0.00000E+00
   -0.29593E+07        -0.60678E+08         0.00000E+00
    0.00000E+00         0.00000E+00        -0.50769E+08
 
   -0.57519E+08        -0.34677E+07         0.00000E+00
   -0.34677E+07        -0.61088E+08         0.00000E+00
    0.00000E+00         0.00000E+00        -0.50427E+08
 
   -0.56112E+08        -0.36163E+07         0.00000E+00
   -0.36163E+07        -0.61460E+08         0.00000E+00
    0.00000E+00         0.00000E+00        -0.50019E+08
 
   -0.54679E+08        -0.34722E+07         0.00000E+00
   -0.34722E+07        -0.61763E+08         0.00000E+00
    0.00000E+00         0.00000E+00        -0.49578E+08
 
   -0.53288E+08        -0.30995E+07         0.00000E+00
   -0.30995E+07        -0.62000E+08         0.00000E+00
    0.00000E+00         0.00000E+00        -0.49129E+08
 
   -0.51965E+08        -0.25430E+07         0.00000E+00
   -0.25430E+07        -0.62193E+08         0.00000E+00
    0.00000E+00         0.00000E+00        -0.48689E+08
 
   -0.50719E+08        -0.18247E+07         0.00000E+00
   -0.18247E+07        -0.62367E+08         0.00000E+00
    0.00000E+00         0.00000E+00        -0.48271E+08
 
   -0.49555E+08        -0.94428E+06         0.00000E+00
   -0.94428E+06        -0.62548E+08         0.00000E+00
    0.00000E+00         0.00000E+00        -0.47885E+08
 
   -0.48491E+08         0.11743E+06         0.00000E+00
    0.11743E+06        -0.62747E+08         0.00000E+00
    0.00000E+00         0.00000E+00        -0.47541E+08
 
   -0.47567E+08         0.13934E+07         0.00000E+00
    0.13934E+07        -0.62959E+08         0.00000E+00
    0.00000E+00         0.00000E+00        -0.47250E+08
 
   -0.46863E+08         0.29197E+07         0.00000E+00
    0.29197E+07        -0.63153E+08         0.00000E+00
    0.00000E+00         0.00000E+00        -0.47028E+08
 
   -0.46503E+08         0.47171E+07         0.00000E+00
    0.47171E+07        -0.63261E+08         0.00000E+00
    0.00000E+00         0.00000E+00        -0.46893E+08
 
   -0.46653E+08         0.67650E+07         0.00000E+00
    0.67650E+07        -0.63187E+08         0.00000E+00
    0.00000E+00         0.00000E+00        -0.46863E+08
 
   -0.61663E+08        -0.90727E+06         0.00000E+00
   -0.90727E+06        -0.60074E+08         0.00000E+00
    0.00000E+00         0.00000E+00        -0.50098E+08
 
   -0.60882E+08        -0.23992E+07         0.00000E+00
   -0.23992E+07        -0.60343E+08         0.00000E+00
    0.00000E+00         0.00000E+00        -0.49899E+08
 
   -0.59490E+08        -0.33722E+07         0.00000E+00
   -0.33722E+07        -0.60733E+08         0.00000E+00
    0.00000E+00         0.00000E+00        -0.49524E+08
 
   -0.57806E+08        -0.38392E+07         0.00000E+00
   -0.38392E+07        -0.61099E+08         0.00000E+00
    0.00000E+00         0.00000E+00        -0.49034E+08
 
   -0.56060E+08        -0.38985E+07         0.00000E+00
   -0.38985E+07        -0.61364E+08         0.00000E+00
    0.00000E+00         0.00000E+00        -0.48482E+08
 
   -0.54376E+08        -0.36660E+07         0.00000E+00
   -0.36660E+07        -0.61517E+08         0.00000E+00
    0.00000E+00         0.00000E+00        -0.47911E+08
 
   -0.52797E+08        -0.32320E+07         0.00000E+00
   -0.32320E+07        -0.61587E+08         0.00000E+00
    0.00000E+00         0.00000E+00        -0.47347E+08
 
   -0.51321E+08        -0.26500E+07         0.00000E+00
   -0.26500E+07        -0.61617E+08         0.00000E+00
    0.00000E+00         0.00000E+00        -0.46805E+08
 
   -0.49931E+08        -0.19397E+07         0.00000E+00
   -0.19397E+07        -0.61651E+08         0.00000E+00
    0.00000E+00         0.00000E+00        -0.46295E+08
 
   -0.48607E+08        -0.10929E+07         0.00000E+00
   -0.10929E+07        -0.61724E+08         0.00000E+00
    0.00000E+00         0.00000E+00        -0.45823E+08
 
   -0.47346E+08        -0.75767E+05         0.00000E+00
   -0.75767E+05        -0.61859E+08         0.00000E+00
    0.00000E+00         0.00000E+00        -0.45397E+08
 
   -0.46174E+08         0.11687E+07         0.00000E+00
    0.11687E+07        -0.62063E+08         0.00000E+00
    0.00000E+00         0.00000E+00        -0.45027E+08
 
   -0.45170E+08         0.27131E+07         0.00000E+00
    0.27131E+07        -0.62308E+08         0.00000E+00
    0.00000E+00         0.00000E+00        -0.44730E+08
 
   -0.44485E+08         0.46232E+07         0.00000E+00
    0.46232E+07        -0.62517E+08         0.00000E+00
    0.00000E+00         0.00000E+00        -0.44529E+08
 
   -0.44348E+08         0.69174E+07         0.00000E+00
    0.69174E+07        -0.62556E+08         0.00000E+00
    0.00000E+00         0.00000E+00        -0.44453E+08
 
   -0.63529E+08        -0.10840E+07         0.00000E+00
   -0.10840E+07        -0.60092E+08         0.00000E+00
    0.00000E+00         0.00000E+00        -0.48952E+08
 
   -0.62172E+08        -0.27813E+07         0.00000E+00
   -0.27813E+07        -0.60397E+08         0.00000E+00
    0.00000E+00         0.00000E+00        -0.48603E+08
 
   -0.60167E+08        -0.37525E+07         0.00000E+00
   -0.37525E+07        -0.60771E+08         0.00000E+00
    0.00000E+00         0.00000E+00        -0.48036E+08
 
   -0.57982E+08        -0.40919E+07         0.00000E+00
   -0.40919E+07        -0.61018E+08         0.00000E+00
    0.00000E+00         0.00000E+00        -0.47348E+08
 
   -0.55892E+08        -0.40003E+07         0.00000E+00
   -0.40003E+07        -0.61077E+08         0.00000E+00
    0.00000E+00         0.00000E+00        -0.46620E+08
 
   -0.53990E+08        -0.36547E+07         0.00000E+00
   -0.36547E+07        -0.60986E+08         0.00000E+00
    0.00000E+00         0.00000E+00        -0.45900E+08
 
   -0.52269E+08        -0.31635E+07         0.00000E+00
   -0.31635E+07        -0.60814E+08         0.00000E+00
    0.00000E+00         0.00000E+00        -0.45213E+08
 
   -0.50683E+08        -0.25773E+07         0.00000E+00
   -0.25773E+07        -0.60627E+08         0.00000E+00
    0.00000E+00         0.00000E+00        -0.44568E+08
 
   -0.49184E+08        -0.19076E+07         0.00000E+00
   -0.19076E+07        -0.60476E+08         0.00000E+00
    0.00000E+00         0.00000E+00        -0.43968E+08
 
   -0.47724E+08        -0.11369E+07         0.00000E+00
   -0.11369E+07        -0.60405E+08         0.00000E+00
    0.00000E+00         0.00000E+00        -0.43411E+08
 
   -0.46273E+08        -0.21916E+06         0.00000E+00
   -0.21916E+06        -0.60449E+08         0.00000E+00
    0.00000E+00         0.00000E+00        -0.42900E+08
 
   -0.44829E+08         0.92536E+06         0.00000E+00
    0.92536E+06        -0.60628E+08         0.00000E+00
    0.00000E+00         0.00000E+00        -0.42442E+08
 
   -0.43451E+08         0.24137E+07         0.00000E+00
    0.24137E+07        -0.60932E+08         0.00000E+00
    0.00000E+00         0.00000E+00        -0.42053E+08
 
   -0.42305E+08         0.43824E+07         0.00000E+00
    0.43824E+07        -0.61285E+08         0.00000E+00
    0.00000E+00         0.00000E+00        -0.41764E+08
 
   -0.41703E+08         0.69256E+07         0.00000E+00
    0.69256E+07        -0.61513E+08         0.00000E+00
    0.00000E+00         0.00000E+00        -0.41617E+08
 
   -0.65728E+08        -0.13070E+07         0.00000E+00
   -0.13070E+07        -0.60123E+08         0.00000E+00
    0.00000E+00         0.00000E+00        -0.47599E+08
 
   -0.63516E+08        -0.31852E+07         0.00000E+00
   -0.31852E+07        -0.60466E+08         0.00000E+00
    0.00000E+00         0.00000E+00        -0.47018E+08
 
   -0.60694E+08        -0.40154E+07         0.00000E+00
   -0.40154E+07        -0.60745E+08         0.00000E+00
    0.00000E+00         0.00000E+00        -0.46166E+08
 
   -0.57961E+08        -0.40980E+07         0.00000E+00
   -0.40980E+07        -0.60718E+08         0.00000E+00
    0.00000E+00         0.00000E+00        -0.45217E+08
 
   -0.55576E+08        -0.38029E+07         0.00000E+00
   -0.38029E+07        -0.60417E+08         0.00000E+00
    0.00000E+00         0.00000E+00        -0.44281E+08
 
   -0.53529E+08        -0.33508E+07         0.00000E+00
   -0.33508E+07        -0.59974E+08         0.00000E+00
    0.00000E+00         0.00000E+00        -0.43407E+08
 
   -0.51728E+08        -0.28345E+07         0.00000E+00
   -0.28345E+07        -0.59495E+08         0.00000E+00
    0.00000E+00         0.00000E+00        -0.42603E+08
 
   -0.50084E+08        -0.22839E+07         0.00000E+00
   -0.22839E+07        -0.59051E+08         0.00000E+00
    0.00000E+00         0.00000E+00        -0.41866E+08
 
   -0.48517E+08        -0.16966E+07         0.00000E+00
   -0.16966E+07        -0.58692E+08         0.00000E+00
    0.00000E+00         0.00000E+00        -0.41186E+08
 
   -0.46956E+08        -0.10475E+07         0.00000E+00
   -0.10475E+07        -0.58457E+08         0.00000E+00
    0.00000E+00         0.00000E+00        -0.40556E+08
 
   -0.45339E+08        -0.28625E+06         0.00000E+00
   -0.28625E+06        -0.58384E+08         0.00000E+00
    0.00000E+00         0.00000E+00        -0.39967E+08
 
   -0.43617E+08         0.67694E+06         0.00000E+00
    0.67694E+06        -0.58512E+08         0.00000E+00
    0.00000E+00         0.00000E+00        -0.39419E+08
 
   -0.41795E+08         0.20002E+07         0.00000E+00
    0.20002E+07        -0.58871E+08         0.00000E+00
    0.00000E+00         0.00000E+00        -0.38925E+08
 
   -0.40017E+08         0.39210E+07         0.00000E+00
    0.39210E+07        -0.59416E+08         0.00000E+00
    0.00000E+00         0.00000E+00        -0.38519E+08
 
   -0.38678E+08         0.66817E+07         0.00000E+00
    0.66817E+07        -0.59946E+08         0.00000E+00
    0.00000E+00         0.00000E+00        -0.38266E+08
 
   -0.68316E+08        -0.16133E+07         0.00000E+00
   -0.16133E+07        -0.60177E+08         0.00000E+00
    0.00000E+00         0.00000E+00        -0.45909E+08
 
   -0.64747E+08        -0.35477E+07         0.00000E+00
   -0.35477E+07        -0.60538E+08         0.00000E+00
    0.00000E+00         0.00000E+00        -0.44928E+08
 
   -0.60879E+08        -0.39402E+07         0.00000E+00
   -0.39402E+07        -0.60465E+08         0.00000E+00
    0.00000E+00         0.00000E+00        -0.43635E+08
 
   -0.57673E+08        -0.36402E+07         0.00000E+00
   -0.36402E+07        -0.59844E+08         0.00000E+00
    0.00000E+00         0.00000E+00        -0.42356E+08
 
   -0.55133E+08        -0.31731E+07         0.00000E+00
   -0.31731E+07        -0.59004E+08         0.00000E+00
    0.00000E+00         0.00000E+00        -0.41213E+08
 
   -0.53040E+08        -0.26868E+07         0.00000E+00
   -0.26868E+07        -0.58136E+08         0.00000E+00
    0.00000E+00         0.00000E+00        -0.40206E+08
 
   -0.51227E+08        -0.22161E+07         0.00000E+00
   -0.22161E+07        -0.57333E+08         0.00000E+00
    0.00000E+00         0.00000E+00        -0.39316E+08
 
   -0.49572E+08        -0.17595E+07         0.00000E+00
   -0.17595E+07        -0.56641E+08         0.00000E+00
    0.00000E+00         0.00000E+00        -0.38518E+08
 
   -0.47975E+08        -0.13014E+07         0.00000E+00
   -0.13014E+07        -0.56088E+08         0.00000E+00
    0.00000E+00         0.00000E+00        -0.37791E+08
 
   -0.46349E+08        -0.81467E+06         0.00000E+00
   -0.81467E+06        -0.55700E+08         0.00000E+00
    0.00000E+00         0.00000E+00        -0.37115E+08
 
   -0.44604E+08        -0.25545E+06         0.00000E+00
   -0.25545E+06        -0.55510E+08         0.00000E+00
    0.00000E+00         0.00000E+00        -0.36474E+08
 
   -0.42640E+08         0.45470E+06         0.00000E+00
    0.45470E+06        -0.55564E+08         0.00000E+00
    0.00000E+00         0.00000E+00        -0.35855E+08
 
   -0.40350E+08         0.14727E+07         0.00000E+00
    0.14727E+07        -0.55938E+08         0.00000E+00
    0.00000E+00         0.00000E+00        -0.35252E+08
 
   -0.37747E+08         0.31475E+07         0.00000E+00
    0.31475E+07        -0.56711E+08         0.00000E+00
    0.00000E+00         0.00000E+00        -0.34699E+08
 
   -0.35256E+08         0.60092E+07         0.00000E+00
    0.60092E+07        -0.57704E+08         0.00000E+00
    0.00000E+00         0.00000E+00        -0.34286E+08
 
   -0.71315E+08        -0.21244E+07         0.00000E+00
   -0.21244E+07        -0.60429E+08         0.00000E+00
    0.00000E+00         0.00000E+00        -0.43553E+08
 
   -0.65403E+08        -0.34435E+07         0.00000E+00
   -0.34435E+07        -0.60346E+08         0.00000E+00
    0.00000E+00         0.00000E+00        -0.41719E+08
 
   -0.60543E+08        -0.30224E+07         0.00000E+00
   -0.30224E+07        -0.59048E+08         0.00000E+00
    0.00000E+00         0.00000E+00        -0.39771E+08
 
   -0.57210E+08        -0.24974E+07         0.00000E+00
   -0.24974E+07        -0.57530E+08         0.00000E+00
    0.00000E+00         0.00000E+00        -0.38213E+08
 
   -0.54679E+08        -0.20511E+07         0.00000E+00
   -0.20511E+07        -0.56118E+08         0.00000E+00
    0.00000E+00         0.00000E+00        -0.36946E+08
 
   -0.52622E+08        -0.16753E+07         0.00000E+00
   -0.16753E+07        -0.54886E+08         0.00000E+00
    0.00000E+00         0.00000E+00        -0.35891E+08
 
   -0.50839E+08        -0.13489E+07         0.00000E+00
   -0.13489E+07        -0.53846E+08         0.00000E+00
    0.00000E+00         0.00000E+00        -0.34990E+08
 
   -0.49198E+08        -0.10519E+07         0.00000E+00
   -0.10519E+07        -0.52996E+08         0.00000E+00
    0.00000E+00         0.00000E+00        -0.34201E+08
 
   -0.47596E+08        -0.76555E+06         0.00000E+00
   -0.76555E+06        -0.52332E+08         0.00000E+00
    0.00000E+00         0.00000E+00        -0.33489E+08
 
   -0.45936E+08        -0.46944E+06         0.00000E+00
   -0.46944E+06        -0.51862E+08         0.00000E+00
    0.00000E+00         0.00000E+00        -0.32828E+08
 
   -0.44109E+08        -0.13507E+06         0.00000E+00
   -0.13507E+06        -0.51603E+08         0.00000E+00
    0.00000E+00         0.00000E+00        -0.32192E+08
 
   -0.41972E+08         0.28710E+06         0.00000E+00
    0.28710E+06        -0.51602E+08         0.00000E+00
    0.00000E+00         0.00000E+00        -0.31556E+08
 
   -0.39319E+08         0.90121E+06         0.00000E+00
    0.90121E+06        -0.51952E+08         0.00000E+00
    0.00000E+00         0.00000E+00        -0.30894E+08
 
   -0.35784E+08         0.19940E+07         0.00000E+00
    0.19940E+07        -0.52845E+08         0.00000E+00
    0.00000E+00         0.00000E+00        -0.30176E+08
 
   -0.31499E+08         0.45848E+07         0.00000E+00
    0.45848E+07        -0.54559E+08         0.00000E+00
    0.00000E+00         0.00000E+00        -0.29530E+08
 
   -0.74113E+08        -0.21087E+07         0.00000E+00
   -0.21087E+07        -0.58719E+08         0.00000E+00
    0.00000E+00         0.00000E+00        -0.37285E+08
 
   -0.64871E+08        -0.15000E+07         0.00000E+00
   -0.15000E+07        -0.55987E+08         0.00000E+00
    0.00000E+00         0.00000E+00        -0.34469E+08
 
   -0.60111E+08        -0.10319E+07         0.00000E+00
   -0.10319E+07        -0.53607E+08         0.00000E+00
    0.00000E+00         0.00000E+00        -0.32625E+08
 
   -0.56862E+08        -0.79831E+06         0.00000E+00
   -0.79831E+06        -0.51730E+08         0.00000E+00
    0.00000E+00         0.00000E+00        -0.31300E+08
 
   -0.54401E+08        -0.63416E+06         0.00000E+00
   -0.63416E+06        -0.50229E+08         0.00000E+00
    0.00000E+00         0.00000E+00        -0.30278E+08
 
   -0.52389E+08        -0.50739E+06         0.00000E+00
   -0.50739E+06        -0.49019E+08         0.00000E+00
    0.00000E+00         0.00000E+00        -0.29450E+08
 
   -0.50634E+08        -0.40094E+06         0.00000E+00
   -0.40094E+06        -0.48048E+08         0.00000E+00
    0.00000E+00         0.00000E+00        -0.28753E+08
 
   -0.49007E+08        -0.30526E+06         0.00000E+00
   -0.30526E+06        -0.47285E+08         0.00000E+00
    0.00000E+00         0.00000E+00        -0.28146E+08
 
   -0.47406E+08        -0.21313E+06         0.00000E+00
   -0.21313E+06        -0.46715E+08         0.00000E+00
    0.00000E+00         0.00000E+00        -0.27600E+08
 
   -0.45730E+08        -0.11749E+06         0.00000E+00
   -0.11749E+06        -0.46337E+08         0.00000E+00
    0.00000E+00         0.00000E+00        -0.27087E+08
 
   -0.43864E+08        -0.89766E+04         0.00000E+00
   -0.89766E+04        -0.46166E+08         0.00000E+00
    0.00000E+00         0.00000E+00        -0.26586E+08
 
   -0.41643E+08         0.12819E+06         0.00000E+00
    0.12819E+06        -0.46243E+08         0.00000E+00
    0.00000E+00         0.00000E+00        -0.26066E+08
 
   -0.38793E+08         0.32985E+06         0.00000E+00
    0.32985E+06        -0.46658E+08         0.00000E+00
    0.00000E+00         0.00000E+00        -0.25490E+08
 
   -0.34760E+08         0.67865E+06         0.00000E+00
    0.67865E+06        -0.47631E+08         0.00000E+00
    0.00000E+00         0.00000E+00        -0.24788E+08
 
   -0.27749E+08         0.18250E+07         0.00000E+00
    0.18250E+07        -0.49888E+08         0.00000E+00
    0.00000E+00         0.00000E+00        -0.23768E+08
 
SCALARS stresss double 
LOOKUP_TABLE default
  -58495431.7406591     
  -59716336.6810801     
  -60706304.6003520     
  -61532095.2972724     
  -62249826.2207944     
  -62888673.5221528     
  -63466802.0456538     
  -63997107.7054031     
  -64489814.2290730     
  -64954058.1798796     
  -65399211.0456971     
  -65836500.3949679     
  -66282117.3804829     
  -66763683.4250339     
  -67365707.2855411     
  -58422260.2815290     
  -59361223.1979877     
  -60240481.0646451     
  -61007653.5639993     
  -61687269.4837282     
  -62297839.5255587     
  -62853169.3483262     
  -63363792.2435609     
  -63838380.7205455     
  -64284736.4449934     
  -64710643.6875755     
  -65124834.8814679     
  -65537776.3940642     
  -65965125.0008972     
  -66385000.8865178     
  -58374713.9487507     
  -59153721.7333174     
  -59893230.2686047     
  -60578696.3040189     
  -61202941.0524390     
  -61772733.1902717     
  -62295612.8436951     
  -62778575.8841480     
  -63227866.9661458     
  -63649199.3037133     
  -64047987.0671084     
  -64429322.6723083     
  -64797627.0735911     
  -65149577.6792169     
  -65473284.9870696     
  -58342278.3123605     
  -58989981.7024977     
  -59621642.8657343     
  -60222083.7112740     
  -60784166.0364222     
  -61306142.7633822     
  -61790302.8059207     
  -62240036.4161627     
  -62658946.4906665     
  -63050446.1576810     
  -63417465.3387527     
  -63761973.0026495     
  -64083324.7701704     
  -64376837.3440927     
  -64631721.0932365     
  -58309132.7943546     
  -58851399.5602300     
  -59391922.1359683     
  -59916838.5364939     
  -60417535.8191327     
  -60889814.4745272     
  -61332439.6080759     
  -61745973.4664226     
  -62131695.3569564     
  -62490959.9209533     
  -62824664.0675545     
  -63132546.6096155     
  -63412390.1793021     
  -63659083.3867675     
  -63864386.0074838     
  -58264214.9976250     
  -58722977.5481962     
  -59188094.1439248     
  -59647200.3044027     
  -60091608.7536214     
  -60515856.2244840     
  -60916973.9069431     
  -61293633.0049303     
  -61645395.5729399     
  -61972061.9874297     
  -62273100.8217959     
  -62547098.7552791     
  -62791210.3574490     
  -63000780.1487331     
  -63169260.5196833     
  -58202941.8946689     
  -58596185.5113319     
  -58999888.9048457     
  -59403109.9801065     
  -59797582.0922764     
  -60177499.3185370     
  -60539054.5621959     
  -60879877.1484709     
  -61198453.5783255     
  -61493590.4579526     
  -61763925.4056534     
  -62007489.0156657     
  -62221350.3019772     
  -62401400.7169375     
  -62542363.7177551     
  -58123807.8001694     
  -58466579.7881851     
  -58821153.7653979     
  -59177844.1424493     
  -59529070.1669892     
  -59869191.7918736     
  -60194193.1215563     
  -60501273.6412113     
  -60788408.5365655     
  -61053917.7470716     
  -61296070.3852172     
  -61512745.2555510     
  -61701173.6600871     
  -61857800.9640517     
  -61978296.1630413     
  -58027095.4478633     
  -58332243.1852695     
  -58648379.9228247     
  -58967005.9032150     
  -59281386.1823759     
  -59586386.2562701     
  -59878216.2849419     
  -60154112.6120910     
  -60411990.1349754     
  -60650096.3819098     
  -60866692.0908799     
  -61059780.2223309     
  -61226905.2800773     
  -61365043.6226173     
  -61470600.1557339     
  -57914349.9443206     
  -58192898.5223123     
  -58479794.8407857     
  -58767746.6797547     
  -59051011.4387464     
  -59325215.7271636     
  -59587124.5069275     
  -59834371.6303391     
  -60065171.1416701     
  -60278030.1737390     
  -60471483.1996143     
  -60643865.7207831     
  -60793143.8682682     
  -60916813.9427542     
  -61011881.0388212     
  -57788118.4501108     
  -58049414.8185333     
  -58314784.1612884     
  -58578234.4559014     
  -58835172.1619375     
  -59082205.9339730     
  -59316924.0343898     
  -59537650.5779592     
  -59743191.7993101     
  -59932586.1839606     
  -60104872.6716539     
  -60258890.4295979     
  -60393122.3900330     
  -60505592.7370543     
  -60593825.5874551     
  -57651793.2113173     
  -57903507.4178128     
  -58153522.5037769     
  -58397285.2719421     
  -58631522.9470375     
  -58854034.3185050     
  -59063467.7387783     
  -59259089.0796984     
  -59440546.7914995     
  -59607643.1700249     
  -59760121.4391846     
  -59897477.9627020     
  -60018808.2525828     
  -60122694.5719086     
  -60207141.7946899     
  -57509492.4557531     
  -57757537.9056114     
  -57996724.1529567     
  -58224102.9236005     
  -58437907.3049896     
  -58637332.2216633     
  -58822308.0828286     
  -58993271.3362651     
  -59150937.4178213     
  -59296082.0769710     
  -59429336.8494311     
  -59551004.1357798     
  -59660897.3288650     
  -59758211.8322878     
  -59841433.5142718     
  -57365952.0408488     
  -57614362.7653704     
  -57845459.7566320     
  -58058082.2190577     
  -58252166.5367241     
  -58428514.1985055     
  -58588555.7125490     
  -58734116.6748055     
  -58867191.2960743     
  -58989727.0139673     
  -59103422.2190017     
  -59209538.3760604     
  -59308728.3533073     
  -59400884.5982558     
  -59485013.5771529     
  -57226414.1853227     
  -57477201.4371951     
  -57701003.1741176     
  -57898641.8687402     
  -58071969.4063899     
  -58223615.0186424     
  -58356731.4795851     
  -58474749.9422324     
  -58581149.4546107     
  -58679242.3253784     
  -58771972.6867080     
  -58861723.9820691     
  -58950132.1987200     
  -59037905.3068333     
  -59124654.8351256     
  -57096505.4583201     
  -57349504.6721748     
  -57564682.5459805     
  -57745059.0385473     
  -57894636.6364622     
  -58018112.8944106     
  -58120596.3069885     
  -58207342.4700862     
  -58283517.8361265     
  -58353988.5594656     
  -58423124.6646556     
  -58494606.7871579     
  -58571224.6120058     
  -58654662.3859668     
  -58745276.1925660     
  -56982099.2870765     
  -57234809.2572385     
  -57437714.0257196     
  -57596279.4658907     
  -57716933.2329755     
  -57806714.4628031     
  -57872939.5356691     
  -57922910.9205808     
  -57963677.6404108     
  -58001838.2223842     
  -58043364.5266636     
  -58093420.0043739     
  -58156149.1981132     
  -58234425.5764942     
  -58329559.8920038     
  -56889160.9245871     
  -57136567.4099561     
  -57320996.4825166     
  -57450673.9303298     
  -57534796.1710955     
  -57583070.5142502     
  -57605300.2584333     
  -57611056.6679491     
  -57609446.2224820     
  -57608951.3195770     
  -57617302.6013521     
  -57641334.1472138     
  -57686778.6968639     
  -57757976.7047686     
  -57857496.9567727     
  -56823576.0437550     
  -57057938.5993930     
  -57214839.7097629     
  -57305701.4737800     
  -57342952.0068742     
  -57339378.4613462     
  -57307585.2611269     
  -57259620.8976998     
  -57206776.5987691     
  -57159510.4750916     
  -57127420.9051275     
  -57119184.6975393     
  -57142386.5684386     
  -57203192.8438332     
  -57305859.5673741     
  -56790968.1215640     
  -57001526.5926390     
  -57118583.5781516     
  -57157417.0841814     
  -57134353.3403087     
  -57065803.6120590     
  -56967528.2395265     
  -56854218.1234722     
  -56739377.6678516     
  -56635415.1838458     
  -56553807.0907789     
  -56505196.6100216     
  -56499307.5436177     
  -56544593.8052412     
  -56647601.6124955     
  -56796513.9851505     
  -56969030.6811144     
  -57030032.9770565     
  -56999716.6061921     
  -56899315.4415138     
  -56749609.3119007     
  -56569903.1147882     
  -56377590.1150855     
  -56188226.7584420     
  -56015932.9119572     
  -55873892.0129226     
  -55774733.6916012     
  -55730615.2363190     
  -55752872.2797785     
  -55851190.1901167     
  -56844769.0797890     
  -56960747.1516457     
  -56944565.3091701     
  -56823124.3064461     
  -56624147.6646892     
  -56373814.4288527     
  -56095352.5004873     
  -55808688.2930224     
  -55530926.4182982     
  -55277297.1613319     
  -55062211.2717662     
  -54900111.6472671     
  -54805857.3697637     
  -54794432.2184179     
  -54879868.3308972     
  -56939510.1097789     
  -56974779.6371953     
  -56853623.7595555     
  -56612755.6619198     
  -56288916.6284441     
  -55915077.3407739     
  -55518610.7612179     
  -55121336.7944018     
  -54740817.5525412     
  -54392217.1399207     
  -54090203.6967509     
  -53850522.3356039     
  -53690905.9356135     
  -53630968.9106657     
  -53690837.5546605     
  -57083573.3473259     
  -57005638.1787139     
  -56741987.0517762     
  -56344735.9322292     
  -55863688.4839339     
  -55340310.7888632     
  -54805777.3390229     
  -54282232.0787273     
  -53785671.8276881     
  -53329188.9725231     
  -52926013.7040233     
  -52592115.4364953     
  -52347999.9172692     
  -52219138.7998890     
  -52234318.3801962     
  -57278617.6946032     
  -57041416.4859294     
  -56582459.7156356     
  -55979591.6580754     
  -55302057.8212196     
  -54601234.6392701     
  -53910100.8885781     
  -53247851.8037015     
  -52625572.6687066     
  -52051277.4119245     
  -51534120.0213653     
  -51088220.3245689     
  -50736103.6375525     
  -50510389.8448848     
  -50452397.2254257     
  -57524313.3481763     
  -57057565.0398254     
  -56324560.4849295     
  -55449414.5896692     
  -54529828.7847865     
  -53625573.0179624     
  -52765431.1507988     
  -51959395.9841493     
  -51209029.9976555     
  -50513486.9395841     
  -49874088.4716017     
  -49299539.9893802     
  -48811670.7831854     
  -48451201.1704351     
  -48277441.3887327     
  -57816887.8666652     
  -57000007.9156849     
  -55868233.0389617     
  -54631682.8791400     
  -53424712.3883267     
  -52303172.1630153     
  -51275345.9503879     
  -50333619.8837697     
  -49465006.1935763     
  -48656159.0188028     
  -47896593.3980793     
  -47182917.5478867     
  -46530353.6384037     
  -45983927.9131516     
  -45630064.5822707     
  -58134073.1078685     
  -56737503.0586715     
  -54992863.8908962     
  -53290900.1884527     
  -51783677.8793651     
  -50460815.9495504     
  -49291811.0117072     
  -48243277.4294052     
  -47284610.0512068     
  -46388227.8280698     
  -45529152.2430405     
  -44686217.6458126     
  -43846663.4282453     
  -43052455.3972211     
  -42415152.6876987     
  -58432419.0200885     
  -55822696.8095688     
  -53120626.7184712     
  -50984690.5028805     
  -49247613.4876936     
  -47799496.5405970     
  -46558432.9315333     
  -45464937.5549321     
  -44472566.9302069     
  -43541703.1035212     
  -42634570.9050219     
  -41710242.8013781     
  -40721530.2182031     
  -39601713.6066053     
  -38529173.3540033     
  -56705345.1856865     
  -51775701.2639655     
  -48781019.0911666     
  -46630697.3463518     
  -44969290.7914440     
  -43619229.7036777     
  -42478379.1881730     
  -41479699.7231080     
  -40573665.8886651     
  -39718359.3105159     
  -38871982.1702120     
  -37984265.1466294     
  -36980542.0212410     
  -35726222.5865143     
  -33801776.3532497     
SCALARS 2waySource double 
LOOKUP_TABLE default
  0.000000000000000E+000
  0.000000000000000E+000
  0.000000000000000E+000
  0.000000000000000E+000
  0.000000000000000E+000
  0.000000000000000E+000
  0.000000000000000E+000
  0.000000000000000E+000
  0.000000000000000E+000
  0.000000000000000E+000
  0.000000000000000E+000
  0.000000000000000E+000
  0.000000000000000E+000
  0.000000000000000E+000
  0.000000000000000E+000
  0.000000000000000E+000
  0.000000000000000E+000
  0.000000000000000E+000
  0.000000000000000E+000
  0.000000000000000E+000
  0.000000000000000E+000
  0.000000000000000E+000
  0.000000000000000E+000
  0.000000000000000E+000
  0.000000000000000E+000
  0.000000000000000E+000
  0.000000000000000E+000
  0.000000000000000E+000
  0.000000000000000E+000
  0.000000000000000E+000
  0.000000000000000E+000
  0.000000000000000E+000
  0.000000000000000E+000
  0.000000000000000E+000
  0.000000000000000E+000
  0.000000000000000E+000
  0.000000000000000E+000
  0.000000000000000E+000
  0.000000000000000E+000
  0.000000000000000E+000
  0.000000000000000E+000
  0.000000000000000E+000
  0.000000000000000E+000
  0.000000000000000E+000
  0.000000000000000E+000
  0.000000000000000E+000
  0.000000000000000E+000
  0.000000000000000E+000
  0.000000000000000E+000
  0.000000000000000E+000
  0.000000000000000E+000
  0.000000000000000E+000
  0.000000000000000E+000
  0.000000000000000E+000
  0.000000000000000E+000
  0.000000000000000E+000
  0.000000000000000E+000
  0.000000000000000E+000
  0.000000000000000E+000
  0.000000000000000E+000
  0.000000000000000E+000
  0.000000000000000E+000
  0.000000000000000E+000
  0.000000000000000E+000
  0.000000000000000E+000
  0.000000000000000E+000
  0.000000000000000E+000
  0.000000000000000E+000
  0.000000000000000E+000
  0.000000000000000E+000
  0.000000000000000E+000
  0.000000000000000E+000
  0.000000000000000E+000
  0.000000000000000E+000
  0.000000000000000E+000
  0.000000000000000E+000
  0.000000000000000E+000
  0.000000000000000E+000
  0.000000000000000E+000
  0.000000000000000E+000
  0.000000000000000E+000
  0.000000000000000E+000
  0.000000000000000E+000
  0.000000000000000E+000
  0.000000000000000E+000
  0.000000000000000E+000
  0.000000000000000E+000
  0.000000000000000E+000
  0.000000000000000E+000
  0.000000000000000E+000
  0.000000000000000E+000
  0.000000000000000E+000
  0.000000000000000E+000
  0.000000000000000E+000
  0.000000000000000E+000
  0.000000000000000E+000
  0.000000000000000E+000
  0.000000000000000E+000
  0.000000000000000E+000
  0.000000000000000E+000
  0.000000000000000E+000
  0.000000000000000E+000
  0.000000000000000E+000
  0.000000000000000E+000
  0.000000000000000E+000
  0.000000000000000E+000
  0.000000000000000E+000
  0.000000000000000E+000
  0.000000000000000E+000
  0.000000000000000E+000
  0.000000000000000E+000
  0.000000000000000E+000
  0.000000000000000E+000
  0.000000000000000E+000
  0.000000000000000E+000
  0.000000000000000E+000
  0.000000000000000E+000
  0.000000000000000E+000
  0.000000000000000E+000
  0.000000000000000E+000
  0.000000000000000E+000
  0.000000000000000E+000
  0.000000000000000E+000
  0.000000000000000E+000
  0.000000000000000E+000
  0.000000000000000E+000
  0.000000000000000E+000
  0.000000000000000E+000
  0.000000000000000E+000
  0.000000000000000E+000
  0.000000000000000E+000
  0.000000000000000E+000
  0.000000000000000E+000
  0.000000000000000E+000
  0.000000000000000E+000
  0.000000000000000E+000
  0.000000000000000E+000
  0.000000000000000E+000
  0.000000000000000E+000
  0.000000000000000E+000
  0.000000000000000E+000
  0.000000000000000E+000
  0.000000000000000E+000
  0.000000000000000E+000
  0.000000000000000E+000
  0.000000000000000E+000
  0.000000000000000E+000
  0.000000000000000E+000
  0.000000000000000E+000
  0.000000000000000E+000
  0.000000000000000E+000
  0.000000000000000E+000
  0.000000000000000E+000
  0.000000000000000E+000
  0.000000000000000E+000
  0.000000000000000E+000
  0.000000000000000E+000
  0.000000000000000E+000
  0.000000000000000E+000
  0.000000000000000E+000
  0.000000000000000E+000
  0.000000000000000E+000
  0.000000000000000E+000
  0.000000000000000E+000
  0.000000000000000E+000
  0.000000000000000E+000
  0.000000000000000E+000
  0.000000000000000E+000
  0.000000000000000E+000
  0.000000000000000E+000
  0.000000000000000E+000
  0.000000000000000E+000
  0.000000000000000E+000
  0.000000000000000E+000
  0.000000000000000E+000
  0.000000000000000E+000
  0.000000000000000E+000
  0.000000000000000E+000
  0.000000000000000E+000
  0.000000000000000E+000
  0.000000000000000E+000
  0.000000000000000E+000
  0.000000000000000E+000
  0.000000000000000E+000
  0.000000000000000E+000
  0.000000000000000E+000
  0.000000000000000E+000
  0.000000000000000E+000
  0.000000000000000E+000
  0.000000000000000E+000
  0.000000000000000E+000
  0.000000000000000E+000
  0.000000000000000E+000
  0.000000000000000E+000
  0.000000000000000E+000
  0.000000000000000E+000
  0.000000000000000E+000
  0.000000000000000E+000
  0.000000000000000E+000
  0.000000000000000E+000
  0.000000000000000E+000
  0.000000000000000E+000
  0.000000000000000E+000
  0.000000000000000E+000
  0.000000000000000E+000
  0.000000000000000E+000
  0.000000000000000E+000
  0.000000000000000E+000
  0.000000000000000E+000
  0.000000000000000E+000
  0.000000000000000E+000
  0.000000000000000E+000
  0.000000000000000E+000
  0.000000000000000E+000
  0.000000000000000E+000
  0.000000000000000E+000
  0.000000000000000E+000
  0.000000000000000E+000
  0.000000000000000E+000
  0.000000000000000E+000
  0.000000000000000E+000
  0.000000000000000E+000
  0.000000000000000E+000
  0.000000000000000E+000
  0.000000000000000E+000
  0.000000000000000E+000
  0.000000000000000E+000
  0.000000000000000E+000
  0.000000000000000E+000
  0.000000000000000E+000
  0.000000000000000E+000
  0.000000000000000E+000
  0.000000000000000E+000
  0.000000000000000E+000
  0.000000000000000E+000
  0.000000000000000E+000
  0.000000000000000E+000
  0.000000000000000E+000
  0.000000000000000E+000
  0.000000000000000E+000
  0.000000000000000E+000
  0.000000000000000E+000
  0.000000000000000E+000
  0.000000000000000E+000
  0.000000000000000E+000
  0.000000000000000E+000
  0.000000000000000E+000
  0.000000000000000E+000
  0.000000000000000E+000
  0.000000000000000E+000
  0.000000000000000E+000
  0.000000000000000E+000
  0.000000000000000E+000
  0.000000000000000E+000
  0.000000000000000E+000
  0.000000000000000E+000
  0.000000000000000E+000
  0.000000000000000E+000
  0.000000000000000E+000
  0.000000000000000E+000
  0.000000000000000E+000
  0.000000000000000E+000
  0.000000000000000E+000
  0.000000000000000E+000
  0.000000000000000E+000
  0.000000000000000E+000
  0.000000000000000E+000
  0.000000000000000E+000
  0.000000000000000E+000
  0.000000000000000E+000
  0.000000000000000E+000
  0.000000000000000E+000
  0.000000000000000E+000
  0.000000000000000E+000
  0.000000000000000E+000
  0.000000000000000E+000
  0.000000000000000E+000
  0.000000000000000E+000
  0.000000000000000E+000
  0.000000000000000E+000
  0.000000000000000E+000
  0.000000000000000E+000
  0.000000000000000E+000
  0.000000000000000E+000
  0.000000000000000E+000
  0.000000000000000E+000
  0.000000000000000E+000
  0.000000000000000E+000
  0.000000000000000E+000
  0.000000000000000E+000
  0.000000000000000E+000
  0.000000000000000E+000
  0.000000000000000E+000
  0.000000000000000E+000
  0.000000000000000E+000
  0.000000000000000E+000
  0.000000000000000E+000
  0.000000000000000E+000
  0.000000000000000E+000
  0.000000000000000E+000
  0.000000000000000E+000
  0.000000000000000E+000
  0.000000000000000E+000
  0.000000000000000E+000
  0.000000000000000E+000
  0.000000000000000E+000
  0.000000000000000E+000
  0.000000000000000E+000
  0.000000000000000E+000
  0.000000000000000E+000
  0.000000000000000E+000
  0.000000000000000E+000
  0.000000000000000E+000
  0.000000000000000E+000
  0.000000000000000E+000
  0.000000000000000E+000
  0.000000000000000E+000
  0.000000000000000E+000
  0.000000000000000E+000
  0.000000000000000E+000
  0.000000000000000E+000
  0.000000000000000E+000
  0.000000000000000E+000
  0.000000000000000E+000
  0.000000000000000E+000
  0.000000000000000E+000
  0.000000000000000E+000
  0.000000000000000E+000
  0.000000000000000E+000
  0.000000000000000E+000
  0.000000000000000E+000
  0.000000000000000E+000
  0.000000000000000E+000
  0.000000000000000E+000
  0.000000000000000E+000
  0.000000000000000E+000
  0.000000000000000E+000
  0.000000000000000E+000
  0.000000000000000E+000
  0.000000000000000E+000
  0.000000000000000E+000
  0.000000000000000E+000
  0.000000000000000E+000
  0.000000000000000E+000
  0.000000000000000E+000
  0.000000000000000E+000
  0.000000000000000E+000
  0.000000000000000E+000
  0.000000000000000E+000
  0.000000000000000E+000
  0.000000000000000E+000
  0.000000000000000E+000
  0.000000000000000E+000
  0.000000000000000E+000
  0.000000000000000E+000
  0.000000000000000E+000
  0.000000000000000E+000
  0.000000000000000E+000
  0.000000000000000E+000
  0.000000000000000E+000
  0.000000000000000E+000
  0.000000000000000E+000
  0.000000000000000E+000
  0.000000000000000E+000
  0.000000000000000E+000
  0.000000000000000E+000
  0.000000000000000E+000
  0.000000000000000E+000
  0.000000000000000E+000
  0.000000000000000E+000
  0.000000000000000E+000
  0.000000000000000E+000
  0.000000000000000E+000
  0.000000000000000E+000
  0.000000000000000E+000
  0.000000000000000E+000
  0.000000000000000E+000
  0.000000000000000E+000
  0.000000000000000E+000
  0.000000000000000E+000
  0.000000000000000E+000
  0.000000000000000E+000
  0.000000000000000E+000
  0.000000000000000E+000
  0.000000000000000E+000
  0.000000000000000E+000
  0.000000000000000E+000
  0.000000000000000E+000
  0.000000000000000E+000
  0.000000000000000E+000
  0.000000000000000E+000
  0.000000000000000E+000
  0.000000000000000E+000
  0.000000000000000E+000
  0.000000000000000E+000
  0.000000000000000E+000
  0.000000000000000E+000
  0.000000000000000E+000
  0.000000000000000E+000
  0.000000000000000E+000
  0.000000000000000E+000
  0.000000000000000E+000
  0.000000000000000E+000
  0.000000000000000E+000
  0.000000000000000E+000
  0.000000000000000E+000
  0.000000000000000E+000
  0.000000000000000E+000
  0.000000000000000E+000
  0.000000000000000E+000
  0.000000000000000E+000
  0.000000000000000E+000
  0.000000000000000E+000
  0.000000000000000E+000
  0.000000000000000E+000
  0.000000000000000E+000
  0.000000000000000E+000
  0.000000000000000E+000
  0.000000000000000E+000
  0.000000000000000E+000
  0.000000000000000E+000
  0.000000000000000E+000
  0.000000000000000E+000
  0.000000000000000E+000
  0.000000000000000E+000
  0.000000000000000E+000
  0.000000000000000E+000
  0.000000000000000E+000
  0.000000000000000E+000
  0.000000000000000E+000
  0.000000000000000E+000
  0.000000000000000E+000
  0.000000000000000E+000
  0.000000000000000E+000
  0.000000000000000E+000
  0.000000000000000E+000
  0.000000000000000E+000
  0.000000000000000E+000
  0.000000000000000E+000
  0.000000000000000E+000
  0.000000000000000E+000
  0.000000000000000E+000
  0.000000000000000E+000
  0.000000000000000E+000
  0.000000000000000E+000
  0.000000000000000E+000
  0.000000000000000E+000
  0.000000000000000E+000
  0.000000000000000E+000
  0.000000000000000E+000
SCALARS elementIsPlast double 
LOOKUP_TABLE default
   1.00000000000000     
  0.000000000000000E+000
  0.000000000000000E+000
  0.000000000000000E+000
  0.000000000000000E+000
  0.000000000000000E+000
  0.000000000000000E+000
  0.000000000000000E+000
  0.000000000000000E+000
  0.000000000000000E+000
  0.000000000000000E+000
  0.000000000000000E+000
  0.000000000000000E+000
  0.000000000000000E+000
  0.000000000000000E+000
  0.000000000000000E+000
  0.000000000000000E+000
  0.000000000000000E+000
  0.000000000000000E+000
  0.000000000000000E+000
  0.000000000000000E+000
  0.000000000000000E+000
  0.000000000000000E+000
  0.000000000000000E+000
  0.000000000000000E+000
  0.000000000000000E+000
  0.000000000000000E+000
  0.000000000000000E+000
  0.000000000000000E+000
  0.000000000000000E+000
  0.000000000000000E+000
  0.000000000000000E+000
  0.000000000000000E+000
  0.000000000000000E+000
  0.000000000000000E+000
  0.000000000000000E+000
  0.000000000000000E+000
  0.000000000000000E+000
  0.000000000000000E+000
  0.000000000000000E+000
  0.000000000000000E+000
  0.000000000000000E+000
  0.000000000000000E+000
  0.000000000000000E+000
  0.000000000000000E+000
  0.000000000000000E+000
  0.000000000000000E+000
  0.000000000000000E+000
  0.000000000000000E+000
  0.000000000000000E+000
  0.000000000000000E+000
  0.000000000000000E+000
  0.000000000000000E+000
  0.000000000000000E+000
  0.000000000000000E+000
  0.000000000000000E+000
  0.000000000000000E+000
  0.000000000000000E+000
  0.000000000000000E+000
  0.000000000000000E+000
  0.000000000000000E+000
  0.000000000000000E+000
  0.000000000000000E+000
  0.000000000000000E+000
  0.000000000000000E+000
  0.000000000000000E+000
  0.000000000000000E+000
  0.000000000000000E+000
  0.000000000000000E+000
  0.000000000000000E+000
  0.000000000000000E+000
  0.000000000000000E+000
  0.000000000000000E+000
  0.000000000000000E+000
  0.000000000000000E+000
  0.000000000000000E+000
  0.000000000000000E+000
  0.000000000000000E+000
  0.000000000000000E+000
  0.000000000000000E+000
  0.000000000000000E+000
  0.000000000000000E+000
  0.000000000000000E+000
  0.000000000000000E+000
  0.000000000000000E+000
  0.000000000000000E+000
  0.000000000000000E+000
  0.000000000000000E+000
  0.000000000000000E+000
  0.000000000000000E+000
  0.000000000000000E+000
  0.000000000000000E+000
  0.000000000000000E+000
  0.000000000000000E+000
  0.000000000000000E+000
  0.000000000000000E+000
  0.000000000000000E+000
  0.000000000000000E+000
  0.000000000000000E+000
  0.000000000000000E+000
  0.000000000000000E+000
  0.000000000000000E+000
  0.000000000000000E+000
  0.000000000000000E+000
  0.000000000000000E+000
  0.000000000000000E+000
  0.000000000000000E+000
  0.000000000000000E+000
  0.000000000000000E+000
  0.000000000000000E+000
  0.000000000000000E+000
  0.000000000000000E+000
  0.000000000000000E+000
  0.000000000000000E+000
  0.000000000000000E+000
  0.000000000000000E+000
  0.000000000000000E+000
  0.000000000000000E+000
  0.000000000000000E+000
  0.000000000000000E+000
  0.000000000000000E+000
  0.000000000000000E+000
  0.000000000000000E+000
  0.000000000000000E+000
  0.000000000000000E+000
  0.000000000000000E+000
  0.000000000000000E+000
  0.000000000000000E+000
  0.000000000000000E+000
  0.000000000000000E+000
  0.000000000000000E+000
  0.000000000000000E+000
  0.000000000000000E+000
  0.000000000000000E+000
  0.000000000000000E+000
  0.000000000000000E+000
  0.000000000000000E+000
  0.000000000000000E+000
  0.000000000000000E+000
  0.000000000000000E+000
  0.000000000000000E+000
  0.000000000000000E+000
  0.000000000000000E+000
  0.000000000000000E+000
  0.000000000000000E+000
  0.000000000000000E+000
  0.000000000000000E+000
  0.000000000000000E+000
  0.000000000000000E+000
  0.000000000000000E+000
  0.000000000000000E+000
  0.000000000000000E+000
  0.000000000000000E+000
  0.000000000000000E+000
  0.000000000000000E+000
  0.000000000000000E+000
  0.000000000000000E+000
  0.000000000000000E+000
  0.000000000000000E+000
  0.000000000000000E+000
  0.000000000000000E+000
  0.000000000000000E+000
  0.000000000000000E+000
  0.000000000000000E+000
  0.000000000000000E+000
  0.000000000000000E+000
  0.000000000000000E+000
  0.000000000000000E+000
  0.000000000000000E+000
  0.000000000000000E+000
  0.000000000000000E+000
  0.000000000000000E+000
  0.000000000000000E+000
  0.000000000000000E+000
  0.000000000000000E+000
  0.000000000000000E+000
  0.000000000000000E+000
  0.000000000000000E+000
  0.000000000000000E+000
  0.000000000000000E+000
  0.000000000000000E+000
  0.000000000000000E+000
  0.000000000000000E+000
  0.000000000000000E+000
  0.000000000000000E+000
  0.000000000000000E+000
  0.000000000000000E+000
  0.000000000000000E+000
  0.000000000000000E+000
  0.000000000000000E+000
  0.000000000000000E+000
  0.000000000000000E+000
  0.000000000000000E+000
  0.000000000000000E+000
  0.000000000000000E+000
  0.000000000000000E+000
  0.000000000000000E+000
  0.000000000000000E+000
  0.000000000000000E+000
  0.000000000000000E+000
  0.000000000000000E+000
  0.000000000000000E+000
  0.000000000000000E+000
  0.000000000000000E+000
  0.000000000000000E+000
  0.000000000000000E+000
  0.000000000000000E+000
  0.000000000000000E+000
  0.000000000000000E+000
  0.000000000000000E+000
  0.000000000000000E+000
  0.000000000000000E+000
  0.000000000000000E+000
  0.000000000000000E+000
  0.000000000000000E+000
  0.000000000000000E+000
  0.000000000000000E+000
  0.000000000000000E+000
  0.000000000000000E+000
  0.000000000000000E+000
  0.000000000000000E+000
  0.000000000000000E+000
  0.000000000000000E+000
  0.000000000000000E+000
  0.000000000000000E+000
  0.000000000000000E+000
  0.000000000000000E+000
  0.000000000000000E+000
  0.000000000000000E+000
  0.000000000000000E+000
  0.000000000000000E+000
  0.000000000000000E+000
  0.000000000000000E+000
  0.000000000000000E+000
  0.000000000000000E+000
  0.000000000000000E+000
  0.000000000000000E+000
  0.000000000000000E+000
  0.000000000000000E+000
  0.000000000000000E+000
  0.000000000000000E+000
  0.000000000000000E+000
  0.000000000000000E+000
  0.000000000000000E+000
  0.000000000000000E+000
  0.000000000000000E+000
  0.000000000000000E+000
  0.000000000000000E+000
  0.000000000000000E+000
  0.000000000000000E+000
  0.000000000000000E+000
  0.000000000000000E+000
  0.000000000000000E+000
  0.000000000000000E+000
  0.000000000000000E+000
  0.000000000000000E+000
  0.000000000000000E+000
  0.000000000000000E+000
  0.000000000000000E+000
  0.000000000000000E+000
  0.000000000000000E+000
  0.000000000000000E+000
  0.000000000000000E+000
  0.000000000000000E+000
  0.000000000000000E+000
  0.000000000000000E+000
  0.000000000000000E+000
  0.000000000000000E+000
  0.000000000000000E+000
  0.000000000000000E+000
  0.000000000000000E+000
  0.000000000000000E+000
  0.000000000000000E+000
  0.000000000000000E+000
  0.000000000000000E+000
  0.000000000000000E+000
  0.000000000000000E+000
  0.000000000000000E+000
  0.000000000000000E+000
  0.000000000000000E+000
  0.000000000000000E+000
  0.000000000000000E+000
  0.000000000000000E+000
  0.000000000000000E+000
  0.000000000000000E+000
  0.000000000000000E+000
  0.000000000000000E+000
  0.000000000000000E+000
  0.000000000000000E+000
  0.000000000000000E+000
  0.000000000000000E+000
  0.000000000000000E+000
  0.000000000000000E+000
  0.000000000000000E+000
  0.000000000000000E+000
  0.000000000000000E+000
  0.000000000000000E+000
  0.000000000000000E+000
  0.000000000000000E+000
  0.000000000000000E+000
  0.000000000000000E+000
  0.000000000000000E+000
  0.000000000000000E+000
  0.000000000000000E+000
  0.000000000000000E+000
  0.000000000000000E+000
  0.000000000000000E+000
  0.000000000000000E+000
  0.000000000000000E+000
  0.000000000000000E+000
  0.000000000000000E+000
  0.000000000000000E+000
  0.000000000000000E+000
  0.000000000000000E+000
  0.000000000000000E+000
  0.000000000000000E+000
  0.000000000000000E+000
  0.000000000000000E+000
  0.000000000000000E+000
  0.000000000000000E+000
  0.000000000000000E+000
  0.000000000000000E+000
  0.000000000000000E+000
  0.000000000000000E+000
  0.000000000000000E+000
  0.000000000000000E+000
  0.000000000000000E+000
  0.000000000000000E+000
  0.000000000000000E+000
  0.000000000000000E+000
  0.000000000000000E+000
  0.000000000000000E+000
  0.000000000000000E+000
  0.000000000000000E+000
  0.000000000000000E+000
  0.000000000000000E+000
  0.000000000000000E+000
  0.000000000000000E+000
  0.000000000000000E+000
  0.000000000000000E+000
  0.000000000000000E+000
  0.000000000000000E+000
  0.000000000000000E+000
  0.000000000000000E+000
  0.000000000000000E+000
  0.000000000000000E+000
  0.000000000000000E+000
  0.000000000000000E+000
  0.000000000000000E+000
  0.000000000000000E+000
  0.000000000000000E+000
  0.000000000000000E+000
  0.000000000000000E+000
  0.000000000000000E+000
  0.000000000000000E+000
  0.000000000000000E+000
  0.000000000000000E+000
  0.000000000000000E+000
  0.000000000000000E+000
  0.000000000000000E+000
  0.000000000000000E+000
  0.000000000000000E+000
  0.000000000000000E+000
  0.000000000000000E+000
  0.000000000000000E+000
  0.000000000000000E+000
  0.000000000000000E+000
  0.000000000000000E+000
  0.000000000000000E+000
  0.000000000000000E+000
  0.000000000000000E+000
  0.000000000000000E+000
  0.000000000000000E+000
  0.000000000000000E+000
  0.000000000000000E+000
  0.000000000000000E+000
  0.000000000000000E+000
  0.000000000000000E+000
  0.000000000000000E+000
  0.000000000000000E+000
  0.000000000000000E+000
  0.000000000000000E+000
  0.000000000000000E+000
  0.000000000000000E+000
  0.000000000000000E+000
  0.000000000000000E+000
  0.000000000000000E+000
  0.000000000000000E+000
  0.000000000000000E+000
  0.000000000000000E+000
  0.000000000000000E+000
  0.000000000000000E+000
  0.000000000000000E+000
  0.000000000000000E+000
  0.000000000000000E+000
  0.000000000000000E+000
  0.000000000000000E+000
  0.000000000000000E+000
  0.000000000000000E+000
  0.000000000000000E+000
  0.000000000000000E+000
  0.000000000000000E+000
  0.000000000000000E+000
  0.000000000000000E+000
  0.000000000000000E+000
  0.000000000000000E+000
  0.000000000000000E+000
  0.000000000000000E+000
  0.000000000000000E+000
  0.000000000000000E+000
  0.000000000000000E+000
  0.000000000000000E+000
  0.000000000000000E+000
  0.000000000000000E+000
  0.000000000000000E+000
  0.000000000000000E+000
  0.000000000000000E+000
  0.000000000000000E+000
  0.000000000000000E+000
  0.000000000000000E+000
  0.000000000000000E+000
  0.000000000000000E+000
  0.000000000000000E+000
  0.000000000000000E+000
  0.000000000000000E+000
  0.000000000000000E+000
  0.000000000000000E+000
  0.000000000000000E+000
  0.000000000000000E+000
  0.000000000000000E+000
  0.000000000000000E+000
  0.000000000000000E+000
  0.000000000000000E+000
  0.000000000000000E+000
  0.000000000000000E+000
  0.000000000000000E+000
  0.000000000000000E+000
  0.000000000000000E+000
  0.000000000000000E+000
  0.000000000000000E+000
  0.000000000000000E+000
  0.000000000000000E+000
  0.000000000000000E+000
  0.000000000000000E+000
  0.000000000000000E+000
  0.000000000000000E+000
  0.000000000000000E+000
  0.000000000000000E+000
  0.000000000000000E+000
  0.000000000000000E+000
SCALARS poroL double 
LOOKUP_TABLE default
  0.321500240178240     
  0.315498988020373     
  0.311290316422471     
  0.307865646913376     
  0.304949795797533     
  0.302398037174564     
  0.300119756231657     
  0.298050580698428     
  0.296139622648967     
  0.294341648998762     
  0.292610537552359     
  0.290891258163993     
  0.289104628676765     
  0.287115203562192     
  0.284514190542326     
  0.315833312835801     
  0.311675375814498     
  0.307850599040026     
  0.304578623588526     
  0.301730216112532     
  0.299208786139677     
  0.296942556607995     
  0.294876788128174     
  0.292966509069454     
  0.291171366511680     
  0.289451146725764     
  0.287760681362082     
  0.286045244132251     
  0.284223247964076     
  0.282384395229680     
  0.310659122665691     
  0.307180719945501     
  0.303914978193432     
  0.300927915479380     
  0.298243834274128     
  0.295822824405792     
  0.293622686337939     
  0.291604954347635     
  0.289735502529339     
  0.287983143310217     
  0.286318161493203     
  0.284712035246692     
  0.283138860911216     
  0.281608904093352     
  0.280176610609116     
  0.305409876782370     
  0.302499901475401     
  0.299676506820899     
  0.297014547730608     
  0.294545325517539     
  0.292272159492269     
  0.290179134078458     
  0.288245454175958     
  0.286449730594977     
  0.284771775010896     
  0.283193846570928     
  0.281702872672868     
  0.280298524869354     
  0.279001155124943     
  0.277863067900672     
  0.300187658155638     
  0.297738799079862     
  0.295298406676856     
  0.292937154357614     
  0.290696665689574     
  0.288595003714664     
  0.286634935934216     
  0.284810375207251     
  0.283111859784698     
  0.281529737926587     
  0.280056783277978     
  0.278691700350933     
  0.277443373220520     
  0.276336018352736     
  0.275411050722579     
  0.295064688100619     
  0.292983580150861     
  0.290865332068860     
  0.288773863007777     
  0.286752790185443     
  0.284828229670954     
  0.283013092372306     
  0.281311824038303     
  0.279724415803378     
  0.278249774926495     
  0.276888648971373     
  0.275646504769290     
  0.274536501122199     
  0.273581687020962     
  0.272815615871310     
  0.290077182061993     
  0.288286217204552     
  0.286433587662704     
  0.284576049844660     
  0.282755895072917     
  0.281002183668382     
  0.279333351591760     
  0.277760323150122     
  0.276289628714197     
  0.274926238302376     
  0.273676122241850     
  0.272548566853802     
  0.271558095302591     
  0.270725667283227     
  0.270078626959377     
  0.285240915112416     
  0.283674444947554     
  0.282036268114421     
  0.280376431333501     
  0.278734143723746     
  0.277138513479569     
  0.275610187740049     
  0.274163513281487     
  0.272808853775480     
  0.271554841886232     
  0.270410437487065     
  0.269386696391555     
  0.268498109126611     
  0.267763291405628     
  0.267204822901843     
  0.280556820716246     
  0.279158186791249     
  0.277688729375061     
  0.276192037394197     
  0.274703259394245     
  0.273249677584611     
  0.271851863574593     
  0.270525226200078     
  0.269281741946371     
  0.268131687502899     
  0.267085237618505     
  0.266153809790167     
  0.265351031579945     
  0.264693202581782     
  0.264199147380260     
  0.276013064344081     
  0.274733083035630     
  0.273391940647490     
  0.272026733580744     
  0.270667818478696     
  0.269339345516075     
  0.268060148515644     
  0.266844905550603     
  0.265705445530499     
  0.264652073979751     
  0.263694802599749     
  0.262844378617703     
  0.262113017700079     
  0.261514756279475     
  0.261065368251333     
  0.271586014250907     
  0.270382430296700     
  0.269134659564014     
  0.267873034995889     
  0.266622471805414     
  0.265402982541731     
  0.264230406355952     
  0.263117312617825     
  0.262074006306349     
  0.261109549706909     
  0.260232714947119     
  0.259452787562222     
  0.258780150168925     
  0.258226589421432     
  0.257805291651509     
  0.267240916128265     
  0.266078449283849     
  0.264894920379506     
  0.263713482808010     
  0.262552993198454     
  0.261428500098877     
  0.260351858891563     
  0.259332454177041     
  0.258377987038914     
  0.257495272256334     
  0.256690987177967     
  0.255972316539871     
  0.255347444140161     
  0.254825852734782     
  0.254418408009003     
  0.262932568494667     
  0.261783283905441     
  0.260641179462272     
  0.259521744699724     
  0.258437191597448     
  0.257396901607507     
  0.256407946261536     
  0.255475671020198     
  0.254604317451424     
  0.253797650720636     
  0.253059556839446     
  0.252394575501765     
  0.251808338296423     
  0.251307887855635     
  0.250901860495569     
  0.258606067878723     
  0.257449898357337     
  0.256333280589143     
  0.255263544187628     
  0.254245712744736     
  0.253282896582361     
  0.252376727506456     
  0.251527827170185     
  0.250736294720374     
  0.250002197192538     
  0.249326046550329     
  0.248709248965043     
  0.248154513768613     
  0.247666210758311     
  0.247250664684829     
  0.254197592830784     
  0.253022906833363     
  0.251923295512589     
  0.250897457078008     
  0.249942735920823     
  0.249055455337775     
  0.248231271188751     
  0.247465535738236     
  0.246753663944100     
  0.246091499575207     
  0.245475683613667     
  0.244904030667376     
  0.244375919486886     
  0.243892700694459     
  0.243458118456055     
  0.249635142784127     
  0.248439298893337     
  0.247356227211139     
  0.246375565545703     
  0.245486544770774     
  0.244678266416643     
  0.243939981332630     
  0.243261352133922     
  0.242632696202507     
  0.242045220798351     
  0.241491273479951     
  0.240964637038998     
  0.240460897458518     
  0.239977906071288     
  0.239516343890593     
  0.244839114331975     
  0.243628978804180     
  0.242570519716115     
  0.241643926139914     
  0.240829929192646     
  0.240110046118170     
  0.239466795992352     
  0.238883858083792     
  0.238346173823254     
  0.237840021773949     
  0.237353115737053     
  0.236874785919043     
  0.236396301188001     
  0.235911377859789     
  0.235416899174590     
  0.239722563657879     
  0.238515000468082     
  0.237498285217371     
  0.236642782144304     
  0.235920357074344     
  0.235304636854564     
  0.234771185349444     
  0.234297549023466     
  0.233863179806062     
  0.233449291214731     
  0.233038736642228     
  0.232616012823989     
  0.232167487317345     
  0.231681928862466     
  0.231151387477869     
  0.234190951612517     
  0.233013334930479     
  0.232065124745218     
  0.231306426120345     
  0.230699837076652     
  0.230210816542673     
  0.229807861056461     
  0.229462419029837     
  0.229148565714273     
  0.228842538908041     
  0.228522283114806     
  0.228167167260502     
  0.227758031943520     
  0.227277691499122     
  0.226711968639948     
  0.228141075510473     
  0.227031938081897     
  0.226189371229811     
  0.225562587188590     
  0.225104370811965     
  0.224771719303598     
  0.224526082201871     
  0.224333103995835     
  0.224161931226389     
  0.223984261223220     
  0.223773370767129     
  0.223503377909892     
  0.223148972100164     
  0.222685802353742     
  0.222091644431308     
  0.221458726404902     
  0.220468768900285     
  0.219780507626259     
  0.219331168815034     
  0.219062854534651     
  0.218923726755210     
  0.218868392053383     
  0.218857380243597     
  0.218855873521451     
  0.218832003041046     
  0.218755087214452     
  0.218594182644253     
  0.218317285727243     
  0.217891468445984     
  0.217284133886806     
  0.214014313805842     
  0.213208202004082     
  0.212736382951878     
  0.212522077094778     
  0.212495216277803     
  0.212594602937016     
  0.212768513259607     
  0.212973691184641     
  0.213173126446958     
  0.213333190486611     
  0.213420693138969     
  0.213400357194851     
  0.213233172721135     
  0.212876047250293     
  0.212283073499772     
  0.205655140181117     
  0.205114902831570     
  0.204938610785335     
  0.205031718114971     
  0.205309414685180     
  0.205700450500837     
  0.206147897032147     
  0.206607121740207     
  0.207041949303351     
  0.207420042436004     
  0.207708281206274     
  0.207868687729545     
  0.207855424063423     
  0.207613556697501     
  0.207080149427256     
  0.196191913921309     
  0.196023467972709     
  0.196245090094494     
  0.196737400921271     
  0.197396553153983     
  0.198140600546221     
  0.198909886521846     
  0.199662709974706     
  0.200368626005410     
  0.201001376930825     
  0.201532150908006     
  0.201923379570424     
  0.202123646267964     
  0.202064604421869     
  0.201661559525060     
  0.185374472912579     
  0.185720630392640     
  0.186477557473492     
  0.187488131497568     
  0.188622429511591     
  0.189788323400714     
  0.190929209443441     
  0.192013812071651     
  0.193024924014798     
  0.193949236747854     
  0.194768649924265     
  0.195451775142572     
  0.195944949145743     
  0.196165885078192     
  0.196001752823805     
  0.172846318156697     
  0.173912221671460     
  0.175400170033185     
  0.177088278822477     
  0.178810956838998     
  0.180472219772249     
  0.182031190877000     
  0.183480627831730     
  0.184826272622493     
  0.186076236352612     
  0.187232525873202     
  0.188279482264790     
  0.189170580960238     
  0.189810980360820     
  0.190052634726310     
  0.158042845492531     
  0.160160300882069     
  0.162677777094393     
  0.165263472901249     
  0.167707952542882     
  0.169932086198585     
  0.171947549729913     
  0.173787484186765     
  0.175490896577849     
  0.177095690280452     
  0.178634371998371     
  0.180126728607104     
  0.181549756095717     
  0.182814680608300     
  0.183722610769945     
  0.139973275825551     
  0.143713481501205     
  0.147783186911378     
  0.151587864232889     
  0.154865508524170     
  0.157708642158900     
  0.160213204707185     
  0.162468760813109     
  0.164553978877299     
  0.166541747414737     
  0.168504436447937     
  0.170515055326865     
  0.172644948095188     
  0.174823010238707     
  0.176840650714254     
  0.116086055432433     
  0.123067366505270     
  0.129853877318761     
  0.135059009446699     
  0.139284155828494     
  0.142823851867386     
  0.145887120366584     
  0.148622559283044     
  0.151149233453257     
  0.153575521085165     
  0.156015868656577     
  0.158611712689365     
  0.161551593594782     
  0.165167525686578     
  0.169008500740173     
  7.521523853389911E-002
  9.423536139747044E-002
  0.104599596948647     
  0.112027102232979     
  0.117774323294953     
  0.122472621029216     
  0.126471574230885     
  0.130001170369236     
  0.133234126375254     
  0.136321853377514     
  0.139423116189830     
  0.142739585456352     
  0.146588785490636     
  0.151553401378244     
  0.159696085051038     
