# vtk DataFile Version 3.0
vtk output
ASCII
DATASET UNSTRUCTURED_GRID
POINTS      5151 double 
  0.00000000E+00  1.00000000E+02  0.00000000E+00
  0.00000000E+00  9.80000000E+01  0.00000000E+00
  0.00000000E+00  9.60000000E+01  0.00000000E+00
  0.00000000E+00  9.40000000E+01  0.00000000E+00
  0.00000000E+00  9.20000000E+01  0.00000000E+00
  0.00000000E+00  9.00000000E+01  0.00000000E+00
  0.00000000E+00  8.80000000E+01  0.00000000E+00
  0.00000000E+00  8.60000000E+01  0.00000000E+00
  0.00000000E+00  8.40000000E+01  0.00000000E+00
  0.00000000E+00  8.20000000E+01  0.00000000E+00
  0.00000000E+00  8.00000000E+01  0.00000000E+00
  0.00000000E+00  7.80000000E+01  0.00000000E+00
  0.00000000E+00  7.60000000E+01  0.00000000E+00
  0.00000000E+00  7.40000000E+01  0.00000000E+00
  0.00000000E+00  7.20000000E+01  0.00000000E+00
  0.00000000E+00  7.00000000E+01  0.00000000E+00
  0.00000000E+00  6.80000000E+01  0.00000000E+00
  0.00000000E+00  6.60000000E+01  0.00000000E+00
  0.00000000E+00  6.40000000E+01  0.00000000E+00
  0.00000000E+00  6.20000000E+01  0.00000000E+00
  0.00000000E+00  6.00000000E+01  0.00000000E+00
  0.00000000E+00  5.80000000E+01  0.00000000E+00
  0.00000000E+00  5.60000000E+01  0.00000000E+00
  0.00000000E+00  5.40000000E+01  0.00000000E+00
  0.00000000E+00  5.20000000E+01  0.00000000E+00
  0.00000000E+00  5.00000000E+01  0.00000000E+00
  0.00000000E+00  4.80000000E+01  0.00000000E+00
  0.00000000E+00  4.60000000E+01  0.00000000E+00
  0.00000000E+00  4.40000000E+01  0.00000000E+00
  0.00000000E+00  4.20000000E+01  0.00000000E+00
  0.00000000E+00  4.00000000E+01  0.00000000E+00
  0.00000000E+00  3.80000000E+01  0.00000000E+00
  0.00000000E+00  3.60000000E+01  0.00000000E+00
  0.00000000E+00  3.40000000E+01  0.00000000E+00
  0.00000000E+00  3.20000000E+01  0.00000000E+00
  0.00000000E+00  3.00000000E+01  0.00000000E+00
  0.00000000E+00  2.80000000E+01  0.00000000E+00
  0.00000000E+00  2.60000000E+01  0.00000000E+00
  0.00000000E+00  2.40000000E+01  0.00000000E+00
  0.00000000E+00  2.20000000E+01  0.00000000E+00
  0.00000000E+00  2.00000000E+01  0.00000000E+00
  0.00000000E+00  1.80000000E+01  0.00000000E+00
  0.00000000E+00  1.60000000E+01  0.00000000E+00
  0.00000000E+00  1.40000000E+01  0.00000000E+00
  0.00000000E+00  1.20000000E+01  0.00000000E+00
  0.00000000E+00  1.00000000E+01  0.00000000E+00
  0.00000000E+00  8.00000000E+00  0.00000000E+00
  0.00000000E+00  6.00000000E+00  0.00000000E+00
  0.00000000E+00  4.00000000E+00  0.00000000E+00
  0.00000000E+00  2.00000000E+00  0.00000000E+00
  0.00000000E+00 -3.33066907E-14  0.00000000E+00
  1.00000000E+01  1.00000000E+02  0.00000000E+00
  1.00000000E+01  9.80000000E+01  0.00000000E+00
  1.00000000E+01  9.60000000E+01  0.00000000E+00
  1.00000000E+01  9.40000000E+01  0.00000000E+00
  1.00000000E+01  9.20000000E+01  0.00000000E+00
  1.00000000E+01  9.00000000E+01  0.00000000E+00
  1.00000000E+01  8.80000000E+01  0.00000000E+00
  1.00000000E+01  8.60000000E+01  0.00000000E+00
  1.00000000E+01  8.40000000E+01  0.00000000E+00
  1.00000000E+01  8.20000000E+01  0.00000000E+00
  1.00000000E+01  8.00000000E+01  0.00000000E+00
  1.00000000E+01  7.80000000E+01  0.00000000E+00
  1.00000000E+01  7.60000000E+01  0.00000000E+00
  1.00000000E+01  7.40000000E+01  0.00000000E+00
  1.00000000E+01  7.20000000E+01  0.00000000E+00
  1.00000000E+01  7.00000000E+01  0.00000000E+00
  1.00000000E+01  6.80000000E+01  0.00000000E+00
  1.00000000E+01  6.60000000E+01  0.00000000E+00
  1.00000000E+01  6.40000000E+01  0.00000000E+00
  1.00000000E+01  6.20000000E+01  0.00000000E+00
  1.00000000E+01  6.00000000E+01  0.00000000E+00
  1.00000000E+01  5.80000000E+01  0.00000000E+00
  1.00000000E+01  5.60000000E+01  0.00000000E+00
  1.00000000E+01  5.40000000E+01  0.00000000E+00
  1.00000000E+01  5.20000000E+01  0.00000000E+00
  1.00000000E+01  5.00000000E+01  0.00000000E+00
  1.00000000E+01  4.80000000E+01  0.00000000E+00
  1.00000000E+01  4.60000000E+01  0.00000000E+00
  1.00000000E+01  4.40000000E+01  0.00000000E+00
  1.00000000E+01  4.20000000E+01  0.00000000E+00
  1.00000000E+01  4.00000000E+01  0.00000000E+00
  1.00000000E+01  3.80000000E+01  0.00000000E+00
  1.00000000E+01  3.60000000E+01  0.00000000E+00
  1.00000000E+01  3.40000000E+01  0.00000000E+00
  1.00000000E+01  3.20000000E+01  0.00000000E+00
  1.00000000E+01  3.00000000E+01  0.00000000E+00
  1.00000000E+01  2.80000000E+01  0.00000000E+00
  1.00000000E+01  2.60000000E+01  0.00000000E+00
  1.00000000E+01  2.40000000E+01  0.00000000E+00
  1.00000000E+01  2.20000000E+01  0.00000000E+00
  1.00000000E+01  2.00000000E+01  0.00000000E+00
  1.00000000E+01  1.80000000E+01  0.00000000E+00
  1.00000000E+01  1.60000000E+01  0.00000000E+00
  1.00000000E+01  1.40000000E+01  0.00000000E+00
  1.00000000E+01  1.20000000E+01  0.00000000E+00
  1.00000000E+01  1.00000000E+01  0.00000000E+00
  1.00000000E+01  8.00000000E+00  0.00000000E+00
  1.00000000E+01  6.00000000E+00  0.00000000E+00
  1.00000000E+01  4.00000000E+00  0.00000000E+00
  1.00000000E+01  2.00000000E+00  0.00000000E+00
  1.00000000E+01 -3.33066907E-14  0.00000000E+00
  2.00000000E+01  1.00000000E+02  0.00000000E+00
  2.00000000E+01  9.80000000E+01  0.00000000E+00
  2.00000000E+01  9.60000000E+01  0.00000000E+00
  2.00000000E+01  9.40000000E+01  0.00000000E+00
  2.00000000E+01  9.20000000E+01  0.00000000E+00
  2.00000000E+01  9.00000000E+01  0.00000000E+00
  2.00000000E+01  8.80000000E+01  0.00000000E+00
  2.00000000E+01  8.60000000E+01  0.00000000E+00
  2.00000000E+01  8.40000000E+01  0.00000000E+00
  2.00000000E+01  8.20000000E+01  0.00000000E+00
  2.00000000E+01  8.00000000E+01  0.00000000E+00
  2.00000000E+01  7.80000000E+01  0.00000000E+00
  2.00000000E+01  7.60000000E+01  0.00000000E+00
  2.00000000E+01  7.40000000E+01  0.00000000E+00
  2.00000000E+01  7.20000000E+01  0.00000000E+00
  2.00000000E+01  7.00000000E+01  0.00000000E+00
  2.00000000E+01  6.80000000E+01  0.00000000E+00
  2.00000000E+01  6.60000000E+01  0.00000000E+00
  2.00000000E+01  6.40000000E+01  0.00000000E+00
  2.00000000E+01  6.20000000E+01  0.00000000E+00
  2.00000000E+01  6.00000000E+01  0.00000000E+00
  2.00000000E+01  5.80000000E+01  0.00000000E+00
  2.00000000E+01  5.60000000E+01  0.00000000E+00
  2.00000000E+01  5.40000000E+01  0.00000000E+00
  2.00000000E+01  5.20000000E+01  0.00000000E+00
  2.00000000E+01  5.00000000E+01  0.00000000E+00
  2.00000000E+01  4.80000000E+01  0.00000000E+00
  2.00000000E+01  4.60000000E+01  0.00000000E+00
  2.00000000E+01  4.40000000E+01  0.00000000E+00
  2.00000000E+01  4.20000000E+01  0.00000000E+00
  2.00000000E+01  4.00000000E+01  0.00000000E+00
  2.00000000E+01  3.80000000E+01  0.00000000E+00
  2.00000000E+01  3.60000000E+01  0.00000000E+00
  2.00000000E+01  3.40000000E+01  0.00000000E+00
  2.00000000E+01  3.20000000E+01  0.00000000E+00
  2.00000000E+01  3.00000000E+01  0.00000000E+00
  2.00000000E+01  2.80000000E+01  0.00000000E+00
  2.00000000E+01  2.60000000E+01  0.00000000E+00
  2.00000000E+01  2.40000000E+01  0.00000000E+00
  2.00000000E+01  2.20000000E+01  0.00000000E+00
  2.00000000E+01  2.00000000E+01  0.00000000E+00
  2.00000000E+01  1.80000000E+01  0.00000000E+00
  2.00000000E+01  1.60000000E+01  0.00000000E+00
  2.00000000E+01  1.40000000E+01  0.00000000E+00
  2.00000000E+01  1.20000000E+01  0.00000000E+00
  2.00000000E+01  1.00000000E+01  0.00000000E+00
  2.00000000E+01  8.00000000E+00  0.00000000E+00
  2.00000000E+01  6.00000000E+00  0.00000000E+00
  2.00000000E+01  4.00000000E+00  0.00000000E+00
  2.00000000E+01  2.00000000E+00  0.00000000E+00
  2.00000000E+01 -3.33066907E-14  0.00000000E+00
  3.00000000E+01  1.00000000E+02  0.00000000E+00
  3.00000000E+01  9.80000000E+01  0.00000000E+00
  3.00000000E+01  9.60000000E+01  0.00000000E+00
  3.00000000E+01  9.40000000E+01  0.00000000E+00
  3.00000000E+01  9.20000000E+01  0.00000000E+00
  3.00000000E+01  9.00000000E+01  0.00000000E+00
  3.00000000E+01  8.80000000E+01  0.00000000E+00
  3.00000000E+01  8.60000000E+01  0.00000000E+00
  3.00000000E+01  8.40000000E+01  0.00000000E+00
  3.00000000E+01  8.20000000E+01  0.00000000E+00
  3.00000000E+01  8.00000000E+01  0.00000000E+00
  3.00000000E+01  7.80000000E+01  0.00000000E+00
  3.00000000E+01  7.60000000E+01  0.00000000E+00
  3.00000000E+01  7.40000000E+01  0.00000000E+00
  3.00000000E+01  7.20000000E+01  0.00000000E+00
  3.00000000E+01  7.00000000E+01  0.00000000E+00
  3.00000000E+01  6.80000000E+01  0.00000000E+00
  3.00000000E+01  6.60000000E+01  0.00000000E+00
  3.00000000E+01  6.40000000E+01  0.00000000E+00
  3.00000000E+01  6.20000000E+01  0.00000000E+00
  3.00000000E+01  6.00000000E+01  0.00000000E+00
  3.00000000E+01  5.80000000E+01  0.00000000E+00
  3.00000000E+01  5.60000000E+01  0.00000000E+00
  3.00000000E+01  5.40000000E+01  0.00000000E+00
  3.00000000E+01  5.20000000E+01  0.00000000E+00
  3.00000000E+01  5.00000000E+01  0.00000000E+00
  3.00000000E+01  4.80000000E+01  0.00000000E+00
  3.00000000E+01  4.60000000E+01  0.00000000E+00
  3.00000000E+01  4.40000000E+01  0.00000000E+00
  3.00000000E+01  4.20000000E+01  0.00000000E+00
  3.00000000E+01  4.00000000E+01  0.00000000E+00
  3.00000000E+01  3.80000000E+01  0.00000000E+00
  3.00000000E+01  3.60000000E+01  0.00000000E+00
  3.00000000E+01  3.40000000E+01  0.00000000E+00
  3.00000000E+01  3.20000000E+01  0.00000000E+00
  3.00000000E+01  3.00000000E+01  0.00000000E+00
  3.00000000E+01  2.80000000E+01  0.00000000E+00
  3.00000000E+01  2.60000000E+01  0.00000000E+00
  3.00000000E+01  2.40000000E+01  0.00000000E+00
  3.00000000E+01  2.20000000E+01  0.00000000E+00
  3.00000000E+01  2.00000000E+01  0.00000000E+00
  3.00000000E+01  1.80000000E+01  0.00000000E+00
  3.00000000E+01  1.60000000E+01  0.00000000E+00
  3.00000000E+01  1.40000000E+01  0.00000000E+00
  3.00000000E+01  1.20000000E+01  0.00000000E+00
  3.00000000E+01  1.00000000E+01  0.00000000E+00
  3.00000000E+01  8.00000000E+00  0.00000000E+00
  3.00000000E+01  6.00000000E+00  0.00000000E+00
  3.00000000E+01  4.00000000E+00  0.00000000E+00
  3.00000000E+01  2.00000000E+00  0.00000000E+00
  3.00000000E+01 -3.33066907E-14  0.00000000E+00
  4.00000000E+01  1.00000000E+02  0.00000000E+00
  4.00000000E+01  9.80000000E+01  0.00000000E+00
  4.00000000E+01  9.60000000E+01  0.00000000E+00
  4.00000000E+01  9.40000000E+01  0.00000000E+00
  4.00000000E+01  9.20000000E+01  0.00000000E+00
  4.00000000E+01  9.00000000E+01  0.00000000E+00
  4.00000000E+01  8.80000000E+01  0.00000000E+00
  4.00000000E+01  8.60000000E+01  0.00000000E+00
  4.00000000E+01  8.40000000E+01  0.00000000E+00
  4.00000000E+01  8.20000000E+01  0.00000000E+00
  4.00000000E+01  8.00000000E+01  0.00000000E+00
  4.00000000E+01  7.80000000E+01  0.00000000E+00
  4.00000000E+01  7.60000000E+01  0.00000000E+00
  4.00000000E+01  7.40000000E+01  0.00000000E+00
  4.00000000E+01  7.20000000E+01  0.00000000E+00
  4.00000000E+01  7.00000000E+01  0.00000000E+00
  4.00000000E+01  6.80000000E+01  0.00000000E+00
  4.00000000E+01  6.60000000E+01  0.00000000E+00
  4.00000000E+01  6.40000000E+01  0.00000000E+00
  4.00000000E+01  6.20000000E+01  0.00000000E+00
  4.00000000E+01  6.00000000E+01  0.00000000E+00
  4.00000000E+01  5.80000000E+01  0.00000000E+00
  4.00000000E+01  5.60000000E+01  0.00000000E+00
  4.00000000E+01  5.40000000E+01  0.00000000E+00
  4.00000000E+01  5.20000000E+01  0.00000000E+00
  4.00000000E+01  5.00000000E+01  0.00000000E+00
  4.00000000E+01  4.80000000E+01  0.00000000E+00
  4.00000000E+01  4.60000000E+01  0.00000000E+00
  4.00000000E+01  4.40000000E+01  0.00000000E+00
  4.00000000E+01  4.20000000E+01  0.00000000E+00
  4.00000000E+01  4.00000000E+01  0.00000000E+00
  4.00000000E+01  3.80000000E+01  0.00000000E+00
  4.00000000E+01  3.60000000E+01  0.00000000E+00
  4.00000000E+01  3.40000000E+01  0.00000000E+00
  4.00000000E+01  3.20000000E+01  0.00000000E+00
  4.00000000E+01  3.00000000E+01  0.00000000E+00
  4.00000000E+01  2.80000000E+01  0.00000000E+00
  4.00000000E+01  2.60000000E+01  0.00000000E+00
  4.00000000E+01  2.40000000E+01  0.00000000E+00
  4.00000000E+01  2.20000000E+01  0.00000000E+00
  4.00000000E+01  2.00000000E+01  0.00000000E+00
  4.00000000E+01  1.80000000E+01  0.00000000E+00
  4.00000000E+01  1.60000000E+01  0.00000000E+00
  4.00000000E+01  1.40000000E+01  0.00000000E+00
  4.00000000E+01  1.20000000E+01  0.00000000E+00
  4.00000000E+01  1.00000000E+01  0.00000000E+00
  4.00000000E+01  8.00000000E+00  0.00000000E+00
  4.00000000E+01  6.00000000E+00  0.00000000E+00
  4.00000000E+01  4.00000000E+00  0.00000000E+00
  4.00000000E+01  2.00000000E+00  0.00000000E+00
  4.00000000E+01 -3.33066907E-14  0.00000000E+00
  5.00000000E+01  1.00000000E+02  0.00000000E+00
  5.00000000E+01  9.80000000E+01  0.00000000E+00
  5.00000000E+01  9.60000000E+01  0.00000000E+00
  5.00000000E+01  9.40000000E+01  0.00000000E+00
  5.00000000E+01  9.20000000E+01  0.00000000E+00
  5.00000000E+01  9.00000000E+01  0.00000000E+00
  5.00000000E+01  8.80000000E+01  0.00000000E+00
  5.00000000E+01  8.60000000E+01  0.00000000E+00
  5.00000000E+01  8.40000000E+01  0.00000000E+00
  5.00000000E+01  8.20000000E+01  0.00000000E+00
  5.00000000E+01  8.00000000E+01  0.00000000E+00
  5.00000000E+01  7.80000000E+01  0.00000000E+00
  5.00000000E+01  7.60000000E+01  0.00000000E+00
  5.00000000E+01  7.40000000E+01  0.00000000E+00
  5.00000000E+01  7.20000000E+01  0.00000000E+00
  5.00000000E+01  7.00000000E+01  0.00000000E+00
  5.00000000E+01  6.80000000E+01  0.00000000E+00
  5.00000000E+01  6.60000000E+01  0.00000000E+00
  5.00000000E+01  6.40000000E+01  0.00000000E+00
  5.00000000E+01  6.20000000E+01  0.00000000E+00
  5.00000000E+01  6.00000000E+01  0.00000000E+00
  5.00000000E+01  5.80000000E+01  0.00000000E+00
  5.00000000E+01  5.60000000E+01  0.00000000E+00
  5.00000000E+01  5.40000000E+01  0.00000000E+00
  5.00000000E+01  5.20000000E+01  0.00000000E+00
  5.00000000E+01  5.00000000E+01  0.00000000E+00
  5.00000000E+01  4.80000000E+01  0.00000000E+00
  5.00000000E+01  4.60000000E+01  0.00000000E+00
  5.00000000E+01  4.40000000E+01  0.00000000E+00
  5.00000000E+01  4.20000000E+01  0.00000000E+00
  5.00000000E+01  4.00000000E+01  0.00000000E+00
  5.00000000E+01  3.80000000E+01  0.00000000E+00
  5.00000000E+01  3.60000000E+01  0.00000000E+00
  5.00000000E+01  3.40000000E+01  0.00000000E+00
  5.00000000E+01  3.20000000E+01  0.00000000E+00
  5.00000000E+01  3.00000000E+01  0.00000000E+00
  5.00000000E+01  2.80000000E+01  0.00000000E+00
  5.00000000E+01  2.60000000E+01  0.00000000E+00
  5.00000000E+01  2.40000000E+01  0.00000000E+00
  5.00000000E+01  2.20000000E+01  0.00000000E+00
  5.00000000E+01  2.00000000E+01  0.00000000E+00
  5.00000000E+01  1.80000000E+01  0.00000000E+00
  5.00000000E+01  1.60000000E+01  0.00000000E+00
  5.00000000E+01  1.40000000E+01  0.00000000E+00
  5.00000000E+01  1.20000000E+01  0.00000000E+00
  5.00000000E+01  1.00000000E+01  0.00000000E+00
  5.00000000E+01  8.00000000E+00  0.00000000E+00
  5.00000000E+01  6.00000000E+00  0.00000000E+00
  5.00000000E+01  4.00000000E+00  0.00000000E+00
  5.00000000E+01  2.00000000E+00  0.00000000E+00
  5.00000000E+01 -3.33066907E-14  0.00000000E+00
  6.00000000E+01  1.00000000E+02  0.00000000E+00
  6.00000000E+01  9.80000000E+01  0.00000000E+00
  6.00000000E+01  9.60000000E+01  0.00000000E+00
  6.00000000E+01  9.40000000E+01  0.00000000E+00
  6.00000000E+01  9.20000000E+01  0.00000000E+00
  6.00000000E+01  9.00000000E+01  0.00000000E+00
  6.00000000E+01  8.80000000E+01  0.00000000E+00
  6.00000000E+01  8.60000000E+01  0.00000000E+00
  6.00000000E+01  8.40000000E+01  0.00000000E+00
  6.00000000E+01  8.20000000E+01  0.00000000E+00
  6.00000000E+01  8.00000000E+01  0.00000000E+00
  6.00000000E+01  7.80000000E+01  0.00000000E+00
  6.00000000E+01  7.60000000E+01  0.00000000E+00
  6.00000000E+01  7.40000000E+01  0.00000000E+00
  6.00000000E+01  7.20000000E+01  0.00000000E+00
  6.00000000E+01  7.00000000E+01  0.00000000E+00
  6.00000000E+01  6.80000000E+01  0.00000000E+00
  6.00000000E+01  6.60000000E+01  0.00000000E+00
  6.00000000E+01  6.40000000E+01  0.00000000E+00
  6.00000000E+01  6.20000000E+01  0.00000000E+00
  6.00000000E+01  6.00000000E+01  0.00000000E+00
  6.00000000E+01  5.80000000E+01  0.00000000E+00
  6.00000000E+01  5.60000000E+01  0.00000000E+00
  6.00000000E+01  5.40000000E+01  0.00000000E+00
  6.00000000E+01  5.20000000E+01  0.00000000E+00
  6.00000000E+01  5.00000000E+01  0.00000000E+00
  6.00000000E+01  4.80000000E+01  0.00000000E+00
  6.00000000E+01  4.60000000E+01  0.00000000E+00
  6.00000000E+01  4.40000000E+01  0.00000000E+00
  6.00000000E+01  4.20000000E+01  0.00000000E+00
  6.00000000E+01  4.00000000E+01  0.00000000E+00
  6.00000000E+01  3.80000000E+01  0.00000000E+00
  6.00000000E+01  3.60000000E+01  0.00000000E+00
  6.00000000E+01  3.40000000E+01  0.00000000E+00
  6.00000000E+01  3.20000000E+01  0.00000000E+00
  6.00000000E+01  3.00000000E+01  0.00000000E+00
  6.00000000E+01  2.80000000E+01  0.00000000E+00
  6.00000000E+01  2.60000000E+01  0.00000000E+00
  6.00000000E+01  2.40000000E+01  0.00000000E+00
  6.00000000E+01  2.20000000E+01  0.00000000E+00
  6.00000000E+01  2.00000000E+01  0.00000000E+00
  6.00000000E+01  1.80000000E+01  0.00000000E+00
  6.00000000E+01  1.60000000E+01  0.00000000E+00
  6.00000000E+01  1.40000000E+01  0.00000000E+00
  6.00000000E+01  1.20000000E+01  0.00000000E+00
  6.00000000E+01  1.00000000E+01  0.00000000E+00
  6.00000000E+01  8.00000000E+00  0.00000000E+00
  6.00000000E+01  6.00000000E+00  0.00000000E+00
  6.00000000E+01  4.00000000E+00  0.00000000E+00
  6.00000000E+01  2.00000000E+00  0.00000000E+00
  6.00000000E+01 -3.33066907E-14  0.00000000E+00
  7.00000000E+01  1.00000000E+02  0.00000000E+00
  7.00000000E+01  9.80000000E+01  0.00000000E+00
  7.00000000E+01  9.60000000E+01  0.00000000E+00
  7.00000000E+01  9.40000000E+01  0.00000000E+00
  7.00000000E+01  9.20000000E+01  0.00000000E+00
  7.00000000E+01  9.00000000E+01  0.00000000E+00
  7.00000000E+01  8.80000000E+01  0.00000000E+00
  7.00000000E+01  8.60000000E+01  0.00000000E+00
  7.00000000E+01  8.40000000E+01  0.00000000E+00
  7.00000000E+01  8.20000000E+01  0.00000000E+00
  7.00000000E+01  8.00000000E+01  0.00000000E+00
  7.00000000E+01  7.80000000E+01  0.00000000E+00
  7.00000000E+01  7.60000000E+01  0.00000000E+00
  7.00000000E+01  7.40000000E+01  0.00000000E+00
  7.00000000E+01  7.20000000E+01  0.00000000E+00
  7.00000000E+01  7.00000000E+01  0.00000000E+00
  7.00000000E+01  6.80000000E+01  0.00000000E+00
  7.00000000E+01  6.60000000E+01  0.00000000E+00
  7.00000000E+01  6.40000000E+01  0.00000000E+00
  7.00000000E+01  6.20000000E+01  0.00000000E+00
  7.00000000E+01  6.00000000E+01  0.00000000E+00
  7.00000000E+01  5.80000000E+01  0.00000000E+00
  7.00000000E+01  5.60000000E+01  0.00000000E+00
  7.00000000E+01  5.40000000E+01  0.00000000E+00
  7.00000000E+01  5.20000000E+01  0.00000000E+00
  7.00000000E+01  5.00000000E+01  0.00000000E+00
  7.00000000E+01  4.80000000E+01  0.00000000E+00
  7.00000000E+01  4.60000000E+01  0.00000000E+00
  7.00000000E+01  4.40000000E+01  0.00000000E+00
  7.00000000E+01  4.20000000E+01  0.00000000E+00
  7.00000000E+01  4.00000000E+01  0.00000000E+00
  7.00000000E+01  3.80000000E+01  0.00000000E+00
  7.00000000E+01  3.60000000E+01  0.00000000E+00
  7.00000000E+01  3.40000000E+01  0.00000000E+00
  7.00000000E+01  3.20000000E+01  0.00000000E+00
  7.00000000E+01  3.00000000E+01  0.00000000E+00
  7.00000000E+01  2.80000000E+01  0.00000000E+00
  7.00000000E+01  2.60000000E+01  0.00000000E+00
  7.00000000E+01  2.40000000E+01  0.00000000E+00
  7.00000000E+01  2.20000000E+01  0.00000000E+00
  7.00000000E+01  2.00000000E+01  0.00000000E+00
  7.00000000E+01  1.80000000E+01  0.00000000E+00
  7.00000000E+01  1.60000000E+01  0.00000000E+00
  7.00000000E+01  1.40000000E+01  0.00000000E+00
  7.00000000E+01  1.20000000E+01  0.00000000E+00
  7.00000000E+01  1.00000000E+01  0.00000000E+00
  7.00000000E+01  8.00000000E+00  0.00000000E+00
  7.00000000E+01  6.00000000E+00  0.00000000E+00
  7.00000000E+01  4.00000000E+00  0.00000000E+00
  7.00000000E+01  2.00000000E+00  0.00000000E+00
  7.00000000E+01 -3.33066907E-14  0.00000000E+00
  8.00000000E+01  1.00000000E+02  0.00000000E+00
  8.00000000E+01  9.80000000E+01  0.00000000E+00
  8.00000000E+01  9.60000000E+01  0.00000000E+00
  8.00000000E+01  9.40000000E+01  0.00000000E+00
  8.00000000E+01  9.20000000E+01  0.00000000E+00
  8.00000000E+01  9.00000000E+01  0.00000000E+00
  8.00000000E+01  8.80000000E+01  0.00000000E+00
  8.00000000E+01  8.60000000E+01  0.00000000E+00
  8.00000000E+01  8.40000000E+01  0.00000000E+00
  8.00000000E+01  8.20000000E+01  0.00000000E+00
  8.00000000E+01  8.00000000E+01  0.00000000E+00
  8.00000000E+01  7.80000000E+01  0.00000000E+00
  8.00000000E+01  7.60000000E+01  0.00000000E+00
  8.00000000E+01  7.40000000E+01  0.00000000E+00
  8.00000000E+01  7.20000000E+01  0.00000000E+00
  8.00000000E+01  7.00000000E+01  0.00000000E+00
  8.00000000E+01  6.80000000E+01  0.00000000E+00
  8.00000000E+01  6.60000000E+01  0.00000000E+00
  8.00000000E+01  6.40000000E+01  0.00000000E+00
  8.00000000E+01  6.20000000E+01  0.00000000E+00
  8.00000000E+01  6.00000000E+01  0.00000000E+00
  8.00000000E+01  5.80000000E+01  0.00000000E+00
  8.00000000E+01  5.60000000E+01  0.00000000E+00
  8.00000000E+01  5.40000000E+01  0.00000000E+00
  8.00000000E+01  5.20000000E+01  0.00000000E+00
  8.00000000E+01  5.00000000E+01  0.00000000E+00
  8.00000000E+01  4.80000000E+01  0.00000000E+00
  8.00000000E+01  4.60000000E+01  0.00000000E+00
  8.00000000E+01  4.40000000E+01  0.00000000E+00
  8.00000000E+01  4.20000000E+01  0.00000000E+00
  8.00000000E+01  4.00000000E+01  0.00000000E+00
  8.00000000E+01  3.80000000E+01  0.00000000E+00
  8.00000000E+01  3.60000000E+01  0.00000000E+00
  8.00000000E+01  3.40000000E+01  0.00000000E+00
  8.00000000E+01  3.20000000E+01  0.00000000E+00
  8.00000000E+01  3.00000000E+01  0.00000000E+00
  8.00000000E+01  2.80000000E+01  0.00000000E+00
  8.00000000E+01  2.60000000E+01  0.00000000E+00
  8.00000000E+01  2.40000000E+01  0.00000000E+00
  8.00000000E+01  2.20000000E+01  0.00000000E+00
  8.00000000E+01  2.00000000E+01  0.00000000E+00
  8.00000000E+01  1.80000000E+01  0.00000000E+00
  8.00000000E+01  1.60000000E+01  0.00000000E+00
  8.00000000E+01  1.40000000E+01  0.00000000E+00
  8.00000000E+01  1.20000000E+01  0.00000000E+00
  8.00000000E+01  1.00000000E+01  0.00000000E+00
  8.00000000E+01  8.00000000E+00  0.00000000E+00
  8.00000000E+01  6.00000000E+00  0.00000000E+00
  8.00000000E+01  4.00000000E+00  0.00000000E+00
  8.00000000E+01  2.00000000E+00  0.00000000E+00
  8.00000000E+01 -3.33066907E-14  0.00000000E+00
  9.00000000E+01  1.00000000E+02  0.00000000E+00
  9.00000000E+01  9.80000000E+01  0.00000000E+00
  9.00000000E+01  9.60000000E+01  0.00000000E+00
  9.00000000E+01  9.40000000E+01  0.00000000E+00
  9.00000000E+01  9.20000000E+01  0.00000000E+00
  9.00000000E+01  9.00000000E+01  0.00000000E+00
  9.00000000E+01  8.80000000E+01  0.00000000E+00
  9.00000000E+01  8.60000000E+01  0.00000000E+00
  9.00000000E+01  8.40000000E+01  0.00000000E+00
  9.00000000E+01  8.20000000E+01  0.00000000E+00
  9.00000000E+01  8.00000000E+01  0.00000000E+00
  9.00000000E+01  7.80000000E+01  0.00000000E+00
  9.00000000E+01  7.60000000E+01  0.00000000E+00
  9.00000000E+01  7.40000000E+01  0.00000000E+00
  9.00000000E+01  7.20000000E+01  0.00000000E+00
  9.00000000E+01  7.00000000E+01  0.00000000E+00
  9.00000000E+01  6.80000000E+01  0.00000000E+00
  9.00000000E+01  6.60000000E+01  0.00000000E+00
  9.00000000E+01  6.40000000E+01  0.00000000E+00
  9.00000000E+01  6.20000000E+01  0.00000000E+00
  9.00000000E+01  6.00000000E+01  0.00000000E+00
  9.00000000E+01  5.80000000E+01  0.00000000E+00
  9.00000000E+01  5.60000000E+01  0.00000000E+00
  9.00000000E+01  5.40000000E+01  0.00000000E+00
  9.00000000E+01  5.20000000E+01  0.00000000E+00
  9.00000000E+01  5.00000000E+01  0.00000000E+00
  9.00000000E+01  4.80000000E+01  0.00000000E+00
  9.00000000E+01  4.60000000E+01  0.00000000E+00
  9.00000000E+01  4.40000000E+01  0.00000000E+00
  9.00000000E+01  4.20000000E+01  0.00000000E+00
  9.00000000E+01  4.00000000E+01  0.00000000E+00
  9.00000000E+01  3.80000000E+01  0.00000000E+00
  9.00000000E+01  3.60000000E+01  0.00000000E+00
  9.00000000E+01  3.40000000E+01  0.00000000E+00
  9.00000000E+01  3.20000000E+01  0.00000000E+00
  9.00000000E+01  3.00000000E+01  0.00000000E+00
  9.00000000E+01  2.80000000E+01  0.00000000E+00
  9.00000000E+01  2.60000000E+01  0.00000000E+00
  9.00000000E+01  2.40000000E+01  0.00000000E+00
  9.00000000E+01  2.20000000E+01  0.00000000E+00
  9.00000000E+01  2.00000000E+01  0.00000000E+00
  9.00000000E+01  1.80000000E+01  0.00000000E+00
  9.00000000E+01  1.60000000E+01  0.00000000E+00
  9.00000000E+01  1.40000000E+01  0.00000000E+00
  9.00000000E+01  1.20000000E+01  0.00000000E+00
  9.00000000E+01  1.00000000E+01  0.00000000E+00
  9.00000000E+01  8.00000000E+00  0.00000000E+00
  9.00000000E+01  6.00000000E+00  0.00000000E+00
  9.00000000E+01  4.00000000E+00  0.00000000E+00
  9.00000000E+01  2.00000000E+00  0.00000000E+00
  9.00000000E+01 -3.33066907E-14  0.00000000E+00
  1.00000000E+02  1.00000000E+02  0.00000000E+00
  1.00000000E+02  9.80000000E+01  0.00000000E+00
  1.00000000E+02  9.60000000E+01  0.00000000E+00
  1.00000000E+02  9.40000000E+01  0.00000000E+00
  1.00000000E+02  9.20000000E+01  0.00000000E+00
  1.00000000E+02  9.00000000E+01  0.00000000E+00
  1.00000000E+02  8.80000000E+01  0.00000000E+00
  1.00000000E+02  8.60000000E+01  0.00000000E+00
  1.00000000E+02  8.40000000E+01  0.00000000E+00
  1.00000000E+02  8.20000000E+01  0.00000000E+00
  1.00000000E+02  8.00000000E+01  0.00000000E+00
  1.00000000E+02  7.80000000E+01  0.00000000E+00
  1.00000000E+02  7.60000000E+01  0.00000000E+00
  1.00000000E+02  7.40000000E+01  0.00000000E+00
  1.00000000E+02  7.20000000E+01  0.00000000E+00
  1.00000000E+02  7.00000000E+01  0.00000000E+00
  1.00000000E+02  6.80000000E+01  0.00000000E+00
  1.00000000E+02  6.60000000E+01  0.00000000E+00
  1.00000000E+02  6.40000000E+01  0.00000000E+00
  1.00000000E+02  6.20000000E+01  0.00000000E+00
  1.00000000E+02  6.00000000E+01  0.00000000E+00
  1.00000000E+02  5.80000000E+01  0.00000000E+00
  1.00000000E+02  5.60000000E+01  0.00000000E+00
  1.00000000E+02  5.40000000E+01  0.00000000E+00
  1.00000000E+02  5.20000000E+01  0.00000000E+00
  1.00000000E+02  5.00000000E+01  0.00000000E+00
  1.00000000E+02  4.80000000E+01  0.00000000E+00
  1.00000000E+02  4.60000000E+01  0.00000000E+00
  1.00000000E+02  4.40000000E+01  0.00000000E+00
  1.00000000E+02  4.20000000E+01  0.00000000E+00
  1.00000000E+02  4.00000000E+01  0.00000000E+00
  1.00000000E+02  3.80000000E+01  0.00000000E+00
  1.00000000E+02  3.60000000E+01  0.00000000E+00
  1.00000000E+02  3.40000000E+01  0.00000000E+00
  1.00000000E+02  3.20000000E+01  0.00000000E+00
  1.00000000E+02  3.00000000E+01  0.00000000E+00
  1.00000000E+02  2.80000000E+01  0.00000000E+00
  1.00000000E+02  2.60000000E+01  0.00000000E+00
  1.00000000E+02  2.40000000E+01  0.00000000E+00
  1.00000000E+02  2.20000000E+01  0.00000000E+00
  1.00000000E+02  2.00000000E+01  0.00000000E+00
  1.00000000E+02  1.80000000E+01  0.00000000E+00
  1.00000000E+02  1.60000000E+01  0.00000000E+00
  1.00000000E+02  1.40000000E+01  0.00000000E+00
  1.00000000E+02  1.20000000E+01  0.00000000E+00
  1.00000000E+02  1.00000000E+01  0.00000000E+00
  1.00000000E+02  8.00000000E+00  0.00000000E+00
  1.00000000E+02  6.00000000E+00  0.00000000E+00
  1.00000000E+02  4.00000000E+00  0.00000000E+00
  1.00000000E+02  2.00000000E+00  0.00000000E+00
  1.00000000E+02 -3.33066907E-14  0.00000000E+00
  1.10000000E+02  1.00000000E+02  0.00000000E+00
  1.10000000E+02  9.80000000E+01  0.00000000E+00
  1.10000000E+02  9.60000000E+01  0.00000000E+00
  1.10000000E+02  9.40000000E+01  0.00000000E+00
  1.10000000E+02  9.20000000E+01  0.00000000E+00
  1.10000000E+02  9.00000000E+01  0.00000000E+00
  1.10000000E+02  8.80000000E+01  0.00000000E+00
  1.10000000E+02  8.60000000E+01  0.00000000E+00
  1.10000000E+02  8.40000000E+01  0.00000000E+00
  1.10000000E+02  8.20000000E+01  0.00000000E+00
  1.10000000E+02  8.00000000E+01  0.00000000E+00
  1.10000000E+02  7.80000000E+01  0.00000000E+00
  1.10000000E+02  7.60000000E+01  0.00000000E+00
  1.10000000E+02  7.40000000E+01  0.00000000E+00
  1.10000000E+02  7.20000000E+01  0.00000000E+00
  1.10000000E+02  7.00000000E+01  0.00000000E+00
  1.10000000E+02  6.80000000E+01  0.00000000E+00
  1.10000000E+02  6.60000000E+01  0.00000000E+00
  1.10000000E+02  6.40000000E+01  0.00000000E+00
  1.10000000E+02  6.20000000E+01  0.00000000E+00
  1.10000000E+02  6.00000000E+01  0.00000000E+00
  1.10000000E+02  5.80000000E+01  0.00000000E+00
  1.10000000E+02  5.60000000E+01  0.00000000E+00
  1.10000000E+02  5.40000000E+01  0.00000000E+00
  1.10000000E+02  5.20000000E+01  0.00000000E+00
  1.10000000E+02  5.00000000E+01  0.00000000E+00
  1.10000000E+02  4.80000000E+01  0.00000000E+00
  1.10000000E+02  4.60000000E+01  0.00000000E+00
  1.10000000E+02  4.40000000E+01  0.00000000E+00
  1.10000000E+02  4.20000000E+01  0.00000000E+00
  1.10000000E+02  4.00000000E+01  0.00000000E+00
  1.10000000E+02  3.80000000E+01  0.00000000E+00
  1.10000000E+02  3.60000000E+01  0.00000000E+00
  1.10000000E+02  3.40000000E+01  0.00000000E+00
  1.10000000E+02  3.20000000E+01  0.00000000E+00
  1.10000000E+02  3.00000000E+01  0.00000000E+00
  1.10000000E+02  2.80000000E+01  0.00000000E+00
  1.10000000E+02  2.60000000E+01  0.00000000E+00
  1.10000000E+02  2.40000000E+01  0.00000000E+00
  1.10000000E+02  2.20000000E+01  0.00000000E+00
  1.10000000E+02  2.00000000E+01  0.00000000E+00
  1.10000000E+02  1.80000000E+01  0.00000000E+00
  1.10000000E+02  1.60000000E+01  0.00000000E+00
  1.10000000E+02  1.40000000E+01  0.00000000E+00
  1.10000000E+02  1.20000000E+01  0.00000000E+00
  1.10000000E+02  1.00000000E+01  0.00000000E+00
  1.10000000E+02  8.00000000E+00  0.00000000E+00
  1.10000000E+02  6.00000000E+00  0.00000000E+00
  1.10000000E+02  4.00000000E+00  0.00000000E+00
  1.10000000E+02  2.00000000E+00  0.00000000E+00
  1.10000000E+02 -3.33066907E-14  0.00000000E+00
  1.20000000E+02  1.00000000E+02  0.00000000E+00
  1.20000000E+02  9.80000000E+01  0.00000000E+00
  1.20000000E+02  9.60000000E+01  0.00000000E+00
  1.20000000E+02  9.40000000E+01  0.00000000E+00
  1.20000000E+02  9.20000000E+01  0.00000000E+00
  1.20000000E+02  9.00000000E+01  0.00000000E+00
  1.20000000E+02  8.80000000E+01  0.00000000E+00
  1.20000000E+02  8.60000000E+01  0.00000000E+00
  1.20000000E+02  8.40000000E+01  0.00000000E+00
  1.20000000E+02  8.20000000E+01  0.00000000E+00
  1.20000000E+02  8.00000000E+01  0.00000000E+00
  1.20000000E+02  7.80000000E+01  0.00000000E+00
  1.20000000E+02  7.60000000E+01  0.00000000E+00
  1.20000000E+02  7.40000000E+01  0.00000000E+00
  1.20000000E+02  7.20000000E+01  0.00000000E+00
  1.20000000E+02  7.00000000E+01  0.00000000E+00
  1.20000000E+02  6.80000000E+01  0.00000000E+00
  1.20000000E+02  6.60000000E+01  0.00000000E+00
  1.20000000E+02  6.40000000E+01  0.00000000E+00
  1.20000000E+02  6.20000000E+01  0.00000000E+00
  1.20000000E+02  6.00000000E+01  0.00000000E+00
  1.20000000E+02  5.80000000E+01  0.00000000E+00
  1.20000000E+02  5.60000000E+01  0.00000000E+00
  1.20000000E+02  5.40000000E+01  0.00000000E+00
  1.20000000E+02  5.20000000E+01  0.00000000E+00
  1.20000000E+02  5.00000000E+01  0.00000000E+00
  1.20000000E+02  4.80000000E+01  0.00000000E+00
  1.20000000E+02  4.60000000E+01  0.00000000E+00
  1.20000000E+02  4.40000000E+01  0.00000000E+00
  1.20000000E+02  4.20000000E+01  0.00000000E+00
  1.20000000E+02  4.00000000E+01  0.00000000E+00
  1.20000000E+02  3.80000000E+01  0.00000000E+00
  1.20000000E+02  3.60000000E+01  0.00000000E+00
  1.20000000E+02  3.40000000E+01  0.00000000E+00
  1.20000000E+02  3.20000000E+01  0.00000000E+00
  1.20000000E+02  3.00000000E+01  0.00000000E+00
  1.20000000E+02  2.80000000E+01  0.00000000E+00
  1.20000000E+02  2.60000000E+01  0.00000000E+00
  1.20000000E+02  2.40000000E+01  0.00000000E+00
  1.20000000E+02  2.20000000E+01  0.00000000E+00
  1.20000000E+02  2.00000000E+01  0.00000000E+00
  1.20000000E+02  1.80000000E+01  0.00000000E+00
  1.20000000E+02  1.60000000E+01  0.00000000E+00
  1.20000000E+02  1.40000000E+01  0.00000000E+00
  1.20000000E+02  1.20000000E+01  0.00000000E+00
  1.20000000E+02  1.00000000E+01  0.00000000E+00
  1.20000000E+02  8.00000000E+00  0.00000000E+00
  1.20000000E+02  6.00000000E+00  0.00000000E+00
  1.20000000E+02  4.00000000E+00  0.00000000E+00
  1.20000000E+02  2.00000000E+00  0.00000000E+00
  1.20000000E+02 -3.33066907E-14  0.00000000E+00
  1.30000000E+02  1.00000000E+02  0.00000000E+00
  1.30000000E+02  9.80000000E+01  0.00000000E+00
  1.30000000E+02  9.60000000E+01  0.00000000E+00
  1.30000000E+02  9.40000000E+01  0.00000000E+00
  1.30000000E+02  9.20000000E+01  0.00000000E+00
  1.30000000E+02  9.00000000E+01  0.00000000E+00
  1.30000000E+02  8.80000000E+01  0.00000000E+00
  1.30000000E+02  8.60000000E+01  0.00000000E+00
  1.30000000E+02  8.40000000E+01  0.00000000E+00
  1.30000000E+02  8.20000000E+01  0.00000000E+00
  1.30000000E+02  8.00000000E+01  0.00000000E+00
  1.30000000E+02  7.80000000E+01  0.00000000E+00
  1.30000000E+02  7.60000000E+01  0.00000000E+00
  1.30000000E+02  7.40000000E+01  0.00000000E+00
  1.30000000E+02  7.20000000E+01  0.00000000E+00
  1.30000000E+02  7.00000000E+01  0.00000000E+00
  1.30000000E+02  6.80000000E+01  0.00000000E+00
  1.30000000E+02  6.60000000E+01  0.00000000E+00
  1.30000000E+02  6.40000000E+01  0.00000000E+00
  1.30000000E+02  6.20000000E+01  0.00000000E+00
  1.30000000E+02  6.00000000E+01  0.00000000E+00
  1.30000000E+02  5.80000000E+01  0.00000000E+00
  1.30000000E+02  5.60000000E+01  0.00000000E+00
  1.30000000E+02  5.40000000E+01  0.00000000E+00
  1.30000000E+02  5.20000000E+01  0.00000000E+00
  1.30000000E+02  5.00000000E+01  0.00000000E+00
  1.30000000E+02  4.80000000E+01  0.00000000E+00
  1.30000000E+02  4.60000000E+01  0.00000000E+00
  1.30000000E+02  4.40000000E+01  0.00000000E+00
  1.30000000E+02  4.20000000E+01  0.00000000E+00
  1.30000000E+02  4.00000000E+01  0.00000000E+00
  1.30000000E+02  3.80000000E+01  0.00000000E+00
  1.30000000E+02  3.60000000E+01  0.00000000E+00
  1.30000000E+02  3.40000000E+01  0.00000000E+00
  1.30000000E+02  3.20000000E+01  0.00000000E+00
  1.30000000E+02  3.00000000E+01  0.00000000E+00
  1.30000000E+02  2.80000000E+01  0.00000000E+00
  1.30000000E+02  2.60000000E+01  0.00000000E+00
  1.30000000E+02  2.40000000E+01  0.00000000E+00
  1.30000000E+02  2.20000000E+01  0.00000000E+00
  1.30000000E+02  2.00000000E+01  0.00000000E+00
  1.30000000E+02  1.80000000E+01  0.00000000E+00
  1.30000000E+02  1.60000000E+01  0.00000000E+00
  1.30000000E+02  1.40000000E+01  0.00000000E+00
  1.30000000E+02  1.20000000E+01  0.00000000E+00
  1.30000000E+02  1.00000000E+01  0.00000000E+00
  1.30000000E+02  8.00000000E+00  0.00000000E+00
  1.30000000E+02  6.00000000E+00  0.00000000E+00
  1.30000000E+02  4.00000000E+00  0.00000000E+00
  1.30000000E+02  2.00000000E+00  0.00000000E+00
  1.30000000E+02 -3.33066907E-14  0.00000000E+00
  1.40000000E+02  1.00000000E+02  0.00000000E+00
  1.40000000E+02  9.80000000E+01  0.00000000E+00
  1.40000000E+02  9.60000000E+01  0.00000000E+00
  1.40000000E+02  9.40000000E+01  0.00000000E+00
  1.40000000E+02  9.20000000E+01  0.00000000E+00
  1.40000000E+02  9.00000000E+01  0.00000000E+00
  1.40000000E+02  8.80000000E+01  0.00000000E+00
  1.40000000E+02  8.60000000E+01  0.00000000E+00
  1.40000000E+02  8.40000000E+01  0.00000000E+00
  1.40000000E+02  8.20000000E+01  0.00000000E+00
  1.40000000E+02  8.00000000E+01  0.00000000E+00
  1.40000000E+02  7.80000000E+01  0.00000000E+00
  1.40000000E+02  7.60000000E+01  0.00000000E+00
  1.40000000E+02  7.40000000E+01  0.00000000E+00
  1.40000000E+02  7.20000000E+01  0.00000000E+00
  1.40000000E+02  7.00000000E+01  0.00000000E+00
  1.40000000E+02  6.80000000E+01  0.00000000E+00
  1.40000000E+02  6.60000000E+01  0.00000000E+00
  1.40000000E+02  6.40000000E+01  0.00000000E+00
  1.40000000E+02  6.20000000E+01  0.00000000E+00
  1.40000000E+02  6.00000000E+01  0.00000000E+00
  1.40000000E+02  5.80000000E+01  0.00000000E+00
  1.40000000E+02  5.60000000E+01  0.00000000E+00
  1.40000000E+02  5.40000000E+01  0.00000000E+00
  1.40000000E+02  5.20000000E+01  0.00000000E+00
  1.40000000E+02  5.00000000E+01  0.00000000E+00
  1.40000000E+02  4.80000000E+01  0.00000000E+00
  1.40000000E+02  4.60000000E+01  0.00000000E+00
  1.40000000E+02  4.40000000E+01  0.00000000E+00
  1.40000000E+02  4.20000000E+01  0.00000000E+00
  1.40000000E+02  4.00000000E+01  0.00000000E+00
  1.40000000E+02  3.80000000E+01  0.00000000E+00
  1.40000000E+02  3.60000000E+01  0.00000000E+00
  1.40000000E+02  3.40000000E+01  0.00000000E+00
  1.40000000E+02  3.20000000E+01  0.00000000E+00
  1.40000000E+02  3.00000000E+01  0.00000000E+00
  1.40000000E+02  2.80000000E+01  0.00000000E+00
  1.40000000E+02  2.60000000E+01  0.00000000E+00
  1.40000000E+02  2.40000000E+01  0.00000000E+00
  1.40000000E+02  2.20000000E+01  0.00000000E+00
  1.40000000E+02  2.00000000E+01  0.00000000E+00
  1.40000000E+02  1.80000000E+01  0.00000000E+00
  1.40000000E+02  1.60000000E+01  0.00000000E+00
  1.40000000E+02  1.40000000E+01  0.00000000E+00
  1.40000000E+02  1.20000000E+01  0.00000000E+00
  1.40000000E+02  1.00000000E+01  0.00000000E+00
  1.40000000E+02  8.00000000E+00  0.00000000E+00
  1.40000000E+02  6.00000000E+00  0.00000000E+00
  1.40000000E+02  4.00000000E+00  0.00000000E+00
  1.40000000E+02  2.00000000E+00  0.00000000E+00
  1.40000000E+02 -3.33066907E-14  0.00000000E+00
  1.50000000E+02  1.00000000E+02  0.00000000E+00
  1.50000000E+02  9.80000000E+01  0.00000000E+00
  1.50000000E+02  9.60000000E+01  0.00000000E+00
  1.50000000E+02  9.40000000E+01  0.00000000E+00
  1.50000000E+02  9.20000000E+01  0.00000000E+00
  1.50000000E+02  9.00000000E+01  0.00000000E+00
  1.50000000E+02  8.80000000E+01  0.00000000E+00
  1.50000000E+02  8.60000000E+01  0.00000000E+00
  1.50000000E+02  8.40000000E+01  0.00000000E+00
  1.50000000E+02  8.20000000E+01  0.00000000E+00
  1.50000000E+02  8.00000000E+01  0.00000000E+00
  1.50000000E+02  7.80000000E+01  0.00000000E+00
  1.50000000E+02  7.60000000E+01  0.00000000E+00
  1.50000000E+02  7.40000000E+01  0.00000000E+00
  1.50000000E+02  7.20000000E+01  0.00000000E+00
  1.50000000E+02  7.00000000E+01  0.00000000E+00
  1.50000000E+02  6.80000000E+01  0.00000000E+00
  1.50000000E+02  6.60000000E+01  0.00000000E+00
  1.50000000E+02  6.40000000E+01  0.00000000E+00
  1.50000000E+02  6.20000000E+01  0.00000000E+00
  1.50000000E+02  6.00000000E+01  0.00000000E+00
  1.50000000E+02  5.80000000E+01  0.00000000E+00
  1.50000000E+02  5.60000000E+01  0.00000000E+00
  1.50000000E+02  5.40000000E+01  0.00000000E+00
  1.50000000E+02  5.20000000E+01  0.00000000E+00
  1.50000000E+02  5.00000000E+01  0.00000000E+00
  1.50000000E+02  4.80000000E+01  0.00000000E+00
  1.50000000E+02  4.60000000E+01  0.00000000E+00
  1.50000000E+02  4.40000000E+01  0.00000000E+00
  1.50000000E+02  4.20000000E+01  0.00000000E+00
  1.50000000E+02  4.00000000E+01  0.00000000E+00
  1.50000000E+02  3.80000000E+01  0.00000000E+00
  1.50000000E+02  3.60000000E+01  0.00000000E+00
  1.50000000E+02  3.40000000E+01  0.00000000E+00
  1.50000000E+02  3.20000000E+01  0.00000000E+00
  1.50000000E+02  3.00000000E+01  0.00000000E+00
  1.50000000E+02  2.80000000E+01  0.00000000E+00
  1.50000000E+02  2.60000000E+01  0.00000000E+00
  1.50000000E+02  2.40000000E+01  0.00000000E+00
  1.50000000E+02  2.20000000E+01  0.00000000E+00
  1.50000000E+02  2.00000000E+01  0.00000000E+00
  1.50000000E+02  1.80000000E+01  0.00000000E+00
  1.50000000E+02  1.60000000E+01  0.00000000E+00
  1.50000000E+02  1.40000000E+01  0.00000000E+00
  1.50000000E+02  1.20000000E+01  0.00000000E+00
  1.50000000E+02  1.00000000E+01  0.00000000E+00
  1.50000000E+02  8.00000000E+00  0.00000000E+00
  1.50000000E+02  6.00000000E+00  0.00000000E+00
  1.50000000E+02  4.00000000E+00  0.00000000E+00
  1.50000000E+02  2.00000000E+00  0.00000000E+00
  1.50000000E+02 -3.33066907E-14  0.00000000E+00
  1.60000000E+02  1.00000000E+02  0.00000000E+00
  1.60000000E+02  9.80000000E+01  0.00000000E+00
  1.60000000E+02  9.60000000E+01  0.00000000E+00
  1.60000000E+02  9.40000000E+01  0.00000000E+00
  1.60000000E+02  9.20000000E+01  0.00000000E+00
  1.60000000E+02  9.00000000E+01  0.00000000E+00
  1.60000000E+02  8.80000000E+01  0.00000000E+00
  1.60000000E+02  8.60000000E+01  0.00000000E+00
  1.60000000E+02  8.40000000E+01  0.00000000E+00
  1.60000000E+02  8.20000000E+01  0.00000000E+00
  1.60000000E+02  8.00000000E+01  0.00000000E+00
  1.60000000E+02  7.80000000E+01  0.00000000E+00
  1.60000000E+02  7.60000000E+01  0.00000000E+00
  1.60000000E+02  7.40000000E+01  0.00000000E+00
  1.60000000E+02  7.20000000E+01  0.00000000E+00
  1.60000000E+02  7.00000000E+01  0.00000000E+00
  1.60000000E+02  6.80000000E+01  0.00000000E+00
  1.60000000E+02  6.60000000E+01  0.00000000E+00
  1.60000000E+02  6.40000000E+01  0.00000000E+00
  1.60000000E+02  6.20000000E+01  0.00000000E+00
  1.60000000E+02  6.00000000E+01  0.00000000E+00
  1.60000000E+02  5.80000000E+01  0.00000000E+00
  1.60000000E+02  5.60000000E+01  0.00000000E+00
  1.60000000E+02  5.40000000E+01  0.00000000E+00
  1.60000000E+02  5.20000000E+01  0.00000000E+00
  1.60000000E+02  5.00000000E+01  0.00000000E+00
  1.60000000E+02  4.80000000E+01  0.00000000E+00
  1.60000000E+02  4.60000000E+01  0.00000000E+00
  1.60000000E+02  4.40000000E+01  0.00000000E+00
  1.60000000E+02  4.20000000E+01  0.00000000E+00
  1.60000000E+02  4.00000000E+01  0.00000000E+00
  1.60000000E+02  3.80000000E+01  0.00000000E+00
  1.60000000E+02  3.60000000E+01  0.00000000E+00
  1.60000000E+02  3.40000000E+01  0.00000000E+00
  1.60000000E+02  3.20000000E+01  0.00000000E+00
  1.60000000E+02  3.00000000E+01  0.00000000E+00
  1.60000000E+02  2.80000000E+01  0.00000000E+00
  1.60000000E+02  2.60000000E+01  0.00000000E+00
  1.60000000E+02  2.40000000E+01  0.00000000E+00
  1.60000000E+02  2.20000000E+01  0.00000000E+00
  1.60000000E+02  2.00000000E+01  0.00000000E+00
  1.60000000E+02  1.80000000E+01  0.00000000E+00
  1.60000000E+02  1.60000000E+01  0.00000000E+00
  1.60000000E+02  1.40000000E+01  0.00000000E+00
  1.60000000E+02  1.20000000E+01  0.00000000E+00
  1.60000000E+02  1.00000000E+01  0.00000000E+00
  1.60000000E+02  8.00000000E+00  0.00000000E+00
  1.60000000E+02  6.00000000E+00  0.00000000E+00
  1.60000000E+02  4.00000000E+00  0.00000000E+00
  1.60000000E+02  2.00000000E+00  0.00000000E+00
  1.60000000E+02 -3.33066907E-14  0.00000000E+00
  1.70000000E+02  1.00000000E+02  0.00000000E+00
  1.70000000E+02  9.80000000E+01  0.00000000E+00
  1.70000000E+02  9.60000000E+01  0.00000000E+00
  1.70000000E+02  9.40000000E+01  0.00000000E+00
  1.70000000E+02  9.20000000E+01  0.00000000E+00
  1.70000000E+02  9.00000000E+01  0.00000000E+00
  1.70000000E+02  8.80000000E+01  0.00000000E+00
  1.70000000E+02  8.60000000E+01  0.00000000E+00
  1.70000000E+02  8.40000000E+01  0.00000000E+00
  1.70000000E+02  8.20000000E+01  0.00000000E+00
  1.70000000E+02  8.00000000E+01  0.00000000E+00
  1.70000000E+02  7.80000000E+01  0.00000000E+00
  1.70000000E+02  7.60000000E+01  0.00000000E+00
  1.70000000E+02  7.40000000E+01  0.00000000E+00
  1.70000000E+02  7.20000000E+01  0.00000000E+00
  1.70000000E+02  7.00000000E+01  0.00000000E+00
  1.70000000E+02  6.80000000E+01  0.00000000E+00
  1.70000000E+02  6.60000000E+01  0.00000000E+00
  1.70000000E+02  6.40000000E+01  0.00000000E+00
  1.70000000E+02  6.20000000E+01  0.00000000E+00
  1.70000000E+02  6.00000000E+01  0.00000000E+00
  1.70000000E+02  5.80000000E+01  0.00000000E+00
  1.70000000E+02  5.60000000E+01  0.00000000E+00
  1.70000000E+02  5.40000000E+01  0.00000000E+00
  1.70000000E+02  5.20000000E+01  0.00000000E+00
  1.70000000E+02  5.00000000E+01  0.00000000E+00
  1.70000000E+02  4.80000000E+01  0.00000000E+00
  1.70000000E+02  4.60000000E+01  0.00000000E+00
  1.70000000E+02  4.40000000E+01  0.00000000E+00
  1.70000000E+02  4.20000000E+01  0.00000000E+00
  1.70000000E+02  4.00000000E+01  0.00000000E+00
  1.70000000E+02  3.80000000E+01  0.00000000E+00
  1.70000000E+02  3.60000000E+01  0.00000000E+00
  1.70000000E+02  3.40000000E+01  0.00000000E+00
  1.70000000E+02  3.20000000E+01  0.00000000E+00
  1.70000000E+02  3.00000000E+01  0.00000000E+00
  1.70000000E+02  2.80000000E+01  0.00000000E+00
  1.70000000E+02  2.60000000E+01  0.00000000E+00
  1.70000000E+02  2.40000000E+01  0.00000000E+00
  1.70000000E+02  2.20000000E+01  0.00000000E+00
  1.70000000E+02  2.00000000E+01  0.00000000E+00
  1.70000000E+02  1.80000000E+01  0.00000000E+00
  1.70000000E+02  1.60000000E+01  0.00000000E+00
  1.70000000E+02  1.40000000E+01  0.00000000E+00
  1.70000000E+02  1.20000000E+01  0.00000000E+00
  1.70000000E+02  1.00000000E+01  0.00000000E+00
  1.70000000E+02  8.00000000E+00  0.00000000E+00
  1.70000000E+02  6.00000000E+00  0.00000000E+00
  1.70000000E+02  4.00000000E+00  0.00000000E+00
  1.70000000E+02  2.00000000E+00  0.00000000E+00
  1.70000000E+02 -3.33066907E-14  0.00000000E+00
  1.80000000E+02  1.00000000E+02  0.00000000E+00
  1.80000000E+02  9.80000000E+01  0.00000000E+00
  1.80000000E+02  9.60000000E+01  0.00000000E+00
  1.80000000E+02  9.40000000E+01  0.00000000E+00
  1.80000000E+02  9.20000000E+01  0.00000000E+00
  1.80000000E+02  9.00000000E+01  0.00000000E+00
  1.80000000E+02  8.80000000E+01  0.00000000E+00
  1.80000000E+02  8.60000000E+01  0.00000000E+00
  1.80000000E+02  8.40000000E+01  0.00000000E+00
  1.80000000E+02  8.20000000E+01  0.00000000E+00
  1.80000000E+02  8.00000000E+01  0.00000000E+00
  1.80000000E+02  7.80000000E+01  0.00000000E+00
  1.80000000E+02  7.60000000E+01  0.00000000E+00
  1.80000000E+02  7.40000000E+01  0.00000000E+00
  1.80000000E+02  7.20000000E+01  0.00000000E+00
  1.80000000E+02  7.00000000E+01  0.00000000E+00
  1.80000000E+02  6.80000000E+01  0.00000000E+00
  1.80000000E+02  6.60000000E+01  0.00000000E+00
  1.80000000E+02  6.40000000E+01  0.00000000E+00
  1.80000000E+02  6.20000000E+01  0.00000000E+00
  1.80000000E+02  6.00000000E+01  0.00000000E+00
  1.80000000E+02  5.80000000E+01  0.00000000E+00
  1.80000000E+02  5.60000000E+01  0.00000000E+00
  1.80000000E+02  5.40000000E+01  0.00000000E+00
  1.80000000E+02  5.20000000E+01  0.00000000E+00
  1.80000000E+02  5.00000000E+01  0.00000000E+00
  1.80000000E+02  4.80000000E+01  0.00000000E+00
  1.80000000E+02  4.60000000E+01  0.00000000E+00
  1.80000000E+02  4.40000000E+01  0.00000000E+00
  1.80000000E+02  4.20000000E+01  0.00000000E+00
  1.80000000E+02  4.00000000E+01  0.00000000E+00
  1.80000000E+02  3.80000000E+01  0.00000000E+00
  1.80000000E+02  3.60000000E+01  0.00000000E+00
  1.80000000E+02  3.40000000E+01  0.00000000E+00
  1.80000000E+02  3.20000000E+01  0.00000000E+00
  1.80000000E+02  3.00000000E+01  0.00000000E+00
  1.80000000E+02  2.80000000E+01  0.00000000E+00
  1.80000000E+02  2.60000000E+01  0.00000000E+00
  1.80000000E+02  2.40000000E+01  0.00000000E+00
  1.80000000E+02  2.20000000E+01  0.00000000E+00
  1.80000000E+02  2.00000000E+01  0.00000000E+00
  1.80000000E+02  1.80000000E+01  0.00000000E+00
  1.80000000E+02  1.60000000E+01  0.00000000E+00
  1.80000000E+02  1.40000000E+01  0.00000000E+00
  1.80000000E+02  1.20000000E+01  0.00000000E+00
  1.80000000E+02  1.00000000E+01  0.00000000E+00
  1.80000000E+02  8.00000000E+00  0.00000000E+00
  1.80000000E+02  6.00000000E+00  0.00000000E+00
  1.80000000E+02  4.00000000E+00  0.00000000E+00
  1.80000000E+02  2.00000000E+00  0.00000000E+00
  1.80000000E+02 -3.33066907E-14  0.00000000E+00
  1.90000000E+02  1.00000000E+02  0.00000000E+00
  1.90000000E+02  9.80000000E+01  0.00000000E+00
  1.90000000E+02  9.60000000E+01  0.00000000E+00
  1.90000000E+02  9.40000000E+01  0.00000000E+00
  1.90000000E+02  9.20000000E+01  0.00000000E+00
  1.90000000E+02  9.00000000E+01  0.00000000E+00
  1.90000000E+02  8.80000000E+01  0.00000000E+00
  1.90000000E+02  8.60000000E+01  0.00000000E+00
  1.90000000E+02  8.40000000E+01  0.00000000E+00
  1.90000000E+02  8.20000000E+01  0.00000000E+00
  1.90000000E+02  8.00000000E+01  0.00000000E+00
  1.90000000E+02  7.80000000E+01  0.00000000E+00
  1.90000000E+02  7.60000000E+01  0.00000000E+00
  1.90000000E+02  7.40000000E+01  0.00000000E+00
  1.90000000E+02  7.20000000E+01  0.00000000E+00
  1.90000000E+02  7.00000000E+01  0.00000000E+00
  1.90000000E+02  6.80000000E+01  0.00000000E+00
  1.90000000E+02  6.60000000E+01  0.00000000E+00
  1.90000000E+02  6.40000000E+01  0.00000000E+00
  1.90000000E+02  6.20000000E+01  0.00000000E+00
  1.90000000E+02  6.00000000E+01  0.00000000E+00
  1.90000000E+02  5.80000000E+01  0.00000000E+00
  1.90000000E+02  5.60000000E+01  0.00000000E+00
  1.90000000E+02  5.40000000E+01  0.00000000E+00
  1.90000000E+02  5.20000000E+01  0.00000000E+00
  1.90000000E+02  5.00000000E+01  0.00000000E+00
  1.90000000E+02  4.80000000E+01  0.00000000E+00
  1.90000000E+02  4.60000000E+01  0.00000000E+00
  1.90000000E+02  4.40000000E+01  0.00000000E+00
  1.90000000E+02  4.20000000E+01  0.00000000E+00
  1.90000000E+02  4.00000000E+01  0.00000000E+00
  1.90000000E+02  3.80000000E+01  0.00000000E+00
  1.90000000E+02  3.60000000E+01  0.00000000E+00
  1.90000000E+02  3.40000000E+01  0.00000000E+00
  1.90000000E+02  3.20000000E+01  0.00000000E+00
  1.90000000E+02  3.00000000E+01  0.00000000E+00
  1.90000000E+02  2.80000000E+01  0.00000000E+00
  1.90000000E+02  2.60000000E+01  0.00000000E+00
  1.90000000E+02  2.40000000E+01  0.00000000E+00
  1.90000000E+02  2.20000000E+01  0.00000000E+00
  1.90000000E+02  2.00000000E+01  0.00000000E+00
  1.90000000E+02  1.80000000E+01  0.00000000E+00
  1.90000000E+02  1.60000000E+01  0.00000000E+00
  1.90000000E+02  1.40000000E+01  0.00000000E+00
  1.90000000E+02  1.20000000E+01  0.00000000E+00
  1.90000000E+02  1.00000000E+01  0.00000000E+00
  1.90000000E+02  8.00000000E+00  0.00000000E+00
  1.90000000E+02  6.00000000E+00  0.00000000E+00
  1.90000000E+02  4.00000000E+00  0.00000000E+00
  1.90000000E+02  2.00000000E+00  0.00000000E+00
  1.90000000E+02 -3.33066907E-14  0.00000000E+00
  2.00000000E+02  1.00000000E+02  0.00000000E+00
  2.00000000E+02  9.80000000E+01  0.00000000E+00
  2.00000000E+02  9.60000000E+01  0.00000000E+00
  2.00000000E+02  9.40000000E+01  0.00000000E+00
  2.00000000E+02  9.20000000E+01  0.00000000E+00
  2.00000000E+02  9.00000000E+01  0.00000000E+00
  2.00000000E+02  8.80000000E+01  0.00000000E+00
  2.00000000E+02  8.60000000E+01  0.00000000E+00
  2.00000000E+02  8.40000000E+01  0.00000000E+00
  2.00000000E+02  8.20000000E+01  0.00000000E+00
  2.00000000E+02  8.00000000E+01  0.00000000E+00
  2.00000000E+02  7.80000000E+01  0.00000000E+00
  2.00000000E+02  7.60000000E+01  0.00000000E+00
  2.00000000E+02  7.40000000E+01  0.00000000E+00
  2.00000000E+02  7.20000000E+01  0.00000000E+00
  2.00000000E+02  7.00000000E+01  0.00000000E+00
  2.00000000E+02  6.80000000E+01  0.00000000E+00
  2.00000000E+02  6.60000000E+01  0.00000000E+00
  2.00000000E+02  6.40000000E+01  0.00000000E+00
  2.00000000E+02  6.20000000E+01  0.00000000E+00
  2.00000000E+02  6.00000000E+01  0.00000000E+00
  2.00000000E+02  5.80000000E+01  0.00000000E+00
  2.00000000E+02  5.60000000E+01  0.00000000E+00
  2.00000000E+02  5.40000000E+01  0.00000000E+00
  2.00000000E+02  5.20000000E+01  0.00000000E+00
  2.00000000E+02  5.00000000E+01  0.00000000E+00
  2.00000000E+02  4.80000000E+01  0.00000000E+00
  2.00000000E+02  4.60000000E+01  0.00000000E+00
  2.00000000E+02  4.40000000E+01  0.00000000E+00
  2.00000000E+02  4.20000000E+01  0.00000000E+00
  2.00000000E+02  4.00000000E+01  0.00000000E+00
  2.00000000E+02  3.80000000E+01  0.00000000E+00
  2.00000000E+02  3.60000000E+01  0.00000000E+00
  2.00000000E+02  3.40000000E+01  0.00000000E+00
  2.00000000E+02  3.20000000E+01  0.00000000E+00
  2.00000000E+02  3.00000000E+01  0.00000000E+00
  2.00000000E+02  2.80000000E+01  0.00000000E+00
  2.00000000E+02  2.60000000E+01  0.00000000E+00
  2.00000000E+02  2.40000000E+01  0.00000000E+00
  2.00000000E+02  2.20000000E+01  0.00000000E+00
  2.00000000E+02  2.00000000E+01  0.00000000E+00
  2.00000000E+02  1.80000000E+01  0.00000000E+00
  2.00000000E+02  1.60000000E+01  0.00000000E+00
  2.00000000E+02  1.40000000E+01  0.00000000E+00
  2.00000000E+02  1.20000000E+01  0.00000000E+00
  2.00000000E+02  1.00000000E+01  0.00000000E+00
  2.00000000E+02  8.00000000E+00  0.00000000E+00
  2.00000000E+02  6.00000000E+00  0.00000000E+00
  2.00000000E+02  4.00000000E+00  0.00000000E+00
  2.00000000E+02  2.00000000E+00  0.00000000E+00
  2.00000000E+02 -3.33066907E-14  0.00000000E+00
  2.10000000E+02  1.00000000E+02  0.00000000E+00
  2.10000000E+02  9.80000000E+01  0.00000000E+00
  2.10000000E+02  9.60000000E+01  0.00000000E+00
  2.10000000E+02  9.40000000E+01  0.00000000E+00
  2.10000000E+02  9.20000000E+01  0.00000000E+00
  2.10000000E+02  9.00000000E+01  0.00000000E+00
  2.10000000E+02  8.80000000E+01  0.00000000E+00
  2.10000000E+02  8.60000000E+01  0.00000000E+00
  2.10000000E+02  8.40000000E+01  0.00000000E+00
  2.10000000E+02  8.20000000E+01  0.00000000E+00
  2.10000000E+02  8.00000000E+01  0.00000000E+00
  2.10000000E+02  7.80000000E+01  0.00000000E+00
  2.10000000E+02  7.60000000E+01  0.00000000E+00
  2.10000000E+02  7.40000000E+01  0.00000000E+00
  2.10000000E+02  7.20000000E+01  0.00000000E+00
  2.10000000E+02  7.00000000E+01  0.00000000E+00
  2.10000000E+02  6.80000000E+01  0.00000000E+00
  2.10000000E+02  6.60000000E+01  0.00000000E+00
  2.10000000E+02  6.40000000E+01  0.00000000E+00
  2.10000000E+02  6.20000000E+01  0.00000000E+00
  2.10000000E+02  6.00000000E+01  0.00000000E+00
  2.10000000E+02  5.80000000E+01  0.00000000E+00
  2.10000000E+02  5.60000000E+01  0.00000000E+00
  2.10000000E+02  5.40000000E+01  0.00000000E+00
  2.10000000E+02  5.20000000E+01  0.00000000E+00
  2.10000000E+02  5.00000000E+01  0.00000000E+00
  2.10000000E+02  4.80000000E+01  0.00000000E+00
  2.10000000E+02  4.60000000E+01  0.00000000E+00
  2.10000000E+02  4.40000000E+01  0.00000000E+00
  2.10000000E+02  4.20000000E+01  0.00000000E+00
  2.10000000E+02  4.00000000E+01  0.00000000E+00
  2.10000000E+02  3.80000000E+01  0.00000000E+00
  2.10000000E+02  3.60000000E+01  0.00000000E+00
  2.10000000E+02  3.40000000E+01  0.00000000E+00
  2.10000000E+02  3.20000000E+01  0.00000000E+00
  2.10000000E+02  3.00000000E+01  0.00000000E+00
  2.10000000E+02  2.80000000E+01  0.00000000E+00
  2.10000000E+02  2.60000000E+01  0.00000000E+00
  2.10000000E+02  2.40000000E+01  0.00000000E+00
  2.10000000E+02  2.20000000E+01  0.00000000E+00
  2.10000000E+02  2.00000000E+01  0.00000000E+00
  2.10000000E+02  1.80000000E+01  0.00000000E+00
  2.10000000E+02  1.60000000E+01  0.00000000E+00
  2.10000000E+02  1.40000000E+01  0.00000000E+00
  2.10000000E+02  1.20000000E+01  0.00000000E+00
  2.10000000E+02  1.00000000E+01  0.00000000E+00
  2.10000000E+02  8.00000000E+00  0.00000000E+00
  2.10000000E+02  6.00000000E+00  0.00000000E+00
  2.10000000E+02  4.00000000E+00  0.00000000E+00
  2.10000000E+02  2.00000000E+00  0.00000000E+00
  2.10000000E+02 -3.33066907E-14  0.00000000E+00
  2.20000000E+02  1.00000000E+02  0.00000000E+00
  2.20000000E+02  9.80000000E+01  0.00000000E+00
  2.20000000E+02  9.60000000E+01  0.00000000E+00
  2.20000000E+02  9.40000000E+01  0.00000000E+00
  2.20000000E+02  9.20000000E+01  0.00000000E+00
  2.20000000E+02  9.00000000E+01  0.00000000E+00
  2.20000000E+02  8.80000000E+01  0.00000000E+00
  2.20000000E+02  8.60000000E+01  0.00000000E+00
  2.20000000E+02  8.40000000E+01  0.00000000E+00
  2.20000000E+02  8.20000000E+01  0.00000000E+00
  2.20000000E+02  8.00000000E+01  0.00000000E+00
  2.20000000E+02  7.80000000E+01  0.00000000E+00
  2.20000000E+02  7.60000000E+01  0.00000000E+00
  2.20000000E+02  7.40000000E+01  0.00000000E+00
  2.20000000E+02  7.20000000E+01  0.00000000E+00
  2.20000000E+02  7.00000000E+01  0.00000000E+00
  2.20000000E+02  6.80000000E+01  0.00000000E+00
  2.20000000E+02  6.60000000E+01  0.00000000E+00
  2.20000000E+02  6.40000000E+01  0.00000000E+00
  2.20000000E+02  6.20000000E+01  0.00000000E+00
  2.20000000E+02  6.00000000E+01  0.00000000E+00
  2.20000000E+02  5.80000000E+01  0.00000000E+00
  2.20000000E+02  5.60000000E+01  0.00000000E+00
  2.20000000E+02  5.40000000E+01  0.00000000E+00
  2.20000000E+02  5.20000000E+01  0.00000000E+00
  2.20000000E+02  5.00000000E+01  0.00000000E+00
  2.20000000E+02  4.80000000E+01  0.00000000E+00
  2.20000000E+02  4.60000000E+01  0.00000000E+00
  2.20000000E+02  4.40000000E+01  0.00000000E+00
  2.20000000E+02  4.20000000E+01  0.00000000E+00
  2.20000000E+02  4.00000000E+01  0.00000000E+00
  2.20000000E+02  3.80000000E+01  0.00000000E+00
  2.20000000E+02  3.60000000E+01  0.00000000E+00
  2.20000000E+02  3.40000000E+01  0.00000000E+00
  2.20000000E+02  3.20000000E+01  0.00000000E+00
  2.20000000E+02  3.00000000E+01  0.00000000E+00
  2.20000000E+02  2.80000000E+01  0.00000000E+00
  2.20000000E+02  2.60000000E+01  0.00000000E+00
  2.20000000E+02  2.40000000E+01  0.00000000E+00
  2.20000000E+02  2.20000000E+01  0.00000000E+00
  2.20000000E+02  2.00000000E+01  0.00000000E+00
  2.20000000E+02  1.80000000E+01  0.00000000E+00
  2.20000000E+02  1.60000000E+01  0.00000000E+00
  2.20000000E+02  1.40000000E+01  0.00000000E+00
  2.20000000E+02  1.20000000E+01  0.00000000E+00
  2.20000000E+02  1.00000000E+01  0.00000000E+00
  2.20000000E+02  8.00000000E+00  0.00000000E+00
  2.20000000E+02  6.00000000E+00  0.00000000E+00
  2.20000000E+02  4.00000000E+00  0.00000000E+00
  2.20000000E+02  2.00000000E+00  0.00000000E+00
  2.20000000E+02 -3.33066907E-14  0.00000000E+00
  2.30000000E+02  1.00000000E+02  0.00000000E+00
  2.30000000E+02  9.80000000E+01  0.00000000E+00
  2.30000000E+02  9.60000000E+01  0.00000000E+00
  2.30000000E+02  9.40000000E+01  0.00000000E+00
  2.30000000E+02  9.20000000E+01  0.00000000E+00
  2.30000000E+02  9.00000000E+01  0.00000000E+00
  2.30000000E+02  8.80000000E+01  0.00000000E+00
  2.30000000E+02  8.60000000E+01  0.00000000E+00
  2.30000000E+02  8.40000000E+01  0.00000000E+00
  2.30000000E+02  8.20000000E+01  0.00000000E+00
  2.30000000E+02  8.00000000E+01  0.00000000E+00
  2.30000000E+02  7.80000000E+01  0.00000000E+00
  2.30000000E+02  7.60000000E+01  0.00000000E+00
  2.30000000E+02  7.40000000E+01  0.00000000E+00
  2.30000000E+02  7.20000000E+01  0.00000000E+00
  2.30000000E+02  7.00000000E+01  0.00000000E+00
  2.30000000E+02  6.80000000E+01  0.00000000E+00
  2.30000000E+02  6.60000000E+01  0.00000000E+00
  2.30000000E+02  6.40000000E+01  0.00000000E+00
  2.30000000E+02  6.20000000E+01  0.00000000E+00
  2.30000000E+02  6.00000000E+01  0.00000000E+00
  2.30000000E+02  5.80000000E+01  0.00000000E+00
  2.30000000E+02  5.60000000E+01  0.00000000E+00
  2.30000000E+02  5.40000000E+01  0.00000000E+00
  2.30000000E+02  5.20000000E+01  0.00000000E+00
  2.30000000E+02  5.00000000E+01  0.00000000E+00
  2.30000000E+02  4.80000000E+01  0.00000000E+00
  2.30000000E+02  4.60000000E+01  0.00000000E+00
  2.30000000E+02  4.40000000E+01  0.00000000E+00
  2.30000000E+02  4.20000000E+01  0.00000000E+00
  2.30000000E+02  4.00000000E+01  0.00000000E+00
  2.30000000E+02  3.80000000E+01  0.00000000E+00
  2.30000000E+02  3.60000000E+01  0.00000000E+00
  2.30000000E+02  3.40000000E+01  0.00000000E+00
  2.30000000E+02  3.20000000E+01  0.00000000E+00
  2.30000000E+02  3.00000000E+01  0.00000000E+00
  2.30000000E+02  2.80000000E+01  0.00000000E+00
  2.30000000E+02  2.60000000E+01  0.00000000E+00
  2.30000000E+02  2.40000000E+01  0.00000000E+00
  2.30000000E+02  2.20000000E+01  0.00000000E+00
  2.30000000E+02  2.00000000E+01  0.00000000E+00
  2.30000000E+02  1.80000000E+01  0.00000000E+00
  2.30000000E+02  1.60000000E+01  0.00000000E+00
  2.30000000E+02  1.40000000E+01  0.00000000E+00
  2.30000000E+02  1.20000000E+01  0.00000000E+00
  2.30000000E+02  1.00000000E+01  0.00000000E+00
  2.30000000E+02  8.00000000E+00  0.00000000E+00
  2.30000000E+02  6.00000000E+00  0.00000000E+00
  2.30000000E+02  4.00000000E+00  0.00000000E+00
  2.30000000E+02  2.00000000E+00  0.00000000E+00
  2.30000000E+02 -3.33066907E-14  0.00000000E+00
  2.40000000E+02  1.00000000E+02  0.00000000E+00
  2.40000000E+02  9.80000000E+01  0.00000000E+00
  2.40000000E+02  9.60000000E+01  0.00000000E+00
  2.40000000E+02  9.40000000E+01  0.00000000E+00
  2.40000000E+02  9.20000000E+01  0.00000000E+00
  2.40000000E+02  9.00000000E+01  0.00000000E+00
  2.40000000E+02  8.80000000E+01  0.00000000E+00
  2.40000000E+02  8.60000000E+01  0.00000000E+00
  2.40000000E+02  8.40000000E+01  0.00000000E+00
  2.40000000E+02  8.20000000E+01  0.00000000E+00
  2.40000000E+02  8.00000000E+01  0.00000000E+00
  2.40000000E+02  7.80000000E+01  0.00000000E+00
  2.40000000E+02  7.60000000E+01  0.00000000E+00
  2.40000000E+02  7.40000000E+01  0.00000000E+00
  2.40000000E+02  7.20000000E+01  0.00000000E+00
  2.40000000E+02  7.00000000E+01  0.00000000E+00
  2.40000000E+02  6.80000000E+01  0.00000000E+00
  2.40000000E+02  6.60000000E+01  0.00000000E+00
  2.40000000E+02  6.40000000E+01  0.00000000E+00
  2.40000000E+02  6.20000000E+01  0.00000000E+00
  2.40000000E+02  6.00000000E+01  0.00000000E+00
  2.40000000E+02  5.80000000E+01  0.00000000E+00
  2.40000000E+02  5.60000000E+01  0.00000000E+00
  2.40000000E+02  5.40000000E+01  0.00000000E+00
  2.40000000E+02  5.20000000E+01  0.00000000E+00
  2.40000000E+02  5.00000000E+01  0.00000000E+00
  2.40000000E+02  4.80000000E+01  0.00000000E+00
  2.40000000E+02  4.60000000E+01  0.00000000E+00
  2.40000000E+02  4.40000000E+01  0.00000000E+00
  2.40000000E+02  4.20000000E+01  0.00000000E+00
  2.40000000E+02  4.00000000E+01  0.00000000E+00
  2.40000000E+02  3.80000000E+01  0.00000000E+00
  2.40000000E+02  3.60000000E+01  0.00000000E+00
  2.40000000E+02  3.40000000E+01  0.00000000E+00
  2.40000000E+02  3.20000000E+01  0.00000000E+00
  2.40000000E+02  3.00000000E+01  0.00000000E+00
  2.40000000E+02  2.80000000E+01  0.00000000E+00
  2.40000000E+02  2.60000000E+01  0.00000000E+00
  2.40000000E+02  2.40000000E+01  0.00000000E+00
  2.40000000E+02  2.20000000E+01  0.00000000E+00
  2.40000000E+02  2.00000000E+01  0.00000000E+00
  2.40000000E+02  1.80000000E+01  0.00000000E+00
  2.40000000E+02  1.60000000E+01  0.00000000E+00
  2.40000000E+02  1.40000000E+01  0.00000000E+00
  2.40000000E+02  1.20000000E+01  0.00000000E+00
  2.40000000E+02  1.00000000E+01  0.00000000E+00
  2.40000000E+02  8.00000000E+00  0.00000000E+00
  2.40000000E+02  6.00000000E+00  0.00000000E+00
  2.40000000E+02  4.00000000E+00  0.00000000E+00
  2.40000000E+02  2.00000000E+00  0.00000000E+00
  2.40000000E+02 -3.33066907E-14  0.00000000E+00
  2.50000000E+02  1.00000000E+02  0.00000000E+00
  2.50000000E+02  9.80000000E+01  0.00000000E+00
  2.50000000E+02  9.60000000E+01  0.00000000E+00
  2.50000000E+02  9.40000000E+01  0.00000000E+00
  2.50000000E+02  9.20000000E+01  0.00000000E+00
  2.50000000E+02  9.00000000E+01  0.00000000E+00
  2.50000000E+02  8.80000000E+01  0.00000000E+00
  2.50000000E+02  8.60000000E+01  0.00000000E+00
  2.50000000E+02  8.40000000E+01  0.00000000E+00
  2.50000000E+02  8.20000000E+01  0.00000000E+00
  2.50000000E+02  8.00000000E+01  0.00000000E+00
  2.50000000E+02  7.80000000E+01  0.00000000E+00
  2.50000000E+02  7.60000000E+01  0.00000000E+00
  2.50000000E+02  7.40000000E+01  0.00000000E+00
  2.50000000E+02  7.20000000E+01  0.00000000E+00
  2.50000000E+02  7.00000000E+01  0.00000000E+00
  2.50000000E+02  6.80000000E+01  0.00000000E+00
  2.50000000E+02  6.60000000E+01  0.00000000E+00
  2.50000000E+02  6.40000000E+01  0.00000000E+00
  2.50000000E+02  6.20000000E+01  0.00000000E+00
  2.50000000E+02  6.00000000E+01  0.00000000E+00
  2.50000000E+02  5.80000000E+01  0.00000000E+00
  2.50000000E+02  5.60000000E+01  0.00000000E+00
  2.50000000E+02  5.40000000E+01  0.00000000E+00
  2.50000000E+02  5.20000000E+01  0.00000000E+00
  2.50000000E+02  5.00000000E+01  0.00000000E+00
  2.50000000E+02  4.80000000E+01  0.00000000E+00
  2.50000000E+02  4.60000000E+01  0.00000000E+00
  2.50000000E+02  4.40000000E+01  0.00000000E+00
  2.50000000E+02  4.20000000E+01  0.00000000E+00
  2.50000000E+02  4.00000000E+01  0.00000000E+00
  2.50000000E+02  3.80000000E+01  0.00000000E+00
  2.50000000E+02  3.60000000E+01  0.00000000E+00
  2.50000000E+02  3.40000000E+01  0.00000000E+00
  2.50000000E+02  3.20000000E+01  0.00000000E+00
  2.50000000E+02  3.00000000E+01  0.00000000E+00
  2.50000000E+02  2.80000000E+01  0.00000000E+00
  2.50000000E+02  2.60000000E+01  0.00000000E+00
  2.50000000E+02  2.40000000E+01  0.00000000E+00
  2.50000000E+02  2.20000000E+01  0.00000000E+00
  2.50000000E+02  2.00000000E+01  0.00000000E+00
  2.50000000E+02  1.80000000E+01  0.00000000E+00
  2.50000000E+02  1.60000000E+01  0.00000000E+00
  2.50000000E+02  1.40000000E+01  0.00000000E+00
  2.50000000E+02  1.20000000E+01  0.00000000E+00
  2.50000000E+02  1.00000000E+01  0.00000000E+00
  2.50000000E+02  8.00000000E+00  0.00000000E+00
  2.50000000E+02  6.00000000E+00  0.00000000E+00
  2.50000000E+02  4.00000000E+00  0.00000000E+00
  2.50000000E+02  2.00000000E+00  0.00000000E+00
  2.50000000E+02 -3.33066907E-14  0.00000000E+00
  2.60000000E+02  1.00000000E+02  0.00000000E+00
  2.60000000E+02  9.80000000E+01  0.00000000E+00
  2.60000000E+02  9.60000000E+01  0.00000000E+00
  2.60000000E+02  9.40000000E+01  0.00000000E+00
  2.60000000E+02  9.20000000E+01  0.00000000E+00
  2.60000000E+02  9.00000000E+01  0.00000000E+00
  2.60000000E+02  8.80000000E+01  0.00000000E+00
  2.60000000E+02  8.60000000E+01  0.00000000E+00
  2.60000000E+02  8.40000000E+01  0.00000000E+00
  2.60000000E+02  8.20000000E+01  0.00000000E+00
  2.60000000E+02  8.00000000E+01  0.00000000E+00
  2.60000000E+02  7.80000000E+01  0.00000000E+00
  2.60000000E+02  7.60000000E+01  0.00000000E+00
  2.60000000E+02  7.40000000E+01  0.00000000E+00
  2.60000000E+02  7.20000000E+01  0.00000000E+00
  2.60000000E+02  7.00000000E+01  0.00000000E+00
  2.60000000E+02  6.80000000E+01  0.00000000E+00
  2.60000000E+02  6.60000000E+01  0.00000000E+00
  2.60000000E+02  6.40000000E+01  0.00000000E+00
  2.60000000E+02  6.20000000E+01  0.00000000E+00
  2.60000000E+02  6.00000000E+01  0.00000000E+00
  2.60000000E+02  5.80000000E+01  0.00000000E+00
  2.60000000E+02  5.60000000E+01  0.00000000E+00
  2.60000000E+02  5.40000000E+01  0.00000000E+00
  2.60000000E+02  5.20000000E+01  0.00000000E+00
  2.60000000E+02  5.00000000E+01  0.00000000E+00
  2.60000000E+02  4.80000000E+01  0.00000000E+00
  2.60000000E+02  4.60000000E+01  0.00000000E+00
  2.60000000E+02  4.40000000E+01  0.00000000E+00
  2.60000000E+02  4.20000000E+01  0.00000000E+00
  2.60000000E+02  4.00000000E+01  0.00000000E+00
  2.60000000E+02  3.80000000E+01  0.00000000E+00
  2.60000000E+02  3.60000000E+01  0.00000000E+00
  2.60000000E+02  3.40000000E+01  0.00000000E+00
  2.60000000E+02  3.20000000E+01  0.00000000E+00
  2.60000000E+02  3.00000000E+01  0.00000000E+00
  2.60000000E+02  2.80000000E+01  0.00000000E+00
  2.60000000E+02  2.60000000E+01  0.00000000E+00
  2.60000000E+02  2.40000000E+01  0.00000000E+00
  2.60000000E+02  2.20000000E+01  0.00000000E+00
  2.60000000E+02  2.00000000E+01  0.00000000E+00
  2.60000000E+02  1.80000000E+01  0.00000000E+00
  2.60000000E+02  1.60000000E+01  0.00000000E+00
  2.60000000E+02  1.40000000E+01  0.00000000E+00
  2.60000000E+02  1.20000000E+01  0.00000000E+00
  2.60000000E+02  1.00000000E+01  0.00000000E+00
  2.60000000E+02  8.00000000E+00  0.00000000E+00
  2.60000000E+02  6.00000000E+00  0.00000000E+00
  2.60000000E+02  4.00000000E+00  0.00000000E+00
  2.60000000E+02  2.00000000E+00  0.00000000E+00
  2.60000000E+02 -3.33066907E-14  0.00000000E+00
  2.70000000E+02  1.00000000E+02  0.00000000E+00
  2.70000000E+02  9.80000000E+01  0.00000000E+00
  2.70000000E+02  9.60000000E+01  0.00000000E+00
  2.70000000E+02  9.40000000E+01  0.00000000E+00
  2.70000000E+02  9.20000000E+01  0.00000000E+00
  2.70000000E+02  9.00000000E+01  0.00000000E+00
  2.70000000E+02  8.80000000E+01  0.00000000E+00
  2.70000000E+02  8.60000000E+01  0.00000000E+00
  2.70000000E+02  8.40000000E+01  0.00000000E+00
  2.70000000E+02  8.20000000E+01  0.00000000E+00
  2.70000000E+02  8.00000000E+01  0.00000000E+00
  2.70000000E+02  7.80000000E+01  0.00000000E+00
  2.70000000E+02  7.60000000E+01  0.00000000E+00
  2.70000000E+02  7.40000000E+01  0.00000000E+00
  2.70000000E+02  7.20000000E+01  0.00000000E+00
  2.70000000E+02  7.00000000E+01  0.00000000E+00
  2.70000000E+02  6.80000000E+01  0.00000000E+00
  2.70000000E+02  6.60000000E+01  0.00000000E+00
  2.70000000E+02  6.40000000E+01  0.00000000E+00
  2.70000000E+02  6.20000000E+01  0.00000000E+00
  2.70000000E+02  6.00000000E+01  0.00000000E+00
  2.70000000E+02  5.80000000E+01  0.00000000E+00
  2.70000000E+02  5.60000000E+01  0.00000000E+00
  2.70000000E+02  5.40000000E+01  0.00000000E+00
  2.70000000E+02  5.20000000E+01  0.00000000E+00
  2.70000000E+02  5.00000000E+01  0.00000000E+00
  2.70000000E+02  4.80000000E+01  0.00000000E+00
  2.70000000E+02  4.60000000E+01  0.00000000E+00
  2.70000000E+02  4.40000000E+01  0.00000000E+00
  2.70000000E+02  4.20000000E+01  0.00000000E+00
  2.70000000E+02  4.00000000E+01  0.00000000E+00
  2.70000000E+02  3.80000000E+01  0.00000000E+00
  2.70000000E+02  3.60000000E+01  0.00000000E+00
  2.70000000E+02  3.40000000E+01  0.00000000E+00
  2.70000000E+02  3.20000000E+01  0.00000000E+00
  2.70000000E+02  3.00000000E+01  0.00000000E+00
  2.70000000E+02  2.80000000E+01  0.00000000E+00
  2.70000000E+02  2.60000000E+01  0.00000000E+00
  2.70000000E+02  2.40000000E+01  0.00000000E+00
  2.70000000E+02  2.20000000E+01  0.00000000E+00
  2.70000000E+02  2.00000000E+01  0.00000000E+00
  2.70000000E+02  1.80000000E+01  0.00000000E+00
  2.70000000E+02  1.60000000E+01  0.00000000E+00
  2.70000000E+02  1.40000000E+01  0.00000000E+00
  2.70000000E+02  1.20000000E+01  0.00000000E+00
  2.70000000E+02  1.00000000E+01  0.00000000E+00
  2.70000000E+02  8.00000000E+00  0.00000000E+00
  2.70000000E+02  6.00000000E+00  0.00000000E+00
  2.70000000E+02  4.00000000E+00  0.00000000E+00
  2.70000000E+02  2.00000000E+00  0.00000000E+00
  2.70000000E+02 -3.33066907E-14  0.00000000E+00
  2.80000000E+02  1.00000000E+02  0.00000000E+00
  2.80000000E+02  9.80000000E+01  0.00000000E+00
  2.80000000E+02  9.60000000E+01  0.00000000E+00
  2.80000000E+02  9.40000000E+01  0.00000000E+00
  2.80000000E+02  9.20000000E+01  0.00000000E+00
  2.80000000E+02  9.00000000E+01  0.00000000E+00
  2.80000000E+02  8.80000000E+01  0.00000000E+00
  2.80000000E+02  8.60000000E+01  0.00000000E+00
  2.80000000E+02  8.40000000E+01  0.00000000E+00
  2.80000000E+02  8.20000000E+01  0.00000000E+00
  2.80000000E+02  8.00000000E+01  0.00000000E+00
  2.80000000E+02  7.80000000E+01  0.00000000E+00
  2.80000000E+02  7.60000000E+01  0.00000000E+00
  2.80000000E+02  7.40000000E+01  0.00000000E+00
  2.80000000E+02  7.20000000E+01  0.00000000E+00
  2.80000000E+02  7.00000000E+01  0.00000000E+00
  2.80000000E+02  6.80000000E+01  0.00000000E+00
  2.80000000E+02  6.60000000E+01  0.00000000E+00
  2.80000000E+02  6.40000000E+01  0.00000000E+00
  2.80000000E+02  6.20000000E+01  0.00000000E+00
  2.80000000E+02  6.00000000E+01  0.00000000E+00
  2.80000000E+02  5.80000000E+01  0.00000000E+00
  2.80000000E+02  5.60000000E+01  0.00000000E+00
  2.80000000E+02  5.40000000E+01  0.00000000E+00
  2.80000000E+02  5.20000000E+01  0.00000000E+00
  2.80000000E+02  5.00000000E+01  0.00000000E+00
  2.80000000E+02  4.80000000E+01  0.00000000E+00
  2.80000000E+02  4.60000000E+01  0.00000000E+00
  2.80000000E+02  4.40000000E+01  0.00000000E+00
  2.80000000E+02  4.20000000E+01  0.00000000E+00
  2.80000000E+02  4.00000000E+01  0.00000000E+00
  2.80000000E+02  3.80000000E+01  0.00000000E+00
  2.80000000E+02  3.60000000E+01  0.00000000E+00
  2.80000000E+02  3.40000000E+01  0.00000000E+00
  2.80000000E+02  3.20000000E+01  0.00000000E+00
  2.80000000E+02  3.00000000E+01  0.00000000E+00
  2.80000000E+02  2.80000000E+01  0.00000000E+00
  2.80000000E+02  2.60000000E+01  0.00000000E+00
  2.80000000E+02  2.40000000E+01  0.00000000E+00
  2.80000000E+02  2.20000000E+01  0.00000000E+00
  2.80000000E+02  2.00000000E+01  0.00000000E+00
  2.80000000E+02  1.80000000E+01  0.00000000E+00
  2.80000000E+02  1.60000000E+01  0.00000000E+00
  2.80000000E+02  1.40000000E+01  0.00000000E+00
  2.80000000E+02  1.20000000E+01  0.00000000E+00
  2.80000000E+02  1.00000000E+01  0.00000000E+00
  2.80000000E+02  8.00000000E+00  0.00000000E+00
  2.80000000E+02  6.00000000E+00  0.00000000E+00
  2.80000000E+02  4.00000000E+00  0.00000000E+00
  2.80000000E+02  2.00000000E+00  0.00000000E+00
  2.80000000E+02 -3.33066907E-14  0.00000000E+00
  2.90000000E+02  1.00000000E+02  0.00000000E+00
  2.90000000E+02  9.80000000E+01  0.00000000E+00
  2.90000000E+02  9.60000000E+01  0.00000000E+00
  2.90000000E+02  9.40000000E+01  0.00000000E+00
  2.90000000E+02  9.20000000E+01  0.00000000E+00
  2.90000000E+02  9.00000000E+01  0.00000000E+00
  2.90000000E+02  8.80000000E+01  0.00000000E+00
  2.90000000E+02  8.60000000E+01  0.00000000E+00
  2.90000000E+02  8.40000000E+01  0.00000000E+00
  2.90000000E+02  8.20000000E+01  0.00000000E+00
  2.90000000E+02  8.00000000E+01  0.00000000E+00
  2.90000000E+02  7.80000000E+01  0.00000000E+00
  2.90000000E+02  7.60000000E+01  0.00000000E+00
  2.90000000E+02  7.40000000E+01  0.00000000E+00
  2.90000000E+02  7.20000000E+01  0.00000000E+00
  2.90000000E+02  7.00000000E+01  0.00000000E+00
  2.90000000E+02  6.80000000E+01  0.00000000E+00
  2.90000000E+02  6.60000000E+01  0.00000000E+00
  2.90000000E+02  6.40000000E+01  0.00000000E+00
  2.90000000E+02  6.20000000E+01  0.00000000E+00
  2.90000000E+02  6.00000000E+01  0.00000000E+00
  2.90000000E+02  5.80000000E+01  0.00000000E+00
  2.90000000E+02  5.60000000E+01  0.00000000E+00
  2.90000000E+02  5.40000000E+01  0.00000000E+00
  2.90000000E+02  5.20000000E+01  0.00000000E+00
  2.90000000E+02  5.00000000E+01  0.00000000E+00
  2.90000000E+02  4.80000000E+01  0.00000000E+00
  2.90000000E+02  4.60000000E+01  0.00000000E+00
  2.90000000E+02  4.40000000E+01  0.00000000E+00
  2.90000000E+02  4.20000000E+01  0.00000000E+00
  2.90000000E+02  4.00000000E+01  0.00000000E+00
  2.90000000E+02  3.80000000E+01  0.00000000E+00
  2.90000000E+02  3.60000000E+01  0.00000000E+00
  2.90000000E+02  3.40000000E+01  0.00000000E+00
  2.90000000E+02  3.20000000E+01  0.00000000E+00
  2.90000000E+02  3.00000000E+01  0.00000000E+00
  2.90000000E+02  2.80000000E+01  0.00000000E+00
  2.90000000E+02  2.60000000E+01  0.00000000E+00
  2.90000000E+02  2.40000000E+01  0.00000000E+00
  2.90000000E+02  2.20000000E+01  0.00000000E+00
  2.90000000E+02  2.00000000E+01  0.00000000E+00
  2.90000000E+02  1.80000000E+01  0.00000000E+00
  2.90000000E+02  1.60000000E+01  0.00000000E+00
  2.90000000E+02  1.40000000E+01  0.00000000E+00
  2.90000000E+02  1.20000000E+01  0.00000000E+00
  2.90000000E+02  1.00000000E+01  0.00000000E+00
  2.90000000E+02  8.00000000E+00  0.00000000E+00
  2.90000000E+02  6.00000000E+00  0.00000000E+00
  2.90000000E+02  4.00000000E+00  0.00000000E+00
  2.90000000E+02  2.00000000E+00  0.00000000E+00
  2.90000000E+02 -3.33066907E-14  0.00000000E+00
  3.00000000E+02  1.00000000E+02  0.00000000E+00
  3.00000000E+02  9.80000000E+01  0.00000000E+00
  3.00000000E+02  9.60000000E+01  0.00000000E+00
  3.00000000E+02  9.40000000E+01  0.00000000E+00
  3.00000000E+02  9.20000000E+01  0.00000000E+00
  3.00000000E+02  9.00000000E+01  0.00000000E+00
  3.00000000E+02  8.80000000E+01  0.00000000E+00
  3.00000000E+02  8.60000000E+01  0.00000000E+00
  3.00000000E+02  8.40000000E+01  0.00000000E+00
  3.00000000E+02  8.20000000E+01  0.00000000E+00
  3.00000000E+02  8.00000000E+01  0.00000000E+00
  3.00000000E+02  7.80000000E+01  0.00000000E+00
  3.00000000E+02  7.60000000E+01  0.00000000E+00
  3.00000000E+02  7.40000000E+01  0.00000000E+00
  3.00000000E+02  7.20000000E+01  0.00000000E+00
  3.00000000E+02  7.00000000E+01  0.00000000E+00
  3.00000000E+02  6.80000000E+01  0.00000000E+00
  3.00000000E+02  6.60000000E+01  0.00000000E+00
  3.00000000E+02  6.40000000E+01  0.00000000E+00
  3.00000000E+02  6.20000000E+01  0.00000000E+00
  3.00000000E+02  6.00000000E+01  0.00000000E+00
  3.00000000E+02  5.80000000E+01  0.00000000E+00
  3.00000000E+02  5.60000000E+01  0.00000000E+00
  3.00000000E+02  5.40000000E+01  0.00000000E+00
  3.00000000E+02  5.20000000E+01  0.00000000E+00
  3.00000000E+02  5.00000000E+01  0.00000000E+00
  3.00000000E+02  4.80000000E+01  0.00000000E+00
  3.00000000E+02  4.60000000E+01  0.00000000E+00
  3.00000000E+02  4.40000000E+01  0.00000000E+00
  3.00000000E+02  4.20000000E+01  0.00000000E+00
  3.00000000E+02  4.00000000E+01  0.00000000E+00
  3.00000000E+02  3.80000000E+01  0.00000000E+00
  3.00000000E+02  3.60000000E+01  0.00000000E+00
  3.00000000E+02  3.40000000E+01  0.00000000E+00
  3.00000000E+02  3.20000000E+01  0.00000000E+00
  3.00000000E+02  3.00000000E+01  0.00000000E+00
  3.00000000E+02  2.80000000E+01  0.00000000E+00
  3.00000000E+02  2.60000000E+01  0.00000000E+00
  3.00000000E+02  2.40000000E+01  0.00000000E+00
  3.00000000E+02  2.20000000E+01  0.00000000E+00
  3.00000000E+02  2.00000000E+01  0.00000000E+00
  3.00000000E+02  1.80000000E+01  0.00000000E+00
  3.00000000E+02  1.60000000E+01  0.00000000E+00
  3.00000000E+02  1.40000000E+01  0.00000000E+00
  3.00000000E+02  1.20000000E+01  0.00000000E+00
  3.00000000E+02  1.00000000E+01  0.00000000E+00
  3.00000000E+02  8.00000000E+00  0.00000000E+00
  3.00000000E+02  6.00000000E+00  0.00000000E+00
  3.00000000E+02  4.00000000E+00  0.00000000E+00
  3.00000000E+02  2.00000000E+00  0.00000000E+00
  3.00000000E+02 -3.33066907E-14  0.00000000E+00
  3.10000000E+02  1.00000000E+02  0.00000000E+00
  3.10000000E+02  9.80000000E+01  0.00000000E+00
  3.10000000E+02  9.60000000E+01  0.00000000E+00
  3.10000000E+02  9.40000000E+01  0.00000000E+00
  3.10000000E+02  9.20000000E+01  0.00000000E+00
  3.10000000E+02  9.00000000E+01  0.00000000E+00
  3.10000000E+02  8.80000000E+01  0.00000000E+00
  3.10000000E+02  8.60000000E+01  0.00000000E+00
  3.10000000E+02  8.40000000E+01  0.00000000E+00
  3.10000000E+02  8.20000000E+01  0.00000000E+00
  3.10000000E+02  8.00000000E+01  0.00000000E+00
  3.10000000E+02  7.80000000E+01  0.00000000E+00
  3.10000000E+02  7.60000000E+01  0.00000000E+00
  3.10000000E+02  7.40000000E+01  0.00000000E+00
  3.10000000E+02  7.20000000E+01  0.00000000E+00
  3.10000000E+02  7.00000000E+01  0.00000000E+00
  3.10000000E+02  6.80000000E+01  0.00000000E+00
  3.10000000E+02  6.60000000E+01  0.00000000E+00
  3.10000000E+02  6.40000000E+01  0.00000000E+00
  3.10000000E+02  6.20000000E+01  0.00000000E+00
  3.10000000E+02  6.00000000E+01  0.00000000E+00
  3.10000000E+02  5.80000000E+01  0.00000000E+00
  3.10000000E+02  5.60000000E+01  0.00000000E+00
  3.10000000E+02  5.40000000E+01  0.00000000E+00
  3.10000000E+02  5.20000000E+01  0.00000000E+00
  3.10000000E+02  5.00000000E+01  0.00000000E+00
  3.10000000E+02  4.80000000E+01  0.00000000E+00
  3.10000000E+02  4.60000000E+01  0.00000000E+00
  3.10000000E+02  4.40000000E+01  0.00000000E+00
  3.10000000E+02  4.20000000E+01  0.00000000E+00
  3.10000000E+02  4.00000000E+01  0.00000000E+00
  3.10000000E+02  3.80000000E+01  0.00000000E+00
  3.10000000E+02  3.60000000E+01  0.00000000E+00
  3.10000000E+02  3.40000000E+01  0.00000000E+00
  3.10000000E+02  3.20000000E+01  0.00000000E+00
  3.10000000E+02  3.00000000E+01  0.00000000E+00
  3.10000000E+02  2.80000000E+01  0.00000000E+00
  3.10000000E+02  2.60000000E+01  0.00000000E+00
  3.10000000E+02  2.40000000E+01  0.00000000E+00
  3.10000000E+02  2.20000000E+01  0.00000000E+00
  3.10000000E+02  2.00000000E+01  0.00000000E+00
  3.10000000E+02  1.80000000E+01  0.00000000E+00
  3.10000000E+02  1.60000000E+01  0.00000000E+00
  3.10000000E+02  1.40000000E+01  0.00000000E+00
  3.10000000E+02  1.20000000E+01  0.00000000E+00
  3.10000000E+02  1.00000000E+01  0.00000000E+00
  3.10000000E+02  8.00000000E+00  0.00000000E+00
  3.10000000E+02  6.00000000E+00  0.00000000E+00
  3.10000000E+02  4.00000000E+00  0.00000000E+00
  3.10000000E+02  2.00000000E+00  0.00000000E+00
  3.10000000E+02 -3.33066907E-14  0.00000000E+00
  3.20000000E+02  1.00000000E+02  0.00000000E+00
  3.20000000E+02  9.80000000E+01  0.00000000E+00
  3.20000000E+02  9.60000000E+01  0.00000000E+00
  3.20000000E+02  9.40000000E+01  0.00000000E+00
  3.20000000E+02  9.20000000E+01  0.00000000E+00
  3.20000000E+02  9.00000000E+01  0.00000000E+00
  3.20000000E+02  8.80000000E+01  0.00000000E+00
  3.20000000E+02  8.60000000E+01  0.00000000E+00
  3.20000000E+02  8.40000000E+01  0.00000000E+00
  3.20000000E+02  8.20000000E+01  0.00000000E+00
  3.20000000E+02  8.00000000E+01  0.00000000E+00
  3.20000000E+02  7.80000000E+01  0.00000000E+00
  3.20000000E+02  7.60000000E+01  0.00000000E+00
  3.20000000E+02  7.40000000E+01  0.00000000E+00
  3.20000000E+02  7.20000000E+01  0.00000000E+00
  3.20000000E+02  7.00000000E+01  0.00000000E+00
  3.20000000E+02  6.80000000E+01  0.00000000E+00
  3.20000000E+02  6.60000000E+01  0.00000000E+00
  3.20000000E+02  6.40000000E+01  0.00000000E+00
  3.20000000E+02  6.20000000E+01  0.00000000E+00
  3.20000000E+02  6.00000000E+01  0.00000000E+00
  3.20000000E+02  5.80000000E+01  0.00000000E+00
  3.20000000E+02  5.60000000E+01  0.00000000E+00
  3.20000000E+02  5.40000000E+01  0.00000000E+00
  3.20000000E+02  5.20000000E+01  0.00000000E+00
  3.20000000E+02  5.00000000E+01  0.00000000E+00
  3.20000000E+02  4.80000000E+01  0.00000000E+00
  3.20000000E+02  4.60000000E+01  0.00000000E+00
  3.20000000E+02  4.40000000E+01  0.00000000E+00
  3.20000000E+02  4.20000000E+01  0.00000000E+00
  3.20000000E+02  4.00000000E+01  0.00000000E+00
  3.20000000E+02  3.80000000E+01  0.00000000E+00
  3.20000000E+02  3.60000000E+01  0.00000000E+00
  3.20000000E+02  3.40000000E+01  0.00000000E+00
  3.20000000E+02  3.20000000E+01  0.00000000E+00
  3.20000000E+02  3.00000000E+01  0.00000000E+00
  3.20000000E+02  2.80000000E+01  0.00000000E+00
  3.20000000E+02  2.60000000E+01  0.00000000E+00
  3.20000000E+02  2.40000000E+01  0.00000000E+00
  3.20000000E+02  2.20000000E+01  0.00000000E+00
  3.20000000E+02  2.00000000E+01  0.00000000E+00
  3.20000000E+02  1.80000000E+01  0.00000000E+00
  3.20000000E+02  1.60000000E+01  0.00000000E+00
  3.20000000E+02  1.40000000E+01  0.00000000E+00
  3.20000000E+02  1.20000000E+01  0.00000000E+00
  3.20000000E+02  1.00000000E+01  0.00000000E+00
  3.20000000E+02  8.00000000E+00  0.00000000E+00
  3.20000000E+02  6.00000000E+00  0.00000000E+00
  3.20000000E+02  4.00000000E+00  0.00000000E+00
  3.20000000E+02  2.00000000E+00  0.00000000E+00
  3.20000000E+02 -3.33066907E-14  0.00000000E+00
  3.30000000E+02  1.00000000E+02  0.00000000E+00
  3.30000000E+02  9.80000000E+01  0.00000000E+00
  3.30000000E+02  9.60000000E+01  0.00000000E+00
  3.30000000E+02  9.40000000E+01  0.00000000E+00
  3.30000000E+02  9.20000000E+01  0.00000000E+00
  3.30000000E+02  9.00000000E+01  0.00000000E+00
  3.30000000E+02  8.80000000E+01  0.00000000E+00
  3.30000000E+02  8.60000000E+01  0.00000000E+00
  3.30000000E+02  8.40000000E+01  0.00000000E+00
  3.30000000E+02  8.20000000E+01  0.00000000E+00
  3.30000000E+02  8.00000000E+01  0.00000000E+00
  3.30000000E+02  7.80000000E+01  0.00000000E+00
  3.30000000E+02  7.60000000E+01  0.00000000E+00
  3.30000000E+02  7.40000000E+01  0.00000000E+00
  3.30000000E+02  7.20000000E+01  0.00000000E+00
  3.30000000E+02  7.00000000E+01  0.00000000E+00
  3.30000000E+02  6.80000000E+01  0.00000000E+00
  3.30000000E+02  6.60000000E+01  0.00000000E+00
  3.30000000E+02  6.40000000E+01  0.00000000E+00
  3.30000000E+02  6.20000000E+01  0.00000000E+00
  3.30000000E+02  6.00000000E+01  0.00000000E+00
  3.30000000E+02  5.80000000E+01  0.00000000E+00
  3.30000000E+02  5.60000000E+01  0.00000000E+00
  3.30000000E+02  5.40000000E+01  0.00000000E+00
  3.30000000E+02  5.20000000E+01  0.00000000E+00
  3.30000000E+02  5.00000000E+01  0.00000000E+00
  3.30000000E+02  4.80000000E+01  0.00000000E+00
  3.30000000E+02  4.60000000E+01  0.00000000E+00
  3.30000000E+02  4.40000000E+01  0.00000000E+00
  3.30000000E+02  4.20000000E+01  0.00000000E+00
  3.30000000E+02  4.00000000E+01  0.00000000E+00
  3.30000000E+02  3.80000000E+01  0.00000000E+00
  3.30000000E+02  3.60000000E+01  0.00000000E+00
  3.30000000E+02  3.40000000E+01  0.00000000E+00
  3.30000000E+02  3.20000000E+01  0.00000000E+00
  3.30000000E+02  3.00000000E+01  0.00000000E+00
  3.30000000E+02  2.80000000E+01  0.00000000E+00
  3.30000000E+02  2.60000000E+01  0.00000000E+00
  3.30000000E+02  2.40000000E+01  0.00000000E+00
  3.30000000E+02  2.20000000E+01  0.00000000E+00
  3.30000000E+02  2.00000000E+01  0.00000000E+00
  3.30000000E+02  1.80000000E+01  0.00000000E+00
  3.30000000E+02  1.60000000E+01  0.00000000E+00
  3.30000000E+02  1.40000000E+01  0.00000000E+00
  3.30000000E+02  1.20000000E+01  0.00000000E+00
  3.30000000E+02  1.00000000E+01  0.00000000E+00
  3.30000000E+02  8.00000000E+00  0.00000000E+00
  3.30000000E+02  6.00000000E+00  0.00000000E+00
  3.30000000E+02  4.00000000E+00  0.00000000E+00
  3.30000000E+02  2.00000000E+00  0.00000000E+00
  3.30000000E+02 -3.33066907E-14  0.00000000E+00
  3.40000000E+02  1.00000000E+02  0.00000000E+00
  3.40000000E+02  9.80000000E+01  0.00000000E+00
  3.40000000E+02  9.60000000E+01  0.00000000E+00
  3.40000000E+02  9.40000000E+01  0.00000000E+00
  3.40000000E+02  9.20000000E+01  0.00000000E+00
  3.40000000E+02  9.00000000E+01  0.00000000E+00
  3.40000000E+02  8.80000000E+01  0.00000000E+00
  3.40000000E+02  8.60000000E+01  0.00000000E+00
  3.40000000E+02  8.40000000E+01  0.00000000E+00
  3.40000000E+02  8.20000000E+01  0.00000000E+00
  3.40000000E+02  8.00000000E+01  0.00000000E+00
  3.40000000E+02  7.80000000E+01  0.00000000E+00
  3.40000000E+02  7.60000000E+01  0.00000000E+00
  3.40000000E+02  7.40000000E+01  0.00000000E+00
  3.40000000E+02  7.20000000E+01  0.00000000E+00
  3.40000000E+02  7.00000000E+01  0.00000000E+00
  3.40000000E+02  6.80000000E+01  0.00000000E+00
  3.40000000E+02  6.60000000E+01  0.00000000E+00
  3.40000000E+02  6.40000000E+01  0.00000000E+00
  3.40000000E+02  6.20000000E+01  0.00000000E+00
  3.40000000E+02  6.00000000E+01  0.00000000E+00
  3.40000000E+02  5.80000000E+01  0.00000000E+00
  3.40000000E+02  5.60000000E+01  0.00000000E+00
  3.40000000E+02  5.40000000E+01  0.00000000E+00
  3.40000000E+02  5.20000000E+01  0.00000000E+00
  3.40000000E+02  5.00000000E+01  0.00000000E+00
  3.40000000E+02  4.80000000E+01  0.00000000E+00
  3.40000000E+02  4.60000000E+01  0.00000000E+00
  3.40000000E+02  4.40000000E+01  0.00000000E+00
  3.40000000E+02  4.20000000E+01  0.00000000E+00
  3.40000000E+02  4.00000000E+01  0.00000000E+00
  3.40000000E+02  3.80000000E+01  0.00000000E+00
  3.40000000E+02  3.60000000E+01  0.00000000E+00
  3.40000000E+02  3.40000000E+01  0.00000000E+00
  3.40000000E+02  3.20000000E+01  0.00000000E+00
  3.40000000E+02  3.00000000E+01  0.00000000E+00
  3.40000000E+02  2.80000000E+01  0.00000000E+00
  3.40000000E+02  2.60000000E+01  0.00000000E+00
  3.40000000E+02  2.40000000E+01  0.00000000E+00
  3.40000000E+02  2.20000000E+01  0.00000000E+00
  3.40000000E+02  2.00000000E+01  0.00000000E+00
  3.40000000E+02  1.80000000E+01  0.00000000E+00
  3.40000000E+02  1.60000000E+01  0.00000000E+00
  3.40000000E+02  1.40000000E+01  0.00000000E+00
  3.40000000E+02  1.20000000E+01  0.00000000E+00
  3.40000000E+02  1.00000000E+01  0.00000000E+00
  3.40000000E+02  8.00000000E+00  0.00000000E+00
  3.40000000E+02  6.00000000E+00  0.00000000E+00
  3.40000000E+02  4.00000000E+00  0.00000000E+00
  3.40000000E+02  2.00000000E+00  0.00000000E+00
  3.40000000E+02 -3.33066907E-14  0.00000000E+00
  3.50000000E+02  1.00000000E+02  0.00000000E+00
  3.50000000E+02  9.80000000E+01  0.00000000E+00
  3.50000000E+02  9.60000000E+01  0.00000000E+00
  3.50000000E+02  9.40000000E+01  0.00000000E+00
  3.50000000E+02  9.20000000E+01  0.00000000E+00
  3.50000000E+02  9.00000000E+01  0.00000000E+00
  3.50000000E+02  8.80000000E+01  0.00000000E+00
  3.50000000E+02  8.60000000E+01  0.00000000E+00
  3.50000000E+02  8.40000000E+01  0.00000000E+00
  3.50000000E+02  8.20000000E+01  0.00000000E+00
  3.50000000E+02  8.00000000E+01  0.00000000E+00
  3.50000000E+02  7.80000000E+01  0.00000000E+00
  3.50000000E+02  7.60000000E+01  0.00000000E+00
  3.50000000E+02  7.40000000E+01  0.00000000E+00
  3.50000000E+02  7.20000000E+01  0.00000000E+00
  3.50000000E+02  7.00000000E+01  0.00000000E+00
  3.50000000E+02  6.80000000E+01  0.00000000E+00
  3.50000000E+02  6.60000000E+01  0.00000000E+00
  3.50000000E+02  6.40000000E+01  0.00000000E+00
  3.50000000E+02  6.20000000E+01  0.00000000E+00
  3.50000000E+02  6.00000000E+01  0.00000000E+00
  3.50000000E+02  5.80000000E+01  0.00000000E+00
  3.50000000E+02  5.60000000E+01  0.00000000E+00
  3.50000000E+02  5.40000000E+01  0.00000000E+00
  3.50000000E+02  5.20000000E+01  0.00000000E+00
  3.50000000E+02  5.00000000E+01  0.00000000E+00
  3.50000000E+02  4.80000000E+01  0.00000000E+00
  3.50000000E+02  4.60000000E+01  0.00000000E+00
  3.50000000E+02  4.40000000E+01  0.00000000E+00
  3.50000000E+02  4.20000000E+01  0.00000000E+00
  3.50000000E+02  4.00000000E+01  0.00000000E+00
  3.50000000E+02  3.80000000E+01  0.00000000E+00
  3.50000000E+02  3.60000000E+01  0.00000000E+00
  3.50000000E+02  3.40000000E+01  0.00000000E+00
  3.50000000E+02  3.20000000E+01  0.00000000E+00
  3.50000000E+02  3.00000000E+01  0.00000000E+00
  3.50000000E+02  2.80000000E+01  0.00000000E+00
  3.50000000E+02  2.60000000E+01  0.00000000E+00
  3.50000000E+02  2.40000000E+01  0.00000000E+00
  3.50000000E+02  2.20000000E+01  0.00000000E+00
  3.50000000E+02  2.00000000E+01  0.00000000E+00
  3.50000000E+02  1.80000000E+01  0.00000000E+00
  3.50000000E+02  1.60000000E+01  0.00000000E+00
  3.50000000E+02  1.40000000E+01  0.00000000E+00
  3.50000000E+02  1.20000000E+01  0.00000000E+00
  3.50000000E+02  1.00000000E+01  0.00000000E+00
  3.50000000E+02  8.00000000E+00  0.00000000E+00
  3.50000000E+02  6.00000000E+00  0.00000000E+00
  3.50000000E+02  4.00000000E+00  0.00000000E+00
  3.50000000E+02  2.00000000E+00  0.00000000E+00
  3.50000000E+02 -3.33066907E-14  0.00000000E+00
  3.60000000E+02  1.00000000E+02  0.00000000E+00
  3.60000000E+02  9.80000000E+01  0.00000000E+00
  3.60000000E+02  9.60000000E+01  0.00000000E+00
  3.60000000E+02  9.40000000E+01  0.00000000E+00
  3.60000000E+02  9.20000000E+01  0.00000000E+00
  3.60000000E+02  9.00000000E+01  0.00000000E+00
  3.60000000E+02  8.80000000E+01  0.00000000E+00
  3.60000000E+02  8.60000000E+01  0.00000000E+00
  3.60000000E+02  8.40000000E+01  0.00000000E+00
  3.60000000E+02  8.20000000E+01  0.00000000E+00
  3.60000000E+02  8.00000000E+01  0.00000000E+00
  3.60000000E+02  7.80000000E+01  0.00000000E+00
  3.60000000E+02  7.60000000E+01  0.00000000E+00
  3.60000000E+02  7.40000000E+01  0.00000000E+00
  3.60000000E+02  7.20000000E+01  0.00000000E+00
  3.60000000E+02  7.00000000E+01  0.00000000E+00
  3.60000000E+02  6.80000000E+01  0.00000000E+00
  3.60000000E+02  6.60000000E+01  0.00000000E+00
  3.60000000E+02  6.40000000E+01  0.00000000E+00
  3.60000000E+02  6.20000000E+01  0.00000000E+00
  3.60000000E+02  6.00000000E+01  0.00000000E+00
  3.60000000E+02  5.80000000E+01  0.00000000E+00
  3.60000000E+02  5.60000000E+01  0.00000000E+00
  3.60000000E+02  5.40000000E+01  0.00000000E+00
  3.60000000E+02  5.20000000E+01  0.00000000E+00
  3.60000000E+02  5.00000000E+01  0.00000000E+00
  3.60000000E+02  4.80000000E+01  0.00000000E+00
  3.60000000E+02  4.60000000E+01  0.00000000E+00
  3.60000000E+02  4.40000000E+01  0.00000000E+00
  3.60000000E+02  4.20000000E+01  0.00000000E+00
  3.60000000E+02  4.00000000E+01  0.00000000E+00
  3.60000000E+02  3.80000000E+01  0.00000000E+00
  3.60000000E+02  3.60000000E+01  0.00000000E+00
  3.60000000E+02  3.40000000E+01  0.00000000E+00
  3.60000000E+02  3.20000000E+01  0.00000000E+00
  3.60000000E+02  3.00000000E+01  0.00000000E+00
  3.60000000E+02  2.80000000E+01  0.00000000E+00
  3.60000000E+02  2.60000000E+01  0.00000000E+00
  3.60000000E+02  2.40000000E+01  0.00000000E+00
  3.60000000E+02  2.20000000E+01  0.00000000E+00
  3.60000000E+02  2.00000000E+01  0.00000000E+00
  3.60000000E+02  1.80000000E+01  0.00000000E+00
  3.60000000E+02  1.60000000E+01  0.00000000E+00
  3.60000000E+02  1.40000000E+01  0.00000000E+00
  3.60000000E+02  1.20000000E+01  0.00000000E+00
  3.60000000E+02  1.00000000E+01  0.00000000E+00
  3.60000000E+02  8.00000000E+00  0.00000000E+00
  3.60000000E+02  6.00000000E+00  0.00000000E+00
  3.60000000E+02  4.00000000E+00  0.00000000E+00
  3.60000000E+02  2.00000000E+00  0.00000000E+00
  3.60000000E+02 -3.33066907E-14  0.00000000E+00
  3.70000000E+02  1.00000000E+02  0.00000000E+00
  3.70000000E+02  9.80000000E+01  0.00000000E+00
  3.70000000E+02  9.60000000E+01  0.00000000E+00
  3.70000000E+02  9.40000000E+01  0.00000000E+00
  3.70000000E+02  9.20000000E+01  0.00000000E+00
  3.70000000E+02  9.00000000E+01  0.00000000E+00
  3.70000000E+02  8.80000000E+01  0.00000000E+00
  3.70000000E+02  8.60000000E+01  0.00000000E+00
  3.70000000E+02  8.40000000E+01  0.00000000E+00
  3.70000000E+02  8.20000000E+01  0.00000000E+00
  3.70000000E+02  8.00000000E+01  0.00000000E+00
  3.70000000E+02  7.80000000E+01  0.00000000E+00
  3.70000000E+02  7.60000000E+01  0.00000000E+00
  3.70000000E+02  7.40000000E+01  0.00000000E+00
  3.70000000E+02  7.20000000E+01  0.00000000E+00
  3.70000000E+02  7.00000000E+01  0.00000000E+00
  3.70000000E+02  6.80000000E+01  0.00000000E+00
  3.70000000E+02  6.60000000E+01  0.00000000E+00
  3.70000000E+02  6.40000000E+01  0.00000000E+00
  3.70000000E+02  6.20000000E+01  0.00000000E+00
  3.70000000E+02  6.00000000E+01  0.00000000E+00
  3.70000000E+02  5.80000000E+01  0.00000000E+00
  3.70000000E+02  5.60000000E+01  0.00000000E+00
  3.70000000E+02  5.40000000E+01  0.00000000E+00
  3.70000000E+02  5.20000000E+01  0.00000000E+00
  3.70000000E+02  5.00000000E+01  0.00000000E+00
  3.70000000E+02  4.80000000E+01  0.00000000E+00
  3.70000000E+02  4.60000000E+01  0.00000000E+00
  3.70000000E+02  4.40000000E+01  0.00000000E+00
  3.70000000E+02  4.20000000E+01  0.00000000E+00
  3.70000000E+02  4.00000000E+01  0.00000000E+00
  3.70000000E+02  3.80000000E+01  0.00000000E+00
  3.70000000E+02  3.60000000E+01  0.00000000E+00
  3.70000000E+02  3.40000000E+01  0.00000000E+00
  3.70000000E+02  3.20000000E+01  0.00000000E+00
  3.70000000E+02  3.00000000E+01  0.00000000E+00
  3.70000000E+02  2.80000000E+01  0.00000000E+00
  3.70000000E+02  2.60000000E+01  0.00000000E+00
  3.70000000E+02  2.40000000E+01  0.00000000E+00
  3.70000000E+02  2.20000000E+01  0.00000000E+00
  3.70000000E+02  2.00000000E+01  0.00000000E+00
  3.70000000E+02  1.80000000E+01  0.00000000E+00
  3.70000000E+02  1.60000000E+01  0.00000000E+00
  3.70000000E+02  1.40000000E+01  0.00000000E+00
  3.70000000E+02  1.20000000E+01  0.00000000E+00
  3.70000000E+02  1.00000000E+01  0.00000000E+00
  3.70000000E+02  8.00000000E+00  0.00000000E+00
  3.70000000E+02  6.00000000E+00  0.00000000E+00
  3.70000000E+02  4.00000000E+00  0.00000000E+00
  3.70000000E+02  2.00000000E+00  0.00000000E+00
  3.70000000E+02 -3.33066907E-14  0.00000000E+00
  3.80000000E+02  1.00000000E+02  0.00000000E+00
  3.80000000E+02  9.80000000E+01  0.00000000E+00
  3.80000000E+02  9.60000000E+01  0.00000000E+00
  3.80000000E+02  9.40000000E+01  0.00000000E+00
  3.80000000E+02  9.20000000E+01  0.00000000E+00
  3.80000000E+02  9.00000000E+01  0.00000000E+00
  3.80000000E+02  8.80000000E+01  0.00000000E+00
  3.80000000E+02  8.60000000E+01  0.00000000E+00
  3.80000000E+02  8.40000000E+01  0.00000000E+00
  3.80000000E+02  8.20000000E+01  0.00000000E+00
  3.80000000E+02  8.00000000E+01  0.00000000E+00
  3.80000000E+02  7.80000000E+01  0.00000000E+00
  3.80000000E+02  7.60000000E+01  0.00000000E+00
  3.80000000E+02  7.40000000E+01  0.00000000E+00
  3.80000000E+02  7.20000000E+01  0.00000000E+00
  3.80000000E+02  7.00000000E+01  0.00000000E+00
  3.80000000E+02  6.80000000E+01  0.00000000E+00
  3.80000000E+02  6.60000000E+01  0.00000000E+00
  3.80000000E+02  6.40000000E+01  0.00000000E+00
  3.80000000E+02  6.20000000E+01  0.00000000E+00
  3.80000000E+02  6.00000000E+01  0.00000000E+00
  3.80000000E+02  5.80000000E+01  0.00000000E+00
  3.80000000E+02  5.60000000E+01  0.00000000E+00
  3.80000000E+02  5.40000000E+01  0.00000000E+00
  3.80000000E+02  5.20000000E+01  0.00000000E+00
  3.80000000E+02  5.00000000E+01  0.00000000E+00
  3.80000000E+02  4.80000000E+01  0.00000000E+00
  3.80000000E+02  4.60000000E+01  0.00000000E+00
  3.80000000E+02  4.40000000E+01  0.00000000E+00
  3.80000000E+02  4.20000000E+01  0.00000000E+00
  3.80000000E+02  4.00000000E+01  0.00000000E+00
  3.80000000E+02  3.80000000E+01  0.00000000E+00
  3.80000000E+02  3.60000000E+01  0.00000000E+00
  3.80000000E+02  3.40000000E+01  0.00000000E+00
  3.80000000E+02  3.20000000E+01  0.00000000E+00
  3.80000000E+02  3.00000000E+01  0.00000000E+00
  3.80000000E+02  2.80000000E+01  0.00000000E+00
  3.80000000E+02  2.60000000E+01  0.00000000E+00
  3.80000000E+02  2.40000000E+01  0.00000000E+00
  3.80000000E+02  2.20000000E+01  0.00000000E+00
  3.80000000E+02  2.00000000E+01  0.00000000E+00
  3.80000000E+02  1.80000000E+01  0.00000000E+00
  3.80000000E+02  1.60000000E+01  0.00000000E+00
  3.80000000E+02  1.40000000E+01  0.00000000E+00
  3.80000000E+02  1.20000000E+01  0.00000000E+00
  3.80000000E+02  1.00000000E+01  0.00000000E+00
  3.80000000E+02  8.00000000E+00  0.00000000E+00
  3.80000000E+02  6.00000000E+00  0.00000000E+00
  3.80000000E+02  4.00000000E+00  0.00000000E+00
  3.80000000E+02  2.00000000E+00  0.00000000E+00
  3.80000000E+02 -3.33066907E-14  0.00000000E+00
  3.90000000E+02  1.00000000E+02  0.00000000E+00
  3.90000000E+02  9.80000000E+01  0.00000000E+00
  3.90000000E+02  9.60000000E+01  0.00000000E+00
  3.90000000E+02  9.40000000E+01  0.00000000E+00
  3.90000000E+02  9.20000000E+01  0.00000000E+00
  3.90000000E+02  9.00000000E+01  0.00000000E+00
  3.90000000E+02  8.80000000E+01  0.00000000E+00
  3.90000000E+02  8.60000000E+01  0.00000000E+00
  3.90000000E+02  8.40000000E+01  0.00000000E+00
  3.90000000E+02  8.20000000E+01  0.00000000E+00
  3.90000000E+02  8.00000000E+01  0.00000000E+00
  3.90000000E+02  7.80000000E+01  0.00000000E+00
  3.90000000E+02  7.60000000E+01  0.00000000E+00
  3.90000000E+02  7.40000000E+01  0.00000000E+00
  3.90000000E+02  7.20000000E+01  0.00000000E+00
  3.90000000E+02  7.00000000E+01  0.00000000E+00
  3.90000000E+02  6.80000000E+01  0.00000000E+00
  3.90000000E+02  6.60000000E+01  0.00000000E+00
  3.90000000E+02  6.40000000E+01  0.00000000E+00
  3.90000000E+02  6.20000000E+01  0.00000000E+00
  3.90000000E+02  6.00000000E+01  0.00000000E+00
  3.90000000E+02  5.80000000E+01  0.00000000E+00
  3.90000000E+02  5.60000000E+01  0.00000000E+00
  3.90000000E+02  5.40000000E+01  0.00000000E+00
  3.90000000E+02  5.20000000E+01  0.00000000E+00
  3.90000000E+02  5.00000000E+01  0.00000000E+00
  3.90000000E+02  4.80000000E+01  0.00000000E+00
  3.90000000E+02  4.60000000E+01  0.00000000E+00
  3.90000000E+02  4.40000000E+01  0.00000000E+00
  3.90000000E+02  4.20000000E+01  0.00000000E+00
  3.90000000E+02  4.00000000E+01  0.00000000E+00
  3.90000000E+02  3.80000000E+01  0.00000000E+00
  3.90000000E+02  3.60000000E+01  0.00000000E+00
  3.90000000E+02  3.40000000E+01  0.00000000E+00
  3.90000000E+02  3.20000000E+01  0.00000000E+00
  3.90000000E+02  3.00000000E+01  0.00000000E+00
  3.90000000E+02  2.80000000E+01  0.00000000E+00
  3.90000000E+02  2.60000000E+01  0.00000000E+00
  3.90000000E+02  2.40000000E+01  0.00000000E+00
  3.90000000E+02  2.20000000E+01  0.00000000E+00
  3.90000000E+02  2.00000000E+01  0.00000000E+00
  3.90000000E+02  1.80000000E+01  0.00000000E+00
  3.90000000E+02  1.60000000E+01  0.00000000E+00
  3.90000000E+02  1.40000000E+01  0.00000000E+00
  3.90000000E+02  1.20000000E+01  0.00000000E+00
  3.90000000E+02  1.00000000E+01  0.00000000E+00
  3.90000000E+02  8.00000000E+00  0.00000000E+00
  3.90000000E+02  6.00000000E+00  0.00000000E+00
  3.90000000E+02  4.00000000E+00  0.00000000E+00
  3.90000000E+02  2.00000000E+00  0.00000000E+00
  3.90000000E+02 -3.33066907E-14  0.00000000E+00
  4.00000000E+02  1.00000000E+02  0.00000000E+00
  4.00000000E+02  9.80000000E+01  0.00000000E+00
  4.00000000E+02  9.60000000E+01  0.00000000E+00
  4.00000000E+02  9.40000000E+01  0.00000000E+00
  4.00000000E+02  9.20000000E+01  0.00000000E+00
  4.00000000E+02  9.00000000E+01  0.00000000E+00
  4.00000000E+02  8.80000000E+01  0.00000000E+00
  4.00000000E+02  8.60000000E+01  0.00000000E+00
  4.00000000E+02  8.40000000E+01  0.00000000E+00
  4.00000000E+02  8.20000000E+01  0.00000000E+00
  4.00000000E+02  8.00000000E+01  0.00000000E+00
  4.00000000E+02  7.80000000E+01  0.00000000E+00
  4.00000000E+02  7.60000000E+01  0.00000000E+00
  4.00000000E+02  7.40000000E+01  0.00000000E+00
  4.00000000E+02  7.20000000E+01  0.00000000E+00
  4.00000000E+02  7.00000000E+01  0.00000000E+00
  4.00000000E+02  6.80000000E+01  0.00000000E+00
  4.00000000E+02  6.60000000E+01  0.00000000E+00
  4.00000000E+02  6.40000000E+01  0.00000000E+00
  4.00000000E+02  6.20000000E+01  0.00000000E+00
  4.00000000E+02  6.00000000E+01  0.00000000E+00
  4.00000000E+02  5.80000000E+01  0.00000000E+00
  4.00000000E+02  5.60000000E+01  0.00000000E+00
  4.00000000E+02  5.40000000E+01  0.00000000E+00
  4.00000000E+02  5.20000000E+01  0.00000000E+00
  4.00000000E+02  5.00000000E+01  0.00000000E+00
  4.00000000E+02  4.80000000E+01  0.00000000E+00
  4.00000000E+02  4.60000000E+01  0.00000000E+00
  4.00000000E+02  4.40000000E+01  0.00000000E+00
  4.00000000E+02  4.20000000E+01  0.00000000E+00
  4.00000000E+02  4.00000000E+01  0.00000000E+00
  4.00000000E+02  3.80000000E+01  0.00000000E+00
  4.00000000E+02  3.60000000E+01  0.00000000E+00
  4.00000000E+02  3.40000000E+01  0.00000000E+00
  4.00000000E+02  3.20000000E+01  0.00000000E+00
  4.00000000E+02  3.00000000E+01  0.00000000E+00
  4.00000000E+02  2.80000000E+01  0.00000000E+00
  4.00000000E+02  2.60000000E+01  0.00000000E+00
  4.00000000E+02  2.40000000E+01  0.00000000E+00
  4.00000000E+02  2.20000000E+01  0.00000000E+00
  4.00000000E+02  2.00000000E+01  0.00000000E+00
  4.00000000E+02  1.80000000E+01  0.00000000E+00
  4.00000000E+02  1.60000000E+01  0.00000000E+00
  4.00000000E+02  1.40000000E+01  0.00000000E+00
  4.00000000E+02  1.20000000E+01  0.00000000E+00
  4.00000000E+02  1.00000000E+01  0.00000000E+00
  4.00000000E+02  8.00000000E+00  0.00000000E+00
  4.00000000E+02  6.00000000E+00  0.00000000E+00
  4.00000000E+02  4.00000000E+00  0.00000000E+00
  4.00000000E+02  2.00000000E+00  0.00000000E+00
  4.00000000E+02 -3.33066907E-14  0.00000000E+00
  4.10000000E+02  1.00000000E+02  0.00000000E+00
  4.10000000E+02  9.80000000E+01  0.00000000E+00
  4.10000000E+02  9.60000000E+01  0.00000000E+00
  4.10000000E+02  9.40000000E+01  0.00000000E+00
  4.10000000E+02  9.20000000E+01  0.00000000E+00
  4.10000000E+02  9.00000000E+01  0.00000000E+00
  4.10000000E+02  8.80000000E+01  0.00000000E+00
  4.10000000E+02  8.60000000E+01  0.00000000E+00
  4.10000000E+02  8.40000000E+01  0.00000000E+00
  4.10000000E+02  8.20000000E+01  0.00000000E+00
  4.10000000E+02  8.00000000E+01  0.00000000E+00
  4.10000000E+02  7.80000000E+01  0.00000000E+00
  4.10000000E+02  7.60000000E+01  0.00000000E+00
  4.10000000E+02  7.40000000E+01  0.00000000E+00
  4.10000000E+02  7.20000000E+01  0.00000000E+00
  4.10000000E+02  7.00000000E+01  0.00000000E+00
  4.10000000E+02  6.80000000E+01  0.00000000E+00
  4.10000000E+02  6.60000000E+01  0.00000000E+00
  4.10000000E+02  6.40000000E+01  0.00000000E+00
  4.10000000E+02  6.20000000E+01  0.00000000E+00
  4.10000000E+02  6.00000000E+01  0.00000000E+00
  4.10000000E+02  5.80000000E+01  0.00000000E+00
  4.10000000E+02  5.60000000E+01  0.00000000E+00
  4.10000000E+02  5.40000000E+01  0.00000000E+00
  4.10000000E+02  5.20000000E+01  0.00000000E+00
  4.10000000E+02  5.00000000E+01  0.00000000E+00
  4.10000000E+02  4.80000000E+01  0.00000000E+00
  4.10000000E+02  4.60000000E+01  0.00000000E+00
  4.10000000E+02  4.40000000E+01  0.00000000E+00
  4.10000000E+02  4.20000000E+01  0.00000000E+00
  4.10000000E+02  4.00000000E+01  0.00000000E+00
  4.10000000E+02  3.80000000E+01  0.00000000E+00
  4.10000000E+02  3.60000000E+01  0.00000000E+00
  4.10000000E+02  3.40000000E+01  0.00000000E+00
  4.10000000E+02  3.20000000E+01  0.00000000E+00
  4.10000000E+02  3.00000000E+01  0.00000000E+00
  4.10000000E+02  2.80000000E+01  0.00000000E+00
  4.10000000E+02  2.60000000E+01  0.00000000E+00
  4.10000000E+02  2.40000000E+01  0.00000000E+00
  4.10000000E+02  2.20000000E+01  0.00000000E+00
  4.10000000E+02  2.00000000E+01  0.00000000E+00
  4.10000000E+02  1.80000000E+01  0.00000000E+00
  4.10000000E+02  1.60000000E+01  0.00000000E+00
  4.10000000E+02  1.40000000E+01  0.00000000E+00
  4.10000000E+02  1.20000000E+01  0.00000000E+00
  4.10000000E+02  1.00000000E+01  0.00000000E+00
  4.10000000E+02  8.00000000E+00  0.00000000E+00
  4.10000000E+02  6.00000000E+00  0.00000000E+00
  4.10000000E+02  4.00000000E+00  0.00000000E+00
  4.10000000E+02  2.00000000E+00  0.00000000E+00
  4.10000000E+02 -3.33066907E-14  0.00000000E+00
  4.20000000E+02  1.00000000E+02  0.00000000E+00
  4.20000000E+02  9.80000000E+01  0.00000000E+00
  4.20000000E+02  9.60000000E+01  0.00000000E+00
  4.20000000E+02  9.40000000E+01  0.00000000E+00
  4.20000000E+02  9.20000000E+01  0.00000000E+00
  4.20000000E+02  9.00000000E+01  0.00000000E+00
  4.20000000E+02  8.80000000E+01  0.00000000E+00
  4.20000000E+02  8.60000000E+01  0.00000000E+00
  4.20000000E+02  8.40000000E+01  0.00000000E+00
  4.20000000E+02  8.20000000E+01  0.00000000E+00
  4.20000000E+02  8.00000000E+01  0.00000000E+00
  4.20000000E+02  7.80000000E+01  0.00000000E+00
  4.20000000E+02  7.60000000E+01  0.00000000E+00
  4.20000000E+02  7.40000000E+01  0.00000000E+00
  4.20000000E+02  7.20000000E+01  0.00000000E+00
  4.20000000E+02  7.00000000E+01  0.00000000E+00
  4.20000000E+02  6.80000000E+01  0.00000000E+00
  4.20000000E+02  6.60000000E+01  0.00000000E+00
  4.20000000E+02  6.40000000E+01  0.00000000E+00
  4.20000000E+02  6.20000000E+01  0.00000000E+00
  4.20000000E+02  6.00000000E+01  0.00000000E+00
  4.20000000E+02  5.80000000E+01  0.00000000E+00
  4.20000000E+02  5.60000000E+01  0.00000000E+00
  4.20000000E+02  5.40000000E+01  0.00000000E+00
  4.20000000E+02  5.20000000E+01  0.00000000E+00
  4.20000000E+02  5.00000000E+01  0.00000000E+00
  4.20000000E+02  4.80000000E+01  0.00000000E+00
  4.20000000E+02  4.60000000E+01  0.00000000E+00
  4.20000000E+02  4.40000000E+01  0.00000000E+00
  4.20000000E+02  4.20000000E+01  0.00000000E+00
  4.20000000E+02  4.00000000E+01  0.00000000E+00
  4.20000000E+02  3.80000000E+01  0.00000000E+00
  4.20000000E+02  3.60000000E+01  0.00000000E+00
  4.20000000E+02  3.40000000E+01  0.00000000E+00
  4.20000000E+02  3.20000000E+01  0.00000000E+00
  4.20000000E+02  3.00000000E+01  0.00000000E+00
  4.20000000E+02  2.80000000E+01  0.00000000E+00
  4.20000000E+02  2.60000000E+01  0.00000000E+00
  4.20000000E+02  2.40000000E+01  0.00000000E+00
  4.20000000E+02  2.20000000E+01  0.00000000E+00
  4.20000000E+02  2.00000000E+01  0.00000000E+00
  4.20000000E+02  1.80000000E+01  0.00000000E+00
  4.20000000E+02  1.60000000E+01  0.00000000E+00
  4.20000000E+02  1.40000000E+01  0.00000000E+00
  4.20000000E+02  1.20000000E+01  0.00000000E+00
  4.20000000E+02  1.00000000E+01  0.00000000E+00
  4.20000000E+02  8.00000000E+00  0.00000000E+00
  4.20000000E+02  6.00000000E+00  0.00000000E+00
  4.20000000E+02  4.00000000E+00  0.00000000E+00
  4.20000000E+02  2.00000000E+00  0.00000000E+00
  4.20000000E+02 -3.33066907E-14  0.00000000E+00
  4.30000000E+02  1.00000000E+02  0.00000000E+00
  4.30000000E+02  9.80000000E+01  0.00000000E+00
  4.30000000E+02  9.60000000E+01  0.00000000E+00
  4.30000000E+02  9.40000000E+01  0.00000000E+00
  4.30000000E+02  9.20000000E+01  0.00000000E+00
  4.30000000E+02  9.00000000E+01  0.00000000E+00
  4.30000000E+02  8.80000000E+01  0.00000000E+00
  4.30000000E+02  8.60000000E+01  0.00000000E+00
  4.30000000E+02  8.40000000E+01  0.00000000E+00
  4.30000000E+02  8.20000000E+01  0.00000000E+00
  4.30000000E+02  8.00000000E+01  0.00000000E+00
  4.30000000E+02  7.80000000E+01  0.00000000E+00
  4.30000000E+02  7.60000000E+01  0.00000000E+00
  4.30000000E+02  7.40000000E+01  0.00000000E+00
  4.30000000E+02  7.20000000E+01  0.00000000E+00
  4.30000000E+02  7.00000000E+01  0.00000000E+00
  4.30000000E+02  6.80000000E+01  0.00000000E+00
  4.30000000E+02  6.60000000E+01  0.00000000E+00
  4.30000000E+02  6.40000000E+01  0.00000000E+00
  4.30000000E+02  6.20000000E+01  0.00000000E+00
  4.30000000E+02  6.00000000E+01  0.00000000E+00
  4.30000000E+02  5.80000000E+01  0.00000000E+00
  4.30000000E+02  5.60000000E+01  0.00000000E+00
  4.30000000E+02  5.40000000E+01  0.00000000E+00
  4.30000000E+02  5.20000000E+01  0.00000000E+00
  4.30000000E+02  5.00000000E+01  0.00000000E+00
  4.30000000E+02  4.80000000E+01  0.00000000E+00
  4.30000000E+02  4.60000000E+01  0.00000000E+00
  4.30000000E+02  4.40000000E+01  0.00000000E+00
  4.30000000E+02  4.20000000E+01  0.00000000E+00
  4.30000000E+02  4.00000000E+01  0.00000000E+00
  4.30000000E+02  3.80000000E+01  0.00000000E+00
  4.30000000E+02  3.60000000E+01  0.00000000E+00
  4.30000000E+02  3.40000000E+01  0.00000000E+00
  4.30000000E+02  3.20000000E+01  0.00000000E+00
  4.30000000E+02  3.00000000E+01  0.00000000E+00
  4.30000000E+02  2.80000000E+01  0.00000000E+00
  4.30000000E+02  2.60000000E+01  0.00000000E+00
  4.30000000E+02  2.40000000E+01  0.00000000E+00
  4.30000000E+02  2.20000000E+01  0.00000000E+00
  4.30000000E+02  2.00000000E+01  0.00000000E+00
  4.30000000E+02  1.80000000E+01  0.00000000E+00
  4.30000000E+02  1.60000000E+01  0.00000000E+00
  4.30000000E+02  1.40000000E+01  0.00000000E+00
  4.30000000E+02  1.20000000E+01  0.00000000E+00
  4.30000000E+02  1.00000000E+01  0.00000000E+00
  4.30000000E+02  8.00000000E+00  0.00000000E+00
  4.30000000E+02  6.00000000E+00  0.00000000E+00
  4.30000000E+02  4.00000000E+00  0.00000000E+00
  4.30000000E+02  2.00000000E+00  0.00000000E+00
  4.30000000E+02 -3.33066907E-14  0.00000000E+00
  4.40000000E+02  1.00000000E+02  0.00000000E+00
  4.40000000E+02  9.80000000E+01  0.00000000E+00
  4.40000000E+02  9.60000000E+01  0.00000000E+00
  4.40000000E+02  9.40000000E+01  0.00000000E+00
  4.40000000E+02  9.20000000E+01  0.00000000E+00
  4.40000000E+02  9.00000000E+01  0.00000000E+00
  4.40000000E+02  8.80000000E+01  0.00000000E+00
  4.40000000E+02  8.60000000E+01  0.00000000E+00
  4.40000000E+02  8.40000000E+01  0.00000000E+00
  4.40000000E+02  8.20000000E+01  0.00000000E+00
  4.40000000E+02  8.00000000E+01  0.00000000E+00
  4.40000000E+02  7.80000000E+01  0.00000000E+00
  4.40000000E+02  7.60000000E+01  0.00000000E+00
  4.40000000E+02  7.40000000E+01  0.00000000E+00
  4.40000000E+02  7.20000000E+01  0.00000000E+00
  4.40000000E+02  7.00000000E+01  0.00000000E+00
  4.40000000E+02  6.80000000E+01  0.00000000E+00
  4.40000000E+02  6.60000000E+01  0.00000000E+00
  4.40000000E+02  6.40000000E+01  0.00000000E+00
  4.40000000E+02  6.20000000E+01  0.00000000E+00
  4.40000000E+02  6.00000000E+01  0.00000000E+00
  4.40000000E+02  5.80000000E+01  0.00000000E+00
  4.40000000E+02  5.60000000E+01  0.00000000E+00
  4.40000000E+02  5.40000000E+01  0.00000000E+00
  4.40000000E+02  5.20000000E+01  0.00000000E+00
  4.40000000E+02  5.00000000E+01  0.00000000E+00
  4.40000000E+02  4.80000000E+01  0.00000000E+00
  4.40000000E+02  4.60000000E+01  0.00000000E+00
  4.40000000E+02  4.40000000E+01  0.00000000E+00
  4.40000000E+02  4.20000000E+01  0.00000000E+00
  4.40000000E+02  4.00000000E+01  0.00000000E+00
  4.40000000E+02  3.80000000E+01  0.00000000E+00
  4.40000000E+02  3.60000000E+01  0.00000000E+00
  4.40000000E+02  3.40000000E+01  0.00000000E+00
  4.40000000E+02  3.20000000E+01  0.00000000E+00
  4.40000000E+02  3.00000000E+01  0.00000000E+00
  4.40000000E+02  2.80000000E+01  0.00000000E+00
  4.40000000E+02  2.60000000E+01  0.00000000E+00
  4.40000000E+02  2.40000000E+01  0.00000000E+00
  4.40000000E+02  2.20000000E+01  0.00000000E+00
  4.40000000E+02  2.00000000E+01  0.00000000E+00
  4.40000000E+02  1.80000000E+01  0.00000000E+00
  4.40000000E+02  1.60000000E+01  0.00000000E+00
  4.40000000E+02  1.40000000E+01  0.00000000E+00
  4.40000000E+02  1.20000000E+01  0.00000000E+00
  4.40000000E+02  1.00000000E+01  0.00000000E+00
  4.40000000E+02  8.00000000E+00  0.00000000E+00
  4.40000000E+02  6.00000000E+00  0.00000000E+00
  4.40000000E+02  4.00000000E+00  0.00000000E+00
  4.40000000E+02  2.00000000E+00  0.00000000E+00
  4.40000000E+02 -3.33066907E-14  0.00000000E+00
  4.50000000E+02  1.00000000E+02  0.00000000E+00
  4.50000000E+02  9.80000000E+01  0.00000000E+00
  4.50000000E+02  9.60000000E+01  0.00000000E+00
  4.50000000E+02  9.40000000E+01  0.00000000E+00
  4.50000000E+02  9.20000000E+01  0.00000000E+00
  4.50000000E+02  9.00000000E+01  0.00000000E+00
  4.50000000E+02  8.80000000E+01  0.00000000E+00
  4.50000000E+02  8.60000000E+01  0.00000000E+00
  4.50000000E+02  8.40000000E+01  0.00000000E+00
  4.50000000E+02  8.20000000E+01  0.00000000E+00
  4.50000000E+02  8.00000000E+01  0.00000000E+00
  4.50000000E+02  7.80000000E+01  0.00000000E+00
  4.50000000E+02  7.60000000E+01  0.00000000E+00
  4.50000000E+02  7.40000000E+01  0.00000000E+00
  4.50000000E+02  7.20000000E+01  0.00000000E+00
  4.50000000E+02  7.00000000E+01  0.00000000E+00
  4.50000000E+02  6.80000000E+01  0.00000000E+00
  4.50000000E+02  6.60000000E+01  0.00000000E+00
  4.50000000E+02  6.40000000E+01  0.00000000E+00
  4.50000000E+02  6.20000000E+01  0.00000000E+00
  4.50000000E+02  6.00000000E+01  0.00000000E+00
  4.50000000E+02  5.80000000E+01  0.00000000E+00
  4.50000000E+02  5.60000000E+01  0.00000000E+00
  4.50000000E+02  5.40000000E+01  0.00000000E+00
  4.50000000E+02  5.20000000E+01  0.00000000E+00
  4.50000000E+02  5.00000000E+01  0.00000000E+00
  4.50000000E+02  4.80000000E+01  0.00000000E+00
  4.50000000E+02  4.60000000E+01  0.00000000E+00
  4.50000000E+02  4.40000000E+01  0.00000000E+00
  4.50000000E+02  4.20000000E+01  0.00000000E+00
  4.50000000E+02  4.00000000E+01  0.00000000E+00
  4.50000000E+02  3.80000000E+01  0.00000000E+00
  4.50000000E+02  3.60000000E+01  0.00000000E+00
  4.50000000E+02  3.40000000E+01  0.00000000E+00
  4.50000000E+02  3.20000000E+01  0.00000000E+00
  4.50000000E+02  3.00000000E+01  0.00000000E+00
  4.50000000E+02  2.80000000E+01  0.00000000E+00
  4.50000000E+02  2.60000000E+01  0.00000000E+00
  4.50000000E+02  2.40000000E+01  0.00000000E+00
  4.50000000E+02  2.20000000E+01  0.00000000E+00
  4.50000000E+02  2.00000000E+01  0.00000000E+00
  4.50000000E+02  1.80000000E+01  0.00000000E+00
  4.50000000E+02  1.60000000E+01  0.00000000E+00
  4.50000000E+02  1.40000000E+01  0.00000000E+00
  4.50000000E+02  1.20000000E+01  0.00000000E+00
  4.50000000E+02  1.00000000E+01  0.00000000E+00
  4.50000000E+02  8.00000000E+00  0.00000000E+00
  4.50000000E+02  6.00000000E+00  0.00000000E+00
  4.50000000E+02  4.00000000E+00  0.00000000E+00
  4.50000000E+02  2.00000000E+00  0.00000000E+00
  4.50000000E+02 -3.33066907E-14  0.00000000E+00
  4.60000000E+02  1.00000000E+02  0.00000000E+00
  4.60000000E+02  9.80000000E+01  0.00000000E+00
  4.60000000E+02  9.60000000E+01  0.00000000E+00
  4.60000000E+02  9.40000000E+01  0.00000000E+00
  4.60000000E+02  9.20000000E+01  0.00000000E+00
  4.60000000E+02  9.00000000E+01  0.00000000E+00
  4.60000000E+02  8.80000000E+01  0.00000000E+00
  4.60000000E+02  8.60000000E+01  0.00000000E+00
  4.60000000E+02  8.40000000E+01  0.00000000E+00
  4.60000000E+02  8.20000000E+01  0.00000000E+00
  4.60000000E+02  8.00000000E+01  0.00000000E+00
  4.60000000E+02  7.80000000E+01  0.00000000E+00
  4.60000000E+02  7.60000000E+01  0.00000000E+00
  4.60000000E+02  7.40000000E+01  0.00000000E+00
  4.60000000E+02  7.20000000E+01  0.00000000E+00
  4.60000000E+02  7.00000000E+01  0.00000000E+00
  4.60000000E+02  6.80000000E+01  0.00000000E+00
  4.60000000E+02  6.60000000E+01  0.00000000E+00
  4.60000000E+02  6.40000000E+01  0.00000000E+00
  4.60000000E+02  6.20000000E+01  0.00000000E+00
  4.60000000E+02  6.00000000E+01  0.00000000E+00
  4.60000000E+02  5.80000000E+01  0.00000000E+00
  4.60000000E+02  5.60000000E+01  0.00000000E+00
  4.60000000E+02  5.40000000E+01  0.00000000E+00
  4.60000000E+02  5.20000000E+01  0.00000000E+00
  4.60000000E+02  5.00000000E+01  0.00000000E+00
  4.60000000E+02  4.80000000E+01  0.00000000E+00
  4.60000000E+02  4.60000000E+01  0.00000000E+00
  4.60000000E+02  4.40000000E+01  0.00000000E+00
  4.60000000E+02  4.20000000E+01  0.00000000E+00
  4.60000000E+02  4.00000000E+01  0.00000000E+00
  4.60000000E+02  3.80000000E+01  0.00000000E+00
  4.60000000E+02  3.60000000E+01  0.00000000E+00
  4.60000000E+02  3.40000000E+01  0.00000000E+00
  4.60000000E+02  3.20000000E+01  0.00000000E+00
  4.60000000E+02  3.00000000E+01  0.00000000E+00
  4.60000000E+02  2.80000000E+01  0.00000000E+00
  4.60000000E+02  2.60000000E+01  0.00000000E+00
  4.60000000E+02  2.40000000E+01  0.00000000E+00
  4.60000000E+02  2.20000000E+01  0.00000000E+00
  4.60000000E+02  2.00000000E+01  0.00000000E+00
  4.60000000E+02  1.80000000E+01  0.00000000E+00
  4.60000000E+02  1.60000000E+01  0.00000000E+00
  4.60000000E+02  1.40000000E+01  0.00000000E+00
  4.60000000E+02  1.20000000E+01  0.00000000E+00
  4.60000000E+02  1.00000000E+01  0.00000000E+00
  4.60000000E+02  8.00000000E+00  0.00000000E+00
  4.60000000E+02  6.00000000E+00  0.00000000E+00
  4.60000000E+02  4.00000000E+00  0.00000000E+00
  4.60000000E+02  2.00000000E+00  0.00000000E+00
  4.60000000E+02 -3.33066907E-14  0.00000000E+00
  4.70000000E+02  1.00000000E+02  0.00000000E+00
  4.70000000E+02  9.80000000E+01  0.00000000E+00
  4.70000000E+02  9.60000000E+01  0.00000000E+00
  4.70000000E+02  9.40000000E+01  0.00000000E+00
  4.70000000E+02  9.20000000E+01  0.00000000E+00
  4.70000000E+02  9.00000000E+01  0.00000000E+00
  4.70000000E+02  8.80000000E+01  0.00000000E+00
  4.70000000E+02  8.60000000E+01  0.00000000E+00
  4.70000000E+02  8.40000000E+01  0.00000000E+00
  4.70000000E+02  8.20000000E+01  0.00000000E+00
  4.70000000E+02  8.00000000E+01  0.00000000E+00
  4.70000000E+02  7.80000000E+01  0.00000000E+00
  4.70000000E+02  7.60000000E+01  0.00000000E+00
  4.70000000E+02  7.40000000E+01  0.00000000E+00
  4.70000000E+02  7.20000000E+01  0.00000000E+00
  4.70000000E+02  7.00000000E+01  0.00000000E+00
  4.70000000E+02  6.80000000E+01  0.00000000E+00
  4.70000000E+02  6.60000000E+01  0.00000000E+00
  4.70000000E+02  6.40000000E+01  0.00000000E+00
  4.70000000E+02  6.20000000E+01  0.00000000E+00
  4.70000000E+02  6.00000000E+01  0.00000000E+00
  4.70000000E+02  5.80000000E+01  0.00000000E+00
  4.70000000E+02  5.60000000E+01  0.00000000E+00
  4.70000000E+02  5.40000000E+01  0.00000000E+00
  4.70000000E+02  5.20000000E+01  0.00000000E+00
  4.70000000E+02  5.00000000E+01  0.00000000E+00
  4.70000000E+02  4.80000000E+01  0.00000000E+00
  4.70000000E+02  4.60000000E+01  0.00000000E+00
  4.70000000E+02  4.40000000E+01  0.00000000E+00
  4.70000000E+02  4.20000000E+01  0.00000000E+00
  4.70000000E+02  4.00000000E+01  0.00000000E+00
  4.70000000E+02  3.80000000E+01  0.00000000E+00
  4.70000000E+02  3.60000000E+01  0.00000000E+00
  4.70000000E+02  3.40000000E+01  0.00000000E+00
  4.70000000E+02  3.20000000E+01  0.00000000E+00
  4.70000000E+02  3.00000000E+01  0.00000000E+00
  4.70000000E+02  2.80000000E+01  0.00000000E+00
  4.70000000E+02  2.60000000E+01  0.00000000E+00
  4.70000000E+02  2.40000000E+01  0.00000000E+00
  4.70000000E+02  2.20000000E+01  0.00000000E+00
  4.70000000E+02  2.00000000E+01  0.00000000E+00
  4.70000000E+02  1.80000000E+01  0.00000000E+00
  4.70000000E+02  1.60000000E+01  0.00000000E+00
  4.70000000E+02  1.40000000E+01  0.00000000E+00
  4.70000000E+02  1.20000000E+01  0.00000000E+00
  4.70000000E+02  1.00000000E+01  0.00000000E+00
  4.70000000E+02  8.00000000E+00  0.00000000E+00
  4.70000000E+02  6.00000000E+00  0.00000000E+00
  4.70000000E+02  4.00000000E+00  0.00000000E+00
  4.70000000E+02  2.00000000E+00  0.00000000E+00
  4.70000000E+02 -3.33066907E-14  0.00000000E+00
  4.80000000E+02  1.00000000E+02  0.00000000E+00
  4.80000000E+02  9.80000000E+01  0.00000000E+00
  4.80000000E+02  9.60000000E+01  0.00000000E+00
  4.80000000E+02  9.40000000E+01  0.00000000E+00
  4.80000000E+02  9.20000000E+01  0.00000000E+00
  4.80000000E+02  9.00000000E+01  0.00000000E+00
  4.80000000E+02  8.80000000E+01  0.00000000E+00
  4.80000000E+02  8.60000000E+01  0.00000000E+00
  4.80000000E+02  8.40000000E+01  0.00000000E+00
  4.80000000E+02  8.20000000E+01  0.00000000E+00
  4.80000000E+02  8.00000000E+01  0.00000000E+00
  4.80000000E+02  7.80000000E+01  0.00000000E+00
  4.80000000E+02  7.60000000E+01  0.00000000E+00
  4.80000000E+02  7.40000000E+01  0.00000000E+00
  4.80000000E+02  7.20000000E+01  0.00000000E+00
  4.80000000E+02  7.00000000E+01  0.00000000E+00
  4.80000000E+02  6.80000000E+01  0.00000000E+00
  4.80000000E+02  6.60000000E+01  0.00000000E+00
  4.80000000E+02  6.40000000E+01  0.00000000E+00
  4.80000000E+02  6.20000000E+01  0.00000000E+00
  4.80000000E+02  6.00000000E+01  0.00000000E+00
  4.80000000E+02  5.80000000E+01  0.00000000E+00
  4.80000000E+02  5.60000000E+01  0.00000000E+00
  4.80000000E+02  5.40000000E+01  0.00000000E+00
  4.80000000E+02  5.20000000E+01  0.00000000E+00
  4.80000000E+02  5.00000000E+01  0.00000000E+00
  4.80000000E+02  4.80000000E+01  0.00000000E+00
  4.80000000E+02  4.60000000E+01  0.00000000E+00
  4.80000000E+02  4.40000000E+01  0.00000000E+00
  4.80000000E+02  4.20000000E+01  0.00000000E+00
  4.80000000E+02  4.00000000E+01  0.00000000E+00
  4.80000000E+02  3.80000000E+01  0.00000000E+00
  4.80000000E+02  3.60000000E+01  0.00000000E+00
  4.80000000E+02  3.40000000E+01  0.00000000E+00
  4.80000000E+02  3.20000000E+01  0.00000000E+00
  4.80000000E+02  3.00000000E+01  0.00000000E+00
  4.80000000E+02  2.80000000E+01  0.00000000E+00
  4.80000000E+02  2.60000000E+01  0.00000000E+00
  4.80000000E+02  2.40000000E+01  0.00000000E+00
  4.80000000E+02  2.20000000E+01  0.00000000E+00
  4.80000000E+02  2.00000000E+01  0.00000000E+00
  4.80000000E+02  1.80000000E+01  0.00000000E+00
  4.80000000E+02  1.60000000E+01  0.00000000E+00
  4.80000000E+02  1.40000000E+01  0.00000000E+00
  4.80000000E+02  1.20000000E+01  0.00000000E+00
  4.80000000E+02  1.00000000E+01  0.00000000E+00
  4.80000000E+02  8.00000000E+00  0.00000000E+00
  4.80000000E+02  6.00000000E+00  0.00000000E+00
  4.80000000E+02  4.00000000E+00  0.00000000E+00
  4.80000000E+02  2.00000000E+00  0.00000000E+00
  4.80000000E+02 -3.33066907E-14  0.00000000E+00
  4.90000000E+02  1.00000000E+02  0.00000000E+00
  4.90000000E+02  9.80000000E+01  0.00000000E+00
  4.90000000E+02  9.60000000E+01  0.00000000E+00
  4.90000000E+02  9.40000000E+01  0.00000000E+00
  4.90000000E+02  9.20000000E+01  0.00000000E+00
  4.90000000E+02  9.00000000E+01  0.00000000E+00
  4.90000000E+02  8.80000000E+01  0.00000000E+00
  4.90000000E+02  8.60000000E+01  0.00000000E+00
  4.90000000E+02  8.40000000E+01  0.00000000E+00
  4.90000000E+02  8.20000000E+01  0.00000000E+00
  4.90000000E+02  8.00000000E+01  0.00000000E+00
  4.90000000E+02  7.80000000E+01  0.00000000E+00
  4.90000000E+02  7.60000000E+01  0.00000000E+00
  4.90000000E+02  7.40000000E+01  0.00000000E+00
  4.90000000E+02  7.20000000E+01  0.00000000E+00
  4.90000000E+02  7.00000000E+01  0.00000000E+00
  4.90000000E+02  6.80000000E+01  0.00000000E+00
  4.90000000E+02  6.60000000E+01  0.00000000E+00
  4.90000000E+02  6.40000000E+01  0.00000000E+00
  4.90000000E+02  6.20000000E+01  0.00000000E+00
  4.90000000E+02  6.00000000E+01  0.00000000E+00
  4.90000000E+02  5.80000000E+01  0.00000000E+00
  4.90000000E+02  5.60000000E+01  0.00000000E+00
  4.90000000E+02  5.40000000E+01  0.00000000E+00
  4.90000000E+02  5.20000000E+01  0.00000000E+00
  4.90000000E+02  5.00000000E+01  0.00000000E+00
  4.90000000E+02  4.80000000E+01  0.00000000E+00
  4.90000000E+02  4.60000000E+01  0.00000000E+00
  4.90000000E+02  4.40000000E+01  0.00000000E+00
  4.90000000E+02  4.20000000E+01  0.00000000E+00
  4.90000000E+02  4.00000000E+01  0.00000000E+00
  4.90000000E+02  3.80000000E+01  0.00000000E+00
  4.90000000E+02  3.60000000E+01  0.00000000E+00
  4.90000000E+02  3.40000000E+01  0.00000000E+00
  4.90000000E+02  3.20000000E+01  0.00000000E+00
  4.90000000E+02  3.00000000E+01  0.00000000E+00
  4.90000000E+02  2.80000000E+01  0.00000000E+00
  4.90000000E+02  2.60000000E+01  0.00000000E+00
  4.90000000E+02  2.40000000E+01  0.00000000E+00
  4.90000000E+02  2.20000000E+01  0.00000000E+00
  4.90000000E+02  2.00000000E+01  0.00000000E+00
  4.90000000E+02  1.80000000E+01  0.00000000E+00
  4.90000000E+02  1.60000000E+01  0.00000000E+00
  4.90000000E+02  1.40000000E+01  0.00000000E+00
  4.90000000E+02  1.20000000E+01  0.00000000E+00
  4.90000000E+02  1.00000000E+01  0.00000000E+00
  4.90000000E+02  8.00000000E+00  0.00000000E+00
  4.90000000E+02  6.00000000E+00  0.00000000E+00
  4.90000000E+02  4.00000000E+00  0.00000000E+00
  4.90000000E+02  2.00000000E+00  0.00000000E+00
  4.90000000E+02 -3.33066907E-14  0.00000000E+00
  5.00000000E+02  1.00000000E+02  0.00000000E+00
  5.00000000E+02  9.80000000E+01  0.00000000E+00
  5.00000000E+02  9.60000000E+01  0.00000000E+00
  5.00000000E+02  9.40000000E+01  0.00000000E+00
  5.00000000E+02  9.20000000E+01  0.00000000E+00
  5.00000000E+02  9.00000000E+01  0.00000000E+00
  5.00000000E+02  8.80000000E+01  0.00000000E+00
  5.00000000E+02  8.60000000E+01  0.00000000E+00
  5.00000000E+02  8.40000000E+01  0.00000000E+00
  5.00000000E+02  8.20000000E+01  0.00000000E+00
  5.00000000E+02  8.00000000E+01  0.00000000E+00
  5.00000000E+02  7.80000000E+01  0.00000000E+00
  5.00000000E+02  7.60000000E+01  0.00000000E+00
  5.00000000E+02  7.40000000E+01  0.00000000E+00
  5.00000000E+02  7.20000000E+01  0.00000000E+00
  5.00000000E+02  7.00000000E+01  0.00000000E+00
  5.00000000E+02  6.80000000E+01  0.00000000E+00
  5.00000000E+02  6.60000000E+01  0.00000000E+00
  5.00000000E+02  6.40000000E+01  0.00000000E+00
  5.00000000E+02  6.20000000E+01  0.00000000E+00
  5.00000000E+02  6.00000000E+01  0.00000000E+00
  5.00000000E+02  5.80000000E+01  0.00000000E+00
  5.00000000E+02  5.60000000E+01  0.00000000E+00
  5.00000000E+02  5.40000000E+01  0.00000000E+00
  5.00000000E+02  5.20000000E+01  0.00000000E+00
  5.00000000E+02  5.00000000E+01  0.00000000E+00
  5.00000000E+02  4.80000000E+01  0.00000000E+00
  5.00000000E+02  4.60000000E+01  0.00000000E+00
  5.00000000E+02  4.40000000E+01  0.00000000E+00
  5.00000000E+02  4.20000000E+01  0.00000000E+00
  5.00000000E+02  4.00000000E+01  0.00000000E+00
  5.00000000E+02  3.80000000E+01  0.00000000E+00
  5.00000000E+02  3.60000000E+01  0.00000000E+00
  5.00000000E+02  3.40000000E+01  0.00000000E+00
  5.00000000E+02  3.20000000E+01  0.00000000E+00
  5.00000000E+02  3.00000000E+01  0.00000000E+00
  5.00000000E+02  2.80000000E+01  0.00000000E+00
  5.00000000E+02  2.60000000E+01  0.00000000E+00
  5.00000000E+02  2.40000000E+01  0.00000000E+00
  5.00000000E+02  2.20000000E+01  0.00000000E+00
  5.00000000E+02  2.00000000E+01  0.00000000E+00
  5.00000000E+02  1.80000000E+01  0.00000000E+00
  5.00000000E+02  1.60000000E+01  0.00000000E+00
  5.00000000E+02  1.40000000E+01  0.00000000E+00
  5.00000000E+02  1.20000000E+01  0.00000000E+00
  5.00000000E+02  1.00000000E+01  0.00000000E+00
  5.00000000E+02  8.00000000E+00  0.00000000E+00
  5.00000000E+02  6.00000000E+00  0.00000000E+00
  5.00000000E+02  4.00000000E+00  0.00000000E+00
  5.00000000E+02  2.00000000E+00  0.00000000E+00
  5.00000000E+02 -3.33066907E-14  0.00000000E+00
  5.10000000E+02  1.00000000E+02  0.00000000E+00
  5.10000000E+02  9.80000000E+01  0.00000000E+00
  5.10000000E+02  9.60000000E+01  0.00000000E+00
  5.10000000E+02  9.40000000E+01  0.00000000E+00
  5.10000000E+02  9.20000000E+01  0.00000000E+00
  5.10000000E+02  9.00000000E+01  0.00000000E+00
  5.10000000E+02  8.80000000E+01  0.00000000E+00
  5.10000000E+02  8.60000000E+01  0.00000000E+00
  5.10000000E+02  8.40000000E+01  0.00000000E+00
  5.10000000E+02  8.20000000E+01  0.00000000E+00
  5.10000000E+02  8.00000000E+01  0.00000000E+00
  5.10000000E+02  7.80000000E+01  0.00000000E+00
  5.10000000E+02  7.60000000E+01  0.00000000E+00
  5.10000000E+02  7.40000000E+01  0.00000000E+00
  5.10000000E+02  7.20000000E+01  0.00000000E+00
  5.10000000E+02  7.00000000E+01  0.00000000E+00
  5.10000000E+02  6.80000000E+01  0.00000000E+00
  5.10000000E+02  6.60000000E+01  0.00000000E+00
  5.10000000E+02  6.40000000E+01  0.00000000E+00
  5.10000000E+02  6.20000000E+01  0.00000000E+00
  5.10000000E+02  6.00000000E+01  0.00000000E+00
  5.10000000E+02  5.80000000E+01  0.00000000E+00
  5.10000000E+02  5.60000000E+01  0.00000000E+00
  5.10000000E+02  5.40000000E+01  0.00000000E+00
  5.10000000E+02  5.20000000E+01  0.00000000E+00
  5.10000000E+02  5.00000000E+01  0.00000000E+00
  5.10000000E+02  4.80000000E+01  0.00000000E+00
  5.10000000E+02  4.60000000E+01  0.00000000E+00
  5.10000000E+02  4.40000000E+01  0.00000000E+00
  5.10000000E+02  4.20000000E+01  0.00000000E+00
  5.10000000E+02  4.00000000E+01  0.00000000E+00
  5.10000000E+02  3.80000000E+01  0.00000000E+00
  5.10000000E+02  3.60000000E+01  0.00000000E+00
  5.10000000E+02  3.40000000E+01  0.00000000E+00
  5.10000000E+02  3.20000000E+01  0.00000000E+00
  5.10000000E+02  3.00000000E+01  0.00000000E+00
  5.10000000E+02  2.80000000E+01  0.00000000E+00
  5.10000000E+02  2.60000000E+01  0.00000000E+00
  5.10000000E+02  2.40000000E+01  0.00000000E+00
  5.10000000E+02  2.20000000E+01  0.00000000E+00
  5.10000000E+02  2.00000000E+01  0.00000000E+00
  5.10000000E+02  1.80000000E+01  0.00000000E+00
  5.10000000E+02  1.60000000E+01  0.00000000E+00
  5.10000000E+02  1.40000000E+01  0.00000000E+00
  5.10000000E+02  1.20000000E+01  0.00000000E+00
  5.10000000E+02  1.00000000E+01  0.00000000E+00
  5.10000000E+02  8.00000000E+00  0.00000000E+00
  5.10000000E+02  6.00000000E+00  0.00000000E+00
  5.10000000E+02  4.00000000E+00  0.00000000E+00
  5.10000000E+02  2.00000000E+00  0.00000000E+00
  5.10000000E+02 -3.33066907E-14  0.00000000E+00
  5.20000000E+02  1.00000000E+02  0.00000000E+00
  5.20000000E+02  9.80000000E+01  0.00000000E+00
  5.20000000E+02  9.60000000E+01  0.00000000E+00
  5.20000000E+02  9.40000000E+01  0.00000000E+00
  5.20000000E+02  9.20000000E+01  0.00000000E+00
  5.20000000E+02  9.00000000E+01  0.00000000E+00
  5.20000000E+02  8.80000000E+01  0.00000000E+00
  5.20000000E+02  8.60000000E+01  0.00000000E+00
  5.20000000E+02  8.40000000E+01  0.00000000E+00
  5.20000000E+02  8.20000000E+01  0.00000000E+00
  5.20000000E+02  8.00000000E+01  0.00000000E+00
  5.20000000E+02  7.80000000E+01  0.00000000E+00
  5.20000000E+02  7.60000000E+01  0.00000000E+00
  5.20000000E+02  7.40000000E+01  0.00000000E+00
  5.20000000E+02  7.20000000E+01  0.00000000E+00
  5.20000000E+02  7.00000000E+01  0.00000000E+00
  5.20000000E+02  6.80000000E+01  0.00000000E+00
  5.20000000E+02  6.60000000E+01  0.00000000E+00
  5.20000000E+02  6.40000000E+01  0.00000000E+00
  5.20000000E+02  6.20000000E+01  0.00000000E+00
  5.20000000E+02  6.00000000E+01  0.00000000E+00
  5.20000000E+02  5.80000000E+01  0.00000000E+00
  5.20000000E+02  5.60000000E+01  0.00000000E+00
  5.20000000E+02  5.40000000E+01  0.00000000E+00
  5.20000000E+02  5.20000000E+01  0.00000000E+00
  5.20000000E+02  5.00000000E+01  0.00000000E+00
  5.20000000E+02  4.80000000E+01  0.00000000E+00
  5.20000000E+02  4.60000000E+01  0.00000000E+00
  5.20000000E+02  4.40000000E+01  0.00000000E+00
  5.20000000E+02  4.20000000E+01  0.00000000E+00
  5.20000000E+02  4.00000000E+01  0.00000000E+00
  5.20000000E+02  3.80000000E+01  0.00000000E+00
  5.20000000E+02  3.60000000E+01  0.00000000E+00
  5.20000000E+02  3.40000000E+01  0.00000000E+00
  5.20000000E+02  3.20000000E+01  0.00000000E+00
  5.20000000E+02  3.00000000E+01  0.00000000E+00
  5.20000000E+02  2.80000000E+01  0.00000000E+00
  5.20000000E+02  2.60000000E+01  0.00000000E+00
  5.20000000E+02  2.40000000E+01  0.00000000E+00
  5.20000000E+02  2.20000000E+01  0.00000000E+00
  5.20000000E+02  2.00000000E+01  0.00000000E+00
  5.20000000E+02  1.80000000E+01  0.00000000E+00
  5.20000000E+02  1.60000000E+01  0.00000000E+00
  5.20000000E+02  1.40000000E+01  0.00000000E+00
  5.20000000E+02  1.20000000E+01  0.00000000E+00
  5.20000000E+02  1.00000000E+01  0.00000000E+00
  5.20000000E+02  8.00000000E+00  0.00000000E+00
  5.20000000E+02  6.00000000E+00  0.00000000E+00
  5.20000000E+02  4.00000000E+00  0.00000000E+00
  5.20000000E+02  2.00000000E+00  0.00000000E+00
  5.20000000E+02 -3.33066907E-14  0.00000000E+00
  5.30000000E+02  1.00000000E+02  0.00000000E+00
  5.30000000E+02  9.80000000E+01  0.00000000E+00
  5.30000000E+02  9.60000000E+01  0.00000000E+00
  5.30000000E+02  9.40000000E+01  0.00000000E+00
  5.30000000E+02  9.20000000E+01  0.00000000E+00
  5.30000000E+02  9.00000000E+01  0.00000000E+00
  5.30000000E+02  8.80000000E+01  0.00000000E+00
  5.30000000E+02  8.60000000E+01  0.00000000E+00
  5.30000000E+02  8.40000000E+01  0.00000000E+00
  5.30000000E+02  8.20000000E+01  0.00000000E+00
  5.30000000E+02  8.00000000E+01  0.00000000E+00
  5.30000000E+02  7.80000000E+01  0.00000000E+00
  5.30000000E+02  7.60000000E+01  0.00000000E+00
  5.30000000E+02  7.40000000E+01  0.00000000E+00
  5.30000000E+02  7.20000000E+01  0.00000000E+00
  5.30000000E+02  7.00000000E+01  0.00000000E+00
  5.30000000E+02  6.80000000E+01  0.00000000E+00
  5.30000000E+02  6.60000000E+01  0.00000000E+00
  5.30000000E+02  6.40000000E+01  0.00000000E+00
  5.30000000E+02  6.20000000E+01  0.00000000E+00
  5.30000000E+02  6.00000000E+01  0.00000000E+00
  5.30000000E+02  5.80000000E+01  0.00000000E+00
  5.30000000E+02  5.60000000E+01  0.00000000E+00
  5.30000000E+02  5.40000000E+01  0.00000000E+00
  5.30000000E+02  5.20000000E+01  0.00000000E+00
  5.30000000E+02  5.00000000E+01  0.00000000E+00
  5.30000000E+02  4.80000000E+01  0.00000000E+00
  5.30000000E+02  4.60000000E+01  0.00000000E+00
  5.30000000E+02  4.40000000E+01  0.00000000E+00
  5.30000000E+02  4.20000000E+01  0.00000000E+00
  5.30000000E+02  4.00000000E+01  0.00000000E+00
  5.30000000E+02  3.80000000E+01  0.00000000E+00
  5.30000000E+02  3.60000000E+01  0.00000000E+00
  5.30000000E+02  3.40000000E+01  0.00000000E+00
  5.30000000E+02  3.20000000E+01  0.00000000E+00
  5.30000000E+02  3.00000000E+01  0.00000000E+00
  5.30000000E+02  2.80000000E+01  0.00000000E+00
  5.30000000E+02  2.60000000E+01  0.00000000E+00
  5.30000000E+02  2.40000000E+01  0.00000000E+00
  5.30000000E+02  2.20000000E+01  0.00000000E+00
  5.30000000E+02  2.00000000E+01  0.00000000E+00
  5.30000000E+02  1.80000000E+01  0.00000000E+00
  5.30000000E+02  1.60000000E+01  0.00000000E+00
  5.30000000E+02  1.40000000E+01  0.00000000E+00
  5.30000000E+02  1.20000000E+01  0.00000000E+00
  5.30000000E+02  1.00000000E+01  0.00000000E+00
  5.30000000E+02  8.00000000E+00  0.00000000E+00
  5.30000000E+02  6.00000000E+00  0.00000000E+00
  5.30000000E+02  4.00000000E+00  0.00000000E+00
  5.30000000E+02  2.00000000E+00  0.00000000E+00
  5.30000000E+02 -3.33066907E-14  0.00000000E+00
  5.40000000E+02  1.00000000E+02  0.00000000E+00
  5.40000000E+02  9.80000000E+01  0.00000000E+00
  5.40000000E+02  9.60000000E+01  0.00000000E+00
  5.40000000E+02  9.40000000E+01  0.00000000E+00
  5.40000000E+02  9.20000000E+01  0.00000000E+00
  5.40000000E+02  9.00000000E+01  0.00000000E+00
  5.40000000E+02  8.80000000E+01  0.00000000E+00
  5.40000000E+02  8.60000000E+01  0.00000000E+00
  5.40000000E+02  8.40000000E+01  0.00000000E+00
  5.40000000E+02  8.20000000E+01  0.00000000E+00
  5.40000000E+02  8.00000000E+01  0.00000000E+00
  5.40000000E+02  7.80000000E+01  0.00000000E+00
  5.40000000E+02  7.60000000E+01  0.00000000E+00
  5.40000000E+02  7.40000000E+01  0.00000000E+00
  5.40000000E+02  7.20000000E+01  0.00000000E+00
  5.40000000E+02  7.00000000E+01  0.00000000E+00
  5.40000000E+02  6.80000000E+01  0.00000000E+00
  5.40000000E+02  6.60000000E+01  0.00000000E+00
  5.40000000E+02  6.40000000E+01  0.00000000E+00
  5.40000000E+02  6.20000000E+01  0.00000000E+00
  5.40000000E+02  6.00000000E+01  0.00000000E+00
  5.40000000E+02  5.80000000E+01  0.00000000E+00
  5.40000000E+02  5.60000000E+01  0.00000000E+00
  5.40000000E+02  5.40000000E+01  0.00000000E+00
  5.40000000E+02  5.20000000E+01  0.00000000E+00
  5.40000000E+02  5.00000000E+01  0.00000000E+00
  5.40000000E+02  4.80000000E+01  0.00000000E+00
  5.40000000E+02  4.60000000E+01  0.00000000E+00
  5.40000000E+02  4.40000000E+01  0.00000000E+00
  5.40000000E+02  4.20000000E+01  0.00000000E+00
  5.40000000E+02  4.00000000E+01  0.00000000E+00
  5.40000000E+02  3.80000000E+01  0.00000000E+00
  5.40000000E+02  3.60000000E+01  0.00000000E+00
  5.40000000E+02  3.40000000E+01  0.00000000E+00
  5.40000000E+02  3.20000000E+01  0.00000000E+00
  5.40000000E+02  3.00000000E+01  0.00000000E+00
  5.40000000E+02  2.80000000E+01  0.00000000E+00
  5.40000000E+02  2.60000000E+01  0.00000000E+00
  5.40000000E+02  2.40000000E+01  0.00000000E+00
  5.40000000E+02  2.20000000E+01  0.00000000E+00
  5.40000000E+02  2.00000000E+01  0.00000000E+00
  5.40000000E+02  1.80000000E+01  0.00000000E+00
  5.40000000E+02  1.60000000E+01  0.00000000E+00
  5.40000000E+02  1.40000000E+01  0.00000000E+00
  5.40000000E+02  1.20000000E+01  0.00000000E+00
  5.40000000E+02  1.00000000E+01  0.00000000E+00
  5.40000000E+02  8.00000000E+00  0.00000000E+00
  5.40000000E+02  6.00000000E+00  0.00000000E+00
  5.40000000E+02  4.00000000E+00  0.00000000E+00
  5.40000000E+02  2.00000000E+00  0.00000000E+00
  5.40000000E+02 -3.33066907E-14  0.00000000E+00
  5.50000000E+02  1.00000000E+02  0.00000000E+00
  5.50000000E+02  9.80000000E+01  0.00000000E+00
  5.50000000E+02  9.60000000E+01  0.00000000E+00
  5.50000000E+02  9.40000000E+01  0.00000000E+00
  5.50000000E+02  9.20000000E+01  0.00000000E+00
  5.50000000E+02  9.00000000E+01  0.00000000E+00
  5.50000000E+02  8.80000000E+01  0.00000000E+00
  5.50000000E+02  8.60000000E+01  0.00000000E+00
  5.50000000E+02  8.40000000E+01  0.00000000E+00
  5.50000000E+02  8.20000000E+01  0.00000000E+00
  5.50000000E+02  8.00000000E+01  0.00000000E+00
  5.50000000E+02  7.80000000E+01  0.00000000E+00
  5.50000000E+02  7.60000000E+01  0.00000000E+00
  5.50000000E+02  7.40000000E+01  0.00000000E+00
  5.50000000E+02  7.20000000E+01  0.00000000E+00
  5.50000000E+02  7.00000000E+01  0.00000000E+00
  5.50000000E+02  6.80000000E+01  0.00000000E+00
  5.50000000E+02  6.60000000E+01  0.00000000E+00
  5.50000000E+02  6.40000000E+01  0.00000000E+00
  5.50000000E+02  6.20000000E+01  0.00000000E+00
  5.50000000E+02  6.00000000E+01  0.00000000E+00
  5.50000000E+02  5.80000000E+01  0.00000000E+00
  5.50000000E+02  5.60000000E+01  0.00000000E+00
  5.50000000E+02  5.40000000E+01  0.00000000E+00
  5.50000000E+02  5.20000000E+01  0.00000000E+00
  5.50000000E+02  5.00000000E+01  0.00000000E+00
  5.50000000E+02  4.80000000E+01  0.00000000E+00
  5.50000000E+02  4.60000000E+01  0.00000000E+00
  5.50000000E+02  4.40000000E+01  0.00000000E+00
  5.50000000E+02  4.20000000E+01  0.00000000E+00
  5.50000000E+02  4.00000000E+01  0.00000000E+00
  5.50000000E+02  3.80000000E+01  0.00000000E+00
  5.50000000E+02  3.60000000E+01  0.00000000E+00
  5.50000000E+02  3.40000000E+01  0.00000000E+00
  5.50000000E+02  3.20000000E+01  0.00000000E+00
  5.50000000E+02  3.00000000E+01  0.00000000E+00
  5.50000000E+02  2.80000000E+01  0.00000000E+00
  5.50000000E+02  2.60000000E+01  0.00000000E+00
  5.50000000E+02  2.40000000E+01  0.00000000E+00
  5.50000000E+02  2.20000000E+01  0.00000000E+00
  5.50000000E+02  2.00000000E+01  0.00000000E+00
  5.50000000E+02  1.80000000E+01  0.00000000E+00
  5.50000000E+02  1.60000000E+01  0.00000000E+00
  5.50000000E+02  1.40000000E+01  0.00000000E+00
  5.50000000E+02  1.20000000E+01  0.00000000E+00
  5.50000000E+02  1.00000000E+01  0.00000000E+00
  5.50000000E+02  8.00000000E+00  0.00000000E+00
  5.50000000E+02  6.00000000E+00  0.00000000E+00
  5.50000000E+02  4.00000000E+00  0.00000000E+00
  5.50000000E+02  2.00000000E+00  0.00000000E+00
  5.50000000E+02 -3.33066907E-14  0.00000000E+00
  5.60000000E+02  1.00000000E+02  0.00000000E+00
  5.60000000E+02  9.80000000E+01  0.00000000E+00
  5.60000000E+02  9.60000000E+01  0.00000000E+00
  5.60000000E+02  9.40000000E+01  0.00000000E+00
  5.60000000E+02  9.20000000E+01  0.00000000E+00
  5.60000000E+02  9.00000000E+01  0.00000000E+00
  5.60000000E+02  8.80000000E+01  0.00000000E+00
  5.60000000E+02  8.60000000E+01  0.00000000E+00
  5.60000000E+02  8.40000000E+01  0.00000000E+00
  5.60000000E+02  8.20000000E+01  0.00000000E+00
  5.60000000E+02  8.00000000E+01  0.00000000E+00
  5.60000000E+02  7.80000000E+01  0.00000000E+00
  5.60000000E+02  7.60000000E+01  0.00000000E+00
  5.60000000E+02  7.40000000E+01  0.00000000E+00
  5.60000000E+02  7.20000000E+01  0.00000000E+00
  5.60000000E+02  7.00000000E+01  0.00000000E+00
  5.60000000E+02  6.80000000E+01  0.00000000E+00
  5.60000000E+02  6.60000000E+01  0.00000000E+00
  5.60000000E+02  6.40000000E+01  0.00000000E+00
  5.60000000E+02  6.20000000E+01  0.00000000E+00
  5.60000000E+02  6.00000000E+01  0.00000000E+00
  5.60000000E+02  5.80000000E+01  0.00000000E+00
  5.60000000E+02  5.60000000E+01  0.00000000E+00
  5.60000000E+02  5.40000000E+01  0.00000000E+00
  5.60000000E+02  5.20000000E+01  0.00000000E+00
  5.60000000E+02  5.00000000E+01  0.00000000E+00
  5.60000000E+02  4.80000000E+01  0.00000000E+00
  5.60000000E+02  4.60000000E+01  0.00000000E+00
  5.60000000E+02  4.40000000E+01  0.00000000E+00
  5.60000000E+02  4.20000000E+01  0.00000000E+00
  5.60000000E+02  4.00000000E+01  0.00000000E+00
  5.60000000E+02  3.80000000E+01  0.00000000E+00
  5.60000000E+02  3.60000000E+01  0.00000000E+00
  5.60000000E+02  3.40000000E+01  0.00000000E+00
  5.60000000E+02  3.20000000E+01  0.00000000E+00
  5.60000000E+02  3.00000000E+01  0.00000000E+00
  5.60000000E+02  2.80000000E+01  0.00000000E+00
  5.60000000E+02  2.60000000E+01  0.00000000E+00
  5.60000000E+02  2.40000000E+01  0.00000000E+00
  5.60000000E+02  2.20000000E+01  0.00000000E+00
  5.60000000E+02  2.00000000E+01  0.00000000E+00
  5.60000000E+02  1.80000000E+01  0.00000000E+00
  5.60000000E+02  1.60000000E+01  0.00000000E+00
  5.60000000E+02  1.40000000E+01  0.00000000E+00
  5.60000000E+02  1.20000000E+01  0.00000000E+00
  5.60000000E+02  1.00000000E+01  0.00000000E+00
  5.60000000E+02  8.00000000E+00  0.00000000E+00
  5.60000000E+02  6.00000000E+00  0.00000000E+00
  5.60000000E+02  4.00000000E+00  0.00000000E+00
  5.60000000E+02  2.00000000E+00  0.00000000E+00
  5.60000000E+02 -3.33066907E-14  0.00000000E+00
  5.70000000E+02  1.00000000E+02  0.00000000E+00
  5.70000000E+02  9.80000000E+01  0.00000000E+00
  5.70000000E+02  9.60000000E+01  0.00000000E+00
  5.70000000E+02  9.40000000E+01  0.00000000E+00
  5.70000000E+02  9.20000000E+01  0.00000000E+00
  5.70000000E+02  9.00000000E+01  0.00000000E+00
  5.70000000E+02  8.80000000E+01  0.00000000E+00
  5.70000000E+02  8.60000000E+01  0.00000000E+00
  5.70000000E+02  8.40000000E+01  0.00000000E+00
  5.70000000E+02  8.20000000E+01  0.00000000E+00
  5.70000000E+02  8.00000000E+01  0.00000000E+00
  5.70000000E+02  7.80000000E+01  0.00000000E+00
  5.70000000E+02  7.60000000E+01  0.00000000E+00
  5.70000000E+02  7.40000000E+01  0.00000000E+00
  5.70000000E+02  7.20000000E+01  0.00000000E+00
  5.70000000E+02  7.00000000E+01  0.00000000E+00
  5.70000000E+02  6.80000000E+01  0.00000000E+00
  5.70000000E+02  6.60000000E+01  0.00000000E+00
  5.70000000E+02  6.40000000E+01  0.00000000E+00
  5.70000000E+02  6.20000000E+01  0.00000000E+00
  5.70000000E+02  6.00000000E+01  0.00000000E+00
  5.70000000E+02  5.80000000E+01  0.00000000E+00
  5.70000000E+02  5.60000000E+01  0.00000000E+00
  5.70000000E+02  5.40000000E+01  0.00000000E+00
  5.70000000E+02  5.20000000E+01  0.00000000E+00
  5.70000000E+02  5.00000000E+01  0.00000000E+00
  5.70000000E+02  4.80000000E+01  0.00000000E+00
  5.70000000E+02  4.60000000E+01  0.00000000E+00
  5.70000000E+02  4.40000000E+01  0.00000000E+00
  5.70000000E+02  4.20000000E+01  0.00000000E+00
  5.70000000E+02  4.00000000E+01  0.00000000E+00
  5.70000000E+02  3.80000000E+01  0.00000000E+00
  5.70000000E+02  3.60000000E+01  0.00000000E+00
  5.70000000E+02  3.40000000E+01  0.00000000E+00
  5.70000000E+02  3.20000000E+01  0.00000000E+00
  5.70000000E+02  3.00000000E+01  0.00000000E+00
  5.70000000E+02  2.80000000E+01  0.00000000E+00
  5.70000000E+02  2.60000000E+01  0.00000000E+00
  5.70000000E+02  2.40000000E+01  0.00000000E+00
  5.70000000E+02  2.20000000E+01  0.00000000E+00
  5.70000000E+02  2.00000000E+01  0.00000000E+00
  5.70000000E+02  1.80000000E+01  0.00000000E+00
  5.70000000E+02  1.60000000E+01  0.00000000E+00
  5.70000000E+02  1.40000000E+01  0.00000000E+00
  5.70000000E+02  1.20000000E+01  0.00000000E+00
  5.70000000E+02  1.00000000E+01  0.00000000E+00
  5.70000000E+02  8.00000000E+00  0.00000000E+00
  5.70000000E+02  6.00000000E+00  0.00000000E+00
  5.70000000E+02  4.00000000E+00  0.00000000E+00
  5.70000000E+02  2.00000000E+00  0.00000000E+00
  5.70000000E+02 -3.33066907E-14  0.00000000E+00
  5.80000000E+02  1.00000000E+02  0.00000000E+00
  5.80000000E+02  9.80000000E+01  0.00000000E+00
  5.80000000E+02  9.60000000E+01  0.00000000E+00
  5.80000000E+02  9.40000000E+01  0.00000000E+00
  5.80000000E+02  9.20000000E+01  0.00000000E+00
  5.80000000E+02  9.00000000E+01  0.00000000E+00
  5.80000000E+02  8.80000000E+01  0.00000000E+00
  5.80000000E+02  8.60000000E+01  0.00000000E+00
  5.80000000E+02  8.40000000E+01  0.00000000E+00
  5.80000000E+02  8.20000000E+01  0.00000000E+00
  5.80000000E+02  8.00000000E+01  0.00000000E+00
  5.80000000E+02  7.80000000E+01  0.00000000E+00
  5.80000000E+02  7.60000000E+01  0.00000000E+00
  5.80000000E+02  7.40000000E+01  0.00000000E+00
  5.80000000E+02  7.20000000E+01  0.00000000E+00
  5.80000000E+02  7.00000000E+01  0.00000000E+00
  5.80000000E+02  6.80000000E+01  0.00000000E+00
  5.80000000E+02  6.60000000E+01  0.00000000E+00
  5.80000000E+02  6.40000000E+01  0.00000000E+00
  5.80000000E+02  6.20000000E+01  0.00000000E+00
  5.80000000E+02  6.00000000E+01  0.00000000E+00
  5.80000000E+02  5.80000000E+01  0.00000000E+00
  5.80000000E+02  5.60000000E+01  0.00000000E+00
  5.80000000E+02  5.40000000E+01  0.00000000E+00
  5.80000000E+02  5.20000000E+01  0.00000000E+00
  5.80000000E+02  5.00000000E+01  0.00000000E+00
  5.80000000E+02  4.80000000E+01  0.00000000E+00
  5.80000000E+02  4.60000000E+01  0.00000000E+00
  5.80000000E+02  4.40000000E+01  0.00000000E+00
  5.80000000E+02  4.20000000E+01  0.00000000E+00
  5.80000000E+02  4.00000000E+01  0.00000000E+00
  5.80000000E+02  3.80000000E+01  0.00000000E+00
  5.80000000E+02  3.60000000E+01  0.00000000E+00
  5.80000000E+02  3.40000000E+01  0.00000000E+00
  5.80000000E+02  3.20000000E+01  0.00000000E+00
  5.80000000E+02  3.00000000E+01  0.00000000E+00
  5.80000000E+02  2.80000000E+01  0.00000000E+00
  5.80000000E+02  2.60000000E+01  0.00000000E+00
  5.80000000E+02  2.40000000E+01  0.00000000E+00
  5.80000000E+02  2.20000000E+01  0.00000000E+00
  5.80000000E+02  2.00000000E+01  0.00000000E+00
  5.80000000E+02  1.80000000E+01  0.00000000E+00
  5.80000000E+02  1.60000000E+01  0.00000000E+00
  5.80000000E+02  1.40000000E+01  0.00000000E+00
  5.80000000E+02  1.20000000E+01  0.00000000E+00
  5.80000000E+02  1.00000000E+01  0.00000000E+00
  5.80000000E+02  8.00000000E+00  0.00000000E+00
  5.80000000E+02  6.00000000E+00  0.00000000E+00
  5.80000000E+02  4.00000000E+00  0.00000000E+00
  5.80000000E+02  2.00000000E+00  0.00000000E+00
  5.80000000E+02 -3.33066907E-14  0.00000000E+00
  5.90000000E+02  1.00000000E+02  0.00000000E+00
  5.90000000E+02  9.80000000E+01  0.00000000E+00
  5.90000000E+02  9.60000000E+01  0.00000000E+00
  5.90000000E+02  9.40000000E+01  0.00000000E+00
  5.90000000E+02  9.20000000E+01  0.00000000E+00
  5.90000000E+02  9.00000000E+01  0.00000000E+00
  5.90000000E+02  8.80000000E+01  0.00000000E+00
  5.90000000E+02  8.60000000E+01  0.00000000E+00
  5.90000000E+02  8.40000000E+01  0.00000000E+00
  5.90000000E+02  8.20000000E+01  0.00000000E+00
  5.90000000E+02  8.00000000E+01  0.00000000E+00
  5.90000000E+02  7.80000000E+01  0.00000000E+00
  5.90000000E+02  7.60000000E+01  0.00000000E+00
  5.90000000E+02  7.40000000E+01  0.00000000E+00
  5.90000000E+02  7.20000000E+01  0.00000000E+00
  5.90000000E+02  7.00000000E+01  0.00000000E+00
  5.90000000E+02  6.80000000E+01  0.00000000E+00
  5.90000000E+02  6.60000000E+01  0.00000000E+00
  5.90000000E+02  6.40000000E+01  0.00000000E+00
  5.90000000E+02  6.20000000E+01  0.00000000E+00
  5.90000000E+02  6.00000000E+01  0.00000000E+00
  5.90000000E+02  5.80000000E+01  0.00000000E+00
  5.90000000E+02  5.60000000E+01  0.00000000E+00
  5.90000000E+02  5.40000000E+01  0.00000000E+00
  5.90000000E+02  5.20000000E+01  0.00000000E+00
  5.90000000E+02  5.00000000E+01  0.00000000E+00
  5.90000000E+02  4.80000000E+01  0.00000000E+00
  5.90000000E+02  4.60000000E+01  0.00000000E+00
  5.90000000E+02  4.40000000E+01  0.00000000E+00
  5.90000000E+02  4.20000000E+01  0.00000000E+00
  5.90000000E+02  4.00000000E+01  0.00000000E+00
  5.90000000E+02  3.80000000E+01  0.00000000E+00
  5.90000000E+02  3.60000000E+01  0.00000000E+00
  5.90000000E+02  3.40000000E+01  0.00000000E+00
  5.90000000E+02  3.20000000E+01  0.00000000E+00
  5.90000000E+02  3.00000000E+01  0.00000000E+00
  5.90000000E+02  2.80000000E+01  0.00000000E+00
  5.90000000E+02  2.60000000E+01  0.00000000E+00
  5.90000000E+02  2.40000000E+01  0.00000000E+00
  5.90000000E+02  2.20000000E+01  0.00000000E+00
  5.90000000E+02  2.00000000E+01  0.00000000E+00
  5.90000000E+02  1.80000000E+01  0.00000000E+00
  5.90000000E+02  1.60000000E+01  0.00000000E+00
  5.90000000E+02  1.40000000E+01  0.00000000E+00
  5.90000000E+02  1.20000000E+01  0.00000000E+00
  5.90000000E+02  1.00000000E+01  0.00000000E+00
  5.90000000E+02  8.00000000E+00  0.00000000E+00
  5.90000000E+02  6.00000000E+00  0.00000000E+00
  5.90000000E+02  4.00000000E+00  0.00000000E+00
  5.90000000E+02  2.00000000E+00  0.00000000E+00
  5.90000000E+02 -3.33066907E-14  0.00000000E+00
  6.00000000E+02  1.00000000E+02  0.00000000E+00
  6.00000000E+02  9.80000000E+01  0.00000000E+00
  6.00000000E+02  9.60000000E+01  0.00000000E+00
  6.00000000E+02  9.40000000E+01  0.00000000E+00
  6.00000000E+02  9.20000000E+01  0.00000000E+00
  6.00000000E+02  9.00000000E+01  0.00000000E+00
  6.00000000E+02  8.80000000E+01  0.00000000E+00
  6.00000000E+02  8.60000000E+01  0.00000000E+00
  6.00000000E+02  8.40000000E+01  0.00000000E+00
  6.00000000E+02  8.20000000E+01  0.00000000E+00
  6.00000000E+02  8.00000000E+01  0.00000000E+00
  6.00000000E+02  7.80000000E+01  0.00000000E+00
  6.00000000E+02  7.60000000E+01  0.00000000E+00
  6.00000000E+02  7.40000000E+01  0.00000000E+00
  6.00000000E+02  7.20000000E+01  0.00000000E+00
  6.00000000E+02  7.00000000E+01  0.00000000E+00
  6.00000000E+02  6.80000000E+01  0.00000000E+00
  6.00000000E+02  6.60000000E+01  0.00000000E+00
  6.00000000E+02  6.40000000E+01  0.00000000E+00
  6.00000000E+02  6.20000000E+01  0.00000000E+00
  6.00000000E+02  6.00000000E+01  0.00000000E+00
  6.00000000E+02  5.80000000E+01  0.00000000E+00
  6.00000000E+02  5.60000000E+01  0.00000000E+00
  6.00000000E+02  5.40000000E+01  0.00000000E+00
  6.00000000E+02  5.20000000E+01  0.00000000E+00
  6.00000000E+02  5.00000000E+01  0.00000000E+00
  6.00000000E+02  4.80000000E+01  0.00000000E+00
  6.00000000E+02  4.60000000E+01  0.00000000E+00
  6.00000000E+02  4.40000000E+01  0.00000000E+00
  6.00000000E+02  4.20000000E+01  0.00000000E+00
  6.00000000E+02  4.00000000E+01  0.00000000E+00
  6.00000000E+02  3.80000000E+01  0.00000000E+00
  6.00000000E+02  3.60000000E+01  0.00000000E+00
  6.00000000E+02  3.40000000E+01  0.00000000E+00
  6.00000000E+02  3.20000000E+01  0.00000000E+00
  6.00000000E+02  3.00000000E+01  0.00000000E+00
  6.00000000E+02  2.80000000E+01  0.00000000E+00
  6.00000000E+02  2.60000000E+01  0.00000000E+00
  6.00000000E+02  2.40000000E+01  0.00000000E+00
  6.00000000E+02  2.20000000E+01  0.00000000E+00
  6.00000000E+02  2.00000000E+01  0.00000000E+00
  6.00000000E+02  1.80000000E+01  0.00000000E+00
  6.00000000E+02  1.60000000E+01  0.00000000E+00
  6.00000000E+02  1.40000000E+01  0.00000000E+00
  6.00000000E+02  1.20000000E+01  0.00000000E+00
  6.00000000E+02  1.00000000E+01  0.00000000E+00
  6.00000000E+02  8.00000000E+00  0.00000000E+00
  6.00000000E+02  6.00000000E+00  0.00000000E+00
  6.00000000E+02  4.00000000E+00  0.00000000E+00
  6.00000000E+02  2.00000000E+00  0.00000000E+00
  6.00000000E+02 -3.33066907E-14  0.00000000E+00
  6.10000000E+02  1.00000000E+02  0.00000000E+00
  6.10000000E+02  9.80000000E+01  0.00000000E+00
  6.10000000E+02  9.60000000E+01  0.00000000E+00
  6.10000000E+02  9.40000000E+01  0.00000000E+00
  6.10000000E+02  9.20000000E+01  0.00000000E+00
  6.10000000E+02  9.00000000E+01  0.00000000E+00
  6.10000000E+02  8.80000000E+01  0.00000000E+00
  6.10000000E+02  8.60000000E+01  0.00000000E+00
  6.10000000E+02  8.40000000E+01  0.00000000E+00
  6.10000000E+02  8.20000000E+01  0.00000000E+00
  6.10000000E+02  8.00000000E+01  0.00000000E+00
  6.10000000E+02  7.80000000E+01  0.00000000E+00
  6.10000000E+02  7.60000000E+01  0.00000000E+00
  6.10000000E+02  7.40000000E+01  0.00000000E+00
  6.10000000E+02  7.20000000E+01  0.00000000E+00
  6.10000000E+02  7.00000000E+01  0.00000000E+00
  6.10000000E+02  6.80000000E+01  0.00000000E+00
  6.10000000E+02  6.60000000E+01  0.00000000E+00
  6.10000000E+02  6.40000000E+01  0.00000000E+00
  6.10000000E+02  6.20000000E+01  0.00000000E+00
  6.10000000E+02  6.00000000E+01  0.00000000E+00
  6.10000000E+02  5.80000000E+01  0.00000000E+00
  6.10000000E+02  5.60000000E+01  0.00000000E+00
  6.10000000E+02  5.40000000E+01  0.00000000E+00
  6.10000000E+02  5.20000000E+01  0.00000000E+00
  6.10000000E+02  5.00000000E+01  0.00000000E+00
  6.10000000E+02  4.80000000E+01  0.00000000E+00
  6.10000000E+02  4.60000000E+01  0.00000000E+00
  6.10000000E+02  4.40000000E+01  0.00000000E+00
  6.10000000E+02  4.20000000E+01  0.00000000E+00
  6.10000000E+02  4.00000000E+01  0.00000000E+00
  6.10000000E+02  3.80000000E+01  0.00000000E+00
  6.10000000E+02  3.60000000E+01  0.00000000E+00
  6.10000000E+02  3.40000000E+01  0.00000000E+00
  6.10000000E+02  3.20000000E+01  0.00000000E+00
  6.10000000E+02  3.00000000E+01  0.00000000E+00
  6.10000000E+02  2.80000000E+01  0.00000000E+00
  6.10000000E+02  2.60000000E+01  0.00000000E+00
  6.10000000E+02  2.40000000E+01  0.00000000E+00
  6.10000000E+02  2.20000000E+01  0.00000000E+00
  6.10000000E+02  2.00000000E+01  0.00000000E+00
  6.10000000E+02  1.80000000E+01  0.00000000E+00
  6.10000000E+02  1.60000000E+01  0.00000000E+00
  6.10000000E+02  1.40000000E+01  0.00000000E+00
  6.10000000E+02  1.20000000E+01  0.00000000E+00
  6.10000000E+02  1.00000000E+01  0.00000000E+00
  6.10000000E+02  8.00000000E+00  0.00000000E+00
  6.10000000E+02  6.00000000E+00  0.00000000E+00
  6.10000000E+02  4.00000000E+00  0.00000000E+00
  6.10000000E+02  2.00000000E+00  0.00000000E+00
  6.10000000E+02 -3.33066907E-14  0.00000000E+00
  6.20000000E+02  1.00000000E+02  0.00000000E+00
  6.20000000E+02  9.80000000E+01  0.00000000E+00
  6.20000000E+02  9.60000000E+01  0.00000000E+00
  6.20000000E+02  9.40000000E+01  0.00000000E+00
  6.20000000E+02  9.20000000E+01  0.00000000E+00
  6.20000000E+02  9.00000000E+01  0.00000000E+00
  6.20000000E+02  8.80000000E+01  0.00000000E+00
  6.20000000E+02  8.60000000E+01  0.00000000E+00
  6.20000000E+02  8.40000000E+01  0.00000000E+00
  6.20000000E+02  8.20000000E+01  0.00000000E+00
  6.20000000E+02  8.00000000E+01  0.00000000E+00
  6.20000000E+02  7.80000000E+01  0.00000000E+00
  6.20000000E+02  7.60000000E+01  0.00000000E+00
  6.20000000E+02  7.40000000E+01  0.00000000E+00
  6.20000000E+02  7.20000000E+01  0.00000000E+00
  6.20000000E+02  7.00000000E+01  0.00000000E+00
  6.20000000E+02  6.80000000E+01  0.00000000E+00
  6.20000000E+02  6.60000000E+01  0.00000000E+00
  6.20000000E+02  6.40000000E+01  0.00000000E+00
  6.20000000E+02  6.20000000E+01  0.00000000E+00
  6.20000000E+02  6.00000000E+01  0.00000000E+00
  6.20000000E+02  5.80000000E+01  0.00000000E+00
  6.20000000E+02  5.60000000E+01  0.00000000E+00
  6.20000000E+02  5.40000000E+01  0.00000000E+00
  6.20000000E+02  5.20000000E+01  0.00000000E+00
  6.20000000E+02  5.00000000E+01  0.00000000E+00
  6.20000000E+02  4.80000000E+01  0.00000000E+00
  6.20000000E+02  4.60000000E+01  0.00000000E+00
  6.20000000E+02  4.40000000E+01  0.00000000E+00
  6.20000000E+02  4.20000000E+01  0.00000000E+00
  6.20000000E+02  4.00000000E+01  0.00000000E+00
  6.20000000E+02  3.80000000E+01  0.00000000E+00
  6.20000000E+02  3.60000000E+01  0.00000000E+00
  6.20000000E+02  3.40000000E+01  0.00000000E+00
  6.20000000E+02  3.20000000E+01  0.00000000E+00
  6.20000000E+02  3.00000000E+01  0.00000000E+00
  6.20000000E+02  2.80000000E+01  0.00000000E+00
  6.20000000E+02  2.60000000E+01  0.00000000E+00
  6.20000000E+02  2.40000000E+01  0.00000000E+00
  6.20000000E+02  2.20000000E+01  0.00000000E+00
  6.20000000E+02  2.00000000E+01  0.00000000E+00
  6.20000000E+02  1.80000000E+01  0.00000000E+00
  6.20000000E+02  1.60000000E+01  0.00000000E+00
  6.20000000E+02  1.40000000E+01  0.00000000E+00
  6.20000000E+02  1.20000000E+01  0.00000000E+00
  6.20000000E+02  1.00000000E+01  0.00000000E+00
  6.20000000E+02  8.00000000E+00  0.00000000E+00
  6.20000000E+02  6.00000000E+00  0.00000000E+00
  6.20000000E+02  4.00000000E+00  0.00000000E+00
  6.20000000E+02  2.00000000E+00  0.00000000E+00
  6.20000000E+02 -3.33066907E-14  0.00000000E+00
  6.30000000E+02  1.00000000E+02  0.00000000E+00
  6.30000000E+02  9.80000000E+01  0.00000000E+00
  6.30000000E+02  9.60000000E+01  0.00000000E+00
  6.30000000E+02  9.40000000E+01  0.00000000E+00
  6.30000000E+02  9.20000000E+01  0.00000000E+00
  6.30000000E+02  9.00000000E+01  0.00000000E+00
  6.30000000E+02  8.80000000E+01  0.00000000E+00
  6.30000000E+02  8.60000000E+01  0.00000000E+00
  6.30000000E+02  8.40000000E+01  0.00000000E+00
  6.30000000E+02  8.20000000E+01  0.00000000E+00
  6.30000000E+02  8.00000000E+01  0.00000000E+00
  6.30000000E+02  7.80000000E+01  0.00000000E+00
  6.30000000E+02  7.60000000E+01  0.00000000E+00
  6.30000000E+02  7.40000000E+01  0.00000000E+00
  6.30000000E+02  7.20000000E+01  0.00000000E+00
  6.30000000E+02  7.00000000E+01  0.00000000E+00
  6.30000000E+02  6.80000000E+01  0.00000000E+00
  6.30000000E+02  6.60000000E+01  0.00000000E+00
  6.30000000E+02  6.40000000E+01  0.00000000E+00
  6.30000000E+02  6.20000000E+01  0.00000000E+00
  6.30000000E+02  6.00000000E+01  0.00000000E+00
  6.30000000E+02  5.80000000E+01  0.00000000E+00
  6.30000000E+02  5.60000000E+01  0.00000000E+00
  6.30000000E+02  5.40000000E+01  0.00000000E+00
  6.30000000E+02  5.20000000E+01  0.00000000E+00
  6.30000000E+02  5.00000000E+01  0.00000000E+00
  6.30000000E+02  4.80000000E+01  0.00000000E+00
  6.30000000E+02  4.60000000E+01  0.00000000E+00
  6.30000000E+02  4.40000000E+01  0.00000000E+00
  6.30000000E+02  4.20000000E+01  0.00000000E+00
  6.30000000E+02  4.00000000E+01  0.00000000E+00
  6.30000000E+02  3.80000000E+01  0.00000000E+00
  6.30000000E+02  3.60000000E+01  0.00000000E+00
  6.30000000E+02  3.40000000E+01  0.00000000E+00
  6.30000000E+02  3.20000000E+01  0.00000000E+00
  6.30000000E+02  3.00000000E+01  0.00000000E+00
  6.30000000E+02  2.80000000E+01  0.00000000E+00
  6.30000000E+02  2.60000000E+01  0.00000000E+00
  6.30000000E+02  2.40000000E+01  0.00000000E+00
  6.30000000E+02  2.20000000E+01  0.00000000E+00
  6.30000000E+02  2.00000000E+01  0.00000000E+00
  6.30000000E+02  1.80000000E+01  0.00000000E+00
  6.30000000E+02  1.60000000E+01  0.00000000E+00
  6.30000000E+02  1.40000000E+01  0.00000000E+00
  6.30000000E+02  1.20000000E+01  0.00000000E+00
  6.30000000E+02  1.00000000E+01  0.00000000E+00
  6.30000000E+02  8.00000000E+00  0.00000000E+00
  6.30000000E+02  6.00000000E+00  0.00000000E+00
  6.30000000E+02  4.00000000E+00  0.00000000E+00
  6.30000000E+02  2.00000000E+00  0.00000000E+00
  6.30000000E+02 -3.33066907E-14  0.00000000E+00
  6.40000000E+02  1.00000000E+02  0.00000000E+00
  6.40000000E+02  9.80000000E+01  0.00000000E+00
  6.40000000E+02  9.60000000E+01  0.00000000E+00
  6.40000000E+02  9.40000000E+01  0.00000000E+00
  6.40000000E+02  9.20000000E+01  0.00000000E+00
  6.40000000E+02  9.00000000E+01  0.00000000E+00
  6.40000000E+02  8.80000000E+01  0.00000000E+00
  6.40000000E+02  8.60000000E+01  0.00000000E+00
  6.40000000E+02  8.40000000E+01  0.00000000E+00
  6.40000000E+02  8.20000000E+01  0.00000000E+00
  6.40000000E+02  8.00000000E+01  0.00000000E+00
  6.40000000E+02  7.80000000E+01  0.00000000E+00
  6.40000000E+02  7.60000000E+01  0.00000000E+00
  6.40000000E+02  7.40000000E+01  0.00000000E+00
  6.40000000E+02  7.20000000E+01  0.00000000E+00
  6.40000000E+02  7.00000000E+01  0.00000000E+00
  6.40000000E+02  6.80000000E+01  0.00000000E+00
  6.40000000E+02  6.60000000E+01  0.00000000E+00
  6.40000000E+02  6.40000000E+01  0.00000000E+00
  6.40000000E+02  6.20000000E+01  0.00000000E+00
  6.40000000E+02  6.00000000E+01  0.00000000E+00
  6.40000000E+02  5.80000000E+01  0.00000000E+00
  6.40000000E+02  5.60000000E+01  0.00000000E+00
  6.40000000E+02  5.40000000E+01  0.00000000E+00
  6.40000000E+02  5.20000000E+01  0.00000000E+00
  6.40000000E+02  5.00000000E+01  0.00000000E+00
  6.40000000E+02  4.80000000E+01  0.00000000E+00
  6.40000000E+02  4.60000000E+01  0.00000000E+00
  6.40000000E+02  4.40000000E+01  0.00000000E+00
  6.40000000E+02  4.20000000E+01  0.00000000E+00
  6.40000000E+02  4.00000000E+01  0.00000000E+00
  6.40000000E+02  3.80000000E+01  0.00000000E+00
  6.40000000E+02  3.60000000E+01  0.00000000E+00
  6.40000000E+02  3.40000000E+01  0.00000000E+00
  6.40000000E+02  3.20000000E+01  0.00000000E+00
  6.40000000E+02  3.00000000E+01  0.00000000E+00
  6.40000000E+02  2.80000000E+01  0.00000000E+00
  6.40000000E+02  2.60000000E+01  0.00000000E+00
  6.40000000E+02  2.40000000E+01  0.00000000E+00
  6.40000000E+02  2.20000000E+01  0.00000000E+00
  6.40000000E+02  2.00000000E+01  0.00000000E+00
  6.40000000E+02  1.80000000E+01  0.00000000E+00
  6.40000000E+02  1.60000000E+01  0.00000000E+00
  6.40000000E+02  1.40000000E+01  0.00000000E+00
  6.40000000E+02  1.20000000E+01  0.00000000E+00
  6.40000000E+02  1.00000000E+01  0.00000000E+00
  6.40000000E+02  8.00000000E+00  0.00000000E+00
  6.40000000E+02  6.00000000E+00  0.00000000E+00
  6.40000000E+02  4.00000000E+00  0.00000000E+00
  6.40000000E+02  2.00000000E+00  0.00000000E+00
  6.40000000E+02 -3.33066907E-14  0.00000000E+00
  6.50000000E+02  1.00000000E+02  0.00000000E+00
  6.50000000E+02  9.80000000E+01  0.00000000E+00
  6.50000000E+02  9.60000000E+01  0.00000000E+00
  6.50000000E+02  9.40000000E+01  0.00000000E+00
  6.50000000E+02  9.20000000E+01  0.00000000E+00
  6.50000000E+02  9.00000000E+01  0.00000000E+00
  6.50000000E+02  8.80000000E+01  0.00000000E+00
  6.50000000E+02  8.60000000E+01  0.00000000E+00
  6.50000000E+02  8.40000000E+01  0.00000000E+00
  6.50000000E+02  8.20000000E+01  0.00000000E+00
  6.50000000E+02  8.00000000E+01  0.00000000E+00
  6.50000000E+02  7.80000000E+01  0.00000000E+00
  6.50000000E+02  7.60000000E+01  0.00000000E+00
  6.50000000E+02  7.40000000E+01  0.00000000E+00
  6.50000000E+02  7.20000000E+01  0.00000000E+00
  6.50000000E+02  7.00000000E+01  0.00000000E+00
  6.50000000E+02  6.80000000E+01  0.00000000E+00
  6.50000000E+02  6.60000000E+01  0.00000000E+00
  6.50000000E+02  6.40000000E+01  0.00000000E+00
  6.50000000E+02  6.20000000E+01  0.00000000E+00
  6.50000000E+02  6.00000000E+01  0.00000000E+00
  6.50000000E+02  5.80000000E+01  0.00000000E+00
  6.50000000E+02  5.60000000E+01  0.00000000E+00
  6.50000000E+02  5.40000000E+01  0.00000000E+00
  6.50000000E+02  5.20000000E+01  0.00000000E+00
  6.50000000E+02  5.00000000E+01  0.00000000E+00
  6.50000000E+02  4.80000000E+01  0.00000000E+00
  6.50000000E+02  4.60000000E+01  0.00000000E+00
  6.50000000E+02  4.40000000E+01  0.00000000E+00
  6.50000000E+02  4.20000000E+01  0.00000000E+00
  6.50000000E+02  4.00000000E+01  0.00000000E+00
  6.50000000E+02  3.80000000E+01  0.00000000E+00
  6.50000000E+02  3.60000000E+01  0.00000000E+00
  6.50000000E+02  3.40000000E+01  0.00000000E+00
  6.50000000E+02  3.20000000E+01  0.00000000E+00
  6.50000000E+02  3.00000000E+01  0.00000000E+00
  6.50000000E+02  2.80000000E+01  0.00000000E+00
  6.50000000E+02  2.60000000E+01  0.00000000E+00
  6.50000000E+02  2.40000000E+01  0.00000000E+00
  6.50000000E+02  2.20000000E+01  0.00000000E+00
  6.50000000E+02  2.00000000E+01  0.00000000E+00
  6.50000000E+02  1.80000000E+01  0.00000000E+00
  6.50000000E+02  1.60000000E+01  0.00000000E+00
  6.50000000E+02  1.40000000E+01  0.00000000E+00
  6.50000000E+02  1.20000000E+01  0.00000000E+00
  6.50000000E+02  1.00000000E+01  0.00000000E+00
  6.50000000E+02  8.00000000E+00  0.00000000E+00
  6.50000000E+02  6.00000000E+00  0.00000000E+00
  6.50000000E+02  4.00000000E+00  0.00000000E+00
  6.50000000E+02  2.00000000E+00  0.00000000E+00
  6.50000000E+02 -3.33066907E-14  0.00000000E+00
  6.60000000E+02  1.00000000E+02  0.00000000E+00
  6.60000000E+02  9.80000000E+01  0.00000000E+00
  6.60000000E+02  9.60000000E+01  0.00000000E+00
  6.60000000E+02  9.40000000E+01  0.00000000E+00
  6.60000000E+02  9.20000000E+01  0.00000000E+00
  6.60000000E+02  9.00000000E+01  0.00000000E+00
  6.60000000E+02  8.80000000E+01  0.00000000E+00
  6.60000000E+02  8.60000000E+01  0.00000000E+00
  6.60000000E+02  8.40000000E+01  0.00000000E+00
  6.60000000E+02  8.20000000E+01  0.00000000E+00
  6.60000000E+02  8.00000000E+01  0.00000000E+00
  6.60000000E+02  7.80000000E+01  0.00000000E+00
  6.60000000E+02  7.60000000E+01  0.00000000E+00
  6.60000000E+02  7.40000000E+01  0.00000000E+00
  6.60000000E+02  7.20000000E+01  0.00000000E+00
  6.60000000E+02  7.00000000E+01  0.00000000E+00
  6.60000000E+02  6.80000000E+01  0.00000000E+00
  6.60000000E+02  6.60000000E+01  0.00000000E+00
  6.60000000E+02  6.40000000E+01  0.00000000E+00
  6.60000000E+02  6.20000000E+01  0.00000000E+00
  6.60000000E+02  6.00000000E+01  0.00000000E+00
  6.60000000E+02  5.80000000E+01  0.00000000E+00
  6.60000000E+02  5.60000000E+01  0.00000000E+00
  6.60000000E+02  5.40000000E+01  0.00000000E+00
  6.60000000E+02  5.20000000E+01  0.00000000E+00
  6.60000000E+02  5.00000000E+01  0.00000000E+00
  6.60000000E+02  4.80000000E+01  0.00000000E+00
  6.60000000E+02  4.60000000E+01  0.00000000E+00
  6.60000000E+02  4.40000000E+01  0.00000000E+00
  6.60000000E+02  4.20000000E+01  0.00000000E+00
  6.60000000E+02  4.00000000E+01  0.00000000E+00
  6.60000000E+02  3.80000000E+01  0.00000000E+00
  6.60000000E+02  3.60000000E+01  0.00000000E+00
  6.60000000E+02  3.40000000E+01  0.00000000E+00
  6.60000000E+02  3.20000000E+01  0.00000000E+00
  6.60000000E+02  3.00000000E+01  0.00000000E+00
  6.60000000E+02  2.80000000E+01  0.00000000E+00
  6.60000000E+02  2.60000000E+01  0.00000000E+00
  6.60000000E+02  2.40000000E+01  0.00000000E+00
  6.60000000E+02  2.20000000E+01  0.00000000E+00
  6.60000000E+02  2.00000000E+01  0.00000000E+00
  6.60000000E+02  1.80000000E+01  0.00000000E+00
  6.60000000E+02  1.60000000E+01  0.00000000E+00
  6.60000000E+02  1.40000000E+01  0.00000000E+00
  6.60000000E+02  1.20000000E+01  0.00000000E+00
  6.60000000E+02  1.00000000E+01  0.00000000E+00
  6.60000000E+02  8.00000000E+00  0.00000000E+00
  6.60000000E+02  6.00000000E+00  0.00000000E+00
  6.60000000E+02  4.00000000E+00  0.00000000E+00
  6.60000000E+02  2.00000000E+00  0.00000000E+00
  6.60000000E+02 -3.33066907E-14  0.00000000E+00
  6.70000000E+02  1.00000000E+02  0.00000000E+00
  6.70000000E+02  9.80000000E+01  0.00000000E+00
  6.70000000E+02  9.60000000E+01  0.00000000E+00
  6.70000000E+02  9.40000000E+01  0.00000000E+00
  6.70000000E+02  9.20000000E+01  0.00000000E+00
  6.70000000E+02  9.00000000E+01  0.00000000E+00
  6.70000000E+02  8.80000000E+01  0.00000000E+00
  6.70000000E+02  8.60000000E+01  0.00000000E+00
  6.70000000E+02  8.40000000E+01  0.00000000E+00
  6.70000000E+02  8.20000000E+01  0.00000000E+00
  6.70000000E+02  8.00000000E+01  0.00000000E+00
  6.70000000E+02  7.80000000E+01  0.00000000E+00
  6.70000000E+02  7.60000000E+01  0.00000000E+00
  6.70000000E+02  7.40000000E+01  0.00000000E+00
  6.70000000E+02  7.20000000E+01  0.00000000E+00
  6.70000000E+02  7.00000000E+01  0.00000000E+00
  6.70000000E+02  6.80000000E+01  0.00000000E+00
  6.70000000E+02  6.60000000E+01  0.00000000E+00
  6.70000000E+02  6.40000000E+01  0.00000000E+00
  6.70000000E+02  6.20000000E+01  0.00000000E+00
  6.70000000E+02  6.00000000E+01  0.00000000E+00
  6.70000000E+02  5.80000000E+01  0.00000000E+00
  6.70000000E+02  5.60000000E+01  0.00000000E+00
  6.70000000E+02  5.40000000E+01  0.00000000E+00
  6.70000000E+02  5.20000000E+01  0.00000000E+00
  6.70000000E+02  5.00000000E+01  0.00000000E+00
  6.70000000E+02  4.80000000E+01  0.00000000E+00
  6.70000000E+02  4.60000000E+01  0.00000000E+00
  6.70000000E+02  4.40000000E+01  0.00000000E+00
  6.70000000E+02  4.20000000E+01  0.00000000E+00
  6.70000000E+02  4.00000000E+01  0.00000000E+00
  6.70000000E+02  3.80000000E+01  0.00000000E+00
  6.70000000E+02  3.60000000E+01  0.00000000E+00
  6.70000000E+02  3.40000000E+01  0.00000000E+00
  6.70000000E+02  3.20000000E+01  0.00000000E+00
  6.70000000E+02  3.00000000E+01  0.00000000E+00
  6.70000000E+02  2.80000000E+01  0.00000000E+00
  6.70000000E+02  2.60000000E+01  0.00000000E+00
  6.70000000E+02  2.40000000E+01  0.00000000E+00
  6.70000000E+02  2.20000000E+01  0.00000000E+00
  6.70000000E+02  2.00000000E+01  0.00000000E+00
  6.70000000E+02  1.80000000E+01  0.00000000E+00
  6.70000000E+02  1.60000000E+01  0.00000000E+00
  6.70000000E+02  1.40000000E+01  0.00000000E+00
  6.70000000E+02  1.20000000E+01  0.00000000E+00
  6.70000000E+02  1.00000000E+01  0.00000000E+00
  6.70000000E+02  8.00000000E+00  0.00000000E+00
  6.70000000E+02  6.00000000E+00  0.00000000E+00
  6.70000000E+02  4.00000000E+00  0.00000000E+00
  6.70000000E+02  2.00000000E+00  0.00000000E+00
  6.70000000E+02 -3.33066907E-14  0.00000000E+00
  6.80000000E+02  1.00000000E+02  0.00000000E+00
  6.80000000E+02  9.80000000E+01  0.00000000E+00
  6.80000000E+02  9.60000000E+01  0.00000000E+00
  6.80000000E+02  9.40000000E+01  0.00000000E+00
  6.80000000E+02  9.20000000E+01  0.00000000E+00
  6.80000000E+02  9.00000000E+01  0.00000000E+00
  6.80000000E+02  8.80000000E+01  0.00000000E+00
  6.80000000E+02  8.60000000E+01  0.00000000E+00
  6.80000000E+02  8.40000000E+01  0.00000000E+00
  6.80000000E+02  8.20000000E+01  0.00000000E+00
  6.80000000E+02  8.00000000E+01  0.00000000E+00
  6.80000000E+02  7.80000000E+01  0.00000000E+00
  6.80000000E+02  7.60000000E+01  0.00000000E+00
  6.80000000E+02  7.40000000E+01  0.00000000E+00
  6.80000000E+02  7.20000000E+01  0.00000000E+00
  6.80000000E+02  7.00000000E+01  0.00000000E+00
  6.80000000E+02  6.80000000E+01  0.00000000E+00
  6.80000000E+02  6.60000000E+01  0.00000000E+00
  6.80000000E+02  6.40000000E+01  0.00000000E+00
  6.80000000E+02  6.20000000E+01  0.00000000E+00
  6.80000000E+02  6.00000000E+01  0.00000000E+00
  6.80000000E+02  5.80000000E+01  0.00000000E+00
  6.80000000E+02  5.60000000E+01  0.00000000E+00
  6.80000000E+02  5.40000000E+01  0.00000000E+00
  6.80000000E+02  5.20000000E+01  0.00000000E+00
  6.80000000E+02  5.00000000E+01  0.00000000E+00
  6.80000000E+02  4.80000000E+01  0.00000000E+00
  6.80000000E+02  4.60000000E+01  0.00000000E+00
  6.80000000E+02  4.40000000E+01  0.00000000E+00
  6.80000000E+02  4.20000000E+01  0.00000000E+00
  6.80000000E+02  4.00000000E+01  0.00000000E+00
  6.80000000E+02  3.80000000E+01  0.00000000E+00
  6.80000000E+02  3.60000000E+01  0.00000000E+00
  6.80000000E+02  3.40000000E+01  0.00000000E+00
  6.80000000E+02  3.20000000E+01  0.00000000E+00
  6.80000000E+02  3.00000000E+01  0.00000000E+00
  6.80000000E+02  2.80000000E+01  0.00000000E+00
  6.80000000E+02  2.60000000E+01  0.00000000E+00
  6.80000000E+02  2.40000000E+01  0.00000000E+00
  6.80000000E+02  2.20000000E+01  0.00000000E+00
  6.80000000E+02  2.00000000E+01  0.00000000E+00
  6.80000000E+02  1.80000000E+01  0.00000000E+00
  6.80000000E+02  1.60000000E+01  0.00000000E+00
  6.80000000E+02  1.40000000E+01  0.00000000E+00
  6.80000000E+02  1.20000000E+01  0.00000000E+00
  6.80000000E+02  1.00000000E+01  0.00000000E+00
  6.80000000E+02  8.00000000E+00  0.00000000E+00
  6.80000000E+02  6.00000000E+00  0.00000000E+00
  6.80000000E+02  4.00000000E+00  0.00000000E+00
  6.80000000E+02  2.00000000E+00  0.00000000E+00
  6.80000000E+02 -3.33066907E-14  0.00000000E+00
  6.90000000E+02  1.00000000E+02  0.00000000E+00
  6.90000000E+02  9.80000000E+01  0.00000000E+00
  6.90000000E+02  9.60000000E+01  0.00000000E+00
  6.90000000E+02  9.40000000E+01  0.00000000E+00
  6.90000000E+02  9.20000000E+01  0.00000000E+00
  6.90000000E+02  9.00000000E+01  0.00000000E+00
  6.90000000E+02  8.80000000E+01  0.00000000E+00
  6.90000000E+02  8.60000000E+01  0.00000000E+00
  6.90000000E+02  8.40000000E+01  0.00000000E+00
  6.90000000E+02  8.20000000E+01  0.00000000E+00
  6.90000000E+02  8.00000000E+01  0.00000000E+00
  6.90000000E+02  7.80000000E+01  0.00000000E+00
  6.90000000E+02  7.60000000E+01  0.00000000E+00
  6.90000000E+02  7.40000000E+01  0.00000000E+00
  6.90000000E+02  7.20000000E+01  0.00000000E+00
  6.90000000E+02  7.00000000E+01  0.00000000E+00
  6.90000000E+02  6.80000000E+01  0.00000000E+00
  6.90000000E+02  6.60000000E+01  0.00000000E+00
  6.90000000E+02  6.40000000E+01  0.00000000E+00
  6.90000000E+02  6.20000000E+01  0.00000000E+00
  6.90000000E+02  6.00000000E+01  0.00000000E+00
  6.90000000E+02  5.80000000E+01  0.00000000E+00
  6.90000000E+02  5.60000000E+01  0.00000000E+00
  6.90000000E+02  5.40000000E+01  0.00000000E+00
  6.90000000E+02  5.20000000E+01  0.00000000E+00
  6.90000000E+02  5.00000000E+01  0.00000000E+00
  6.90000000E+02  4.80000000E+01  0.00000000E+00
  6.90000000E+02  4.60000000E+01  0.00000000E+00
  6.90000000E+02  4.40000000E+01  0.00000000E+00
  6.90000000E+02  4.20000000E+01  0.00000000E+00
  6.90000000E+02  4.00000000E+01  0.00000000E+00
  6.90000000E+02  3.80000000E+01  0.00000000E+00
  6.90000000E+02  3.60000000E+01  0.00000000E+00
  6.90000000E+02  3.40000000E+01  0.00000000E+00
  6.90000000E+02  3.20000000E+01  0.00000000E+00
  6.90000000E+02  3.00000000E+01  0.00000000E+00
  6.90000000E+02  2.80000000E+01  0.00000000E+00
  6.90000000E+02  2.60000000E+01  0.00000000E+00
  6.90000000E+02  2.40000000E+01  0.00000000E+00
  6.90000000E+02  2.20000000E+01  0.00000000E+00
  6.90000000E+02  2.00000000E+01  0.00000000E+00
  6.90000000E+02  1.80000000E+01  0.00000000E+00
  6.90000000E+02  1.60000000E+01  0.00000000E+00
  6.90000000E+02  1.40000000E+01  0.00000000E+00
  6.90000000E+02  1.20000000E+01  0.00000000E+00
  6.90000000E+02  1.00000000E+01  0.00000000E+00
  6.90000000E+02  8.00000000E+00  0.00000000E+00
  6.90000000E+02  6.00000000E+00  0.00000000E+00
  6.90000000E+02  4.00000000E+00  0.00000000E+00
  6.90000000E+02  2.00000000E+00  0.00000000E+00
  6.90000000E+02 -3.33066907E-14  0.00000000E+00
  7.00000000E+02  1.00000000E+02  0.00000000E+00
  7.00000000E+02  9.80000000E+01  0.00000000E+00
  7.00000000E+02  9.60000000E+01  0.00000000E+00
  7.00000000E+02  9.40000000E+01  0.00000000E+00
  7.00000000E+02  9.20000000E+01  0.00000000E+00
  7.00000000E+02  9.00000000E+01  0.00000000E+00
  7.00000000E+02  8.80000000E+01  0.00000000E+00
  7.00000000E+02  8.60000000E+01  0.00000000E+00
  7.00000000E+02  8.40000000E+01  0.00000000E+00
  7.00000000E+02  8.20000000E+01  0.00000000E+00
  7.00000000E+02  8.00000000E+01  0.00000000E+00
  7.00000000E+02  7.80000000E+01  0.00000000E+00
  7.00000000E+02  7.60000000E+01  0.00000000E+00
  7.00000000E+02  7.40000000E+01  0.00000000E+00
  7.00000000E+02  7.20000000E+01  0.00000000E+00
  7.00000000E+02  7.00000000E+01  0.00000000E+00
  7.00000000E+02  6.80000000E+01  0.00000000E+00
  7.00000000E+02  6.60000000E+01  0.00000000E+00
  7.00000000E+02  6.40000000E+01  0.00000000E+00
  7.00000000E+02  6.20000000E+01  0.00000000E+00
  7.00000000E+02  6.00000000E+01  0.00000000E+00
  7.00000000E+02  5.80000000E+01  0.00000000E+00
  7.00000000E+02  5.60000000E+01  0.00000000E+00
  7.00000000E+02  5.40000000E+01  0.00000000E+00
  7.00000000E+02  5.20000000E+01  0.00000000E+00
  7.00000000E+02  5.00000000E+01  0.00000000E+00
  7.00000000E+02  4.80000000E+01  0.00000000E+00
  7.00000000E+02  4.60000000E+01  0.00000000E+00
  7.00000000E+02  4.40000000E+01  0.00000000E+00
  7.00000000E+02  4.20000000E+01  0.00000000E+00
  7.00000000E+02  4.00000000E+01  0.00000000E+00
  7.00000000E+02  3.80000000E+01  0.00000000E+00
  7.00000000E+02  3.60000000E+01  0.00000000E+00
  7.00000000E+02  3.40000000E+01  0.00000000E+00
  7.00000000E+02  3.20000000E+01  0.00000000E+00
  7.00000000E+02  3.00000000E+01  0.00000000E+00
  7.00000000E+02  2.80000000E+01  0.00000000E+00
  7.00000000E+02  2.60000000E+01  0.00000000E+00
  7.00000000E+02  2.40000000E+01  0.00000000E+00
  7.00000000E+02  2.20000000E+01  0.00000000E+00
  7.00000000E+02  2.00000000E+01  0.00000000E+00
  7.00000000E+02  1.80000000E+01  0.00000000E+00
  7.00000000E+02  1.60000000E+01  0.00000000E+00
  7.00000000E+02  1.40000000E+01  0.00000000E+00
  7.00000000E+02  1.20000000E+01  0.00000000E+00
  7.00000000E+02  1.00000000E+01  0.00000000E+00
  7.00000000E+02  8.00000000E+00  0.00000000E+00
  7.00000000E+02  6.00000000E+00  0.00000000E+00
  7.00000000E+02  4.00000000E+00  0.00000000E+00
  7.00000000E+02  2.00000000E+00  0.00000000E+00
  7.00000000E+02 -3.33066907E-14  0.00000000E+00
  7.10000000E+02  1.00000000E+02  0.00000000E+00
  7.10000000E+02  9.80000000E+01  0.00000000E+00
  7.10000000E+02  9.60000000E+01  0.00000000E+00
  7.10000000E+02  9.40000000E+01  0.00000000E+00
  7.10000000E+02  9.20000000E+01  0.00000000E+00
  7.10000000E+02  9.00000000E+01  0.00000000E+00
  7.10000000E+02  8.80000000E+01  0.00000000E+00
  7.10000000E+02  8.60000000E+01  0.00000000E+00
  7.10000000E+02  8.40000000E+01  0.00000000E+00
  7.10000000E+02  8.20000000E+01  0.00000000E+00
  7.10000000E+02  8.00000000E+01  0.00000000E+00
  7.10000000E+02  7.80000000E+01  0.00000000E+00
  7.10000000E+02  7.60000000E+01  0.00000000E+00
  7.10000000E+02  7.40000000E+01  0.00000000E+00
  7.10000000E+02  7.20000000E+01  0.00000000E+00
  7.10000000E+02  7.00000000E+01  0.00000000E+00
  7.10000000E+02  6.80000000E+01  0.00000000E+00
  7.10000000E+02  6.60000000E+01  0.00000000E+00
  7.10000000E+02  6.40000000E+01  0.00000000E+00
  7.10000000E+02  6.20000000E+01  0.00000000E+00
  7.10000000E+02  6.00000000E+01  0.00000000E+00
  7.10000000E+02  5.80000000E+01  0.00000000E+00
  7.10000000E+02  5.60000000E+01  0.00000000E+00
  7.10000000E+02  5.40000000E+01  0.00000000E+00
  7.10000000E+02  5.20000000E+01  0.00000000E+00
  7.10000000E+02  5.00000000E+01  0.00000000E+00
  7.10000000E+02  4.80000000E+01  0.00000000E+00
  7.10000000E+02  4.60000000E+01  0.00000000E+00
  7.10000000E+02  4.40000000E+01  0.00000000E+00
  7.10000000E+02  4.20000000E+01  0.00000000E+00
  7.10000000E+02  4.00000000E+01  0.00000000E+00
  7.10000000E+02  3.80000000E+01  0.00000000E+00
  7.10000000E+02  3.60000000E+01  0.00000000E+00
  7.10000000E+02  3.40000000E+01  0.00000000E+00
  7.10000000E+02  3.20000000E+01  0.00000000E+00
  7.10000000E+02  3.00000000E+01  0.00000000E+00
  7.10000000E+02  2.80000000E+01  0.00000000E+00
  7.10000000E+02  2.60000000E+01  0.00000000E+00
  7.10000000E+02  2.40000000E+01  0.00000000E+00
  7.10000000E+02  2.20000000E+01  0.00000000E+00
  7.10000000E+02  2.00000000E+01  0.00000000E+00
  7.10000000E+02  1.80000000E+01  0.00000000E+00
  7.10000000E+02  1.60000000E+01  0.00000000E+00
  7.10000000E+02  1.40000000E+01  0.00000000E+00
  7.10000000E+02  1.20000000E+01  0.00000000E+00
  7.10000000E+02  1.00000000E+01  0.00000000E+00
  7.10000000E+02  8.00000000E+00  0.00000000E+00
  7.10000000E+02  6.00000000E+00  0.00000000E+00
  7.10000000E+02  4.00000000E+00  0.00000000E+00
  7.10000000E+02  2.00000000E+00  0.00000000E+00
  7.10000000E+02 -3.33066907E-14  0.00000000E+00
  7.20000000E+02  1.00000000E+02  0.00000000E+00
  7.20000000E+02  9.80000000E+01  0.00000000E+00
  7.20000000E+02  9.60000000E+01  0.00000000E+00
  7.20000000E+02  9.40000000E+01  0.00000000E+00
  7.20000000E+02  9.20000000E+01  0.00000000E+00
  7.20000000E+02  9.00000000E+01  0.00000000E+00
  7.20000000E+02  8.80000000E+01  0.00000000E+00
  7.20000000E+02  8.60000000E+01  0.00000000E+00
  7.20000000E+02  8.40000000E+01  0.00000000E+00
  7.20000000E+02  8.20000000E+01  0.00000000E+00
  7.20000000E+02  8.00000000E+01  0.00000000E+00
  7.20000000E+02  7.80000000E+01  0.00000000E+00
  7.20000000E+02  7.60000000E+01  0.00000000E+00
  7.20000000E+02  7.40000000E+01  0.00000000E+00
  7.20000000E+02  7.20000000E+01  0.00000000E+00
  7.20000000E+02  7.00000000E+01  0.00000000E+00
  7.20000000E+02  6.80000000E+01  0.00000000E+00
  7.20000000E+02  6.60000000E+01  0.00000000E+00
  7.20000000E+02  6.40000000E+01  0.00000000E+00
  7.20000000E+02  6.20000000E+01  0.00000000E+00
  7.20000000E+02  6.00000000E+01  0.00000000E+00
  7.20000000E+02  5.80000000E+01  0.00000000E+00
  7.20000000E+02  5.60000000E+01  0.00000000E+00
  7.20000000E+02  5.40000000E+01  0.00000000E+00
  7.20000000E+02  5.20000000E+01  0.00000000E+00
  7.20000000E+02  5.00000000E+01  0.00000000E+00
  7.20000000E+02  4.80000000E+01  0.00000000E+00
  7.20000000E+02  4.60000000E+01  0.00000000E+00
  7.20000000E+02  4.40000000E+01  0.00000000E+00
  7.20000000E+02  4.20000000E+01  0.00000000E+00
  7.20000000E+02  4.00000000E+01  0.00000000E+00
  7.20000000E+02  3.80000000E+01  0.00000000E+00
  7.20000000E+02  3.60000000E+01  0.00000000E+00
  7.20000000E+02  3.40000000E+01  0.00000000E+00
  7.20000000E+02  3.20000000E+01  0.00000000E+00
  7.20000000E+02  3.00000000E+01  0.00000000E+00
  7.20000000E+02  2.80000000E+01  0.00000000E+00
  7.20000000E+02  2.60000000E+01  0.00000000E+00
  7.20000000E+02  2.40000000E+01  0.00000000E+00
  7.20000000E+02  2.20000000E+01  0.00000000E+00
  7.20000000E+02  2.00000000E+01  0.00000000E+00
  7.20000000E+02  1.80000000E+01  0.00000000E+00
  7.20000000E+02  1.60000000E+01  0.00000000E+00
  7.20000000E+02  1.40000000E+01  0.00000000E+00
  7.20000000E+02  1.20000000E+01  0.00000000E+00
  7.20000000E+02  1.00000000E+01  0.00000000E+00
  7.20000000E+02  8.00000000E+00  0.00000000E+00
  7.20000000E+02  6.00000000E+00  0.00000000E+00
  7.20000000E+02  4.00000000E+00  0.00000000E+00
  7.20000000E+02  2.00000000E+00  0.00000000E+00
  7.20000000E+02 -3.33066907E-14  0.00000000E+00
  7.30000000E+02  1.00000000E+02  0.00000000E+00
  7.30000000E+02  9.80000000E+01  0.00000000E+00
  7.30000000E+02  9.60000000E+01  0.00000000E+00
  7.30000000E+02  9.40000000E+01  0.00000000E+00
  7.30000000E+02  9.20000000E+01  0.00000000E+00
  7.30000000E+02  9.00000000E+01  0.00000000E+00
  7.30000000E+02  8.80000000E+01  0.00000000E+00
  7.30000000E+02  8.60000000E+01  0.00000000E+00
  7.30000000E+02  8.40000000E+01  0.00000000E+00
  7.30000000E+02  8.20000000E+01  0.00000000E+00
  7.30000000E+02  8.00000000E+01  0.00000000E+00
  7.30000000E+02  7.80000000E+01  0.00000000E+00
  7.30000000E+02  7.60000000E+01  0.00000000E+00
  7.30000000E+02  7.40000000E+01  0.00000000E+00
  7.30000000E+02  7.20000000E+01  0.00000000E+00
  7.30000000E+02  7.00000000E+01  0.00000000E+00
  7.30000000E+02  6.80000000E+01  0.00000000E+00
  7.30000000E+02  6.60000000E+01  0.00000000E+00
  7.30000000E+02  6.40000000E+01  0.00000000E+00
  7.30000000E+02  6.20000000E+01  0.00000000E+00
  7.30000000E+02  6.00000000E+01  0.00000000E+00
  7.30000000E+02  5.80000000E+01  0.00000000E+00
  7.30000000E+02  5.60000000E+01  0.00000000E+00
  7.30000000E+02  5.40000000E+01  0.00000000E+00
  7.30000000E+02  5.20000000E+01  0.00000000E+00
  7.30000000E+02  5.00000000E+01  0.00000000E+00
  7.30000000E+02  4.80000000E+01  0.00000000E+00
  7.30000000E+02  4.60000000E+01  0.00000000E+00
  7.30000000E+02  4.40000000E+01  0.00000000E+00
  7.30000000E+02  4.20000000E+01  0.00000000E+00
  7.30000000E+02  4.00000000E+01  0.00000000E+00
  7.30000000E+02  3.80000000E+01  0.00000000E+00
  7.30000000E+02  3.60000000E+01  0.00000000E+00
  7.30000000E+02  3.40000000E+01  0.00000000E+00
  7.30000000E+02  3.20000000E+01  0.00000000E+00
  7.30000000E+02  3.00000000E+01  0.00000000E+00
  7.30000000E+02  2.80000000E+01  0.00000000E+00
  7.30000000E+02  2.60000000E+01  0.00000000E+00
  7.30000000E+02  2.40000000E+01  0.00000000E+00
  7.30000000E+02  2.20000000E+01  0.00000000E+00
  7.30000000E+02  2.00000000E+01  0.00000000E+00
  7.30000000E+02  1.80000000E+01  0.00000000E+00
  7.30000000E+02  1.60000000E+01  0.00000000E+00
  7.30000000E+02  1.40000000E+01  0.00000000E+00
  7.30000000E+02  1.20000000E+01  0.00000000E+00
  7.30000000E+02  1.00000000E+01  0.00000000E+00
  7.30000000E+02  8.00000000E+00  0.00000000E+00
  7.30000000E+02  6.00000000E+00  0.00000000E+00
  7.30000000E+02  4.00000000E+00  0.00000000E+00
  7.30000000E+02  2.00000000E+00  0.00000000E+00
  7.30000000E+02 -3.33066907E-14  0.00000000E+00
  7.40000000E+02  1.00000000E+02  0.00000000E+00
  7.40000000E+02  9.80000000E+01  0.00000000E+00
  7.40000000E+02  9.60000000E+01  0.00000000E+00
  7.40000000E+02  9.40000000E+01  0.00000000E+00
  7.40000000E+02  9.20000000E+01  0.00000000E+00
  7.40000000E+02  9.00000000E+01  0.00000000E+00
  7.40000000E+02  8.80000000E+01  0.00000000E+00
  7.40000000E+02  8.60000000E+01  0.00000000E+00
  7.40000000E+02  8.40000000E+01  0.00000000E+00
  7.40000000E+02  8.20000000E+01  0.00000000E+00
  7.40000000E+02  8.00000000E+01  0.00000000E+00
  7.40000000E+02  7.80000000E+01  0.00000000E+00
  7.40000000E+02  7.60000000E+01  0.00000000E+00
  7.40000000E+02  7.40000000E+01  0.00000000E+00
  7.40000000E+02  7.20000000E+01  0.00000000E+00
  7.40000000E+02  7.00000000E+01  0.00000000E+00
  7.40000000E+02  6.80000000E+01  0.00000000E+00
  7.40000000E+02  6.60000000E+01  0.00000000E+00
  7.40000000E+02  6.40000000E+01  0.00000000E+00
  7.40000000E+02  6.20000000E+01  0.00000000E+00
  7.40000000E+02  6.00000000E+01  0.00000000E+00
  7.40000000E+02  5.80000000E+01  0.00000000E+00
  7.40000000E+02  5.60000000E+01  0.00000000E+00
  7.40000000E+02  5.40000000E+01  0.00000000E+00
  7.40000000E+02  5.20000000E+01  0.00000000E+00
  7.40000000E+02  5.00000000E+01  0.00000000E+00
  7.40000000E+02  4.80000000E+01  0.00000000E+00
  7.40000000E+02  4.60000000E+01  0.00000000E+00
  7.40000000E+02  4.40000000E+01  0.00000000E+00
  7.40000000E+02  4.20000000E+01  0.00000000E+00
  7.40000000E+02  4.00000000E+01  0.00000000E+00
  7.40000000E+02  3.80000000E+01  0.00000000E+00
  7.40000000E+02  3.60000000E+01  0.00000000E+00
  7.40000000E+02  3.40000000E+01  0.00000000E+00
  7.40000000E+02  3.20000000E+01  0.00000000E+00
  7.40000000E+02  3.00000000E+01  0.00000000E+00
  7.40000000E+02  2.80000000E+01  0.00000000E+00
  7.40000000E+02  2.60000000E+01  0.00000000E+00
  7.40000000E+02  2.40000000E+01  0.00000000E+00
  7.40000000E+02  2.20000000E+01  0.00000000E+00
  7.40000000E+02  2.00000000E+01  0.00000000E+00
  7.40000000E+02  1.80000000E+01  0.00000000E+00
  7.40000000E+02  1.60000000E+01  0.00000000E+00
  7.40000000E+02  1.40000000E+01  0.00000000E+00
  7.40000000E+02  1.20000000E+01  0.00000000E+00
  7.40000000E+02  1.00000000E+01  0.00000000E+00
  7.40000000E+02  8.00000000E+00  0.00000000E+00
  7.40000000E+02  6.00000000E+00  0.00000000E+00
  7.40000000E+02  4.00000000E+00  0.00000000E+00
  7.40000000E+02  2.00000000E+00  0.00000000E+00
  7.40000000E+02 -3.33066907E-14  0.00000000E+00
  7.50000000E+02  1.00000000E+02  0.00000000E+00
  7.50000000E+02  9.80000000E+01  0.00000000E+00
  7.50000000E+02  9.60000000E+01  0.00000000E+00
  7.50000000E+02  9.40000000E+01  0.00000000E+00
  7.50000000E+02  9.20000000E+01  0.00000000E+00
  7.50000000E+02  9.00000000E+01  0.00000000E+00
  7.50000000E+02  8.80000000E+01  0.00000000E+00
  7.50000000E+02  8.60000000E+01  0.00000000E+00
  7.50000000E+02  8.40000000E+01  0.00000000E+00
  7.50000000E+02  8.20000000E+01  0.00000000E+00
  7.50000000E+02  8.00000000E+01  0.00000000E+00
  7.50000000E+02  7.80000000E+01  0.00000000E+00
  7.50000000E+02  7.60000000E+01  0.00000000E+00
  7.50000000E+02  7.40000000E+01  0.00000000E+00
  7.50000000E+02  7.20000000E+01  0.00000000E+00
  7.50000000E+02  7.00000000E+01  0.00000000E+00
  7.50000000E+02  6.80000000E+01  0.00000000E+00
  7.50000000E+02  6.60000000E+01  0.00000000E+00
  7.50000000E+02  6.40000000E+01  0.00000000E+00
  7.50000000E+02  6.20000000E+01  0.00000000E+00
  7.50000000E+02  6.00000000E+01  0.00000000E+00
  7.50000000E+02  5.80000000E+01  0.00000000E+00
  7.50000000E+02  5.60000000E+01  0.00000000E+00
  7.50000000E+02  5.40000000E+01  0.00000000E+00
  7.50000000E+02  5.20000000E+01  0.00000000E+00
  7.50000000E+02  5.00000000E+01  0.00000000E+00
  7.50000000E+02  4.80000000E+01  0.00000000E+00
  7.50000000E+02  4.60000000E+01  0.00000000E+00
  7.50000000E+02  4.40000000E+01  0.00000000E+00
  7.50000000E+02  4.20000000E+01  0.00000000E+00
  7.50000000E+02  4.00000000E+01  0.00000000E+00
  7.50000000E+02  3.80000000E+01  0.00000000E+00
  7.50000000E+02  3.60000000E+01  0.00000000E+00
  7.50000000E+02  3.40000000E+01  0.00000000E+00
  7.50000000E+02  3.20000000E+01  0.00000000E+00
  7.50000000E+02  3.00000000E+01  0.00000000E+00
  7.50000000E+02  2.80000000E+01  0.00000000E+00
  7.50000000E+02  2.60000000E+01  0.00000000E+00
  7.50000000E+02  2.40000000E+01  0.00000000E+00
  7.50000000E+02  2.20000000E+01  0.00000000E+00
  7.50000000E+02  2.00000000E+01  0.00000000E+00
  7.50000000E+02  1.80000000E+01  0.00000000E+00
  7.50000000E+02  1.60000000E+01  0.00000000E+00
  7.50000000E+02  1.40000000E+01  0.00000000E+00
  7.50000000E+02  1.20000000E+01  0.00000000E+00
  7.50000000E+02  1.00000000E+01  0.00000000E+00
  7.50000000E+02  8.00000000E+00  0.00000000E+00
  7.50000000E+02  6.00000000E+00  0.00000000E+00
  7.50000000E+02  4.00000000E+00  0.00000000E+00
  7.50000000E+02  2.00000000E+00  0.00000000E+00
  7.50000000E+02 -3.33066907E-14  0.00000000E+00
  7.60000000E+02  1.00000000E+02  0.00000000E+00
  7.60000000E+02  9.80000000E+01  0.00000000E+00
  7.60000000E+02  9.60000000E+01  0.00000000E+00
  7.60000000E+02  9.40000000E+01  0.00000000E+00
  7.60000000E+02  9.20000000E+01  0.00000000E+00
  7.60000000E+02  9.00000000E+01  0.00000000E+00
  7.60000000E+02  8.80000000E+01  0.00000000E+00
  7.60000000E+02  8.60000000E+01  0.00000000E+00
  7.60000000E+02  8.40000000E+01  0.00000000E+00
  7.60000000E+02  8.20000000E+01  0.00000000E+00
  7.60000000E+02  8.00000000E+01  0.00000000E+00
  7.60000000E+02  7.80000000E+01  0.00000000E+00
  7.60000000E+02  7.60000000E+01  0.00000000E+00
  7.60000000E+02  7.40000000E+01  0.00000000E+00
  7.60000000E+02  7.20000000E+01  0.00000000E+00
  7.60000000E+02  7.00000000E+01  0.00000000E+00
  7.60000000E+02  6.80000000E+01  0.00000000E+00
  7.60000000E+02  6.60000000E+01  0.00000000E+00
  7.60000000E+02  6.40000000E+01  0.00000000E+00
  7.60000000E+02  6.20000000E+01  0.00000000E+00
  7.60000000E+02  6.00000000E+01  0.00000000E+00
  7.60000000E+02  5.80000000E+01  0.00000000E+00
  7.60000000E+02  5.60000000E+01  0.00000000E+00
  7.60000000E+02  5.40000000E+01  0.00000000E+00
  7.60000000E+02  5.20000000E+01  0.00000000E+00
  7.60000000E+02  5.00000000E+01  0.00000000E+00
  7.60000000E+02  4.80000000E+01  0.00000000E+00
  7.60000000E+02  4.60000000E+01  0.00000000E+00
  7.60000000E+02  4.40000000E+01  0.00000000E+00
  7.60000000E+02  4.20000000E+01  0.00000000E+00
  7.60000000E+02  4.00000000E+01  0.00000000E+00
  7.60000000E+02  3.80000000E+01  0.00000000E+00
  7.60000000E+02  3.60000000E+01  0.00000000E+00
  7.60000000E+02  3.40000000E+01  0.00000000E+00
  7.60000000E+02  3.20000000E+01  0.00000000E+00
  7.60000000E+02  3.00000000E+01  0.00000000E+00
  7.60000000E+02  2.80000000E+01  0.00000000E+00
  7.60000000E+02  2.60000000E+01  0.00000000E+00
  7.60000000E+02  2.40000000E+01  0.00000000E+00
  7.60000000E+02  2.20000000E+01  0.00000000E+00
  7.60000000E+02  2.00000000E+01  0.00000000E+00
  7.60000000E+02  1.80000000E+01  0.00000000E+00
  7.60000000E+02  1.60000000E+01  0.00000000E+00
  7.60000000E+02  1.40000000E+01  0.00000000E+00
  7.60000000E+02  1.20000000E+01  0.00000000E+00
  7.60000000E+02  1.00000000E+01  0.00000000E+00
  7.60000000E+02  8.00000000E+00  0.00000000E+00
  7.60000000E+02  6.00000000E+00  0.00000000E+00
  7.60000000E+02  4.00000000E+00  0.00000000E+00
  7.60000000E+02  2.00000000E+00  0.00000000E+00
  7.60000000E+02 -3.33066907E-14  0.00000000E+00
  7.70000000E+02  1.00000000E+02  0.00000000E+00
  7.70000000E+02  9.80000000E+01  0.00000000E+00
  7.70000000E+02  9.60000000E+01  0.00000000E+00
  7.70000000E+02  9.40000000E+01  0.00000000E+00
  7.70000000E+02  9.20000000E+01  0.00000000E+00
  7.70000000E+02  9.00000000E+01  0.00000000E+00
  7.70000000E+02  8.80000000E+01  0.00000000E+00
  7.70000000E+02  8.60000000E+01  0.00000000E+00
  7.70000000E+02  8.40000000E+01  0.00000000E+00
  7.70000000E+02  8.20000000E+01  0.00000000E+00
  7.70000000E+02  8.00000000E+01  0.00000000E+00
  7.70000000E+02  7.80000000E+01  0.00000000E+00
  7.70000000E+02  7.60000000E+01  0.00000000E+00
  7.70000000E+02  7.40000000E+01  0.00000000E+00
  7.70000000E+02  7.20000000E+01  0.00000000E+00
  7.70000000E+02  7.00000000E+01  0.00000000E+00
  7.70000000E+02  6.80000000E+01  0.00000000E+00
  7.70000000E+02  6.60000000E+01  0.00000000E+00
  7.70000000E+02  6.40000000E+01  0.00000000E+00
  7.70000000E+02  6.20000000E+01  0.00000000E+00
  7.70000000E+02  6.00000000E+01  0.00000000E+00
  7.70000000E+02  5.80000000E+01  0.00000000E+00
  7.70000000E+02  5.60000000E+01  0.00000000E+00
  7.70000000E+02  5.40000000E+01  0.00000000E+00
  7.70000000E+02  5.20000000E+01  0.00000000E+00
  7.70000000E+02  5.00000000E+01  0.00000000E+00
  7.70000000E+02  4.80000000E+01  0.00000000E+00
  7.70000000E+02  4.60000000E+01  0.00000000E+00
  7.70000000E+02  4.40000000E+01  0.00000000E+00
  7.70000000E+02  4.20000000E+01  0.00000000E+00
  7.70000000E+02  4.00000000E+01  0.00000000E+00
  7.70000000E+02  3.80000000E+01  0.00000000E+00
  7.70000000E+02  3.60000000E+01  0.00000000E+00
  7.70000000E+02  3.40000000E+01  0.00000000E+00
  7.70000000E+02  3.20000000E+01  0.00000000E+00
  7.70000000E+02  3.00000000E+01  0.00000000E+00
  7.70000000E+02  2.80000000E+01  0.00000000E+00
  7.70000000E+02  2.60000000E+01  0.00000000E+00
  7.70000000E+02  2.40000000E+01  0.00000000E+00
  7.70000000E+02  2.20000000E+01  0.00000000E+00
  7.70000000E+02  2.00000000E+01  0.00000000E+00
  7.70000000E+02  1.80000000E+01  0.00000000E+00
  7.70000000E+02  1.60000000E+01  0.00000000E+00
  7.70000000E+02  1.40000000E+01  0.00000000E+00
  7.70000000E+02  1.20000000E+01  0.00000000E+00
  7.70000000E+02  1.00000000E+01  0.00000000E+00
  7.70000000E+02  8.00000000E+00  0.00000000E+00
  7.70000000E+02  6.00000000E+00  0.00000000E+00
  7.70000000E+02  4.00000000E+00  0.00000000E+00
  7.70000000E+02  2.00000000E+00  0.00000000E+00
  7.70000000E+02 -3.33066907E-14  0.00000000E+00
  7.80000000E+02  1.00000000E+02  0.00000000E+00
  7.80000000E+02  9.80000000E+01  0.00000000E+00
  7.80000000E+02  9.60000000E+01  0.00000000E+00
  7.80000000E+02  9.40000000E+01  0.00000000E+00
  7.80000000E+02  9.20000000E+01  0.00000000E+00
  7.80000000E+02  9.00000000E+01  0.00000000E+00
  7.80000000E+02  8.80000000E+01  0.00000000E+00
  7.80000000E+02  8.60000000E+01  0.00000000E+00
  7.80000000E+02  8.40000000E+01  0.00000000E+00
  7.80000000E+02  8.20000000E+01  0.00000000E+00
  7.80000000E+02  8.00000000E+01  0.00000000E+00
  7.80000000E+02  7.80000000E+01  0.00000000E+00
  7.80000000E+02  7.60000000E+01  0.00000000E+00
  7.80000000E+02  7.40000000E+01  0.00000000E+00
  7.80000000E+02  7.20000000E+01  0.00000000E+00
  7.80000000E+02  7.00000000E+01  0.00000000E+00
  7.80000000E+02  6.80000000E+01  0.00000000E+00
  7.80000000E+02  6.60000000E+01  0.00000000E+00
  7.80000000E+02  6.40000000E+01  0.00000000E+00
  7.80000000E+02  6.20000000E+01  0.00000000E+00
  7.80000000E+02  6.00000000E+01  0.00000000E+00
  7.80000000E+02  5.80000000E+01  0.00000000E+00
  7.80000000E+02  5.60000000E+01  0.00000000E+00
  7.80000000E+02  5.40000000E+01  0.00000000E+00
  7.80000000E+02  5.20000000E+01  0.00000000E+00
  7.80000000E+02  5.00000000E+01  0.00000000E+00
  7.80000000E+02  4.80000000E+01  0.00000000E+00
  7.80000000E+02  4.60000000E+01  0.00000000E+00
  7.80000000E+02  4.40000000E+01  0.00000000E+00
  7.80000000E+02  4.20000000E+01  0.00000000E+00
  7.80000000E+02  4.00000000E+01  0.00000000E+00
  7.80000000E+02  3.80000000E+01  0.00000000E+00
  7.80000000E+02  3.60000000E+01  0.00000000E+00
  7.80000000E+02  3.40000000E+01  0.00000000E+00
  7.80000000E+02  3.20000000E+01  0.00000000E+00
  7.80000000E+02  3.00000000E+01  0.00000000E+00
  7.80000000E+02  2.80000000E+01  0.00000000E+00
  7.80000000E+02  2.60000000E+01  0.00000000E+00
  7.80000000E+02  2.40000000E+01  0.00000000E+00
  7.80000000E+02  2.20000000E+01  0.00000000E+00
  7.80000000E+02  2.00000000E+01  0.00000000E+00
  7.80000000E+02  1.80000000E+01  0.00000000E+00
  7.80000000E+02  1.60000000E+01  0.00000000E+00
  7.80000000E+02  1.40000000E+01  0.00000000E+00
  7.80000000E+02  1.20000000E+01  0.00000000E+00
  7.80000000E+02  1.00000000E+01  0.00000000E+00
  7.80000000E+02  8.00000000E+00  0.00000000E+00
  7.80000000E+02  6.00000000E+00  0.00000000E+00
  7.80000000E+02  4.00000000E+00  0.00000000E+00
  7.80000000E+02  2.00000000E+00  0.00000000E+00
  7.80000000E+02 -3.33066907E-14  0.00000000E+00
  7.90000000E+02  1.00000000E+02  0.00000000E+00
  7.90000000E+02  9.80000000E+01  0.00000000E+00
  7.90000000E+02  9.60000000E+01  0.00000000E+00
  7.90000000E+02  9.40000000E+01  0.00000000E+00
  7.90000000E+02  9.20000000E+01  0.00000000E+00
  7.90000000E+02  9.00000000E+01  0.00000000E+00
  7.90000000E+02  8.80000000E+01  0.00000000E+00
  7.90000000E+02  8.60000000E+01  0.00000000E+00
  7.90000000E+02  8.40000000E+01  0.00000000E+00
  7.90000000E+02  8.20000000E+01  0.00000000E+00
  7.90000000E+02  8.00000000E+01  0.00000000E+00
  7.90000000E+02  7.80000000E+01  0.00000000E+00
  7.90000000E+02  7.60000000E+01  0.00000000E+00
  7.90000000E+02  7.40000000E+01  0.00000000E+00
  7.90000000E+02  7.20000000E+01  0.00000000E+00
  7.90000000E+02  7.00000000E+01  0.00000000E+00
  7.90000000E+02  6.80000000E+01  0.00000000E+00
  7.90000000E+02  6.60000000E+01  0.00000000E+00
  7.90000000E+02  6.40000000E+01  0.00000000E+00
  7.90000000E+02  6.20000000E+01  0.00000000E+00
  7.90000000E+02  6.00000000E+01  0.00000000E+00
  7.90000000E+02  5.80000000E+01  0.00000000E+00
  7.90000000E+02  5.60000000E+01  0.00000000E+00
  7.90000000E+02  5.40000000E+01  0.00000000E+00
  7.90000000E+02  5.20000000E+01  0.00000000E+00
  7.90000000E+02  5.00000000E+01  0.00000000E+00
  7.90000000E+02  4.80000000E+01  0.00000000E+00
  7.90000000E+02  4.60000000E+01  0.00000000E+00
  7.90000000E+02  4.40000000E+01  0.00000000E+00
  7.90000000E+02  4.20000000E+01  0.00000000E+00
  7.90000000E+02  4.00000000E+01  0.00000000E+00
  7.90000000E+02  3.80000000E+01  0.00000000E+00
  7.90000000E+02  3.60000000E+01  0.00000000E+00
  7.90000000E+02  3.40000000E+01  0.00000000E+00
  7.90000000E+02  3.20000000E+01  0.00000000E+00
  7.90000000E+02  3.00000000E+01  0.00000000E+00
  7.90000000E+02  2.80000000E+01  0.00000000E+00
  7.90000000E+02  2.60000000E+01  0.00000000E+00
  7.90000000E+02  2.40000000E+01  0.00000000E+00
  7.90000000E+02  2.20000000E+01  0.00000000E+00
  7.90000000E+02  2.00000000E+01  0.00000000E+00
  7.90000000E+02  1.80000000E+01  0.00000000E+00
  7.90000000E+02  1.60000000E+01  0.00000000E+00
  7.90000000E+02  1.40000000E+01  0.00000000E+00
  7.90000000E+02  1.20000000E+01  0.00000000E+00
  7.90000000E+02  1.00000000E+01  0.00000000E+00
  7.90000000E+02  8.00000000E+00  0.00000000E+00
  7.90000000E+02  6.00000000E+00  0.00000000E+00
  7.90000000E+02  4.00000000E+00  0.00000000E+00
  7.90000000E+02  2.00000000E+00  0.00000000E+00
  7.90000000E+02 -3.33066907E-14  0.00000000E+00
  8.00000000E+02  1.00000000E+02  0.00000000E+00
  8.00000000E+02  9.80000000E+01  0.00000000E+00
  8.00000000E+02  9.60000000E+01  0.00000000E+00
  8.00000000E+02  9.40000000E+01  0.00000000E+00
  8.00000000E+02  9.20000000E+01  0.00000000E+00
  8.00000000E+02  9.00000000E+01  0.00000000E+00
  8.00000000E+02  8.80000000E+01  0.00000000E+00
  8.00000000E+02  8.60000000E+01  0.00000000E+00
  8.00000000E+02  8.40000000E+01  0.00000000E+00
  8.00000000E+02  8.20000000E+01  0.00000000E+00
  8.00000000E+02  8.00000000E+01  0.00000000E+00
  8.00000000E+02  7.80000000E+01  0.00000000E+00
  8.00000000E+02  7.60000000E+01  0.00000000E+00
  8.00000000E+02  7.40000000E+01  0.00000000E+00
  8.00000000E+02  7.20000000E+01  0.00000000E+00
  8.00000000E+02  7.00000000E+01  0.00000000E+00
  8.00000000E+02  6.80000000E+01  0.00000000E+00
  8.00000000E+02  6.60000000E+01  0.00000000E+00
  8.00000000E+02  6.40000000E+01  0.00000000E+00
  8.00000000E+02  6.20000000E+01  0.00000000E+00
  8.00000000E+02  6.00000000E+01  0.00000000E+00
  8.00000000E+02  5.80000000E+01  0.00000000E+00
  8.00000000E+02  5.60000000E+01  0.00000000E+00
  8.00000000E+02  5.40000000E+01  0.00000000E+00
  8.00000000E+02  5.20000000E+01  0.00000000E+00
  8.00000000E+02  5.00000000E+01  0.00000000E+00
  8.00000000E+02  4.80000000E+01  0.00000000E+00
  8.00000000E+02  4.60000000E+01  0.00000000E+00
  8.00000000E+02  4.40000000E+01  0.00000000E+00
  8.00000000E+02  4.20000000E+01  0.00000000E+00
  8.00000000E+02  4.00000000E+01  0.00000000E+00
  8.00000000E+02  3.80000000E+01  0.00000000E+00
  8.00000000E+02  3.60000000E+01  0.00000000E+00
  8.00000000E+02  3.40000000E+01  0.00000000E+00
  8.00000000E+02  3.20000000E+01  0.00000000E+00
  8.00000000E+02  3.00000000E+01  0.00000000E+00
  8.00000000E+02  2.80000000E+01  0.00000000E+00
  8.00000000E+02  2.60000000E+01  0.00000000E+00
  8.00000000E+02  2.40000000E+01  0.00000000E+00
  8.00000000E+02  2.20000000E+01  0.00000000E+00
  8.00000000E+02  2.00000000E+01  0.00000000E+00
  8.00000000E+02  1.80000000E+01  0.00000000E+00
  8.00000000E+02  1.60000000E+01  0.00000000E+00
  8.00000000E+02  1.40000000E+01  0.00000000E+00
  8.00000000E+02  1.20000000E+01  0.00000000E+00
  8.00000000E+02  1.00000000E+01  0.00000000E+00
  8.00000000E+02  8.00000000E+00  0.00000000E+00
  8.00000000E+02  6.00000000E+00  0.00000000E+00
  8.00000000E+02  4.00000000E+00  0.00000000E+00
  8.00000000E+02  2.00000000E+00  0.00000000E+00
  8.00000000E+02 -3.33066907E-14  0.00000000E+00
  8.10000000E+02  1.00000000E+02  0.00000000E+00
  8.10000000E+02  9.80000000E+01  0.00000000E+00
  8.10000000E+02  9.60000000E+01  0.00000000E+00
  8.10000000E+02  9.40000000E+01  0.00000000E+00
  8.10000000E+02  9.20000000E+01  0.00000000E+00
  8.10000000E+02  9.00000000E+01  0.00000000E+00
  8.10000000E+02  8.80000000E+01  0.00000000E+00
  8.10000000E+02  8.60000000E+01  0.00000000E+00
  8.10000000E+02  8.40000000E+01  0.00000000E+00
  8.10000000E+02  8.20000000E+01  0.00000000E+00
  8.10000000E+02  8.00000000E+01  0.00000000E+00
  8.10000000E+02  7.80000000E+01  0.00000000E+00
  8.10000000E+02  7.60000000E+01  0.00000000E+00
  8.10000000E+02  7.40000000E+01  0.00000000E+00
  8.10000000E+02  7.20000000E+01  0.00000000E+00
  8.10000000E+02  7.00000000E+01  0.00000000E+00
  8.10000000E+02  6.80000000E+01  0.00000000E+00
  8.10000000E+02  6.60000000E+01  0.00000000E+00
  8.10000000E+02  6.40000000E+01  0.00000000E+00
  8.10000000E+02  6.20000000E+01  0.00000000E+00
  8.10000000E+02  6.00000000E+01  0.00000000E+00
  8.10000000E+02  5.80000000E+01  0.00000000E+00
  8.10000000E+02  5.60000000E+01  0.00000000E+00
  8.10000000E+02  5.40000000E+01  0.00000000E+00
  8.10000000E+02  5.20000000E+01  0.00000000E+00
  8.10000000E+02  5.00000000E+01  0.00000000E+00
  8.10000000E+02  4.80000000E+01  0.00000000E+00
  8.10000000E+02  4.60000000E+01  0.00000000E+00
  8.10000000E+02  4.40000000E+01  0.00000000E+00
  8.10000000E+02  4.20000000E+01  0.00000000E+00
  8.10000000E+02  4.00000000E+01  0.00000000E+00
  8.10000000E+02  3.80000000E+01  0.00000000E+00
  8.10000000E+02  3.60000000E+01  0.00000000E+00
  8.10000000E+02  3.40000000E+01  0.00000000E+00
  8.10000000E+02  3.20000000E+01  0.00000000E+00
  8.10000000E+02  3.00000000E+01  0.00000000E+00
  8.10000000E+02  2.80000000E+01  0.00000000E+00
  8.10000000E+02  2.60000000E+01  0.00000000E+00
  8.10000000E+02  2.40000000E+01  0.00000000E+00
  8.10000000E+02  2.20000000E+01  0.00000000E+00
  8.10000000E+02  2.00000000E+01  0.00000000E+00
  8.10000000E+02  1.80000000E+01  0.00000000E+00
  8.10000000E+02  1.60000000E+01  0.00000000E+00
  8.10000000E+02  1.40000000E+01  0.00000000E+00
  8.10000000E+02  1.20000000E+01  0.00000000E+00
  8.10000000E+02  1.00000000E+01  0.00000000E+00
  8.10000000E+02  8.00000000E+00  0.00000000E+00
  8.10000000E+02  6.00000000E+00  0.00000000E+00
  8.10000000E+02  4.00000000E+00  0.00000000E+00
  8.10000000E+02  2.00000000E+00  0.00000000E+00
  8.10000000E+02 -3.33066907E-14  0.00000000E+00
  8.20000000E+02  1.00000000E+02  0.00000000E+00
  8.20000000E+02  9.80000000E+01  0.00000000E+00
  8.20000000E+02  9.60000000E+01  0.00000000E+00
  8.20000000E+02  9.40000000E+01  0.00000000E+00
  8.20000000E+02  9.20000000E+01  0.00000000E+00
  8.20000000E+02  9.00000000E+01  0.00000000E+00
  8.20000000E+02  8.80000000E+01  0.00000000E+00
  8.20000000E+02  8.60000000E+01  0.00000000E+00
  8.20000000E+02  8.40000000E+01  0.00000000E+00
  8.20000000E+02  8.20000000E+01  0.00000000E+00
  8.20000000E+02  8.00000000E+01  0.00000000E+00
  8.20000000E+02  7.80000000E+01  0.00000000E+00
  8.20000000E+02  7.60000000E+01  0.00000000E+00
  8.20000000E+02  7.40000000E+01  0.00000000E+00
  8.20000000E+02  7.20000000E+01  0.00000000E+00
  8.20000000E+02  7.00000000E+01  0.00000000E+00
  8.20000000E+02  6.80000000E+01  0.00000000E+00
  8.20000000E+02  6.60000000E+01  0.00000000E+00
  8.20000000E+02  6.40000000E+01  0.00000000E+00
  8.20000000E+02  6.20000000E+01  0.00000000E+00
  8.20000000E+02  6.00000000E+01  0.00000000E+00
  8.20000000E+02  5.80000000E+01  0.00000000E+00
  8.20000000E+02  5.60000000E+01  0.00000000E+00
  8.20000000E+02  5.40000000E+01  0.00000000E+00
  8.20000000E+02  5.20000000E+01  0.00000000E+00
  8.20000000E+02  5.00000000E+01  0.00000000E+00
  8.20000000E+02  4.80000000E+01  0.00000000E+00
  8.20000000E+02  4.60000000E+01  0.00000000E+00
  8.20000000E+02  4.40000000E+01  0.00000000E+00
  8.20000000E+02  4.20000000E+01  0.00000000E+00
  8.20000000E+02  4.00000000E+01  0.00000000E+00
  8.20000000E+02  3.80000000E+01  0.00000000E+00
  8.20000000E+02  3.60000000E+01  0.00000000E+00
  8.20000000E+02  3.40000000E+01  0.00000000E+00
  8.20000000E+02  3.20000000E+01  0.00000000E+00
  8.20000000E+02  3.00000000E+01  0.00000000E+00
  8.20000000E+02  2.80000000E+01  0.00000000E+00
  8.20000000E+02  2.60000000E+01  0.00000000E+00
  8.20000000E+02  2.40000000E+01  0.00000000E+00
  8.20000000E+02  2.20000000E+01  0.00000000E+00
  8.20000000E+02  2.00000000E+01  0.00000000E+00
  8.20000000E+02  1.80000000E+01  0.00000000E+00
  8.20000000E+02  1.60000000E+01  0.00000000E+00
  8.20000000E+02  1.40000000E+01  0.00000000E+00
  8.20000000E+02  1.20000000E+01  0.00000000E+00
  8.20000000E+02  1.00000000E+01  0.00000000E+00
  8.20000000E+02  8.00000000E+00  0.00000000E+00
  8.20000000E+02  6.00000000E+00  0.00000000E+00
  8.20000000E+02  4.00000000E+00  0.00000000E+00
  8.20000000E+02  2.00000000E+00  0.00000000E+00
  8.20000000E+02 -3.33066907E-14  0.00000000E+00
  8.30000000E+02  1.00000000E+02  0.00000000E+00
  8.30000000E+02  9.80000000E+01  0.00000000E+00
  8.30000000E+02  9.60000000E+01  0.00000000E+00
  8.30000000E+02  9.40000000E+01  0.00000000E+00
  8.30000000E+02  9.20000000E+01  0.00000000E+00
  8.30000000E+02  9.00000000E+01  0.00000000E+00
  8.30000000E+02  8.80000000E+01  0.00000000E+00
  8.30000000E+02  8.60000000E+01  0.00000000E+00
  8.30000000E+02  8.40000000E+01  0.00000000E+00
  8.30000000E+02  8.20000000E+01  0.00000000E+00
  8.30000000E+02  8.00000000E+01  0.00000000E+00
  8.30000000E+02  7.80000000E+01  0.00000000E+00
  8.30000000E+02  7.60000000E+01  0.00000000E+00
  8.30000000E+02  7.40000000E+01  0.00000000E+00
  8.30000000E+02  7.20000000E+01  0.00000000E+00
  8.30000000E+02  7.00000000E+01  0.00000000E+00
  8.30000000E+02  6.80000000E+01  0.00000000E+00
  8.30000000E+02  6.60000000E+01  0.00000000E+00
  8.30000000E+02  6.40000000E+01  0.00000000E+00
  8.30000000E+02  6.20000000E+01  0.00000000E+00
  8.30000000E+02  6.00000000E+01  0.00000000E+00
  8.30000000E+02  5.80000000E+01  0.00000000E+00
  8.30000000E+02  5.60000000E+01  0.00000000E+00
  8.30000000E+02  5.40000000E+01  0.00000000E+00
  8.30000000E+02  5.20000000E+01  0.00000000E+00
  8.30000000E+02  5.00000000E+01  0.00000000E+00
  8.30000000E+02  4.80000000E+01  0.00000000E+00
  8.30000000E+02  4.60000000E+01  0.00000000E+00
  8.30000000E+02  4.40000000E+01  0.00000000E+00
  8.30000000E+02  4.20000000E+01  0.00000000E+00
  8.30000000E+02  4.00000000E+01  0.00000000E+00
  8.30000000E+02  3.80000000E+01  0.00000000E+00
  8.30000000E+02  3.60000000E+01  0.00000000E+00
  8.30000000E+02  3.40000000E+01  0.00000000E+00
  8.30000000E+02  3.20000000E+01  0.00000000E+00
  8.30000000E+02  3.00000000E+01  0.00000000E+00
  8.30000000E+02  2.80000000E+01  0.00000000E+00
  8.30000000E+02  2.60000000E+01  0.00000000E+00
  8.30000000E+02  2.40000000E+01  0.00000000E+00
  8.30000000E+02  2.20000000E+01  0.00000000E+00
  8.30000000E+02  2.00000000E+01  0.00000000E+00
  8.30000000E+02  1.80000000E+01  0.00000000E+00
  8.30000000E+02  1.60000000E+01  0.00000000E+00
  8.30000000E+02  1.40000000E+01  0.00000000E+00
  8.30000000E+02  1.20000000E+01  0.00000000E+00
  8.30000000E+02  1.00000000E+01  0.00000000E+00
  8.30000000E+02  8.00000000E+00  0.00000000E+00
  8.30000000E+02  6.00000000E+00  0.00000000E+00
  8.30000000E+02  4.00000000E+00  0.00000000E+00
  8.30000000E+02  2.00000000E+00  0.00000000E+00
  8.30000000E+02 -3.33066907E-14  0.00000000E+00
  8.40000000E+02  1.00000000E+02  0.00000000E+00
  8.40000000E+02  9.80000000E+01  0.00000000E+00
  8.40000000E+02  9.60000000E+01  0.00000000E+00
  8.40000000E+02  9.40000000E+01  0.00000000E+00
  8.40000000E+02  9.20000000E+01  0.00000000E+00
  8.40000000E+02  9.00000000E+01  0.00000000E+00
  8.40000000E+02  8.80000000E+01  0.00000000E+00
  8.40000000E+02  8.60000000E+01  0.00000000E+00
  8.40000000E+02  8.40000000E+01  0.00000000E+00
  8.40000000E+02  8.20000000E+01  0.00000000E+00
  8.40000000E+02  8.00000000E+01  0.00000000E+00
  8.40000000E+02  7.80000000E+01  0.00000000E+00
  8.40000000E+02  7.60000000E+01  0.00000000E+00
  8.40000000E+02  7.40000000E+01  0.00000000E+00
  8.40000000E+02  7.20000000E+01  0.00000000E+00
  8.40000000E+02  7.00000000E+01  0.00000000E+00
  8.40000000E+02  6.80000000E+01  0.00000000E+00
  8.40000000E+02  6.60000000E+01  0.00000000E+00
  8.40000000E+02  6.40000000E+01  0.00000000E+00
  8.40000000E+02  6.20000000E+01  0.00000000E+00
  8.40000000E+02  6.00000000E+01  0.00000000E+00
  8.40000000E+02  5.80000000E+01  0.00000000E+00
  8.40000000E+02  5.60000000E+01  0.00000000E+00
  8.40000000E+02  5.40000000E+01  0.00000000E+00
  8.40000000E+02  5.20000000E+01  0.00000000E+00
  8.40000000E+02  5.00000000E+01  0.00000000E+00
  8.40000000E+02  4.80000000E+01  0.00000000E+00
  8.40000000E+02  4.60000000E+01  0.00000000E+00
  8.40000000E+02  4.40000000E+01  0.00000000E+00
  8.40000000E+02  4.20000000E+01  0.00000000E+00
  8.40000000E+02  4.00000000E+01  0.00000000E+00
  8.40000000E+02  3.80000000E+01  0.00000000E+00
  8.40000000E+02  3.60000000E+01  0.00000000E+00
  8.40000000E+02  3.40000000E+01  0.00000000E+00
  8.40000000E+02  3.20000000E+01  0.00000000E+00
  8.40000000E+02  3.00000000E+01  0.00000000E+00
  8.40000000E+02  2.80000000E+01  0.00000000E+00
  8.40000000E+02  2.60000000E+01  0.00000000E+00
  8.40000000E+02  2.40000000E+01  0.00000000E+00
  8.40000000E+02  2.20000000E+01  0.00000000E+00
  8.40000000E+02  2.00000000E+01  0.00000000E+00
  8.40000000E+02  1.80000000E+01  0.00000000E+00
  8.40000000E+02  1.60000000E+01  0.00000000E+00
  8.40000000E+02  1.40000000E+01  0.00000000E+00
  8.40000000E+02  1.20000000E+01  0.00000000E+00
  8.40000000E+02  1.00000000E+01  0.00000000E+00
  8.40000000E+02  8.00000000E+00  0.00000000E+00
  8.40000000E+02  6.00000000E+00  0.00000000E+00
  8.40000000E+02  4.00000000E+00  0.00000000E+00
  8.40000000E+02  2.00000000E+00  0.00000000E+00
  8.40000000E+02 -3.33066907E-14  0.00000000E+00
  8.50000000E+02  1.00000000E+02  0.00000000E+00
  8.50000000E+02  9.80000000E+01  0.00000000E+00
  8.50000000E+02  9.60000000E+01  0.00000000E+00
  8.50000000E+02  9.40000000E+01  0.00000000E+00
  8.50000000E+02  9.20000000E+01  0.00000000E+00
  8.50000000E+02  9.00000000E+01  0.00000000E+00
  8.50000000E+02  8.80000000E+01  0.00000000E+00
  8.50000000E+02  8.60000000E+01  0.00000000E+00
  8.50000000E+02  8.40000000E+01  0.00000000E+00
  8.50000000E+02  8.20000000E+01  0.00000000E+00
  8.50000000E+02  8.00000000E+01  0.00000000E+00
  8.50000000E+02  7.80000000E+01  0.00000000E+00
  8.50000000E+02  7.60000000E+01  0.00000000E+00
  8.50000000E+02  7.40000000E+01  0.00000000E+00
  8.50000000E+02  7.20000000E+01  0.00000000E+00
  8.50000000E+02  7.00000000E+01  0.00000000E+00
  8.50000000E+02  6.80000000E+01  0.00000000E+00
  8.50000000E+02  6.60000000E+01  0.00000000E+00
  8.50000000E+02  6.40000000E+01  0.00000000E+00
  8.50000000E+02  6.20000000E+01  0.00000000E+00
  8.50000000E+02  6.00000000E+01  0.00000000E+00
  8.50000000E+02  5.80000000E+01  0.00000000E+00
  8.50000000E+02  5.60000000E+01  0.00000000E+00
  8.50000000E+02  5.40000000E+01  0.00000000E+00
  8.50000000E+02  5.20000000E+01  0.00000000E+00
  8.50000000E+02  5.00000000E+01  0.00000000E+00
  8.50000000E+02  4.80000000E+01  0.00000000E+00
  8.50000000E+02  4.60000000E+01  0.00000000E+00
  8.50000000E+02  4.40000000E+01  0.00000000E+00
  8.50000000E+02  4.20000000E+01  0.00000000E+00
  8.50000000E+02  4.00000000E+01  0.00000000E+00
  8.50000000E+02  3.80000000E+01  0.00000000E+00
  8.50000000E+02  3.60000000E+01  0.00000000E+00
  8.50000000E+02  3.40000000E+01  0.00000000E+00
  8.50000000E+02  3.20000000E+01  0.00000000E+00
  8.50000000E+02  3.00000000E+01  0.00000000E+00
  8.50000000E+02  2.80000000E+01  0.00000000E+00
  8.50000000E+02  2.60000000E+01  0.00000000E+00
  8.50000000E+02  2.40000000E+01  0.00000000E+00
  8.50000000E+02  2.20000000E+01  0.00000000E+00
  8.50000000E+02  2.00000000E+01  0.00000000E+00
  8.50000000E+02  1.80000000E+01  0.00000000E+00
  8.50000000E+02  1.60000000E+01  0.00000000E+00
  8.50000000E+02  1.40000000E+01  0.00000000E+00
  8.50000000E+02  1.20000000E+01  0.00000000E+00
  8.50000000E+02  1.00000000E+01  0.00000000E+00
  8.50000000E+02  8.00000000E+00  0.00000000E+00
  8.50000000E+02  6.00000000E+00  0.00000000E+00
  8.50000000E+02  4.00000000E+00  0.00000000E+00
  8.50000000E+02  2.00000000E+00  0.00000000E+00
  8.50000000E+02 -3.33066907E-14  0.00000000E+00
  8.60000000E+02  1.00000000E+02  0.00000000E+00
  8.60000000E+02  9.80000000E+01  0.00000000E+00
  8.60000000E+02  9.60000000E+01  0.00000000E+00
  8.60000000E+02  9.40000000E+01  0.00000000E+00
  8.60000000E+02  9.20000000E+01  0.00000000E+00
  8.60000000E+02  9.00000000E+01  0.00000000E+00
  8.60000000E+02  8.80000000E+01  0.00000000E+00
  8.60000000E+02  8.60000000E+01  0.00000000E+00
  8.60000000E+02  8.40000000E+01  0.00000000E+00
  8.60000000E+02  8.20000000E+01  0.00000000E+00
  8.60000000E+02  8.00000000E+01  0.00000000E+00
  8.60000000E+02  7.80000000E+01  0.00000000E+00
  8.60000000E+02  7.60000000E+01  0.00000000E+00
  8.60000000E+02  7.40000000E+01  0.00000000E+00
  8.60000000E+02  7.20000000E+01  0.00000000E+00
  8.60000000E+02  7.00000000E+01  0.00000000E+00
  8.60000000E+02  6.80000000E+01  0.00000000E+00
  8.60000000E+02  6.60000000E+01  0.00000000E+00
  8.60000000E+02  6.40000000E+01  0.00000000E+00
  8.60000000E+02  6.20000000E+01  0.00000000E+00
  8.60000000E+02  6.00000000E+01  0.00000000E+00
  8.60000000E+02  5.80000000E+01  0.00000000E+00
  8.60000000E+02  5.60000000E+01  0.00000000E+00
  8.60000000E+02  5.40000000E+01  0.00000000E+00
  8.60000000E+02  5.20000000E+01  0.00000000E+00
  8.60000000E+02  5.00000000E+01  0.00000000E+00
  8.60000000E+02  4.80000000E+01  0.00000000E+00
  8.60000000E+02  4.60000000E+01  0.00000000E+00
  8.60000000E+02  4.40000000E+01  0.00000000E+00
  8.60000000E+02  4.20000000E+01  0.00000000E+00
  8.60000000E+02  4.00000000E+01  0.00000000E+00
  8.60000000E+02  3.80000000E+01  0.00000000E+00
  8.60000000E+02  3.60000000E+01  0.00000000E+00
  8.60000000E+02  3.40000000E+01  0.00000000E+00
  8.60000000E+02  3.20000000E+01  0.00000000E+00
  8.60000000E+02  3.00000000E+01  0.00000000E+00
  8.60000000E+02  2.80000000E+01  0.00000000E+00
  8.60000000E+02  2.60000000E+01  0.00000000E+00
  8.60000000E+02  2.40000000E+01  0.00000000E+00
  8.60000000E+02  2.20000000E+01  0.00000000E+00
  8.60000000E+02  2.00000000E+01  0.00000000E+00
  8.60000000E+02  1.80000000E+01  0.00000000E+00
  8.60000000E+02  1.60000000E+01  0.00000000E+00
  8.60000000E+02  1.40000000E+01  0.00000000E+00
  8.60000000E+02  1.20000000E+01  0.00000000E+00
  8.60000000E+02  1.00000000E+01  0.00000000E+00
  8.60000000E+02  8.00000000E+00  0.00000000E+00
  8.60000000E+02  6.00000000E+00  0.00000000E+00
  8.60000000E+02  4.00000000E+00  0.00000000E+00
  8.60000000E+02  2.00000000E+00  0.00000000E+00
  8.60000000E+02 -3.33066907E-14  0.00000000E+00
  8.70000000E+02  1.00000000E+02  0.00000000E+00
  8.70000000E+02  9.80000000E+01  0.00000000E+00
  8.70000000E+02  9.60000000E+01  0.00000000E+00
  8.70000000E+02  9.40000000E+01  0.00000000E+00
  8.70000000E+02  9.20000000E+01  0.00000000E+00
  8.70000000E+02  9.00000000E+01  0.00000000E+00
  8.70000000E+02  8.80000000E+01  0.00000000E+00
  8.70000000E+02  8.60000000E+01  0.00000000E+00
  8.70000000E+02  8.40000000E+01  0.00000000E+00
  8.70000000E+02  8.20000000E+01  0.00000000E+00
  8.70000000E+02  8.00000000E+01  0.00000000E+00
  8.70000000E+02  7.80000000E+01  0.00000000E+00
  8.70000000E+02  7.60000000E+01  0.00000000E+00
  8.70000000E+02  7.40000000E+01  0.00000000E+00
  8.70000000E+02  7.20000000E+01  0.00000000E+00
  8.70000000E+02  7.00000000E+01  0.00000000E+00
  8.70000000E+02  6.80000000E+01  0.00000000E+00
  8.70000000E+02  6.60000000E+01  0.00000000E+00
  8.70000000E+02  6.40000000E+01  0.00000000E+00
  8.70000000E+02  6.20000000E+01  0.00000000E+00
  8.70000000E+02  6.00000000E+01  0.00000000E+00
  8.70000000E+02  5.80000000E+01  0.00000000E+00
  8.70000000E+02  5.60000000E+01  0.00000000E+00
  8.70000000E+02  5.40000000E+01  0.00000000E+00
  8.70000000E+02  5.20000000E+01  0.00000000E+00
  8.70000000E+02  5.00000000E+01  0.00000000E+00
  8.70000000E+02  4.80000000E+01  0.00000000E+00
  8.70000000E+02  4.60000000E+01  0.00000000E+00
  8.70000000E+02  4.40000000E+01  0.00000000E+00
  8.70000000E+02  4.20000000E+01  0.00000000E+00
  8.70000000E+02  4.00000000E+01  0.00000000E+00
  8.70000000E+02  3.80000000E+01  0.00000000E+00
  8.70000000E+02  3.60000000E+01  0.00000000E+00
  8.70000000E+02  3.40000000E+01  0.00000000E+00
  8.70000000E+02  3.20000000E+01  0.00000000E+00
  8.70000000E+02  3.00000000E+01  0.00000000E+00
  8.70000000E+02  2.80000000E+01  0.00000000E+00
  8.70000000E+02  2.60000000E+01  0.00000000E+00
  8.70000000E+02  2.40000000E+01  0.00000000E+00
  8.70000000E+02  2.20000000E+01  0.00000000E+00
  8.70000000E+02  2.00000000E+01  0.00000000E+00
  8.70000000E+02  1.80000000E+01  0.00000000E+00
  8.70000000E+02  1.60000000E+01  0.00000000E+00
  8.70000000E+02  1.40000000E+01  0.00000000E+00
  8.70000000E+02  1.20000000E+01  0.00000000E+00
  8.70000000E+02  1.00000000E+01  0.00000000E+00
  8.70000000E+02  8.00000000E+00  0.00000000E+00
  8.70000000E+02  6.00000000E+00  0.00000000E+00
  8.70000000E+02  4.00000000E+00  0.00000000E+00
  8.70000000E+02  2.00000000E+00  0.00000000E+00
  8.70000000E+02 -3.33066907E-14  0.00000000E+00
  8.80000000E+02  1.00000000E+02  0.00000000E+00
  8.80000000E+02  9.80000000E+01  0.00000000E+00
  8.80000000E+02  9.60000000E+01  0.00000000E+00
  8.80000000E+02  9.40000000E+01  0.00000000E+00
  8.80000000E+02  9.20000000E+01  0.00000000E+00
  8.80000000E+02  9.00000000E+01  0.00000000E+00
  8.80000000E+02  8.80000000E+01  0.00000000E+00
  8.80000000E+02  8.60000000E+01  0.00000000E+00
  8.80000000E+02  8.40000000E+01  0.00000000E+00
  8.80000000E+02  8.20000000E+01  0.00000000E+00
  8.80000000E+02  8.00000000E+01  0.00000000E+00
  8.80000000E+02  7.80000000E+01  0.00000000E+00
  8.80000000E+02  7.60000000E+01  0.00000000E+00
  8.80000000E+02  7.40000000E+01  0.00000000E+00
  8.80000000E+02  7.20000000E+01  0.00000000E+00
  8.80000000E+02  7.00000000E+01  0.00000000E+00
  8.80000000E+02  6.80000000E+01  0.00000000E+00
  8.80000000E+02  6.60000000E+01  0.00000000E+00
  8.80000000E+02  6.40000000E+01  0.00000000E+00
  8.80000000E+02  6.20000000E+01  0.00000000E+00
  8.80000000E+02  6.00000000E+01  0.00000000E+00
  8.80000000E+02  5.80000000E+01  0.00000000E+00
  8.80000000E+02  5.60000000E+01  0.00000000E+00
  8.80000000E+02  5.40000000E+01  0.00000000E+00
  8.80000000E+02  5.20000000E+01  0.00000000E+00
  8.80000000E+02  5.00000000E+01  0.00000000E+00
  8.80000000E+02  4.80000000E+01  0.00000000E+00
  8.80000000E+02  4.60000000E+01  0.00000000E+00
  8.80000000E+02  4.40000000E+01  0.00000000E+00
  8.80000000E+02  4.20000000E+01  0.00000000E+00
  8.80000000E+02  4.00000000E+01  0.00000000E+00
  8.80000000E+02  3.80000000E+01  0.00000000E+00
  8.80000000E+02  3.60000000E+01  0.00000000E+00
  8.80000000E+02  3.40000000E+01  0.00000000E+00
  8.80000000E+02  3.20000000E+01  0.00000000E+00
  8.80000000E+02  3.00000000E+01  0.00000000E+00
  8.80000000E+02  2.80000000E+01  0.00000000E+00
  8.80000000E+02  2.60000000E+01  0.00000000E+00
  8.80000000E+02  2.40000000E+01  0.00000000E+00
  8.80000000E+02  2.20000000E+01  0.00000000E+00
  8.80000000E+02  2.00000000E+01  0.00000000E+00
  8.80000000E+02  1.80000000E+01  0.00000000E+00
  8.80000000E+02  1.60000000E+01  0.00000000E+00
  8.80000000E+02  1.40000000E+01  0.00000000E+00
  8.80000000E+02  1.20000000E+01  0.00000000E+00
  8.80000000E+02  1.00000000E+01  0.00000000E+00
  8.80000000E+02  8.00000000E+00  0.00000000E+00
  8.80000000E+02  6.00000000E+00  0.00000000E+00
  8.80000000E+02  4.00000000E+00  0.00000000E+00
  8.80000000E+02  2.00000000E+00  0.00000000E+00
  8.80000000E+02 -3.33066907E-14  0.00000000E+00
  8.90000000E+02  1.00000000E+02  0.00000000E+00
  8.90000000E+02  9.80000000E+01  0.00000000E+00
  8.90000000E+02  9.60000000E+01  0.00000000E+00
  8.90000000E+02  9.40000000E+01  0.00000000E+00
  8.90000000E+02  9.20000000E+01  0.00000000E+00
  8.90000000E+02  9.00000000E+01  0.00000000E+00
  8.90000000E+02  8.80000000E+01  0.00000000E+00
  8.90000000E+02  8.60000000E+01  0.00000000E+00
  8.90000000E+02  8.40000000E+01  0.00000000E+00
  8.90000000E+02  8.20000000E+01  0.00000000E+00
  8.90000000E+02  8.00000000E+01  0.00000000E+00
  8.90000000E+02  7.80000000E+01  0.00000000E+00
  8.90000000E+02  7.60000000E+01  0.00000000E+00
  8.90000000E+02  7.40000000E+01  0.00000000E+00
  8.90000000E+02  7.20000000E+01  0.00000000E+00
  8.90000000E+02  7.00000000E+01  0.00000000E+00
  8.90000000E+02  6.80000000E+01  0.00000000E+00
  8.90000000E+02  6.60000000E+01  0.00000000E+00
  8.90000000E+02  6.40000000E+01  0.00000000E+00
  8.90000000E+02  6.20000000E+01  0.00000000E+00
  8.90000000E+02  6.00000000E+01  0.00000000E+00
  8.90000000E+02  5.80000000E+01  0.00000000E+00
  8.90000000E+02  5.60000000E+01  0.00000000E+00
  8.90000000E+02  5.40000000E+01  0.00000000E+00
  8.90000000E+02  5.20000000E+01  0.00000000E+00
  8.90000000E+02  5.00000000E+01  0.00000000E+00
  8.90000000E+02  4.80000000E+01  0.00000000E+00
  8.90000000E+02  4.60000000E+01  0.00000000E+00
  8.90000000E+02  4.40000000E+01  0.00000000E+00
  8.90000000E+02  4.20000000E+01  0.00000000E+00
  8.90000000E+02  4.00000000E+01  0.00000000E+00
  8.90000000E+02  3.80000000E+01  0.00000000E+00
  8.90000000E+02  3.60000000E+01  0.00000000E+00
  8.90000000E+02  3.40000000E+01  0.00000000E+00
  8.90000000E+02  3.20000000E+01  0.00000000E+00
  8.90000000E+02  3.00000000E+01  0.00000000E+00
  8.90000000E+02  2.80000000E+01  0.00000000E+00
  8.90000000E+02  2.60000000E+01  0.00000000E+00
  8.90000000E+02  2.40000000E+01  0.00000000E+00
  8.90000000E+02  2.20000000E+01  0.00000000E+00
  8.90000000E+02  2.00000000E+01  0.00000000E+00
  8.90000000E+02  1.80000000E+01  0.00000000E+00
  8.90000000E+02  1.60000000E+01  0.00000000E+00
  8.90000000E+02  1.40000000E+01  0.00000000E+00
  8.90000000E+02  1.20000000E+01  0.00000000E+00
  8.90000000E+02  1.00000000E+01  0.00000000E+00
  8.90000000E+02  8.00000000E+00  0.00000000E+00
  8.90000000E+02  6.00000000E+00  0.00000000E+00
  8.90000000E+02  4.00000000E+00  0.00000000E+00
  8.90000000E+02  2.00000000E+00  0.00000000E+00
  8.90000000E+02 -3.33066907E-14  0.00000000E+00
  9.00000000E+02  1.00000000E+02  0.00000000E+00
  9.00000000E+02  9.80000000E+01  0.00000000E+00
  9.00000000E+02  9.60000000E+01  0.00000000E+00
  9.00000000E+02  9.40000000E+01  0.00000000E+00
  9.00000000E+02  9.20000000E+01  0.00000000E+00
  9.00000000E+02  9.00000000E+01  0.00000000E+00
  9.00000000E+02  8.80000000E+01  0.00000000E+00
  9.00000000E+02  8.60000000E+01  0.00000000E+00
  9.00000000E+02  8.40000000E+01  0.00000000E+00
  9.00000000E+02  8.20000000E+01  0.00000000E+00
  9.00000000E+02  8.00000000E+01  0.00000000E+00
  9.00000000E+02  7.80000000E+01  0.00000000E+00
  9.00000000E+02  7.60000000E+01  0.00000000E+00
  9.00000000E+02  7.40000000E+01  0.00000000E+00
  9.00000000E+02  7.20000000E+01  0.00000000E+00
  9.00000000E+02  7.00000000E+01  0.00000000E+00
  9.00000000E+02  6.80000000E+01  0.00000000E+00
  9.00000000E+02  6.60000000E+01  0.00000000E+00
  9.00000000E+02  6.40000000E+01  0.00000000E+00
  9.00000000E+02  6.20000000E+01  0.00000000E+00
  9.00000000E+02  6.00000000E+01  0.00000000E+00
  9.00000000E+02  5.80000000E+01  0.00000000E+00
  9.00000000E+02  5.60000000E+01  0.00000000E+00
  9.00000000E+02  5.40000000E+01  0.00000000E+00
  9.00000000E+02  5.20000000E+01  0.00000000E+00
  9.00000000E+02  5.00000000E+01  0.00000000E+00
  9.00000000E+02  4.80000000E+01  0.00000000E+00
  9.00000000E+02  4.60000000E+01  0.00000000E+00
  9.00000000E+02  4.40000000E+01  0.00000000E+00
  9.00000000E+02  4.20000000E+01  0.00000000E+00
  9.00000000E+02  4.00000000E+01  0.00000000E+00
  9.00000000E+02  3.80000000E+01  0.00000000E+00
  9.00000000E+02  3.60000000E+01  0.00000000E+00
  9.00000000E+02  3.40000000E+01  0.00000000E+00
  9.00000000E+02  3.20000000E+01  0.00000000E+00
  9.00000000E+02  3.00000000E+01  0.00000000E+00
  9.00000000E+02  2.80000000E+01  0.00000000E+00
  9.00000000E+02  2.60000000E+01  0.00000000E+00
  9.00000000E+02  2.40000000E+01  0.00000000E+00
  9.00000000E+02  2.20000000E+01  0.00000000E+00
  9.00000000E+02  2.00000000E+01  0.00000000E+00
  9.00000000E+02  1.80000000E+01  0.00000000E+00
  9.00000000E+02  1.60000000E+01  0.00000000E+00
  9.00000000E+02  1.40000000E+01  0.00000000E+00
  9.00000000E+02  1.20000000E+01  0.00000000E+00
  9.00000000E+02  1.00000000E+01  0.00000000E+00
  9.00000000E+02  8.00000000E+00  0.00000000E+00
  9.00000000E+02  6.00000000E+00  0.00000000E+00
  9.00000000E+02  4.00000000E+00  0.00000000E+00
  9.00000000E+02  2.00000000E+00  0.00000000E+00
  9.00000000E+02 -3.33066907E-14  0.00000000E+00
  9.10000000E+02  1.00000000E+02  0.00000000E+00
  9.10000000E+02  9.80000000E+01  0.00000000E+00
  9.10000000E+02  9.60000000E+01  0.00000000E+00
  9.10000000E+02  9.40000000E+01  0.00000000E+00
  9.10000000E+02  9.20000000E+01  0.00000000E+00
  9.10000000E+02  9.00000000E+01  0.00000000E+00
  9.10000000E+02  8.80000000E+01  0.00000000E+00
  9.10000000E+02  8.60000000E+01  0.00000000E+00
  9.10000000E+02  8.40000000E+01  0.00000000E+00
  9.10000000E+02  8.20000000E+01  0.00000000E+00
  9.10000000E+02  8.00000000E+01  0.00000000E+00
  9.10000000E+02  7.80000000E+01  0.00000000E+00
  9.10000000E+02  7.60000000E+01  0.00000000E+00
  9.10000000E+02  7.40000000E+01  0.00000000E+00
  9.10000000E+02  7.20000000E+01  0.00000000E+00
  9.10000000E+02  7.00000000E+01  0.00000000E+00
  9.10000000E+02  6.80000000E+01  0.00000000E+00
  9.10000000E+02  6.60000000E+01  0.00000000E+00
  9.10000000E+02  6.40000000E+01  0.00000000E+00
  9.10000000E+02  6.20000000E+01  0.00000000E+00
  9.10000000E+02  6.00000000E+01  0.00000000E+00
  9.10000000E+02  5.80000000E+01  0.00000000E+00
  9.10000000E+02  5.60000000E+01  0.00000000E+00
  9.10000000E+02  5.40000000E+01  0.00000000E+00
  9.10000000E+02  5.20000000E+01  0.00000000E+00
  9.10000000E+02  5.00000000E+01  0.00000000E+00
  9.10000000E+02  4.80000000E+01  0.00000000E+00
  9.10000000E+02  4.60000000E+01  0.00000000E+00
  9.10000000E+02  4.40000000E+01  0.00000000E+00
  9.10000000E+02  4.20000000E+01  0.00000000E+00
  9.10000000E+02  4.00000000E+01  0.00000000E+00
  9.10000000E+02  3.80000000E+01  0.00000000E+00
  9.10000000E+02  3.60000000E+01  0.00000000E+00
  9.10000000E+02  3.40000000E+01  0.00000000E+00
  9.10000000E+02  3.20000000E+01  0.00000000E+00
  9.10000000E+02  3.00000000E+01  0.00000000E+00
  9.10000000E+02  2.80000000E+01  0.00000000E+00
  9.10000000E+02  2.60000000E+01  0.00000000E+00
  9.10000000E+02  2.40000000E+01  0.00000000E+00
  9.10000000E+02  2.20000000E+01  0.00000000E+00
  9.10000000E+02  2.00000000E+01  0.00000000E+00
  9.10000000E+02  1.80000000E+01  0.00000000E+00
  9.10000000E+02  1.60000000E+01  0.00000000E+00
  9.10000000E+02  1.40000000E+01  0.00000000E+00
  9.10000000E+02  1.20000000E+01  0.00000000E+00
  9.10000000E+02  1.00000000E+01  0.00000000E+00
  9.10000000E+02  8.00000000E+00  0.00000000E+00
  9.10000000E+02  6.00000000E+00  0.00000000E+00
  9.10000000E+02  4.00000000E+00  0.00000000E+00
  9.10000000E+02  2.00000000E+00  0.00000000E+00
  9.10000000E+02 -3.33066907E-14  0.00000000E+00
  9.20000000E+02  1.00000000E+02  0.00000000E+00
  9.20000000E+02  9.80000000E+01  0.00000000E+00
  9.20000000E+02  9.60000000E+01  0.00000000E+00
  9.20000000E+02  9.40000000E+01  0.00000000E+00
  9.20000000E+02  9.20000000E+01  0.00000000E+00
  9.20000000E+02  9.00000000E+01  0.00000000E+00
  9.20000000E+02  8.80000000E+01  0.00000000E+00
  9.20000000E+02  8.60000000E+01  0.00000000E+00
  9.20000000E+02  8.40000000E+01  0.00000000E+00
  9.20000000E+02  8.20000000E+01  0.00000000E+00
  9.20000000E+02  8.00000000E+01  0.00000000E+00
  9.20000000E+02  7.80000000E+01  0.00000000E+00
  9.20000000E+02  7.60000000E+01  0.00000000E+00
  9.20000000E+02  7.40000000E+01  0.00000000E+00
  9.20000000E+02  7.20000000E+01  0.00000000E+00
  9.20000000E+02  7.00000000E+01  0.00000000E+00
  9.20000000E+02  6.80000000E+01  0.00000000E+00
  9.20000000E+02  6.60000000E+01  0.00000000E+00
  9.20000000E+02  6.40000000E+01  0.00000000E+00
  9.20000000E+02  6.20000000E+01  0.00000000E+00
  9.20000000E+02  6.00000000E+01  0.00000000E+00
  9.20000000E+02  5.80000000E+01  0.00000000E+00
  9.20000000E+02  5.60000000E+01  0.00000000E+00
  9.20000000E+02  5.40000000E+01  0.00000000E+00
  9.20000000E+02  5.20000000E+01  0.00000000E+00
  9.20000000E+02  5.00000000E+01  0.00000000E+00
  9.20000000E+02  4.80000000E+01  0.00000000E+00
  9.20000000E+02  4.60000000E+01  0.00000000E+00
  9.20000000E+02  4.40000000E+01  0.00000000E+00
  9.20000000E+02  4.20000000E+01  0.00000000E+00
  9.20000000E+02  4.00000000E+01  0.00000000E+00
  9.20000000E+02  3.80000000E+01  0.00000000E+00
  9.20000000E+02  3.60000000E+01  0.00000000E+00
  9.20000000E+02  3.40000000E+01  0.00000000E+00
  9.20000000E+02  3.20000000E+01  0.00000000E+00
  9.20000000E+02  3.00000000E+01  0.00000000E+00
  9.20000000E+02  2.80000000E+01  0.00000000E+00
  9.20000000E+02  2.60000000E+01  0.00000000E+00
  9.20000000E+02  2.40000000E+01  0.00000000E+00
  9.20000000E+02  2.20000000E+01  0.00000000E+00
  9.20000000E+02  2.00000000E+01  0.00000000E+00
  9.20000000E+02  1.80000000E+01  0.00000000E+00
  9.20000000E+02  1.60000000E+01  0.00000000E+00
  9.20000000E+02  1.40000000E+01  0.00000000E+00
  9.20000000E+02  1.20000000E+01  0.00000000E+00
  9.20000000E+02  1.00000000E+01  0.00000000E+00
  9.20000000E+02  8.00000000E+00  0.00000000E+00
  9.20000000E+02  6.00000000E+00  0.00000000E+00
  9.20000000E+02  4.00000000E+00  0.00000000E+00
  9.20000000E+02  2.00000000E+00  0.00000000E+00
  9.20000000E+02 -3.33066907E-14  0.00000000E+00
  9.30000000E+02  1.00000000E+02  0.00000000E+00
  9.30000000E+02  9.80000000E+01  0.00000000E+00
  9.30000000E+02  9.60000000E+01  0.00000000E+00
  9.30000000E+02  9.40000000E+01  0.00000000E+00
  9.30000000E+02  9.20000000E+01  0.00000000E+00
  9.30000000E+02  9.00000000E+01  0.00000000E+00
  9.30000000E+02  8.80000000E+01  0.00000000E+00
  9.30000000E+02  8.60000000E+01  0.00000000E+00
  9.30000000E+02  8.40000000E+01  0.00000000E+00
  9.30000000E+02  8.20000000E+01  0.00000000E+00
  9.30000000E+02  8.00000000E+01  0.00000000E+00
  9.30000000E+02  7.80000000E+01  0.00000000E+00
  9.30000000E+02  7.60000000E+01  0.00000000E+00
  9.30000000E+02  7.40000000E+01  0.00000000E+00
  9.30000000E+02  7.20000000E+01  0.00000000E+00
  9.30000000E+02  7.00000000E+01  0.00000000E+00
  9.30000000E+02  6.80000000E+01  0.00000000E+00
  9.30000000E+02  6.60000000E+01  0.00000000E+00
  9.30000000E+02  6.40000000E+01  0.00000000E+00
  9.30000000E+02  6.20000000E+01  0.00000000E+00
  9.30000000E+02  6.00000000E+01  0.00000000E+00
  9.30000000E+02  5.80000000E+01  0.00000000E+00
  9.30000000E+02  5.60000000E+01  0.00000000E+00
  9.30000000E+02  5.40000000E+01  0.00000000E+00
  9.30000000E+02  5.20000000E+01  0.00000000E+00
  9.30000000E+02  5.00000000E+01  0.00000000E+00
  9.30000000E+02  4.80000000E+01  0.00000000E+00
  9.30000000E+02  4.60000000E+01  0.00000000E+00
  9.30000000E+02  4.40000000E+01  0.00000000E+00
  9.30000000E+02  4.20000000E+01  0.00000000E+00
  9.30000000E+02  4.00000000E+01  0.00000000E+00
  9.30000000E+02  3.80000000E+01  0.00000000E+00
  9.30000000E+02  3.60000000E+01  0.00000000E+00
  9.30000000E+02  3.40000000E+01  0.00000000E+00
  9.30000000E+02  3.20000000E+01  0.00000000E+00
  9.30000000E+02  3.00000000E+01  0.00000000E+00
  9.30000000E+02  2.80000000E+01  0.00000000E+00
  9.30000000E+02  2.60000000E+01  0.00000000E+00
  9.30000000E+02  2.40000000E+01  0.00000000E+00
  9.30000000E+02  2.20000000E+01  0.00000000E+00
  9.30000000E+02  2.00000000E+01  0.00000000E+00
  9.30000000E+02  1.80000000E+01  0.00000000E+00
  9.30000000E+02  1.60000000E+01  0.00000000E+00
  9.30000000E+02  1.40000000E+01  0.00000000E+00
  9.30000000E+02  1.20000000E+01  0.00000000E+00
  9.30000000E+02  1.00000000E+01  0.00000000E+00
  9.30000000E+02  8.00000000E+00  0.00000000E+00
  9.30000000E+02  6.00000000E+00  0.00000000E+00
  9.30000000E+02  4.00000000E+00  0.00000000E+00
  9.30000000E+02  2.00000000E+00  0.00000000E+00
  9.30000000E+02 -3.33066907E-14  0.00000000E+00
  9.40000000E+02  1.00000000E+02  0.00000000E+00
  9.40000000E+02  9.80000000E+01  0.00000000E+00
  9.40000000E+02  9.60000000E+01  0.00000000E+00
  9.40000000E+02  9.40000000E+01  0.00000000E+00
  9.40000000E+02  9.20000000E+01  0.00000000E+00
  9.40000000E+02  9.00000000E+01  0.00000000E+00
  9.40000000E+02  8.80000000E+01  0.00000000E+00
  9.40000000E+02  8.60000000E+01  0.00000000E+00
  9.40000000E+02  8.40000000E+01  0.00000000E+00
  9.40000000E+02  8.20000000E+01  0.00000000E+00
  9.40000000E+02  8.00000000E+01  0.00000000E+00
  9.40000000E+02  7.80000000E+01  0.00000000E+00
  9.40000000E+02  7.60000000E+01  0.00000000E+00
  9.40000000E+02  7.40000000E+01  0.00000000E+00
  9.40000000E+02  7.20000000E+01  0.00000000E+00
  9.40000000E+02  7.00000000E+01  0.00000000E+00
  9.40000000E+02  6.80000000E+01  0.00000000E+00
  9.40000000E+02  6.60000000E+01  0.00000000E+00
  9.40000000E+02  6.40000000E+01  0.00000000E+00
  9.40000000E+02  6.20000000E+01  0.00000000E+00
  9.40000000E+02  6.00000000E+01  0.00000000E+00
  9.40000000E+02  5.80000000E+01  0.00000000E+00
  9.40000000E+02  5.60000000E+01  0.00000000E+00
  9.40000000E+02  5.40000000E+01  0.00000000E+00
  9.40000000E+02  5.20000000E+01  0.00000000E+00
  9.40000000E+02  5.00000000E+01  0.00000000E+00
  9.40000000E+02  4.80000000E+01  0.00000000E+00
  9.40000000E+02  4.60000000E+01  0.00000000E+00
  9.40000000E+02  4.40000000E+01  0.00000000E+00
  9.40000000E+02  4.20000000E+01  0.00000000E+00
  9.40000000E+02  4.00000000E+01  0.00000000E+00
  9.40000000E+02  3.80000000E+01  0.00000000E+00
  9.40000000E+02  3.60000000E+01  0.00000000E+00
  9.40000000E+02  3.40000000E+01  0.00000000E+00
  9.40000000E+02  3.20000000E+01  0.00000000E+00
  9.40000000E+02  3.00000000E+01  0.00000000E+00
  9.40000000E+02  2.80000000E+01  0.00000000E+00
  9.40000000E+02  2.60000000E+01  0.00000000E+00
  9.40000000E+02  2.40000000E+01  0.00000000E+00
  9.40000000E+02  2.20000000E+01  0.00000000E+00
  9.40000000E+02  2.00000000E+01  0.00000000E+00
  9.40000000E+02  1.80000000E+01  0.00000000E+00
  9.40000000E+02  1.60000000E+01  0.00000000E+00
  9.40000000E+02  1.40000000E+01  0.00000000E+00
  9.40000000E+02  1.20000000E+01  0.00000000E+00
  9.40000000E+02  1.00000000E+01  0.00000000E+00
  9.40000000E+02  8.00000000E+00  0.00000000E+00
  9.40000000E+02  6.00000000E+00  0.00000000E+00
  9.40000000E+02  4.00000000E+00  0.00000000E+00
  9.40000000E+02  2.00000000E+00  0.00000000E+00
  9.40000000E+02 -3.33066907E-14  0.00000000E+00
  9.50000000E+02  1.00000000E+02  0.00000000E+00
  9.50000000E+02  9.80000000E+01  0.00000000E+00
  9.50000000E+02  9.60000000E+01  0.00000000E+00
  9.50000000E+02  9.40000000E+01  0.00000000E+00
  9.50000000E+02  9.20000000E+01  0.00000000E+00
  9.50000000E+02  9.00000000E+01  0.00000000E+00
  9.50000000E+02  8.80000000E+01  0.00000000E+00
  9.50000000E+02  8.60000000E+01  0.00000000E+00
  9.50000000E+02  8.40000000E+01  0.00000000E+00
  9.50000000E+02  8.20000000E+01  0.00000000E+00
  9.50000000E+02  8.00000000E+01  0.00000000E+00
  9.50000000E+02  7.80000000E+01  0.00000000E+00
  9.50000000E+02  7.60000000E+01  0.00000000E+00
  9.50000000E+02  7.40000000E+01  0.00000000E+00
  9.50000000E+02  7.20000000E+01  0.00000000E+00
  9.50000000E+02  7.00000000E+01  0.00000000E+00
  9.50000000E+02  6.80000000E+01  0.00000000E+00
  9.50000000E+02  6.60000000E+01  0.00000000E+00
  9.50000000E+02  6.40000000E+01  0.00000000E+00
  9.50000000E+02  6.20000000E+01  0.00000000E+00
  9.50000000E+02  6.00000000E+01  0.00000000E+00
  9.50000000E+02  5.80000000E+01  0.00000000E+00
  9.50000000E+02  5.60000000E+01  0.00000000E+00
  9.50000000E+02  5.40000000E+01  0.00000000E+00
  9.50000000E+02  5.20000000E+01  0.00000000E+00
  9.50000000E+02  5.00000000E+01  0.00000000E+00
  9.50000000E+02  4.80000000E+01  0.00000000E+00
  9.50000000E+02  4.60000000E+01  0.00000000E+00
  9.50000000E+02  4.40000000E+01  0.00000000E+00
  9.50000000E+02  4.20000000E+01  0.00000000E+00
  9.50000000E+02  4.00000000E+01  0.00000000E+00
  9.50000000E+02  3.80000000E+01  0.00000000E+00
  9.50000000E+02  3.60000000E+01  0.00000000E+00
  9.50000000E+02  3.40000000E+01  0.00000000E+00
  9.50000000E+02  3.20000000E+01  0.00000000E+00
  9.50000000E+02  3.00000000E+01  0.00000000E+00
  9.50000000E+02  2.80000000E+01  0.00000000E+00
  9.50000000E+02  2.60000000E+01  0.00000000E+00
  9.50000000E+02  2.40000000E+01  0.00000000E+00
  9.50000000E+02  2.20000000E+01  0.00000000E+00
  9.50000000E+02  2.00000000E+01  0.00000000E+00
  9.50000000E+02  1.80000000E+01  0.00000000E+00
  9.50000000E+02  1.60000000E+01  0.00000000E+00
  9.50000000E+02  1.40000000E+01  0.00000000E+00
  9.50000000E+02  1.20000000E+01  0.00000000E+00
  9.50000000E+02  1.00000000E+01  0.00000000E+00
  9.50000000E+02  8.00000000E+00  0.00000000E+00
  9.50000000E+02  6.00000000E+00  0.00000000E+00
  9.50000000E+02  4.00000000E+00  0.00000000E+00
  9.50000000E+02  2.00000000E+00  0.00000000E+00
  9.50000000E+02 -3.33066907E-14  0.00000000E+00
  9.60000000E+02  1.00000000E+02  0.00000000E+00
  9.60000000E+02  9.80000000E+01  0.00000000E+00
  9.60000000E+02  9.60000000E+01  0.00000000E+00
  9.60000000E+02  9.40000000E+01  0.00000000E+00
  9.60000000E+02  9.20000000E+01  0.00000000E+00
  9.60000000E+02  9.00000000E+01  0.00000000E+00
  9.60000000E+02  8.80000000E+01  0.00000000E+00
  9.60000000E+02  8.60000000E+01  0.00000000E+00
  9.60000000E+02  8.40000000E+01  0.00000000E+00
  9.60000000E+02  8.20000000E+01  0.00000000E+00
  9.60000000E+02  8.00000000E+01  0.00000000E+00
  9.60000000E+02  7.80000000E+01  0.00000000E+00
  9.60000000E+02  7.60000000E+01  0.00000000E+00
  9.60000000E+02  7.40000000E+01  0.00000000E+00
  9.60000000E+02  7.20000000E+01  0.00000000E+00
  9.60000000E+02  7.00000000E+01  0.00000000E+00
  9.60000000E+02  6.80000000E+01  0.00000000E+00
  9.60000000E+02  6.60000000E+01  0.00000000E+00
  9.60000000E+02  6.40000000E+01  0.00000000E+00
  9.60000000E+02  6.20000000E+01  0.00000000E+00
  9.60000000E+02  6.00000000E+01  0.00000000E+00
  9.60000000E+02  5.80000000E+01  0.00000000E+00
  9.60000000E+02  5.60000000E+01  0.00000000E+00
  9.60000000E+02  5.40000000E+01  0.00000000E+00
  9.60000000E+02  5.20000000E+01  0.00000000E+00
  9.60000000E+02  5.00000000E+01  0.00000000E+00
  9.60000000E+02  4.80000000E+01  0.00000000E+00
  9.60000000E+02  4.60000000E+01  0.00000000E+00
  9.60000000E+02  4.40000000E+01  0.00000000E+00
  9.60000000E+02  4.20000000E+01  0.00000000E+00
  9.60000000E+02  4.00000000E+01  0.00000000E+00
  9.60000000E+02  3.80000000E+01  0.00000000E+00
  9.60000000E+02  3.60000000E+01  0.00000000E+00
  9.60000000E+02  3.40000000E+01  0.00000000E+00
  9.60000000E+02  3.20000000E+01  0.00000000E+00
  9.60000000E+02  3.00000000E+01  0.00000000E+00
  9.60000000E+02  2.80000000E+01  0.00000000E+00
  9.60000000E+02  2.60000000E+01  0.00000000E+00
  9.60000000E+02  2.40000000E+01  0.00000000E+00
  9.60000000E+02  2.20000000E+01  0.00000000E+00
  9.60000000E+02  2.00000000E+01  0.00000000E+00
  9.60000000E+02  1.80000000E+01  0.00000000E+00
  9.60000000E+02  1.60000000E+01  0.00000000E+00
  9.60000000E+02  1.40000000E+01  0.00000000E+00
  9.60000000E+02  1.20000000E+01  0.00000000E+00
  9.60000000E+02  1.00000000E+01  0.00000000E+00
  9.60000000E+02  8.00000000E+00  0.00000000E+00
  9.60000000E+02  6.00000000E+00  0.00000000E+00
  9.60000000E+02  4.00000000E+00  0.00000000E+00
  9.60000000E+02  2.00000000E+00  0.00000000E+00
  9.60000000E+02 -3.33066907E-14  0.00000000E+00
  9.70000000E+02  1.00000000E+02  0.00000000E+00
  9.70000000E+02  9.80000000E+01  0.00000000E+00
  9.70000000E+02  9.60000000E+01  0.00000000E+00
  9.70000000E+02  9.40000000E+01  0.00000000E+00
  9.70000000E+02  9.20000000E+01  0.00000000E+00
  9.70000000E+02  9.00000000E+01  0.00000000E+00
  9.70000000E+02  8.80000000E+01  0.00000000E+00
  9.70000000E+02  8.60000000E+01  0.00000000E+00
  9.70000000E+02  8.40000000E+01  0.00000000E+00
  9.70000000E+02  8.20000000E+01  0.00000000E+00
  9.70000000E+02  8.00000000E+01  0.00000000E+00
  9.70000000E+02  7.80000000E+01  0.00000000E+00
  9.70000000E+02  7.60000000E+01  0.00000000E+00
  9.70000000E+02  7.40000000E+01  0.00000000E+00
  9.70000000E+02  7.20000000E+01  0.00000000E+00
  9.70000000E+02  7.00000000E+01  0.00000000E+00
  9.70000000E+02  6.80000000E+01  0.00000000E+00
  9.70000000E+02  6.60000000E+01  0.00000000E+00
  9.70000000E+02  6.40000000E+01  0.00000000E+00
  9.70000000E+02  6.20000000E+01  0.00000000E+00
  9.70000000E+02  6.00000000E+01  0.00000000E+00
  9.70000000E+02  5.80000000E+01  0.00000000E+00
  9.70000000E+02  5.60000000E+01  0.00000000E+00
  9.70000000E+02  5.40000000E+01  0.00000000E+00
  9.70000000E+02  5.20000000E+01  0.00000000E+00
  9.70000000E+02  5.00000000E+01  0.00000000E+00
  9.70000000E+02  4.80000000E+01  0.00000000E+00
  9.70000000E+02  4.60000000E+01  0.00000000E+00
  9.70000000E+02  4.40000000E+01  0.00000000E+00
  9.70000000E+02  4.20000000E+01  0.00000000E+00
  9.70000000E+02  4.00000000E+01  0.00000000E+00
  9.70000000E+02  3.80000000E+01  0.00000000E+00
  9.70000000E+02  3.60000000E+01  0.00000000E+00
  9.70000000E+02  3.40000000E+01  0.00000000E+00
  9.70000000E+02  3.20000000E+01  0.00000000E+00
  9.70000000E+02  3.00000000E+01  0.00000000E+00
  9.70000000E+02  2.80000000E+01  0.00000000E+00
  9.70000000E+02  2.60000000E+01  0.00000000E+00
  9.70000000E+02  2.40000000E+01  0.00000000E+00
  9.70000000E+02  2.20000000E+01  0.00000000E+00
  9.70000000E+02  2.00000000E+01  0.00000000E+00
  9.70000000E+02  1.80000000E+01  0.00000000E+00
  9.70000000E+02  1.60000000E+01  0.00000000E+00
  9.70000000E+02  1.40000000E+01  0.00000000E+00
  9.70000000E+02  1.20000000E+01  0.00000000E+00
  9.70000000E+02  1.00000000E+01  0.00000000E+00
  9.70000000E+02  8.00000000E+00  0.00000000E+00
  9.70000000E+02  6.00000000E+00  0.00000000E+00
  9.70000000E+02  4.00000000E+00  0.00000000E+00
  9.70000000E+02  2.00000000E+00  0.00000000E+00
  9.70000000E+02 -3.33066907E-14  0.00000000E+00
  9.80000000E+02  1.00000000E+02  0.00000000E+00
  9.80000000E+02  9.80000000E+01  0.00000000E+00
  9.80000000E+02  9.60000000E+01  0.00000000E+00
  9.80000000E+02  9.40000000E+01  0.00000000E+00
  9.80000000E+02  9.20000000E+01  0.00000000E+00
  9.80000000E+02  9.00000000E+01  0.00000000E+00
  9.80000000E+02  8.80000000E+01  0.00000000E+00
  9.80000000E+02  8.60000000E+01  0.00000000E+00
  9.80000000E+02  8.40000000E+01  0.00000000E+00
  9.80000000E+02  8.20000000E+01  0.00000000E+00
  9.80000000E+02  8.00000000E+01  0.00000000E+00
  9.80000000E+02  7.80000000E+01  0.00000000E+00
  9.80000000E+02  7.60000000E+01  0.00000000E+00
  9.80000000E+02  7.40000000E+01  0.00000000E+00
  9.80000000E+02  7.20000000E+01  0.00000000E+00
  9.80000000E+02  7.00000000E+01  0.00000000E+00
  9.80000000E+02  6.80000000E+01  0.00000000E+00
  9.80000000E+02  6.60000000E+01  0.00000000E+00
  9.80000000E+02  6.40000000E+01  0.00000000E+00
  9.80000000E+02  6.20000000E+01  0.00000000E+00
  9.80000000E+02  6.00000000E+01  0.00000000E+00
  9.80000000E+02  5.80000000E+01  0.00000000E+00
  9.80000000E+02  5.60000000E+01  0.00000000E+00
  9.80000000E+02  5.40000000E+01  0.00000000E+00
  9.80000000E+02  5.20000000E+01  0.00000000E+00
  9.80000000E+02  5.00000000E+01  0.00000000E+00
  9.80000000E+02  4.80000000E+01  0.00000000E+00
  9.80000000E+02  4.60000000E+01  0.00000000E+00
  9.80000000E+02  4.40000000E+01  0.00000000E+00
  9.80000000E+02  4.20000000E+01  0.00000000E+00
  9.80000000E+02  4.00000000E+01  0.00000000E+00
  9.80000000E+02  3.80000000E+01  0.00000000E+00
  9.80000000E+02  3.60000000E+01  0.00000000E+00
  9.80000000E+02  3.40000000E+01  0.00000000E+00
  9.80000000E+02  3.20000000E+01  0.00000000E+00
  9.80000000E+02  3.00000000E+01  0.00000000E+00
  9.80000000E+02  2.80000000E+01  0.00000000E+00
  9.80000000E+02  2.60000000E+01  0.00000000E+00
  9.80000000E+02  2.40000000E+01  0.00000000E+00
  9.80000000E+02  2.20000000E+01  0.00000000E+00
  9.80000000E+02  2.00000000E+01  0.00000000E+00
  9.80000000E+02  1.80000000E+01  0.00000000E+00
  9.80000000E+02  1.60000000E+01  0.00000000E+00
  9.80000000E+02  1.40000000E+01  0.00000000E+00
  9.80000000E+02  1.20000000E+01  0.00000000E+00
  9.80000000E+02  1.00000000E+01  0.00000000E+00
  9.80000000E+02  8.00000000E+00  0.00000000E+00
  9.80000000E+02  6.00000000E+00  0.00000000E+00
  9.80000000E+02  4.00000000E+00  0.00000000E+00
  9.80000000E+02  2.00000000E+00  0.00000000E+00
  9.80000000E+02 -3.33066907E-14  0.00000000E+00
  9.90000000E+02  1.00000000E+02  0.00000000E+00
  9.90000000E+02  9.80000000E+01  0.00000000E+00
  9.90000000E+02  9.60000000E+01  0.00000000E+00
  9.90000000E+02  9.40000000E+01  0.00000000E+00
  9.90000000E+02  9.20000000E+01  0.00000000E+00
  9.90000000E+02  9.00000000E+01  0.00000000E+00
  9.90000000E+02  8.80000000E+01  0.00000000E+00
  9.90000000E+02  8.60000000E+01  0.00000000E+00
  9.90000000E+02  8.40000000E+01  0.00000000E+00
  9.90000000E+02  8.20000000E+01  0.00000000E+00
  9.90000000E+02  8.00000000E+01  0.00000000E+00
  9.90000000E+02  7.80000000E+01  0.00000000E+00
  9.90000000E+02  7.60000000E+01  0.00000000E+00
  9.90000000E+02  7.40000000E+01  0.00000000E+00
  9.90000000E+02  7.20000000E+01  0.00000000E+00
  9.90000000E+02  7.00000000E+01  0.00000000E+00
  9.90000000E+02  6.80000000E+01  0.00000000E+00
  9.90000000E+02  6.60000000E+01  0.00000000E+00
  9.90000000E+02  6.40000000E+01  0.00000000E+00
  9.90000000E+02  6.20000000E+01  0.00000000E+00
  9.90000000E+02  6.00000000E+01  0.00000000E+00
  9.90000000E+02  5.80000000E+01  0.00000000E+00
  9.90000000E+02  5.60000000E+01  0.00000000E+00
  9.90000000E+02  5.40000000E+01  0.00000000E+00
  9.90000000E+02  5.20000000E+01  0.00000000E+00
  9.90000000E+02  5.00000000E+01  0.00000000E+00
  9.90000000E+02  4.80000000E+01  0.00000000E+00
  9.90000000E+02  4.60000000E+01  0.00000000E+00
  9.90000000E+02  4.40000000E+01  0.00000000E+00
  9.90000000E+02  4.20000000E+01  0.00000000E+00
  9.90000000E+02  4.00000000E+01  0.00000000E+00
  9.90000000E+02  3.80000000E+01  0.00000000E+00
  9.90000000E+02  3.60000000E+01  0.00000000E+00
  9.90000000E+02  3.40000000E+01  0.00000000E+00
  9.90000000E+02  3.20000000E+01  0.00000000E+00
  9.90000000E+02  3.00000000E+01  0.00000000E+00
  9.90000000E+02  2.80000000E+01  0.00000000E+00
  9.90000000E+02  2.60000000E+01  0.00000000E+00
  9.90000000E+02  2.40000000E+01  0.00000000E+00
  9.90000000E+02  2.20000000E+01  0.00000000E+00
  9.90000000E+02  2.00000000E+01  0.00000000E+00
  9.90000000E+02  1.80000000E+01  0.00000000E+00
  9.90000000E+02  1.60000000E+01  0.00000000E+00
  9.90000000E+02  1.40000000E+01  0.00000000E+00
  9.90000000E+02  1.20000000E+01  0.00000000E+00
  9.90000000E+02  1.00000000E+01  0.00000000E+00
  9.90000000E+02  8.00000000E+00  0.00000000E+00
  9.90000000E+02  6.00000000E+00  0.00000000E+00
  9.90000000E+02  4.00000000E+00  0.00000000E+00
  9.90000000E+02  2.00000000E+00  0.00000000E+00
  9.90000000E+02 -3.33066907E-14  0.00000000E+00
  1.00000000E+03  1.00000000E+02  0.00000000E+00
  1.00000000E+03  9.80000000E+01  0.00000000E+00
  1.00000000E+03  9.60000000E+01  0.00000000E+00
  1.00000000E+03  9.40000000E+01  0.00000000E+00
  1.00000000E+03  9.20000000E+01  0.00000000E+00
  1.00000000E+03  9.00000000E+01  0.00000000E+00
  1.00000000E+03  8.80000000E+01  0.00000000E+00
  1.00000000E+03  8.60000000E+01  0.00000000E+00
  1.00000000E+03  8.40000000E+01  0.00000000E+00
  1.00000000E+03  8.20000000E+01  0.00000000E+00
  1.00000000E+03  8.00000000E+01  0.00000000E+00
  1.00000000E+03  7.80000000E+01  0.00000000E+00
  1.00000000E+03  7.60000000E+01  0.00000000E+00
  1.00000000E+03  7.40000000E+01  0.00000000E+00
  1.00000000E+03  7.20000000E+01  0.00000000E+00
  1.00000000E+03  7.00000000E+01  0.00000000E+00
  1.00000000E+03  6.80000000E+01  0.00000000E+00
  1.00000000E+03  6.60000000E+01  0.00000000E+00
  1.00000000E+03  6.40000000E+01  0.00000000E+00
  1.00000000E+03  6.20000000E+01  0.00000000E+00
  1.00000000E+03  6.00000000E+01  0.00000000E+00
  1.00000000E+03  5.80000000E+01  0.00000000E+00
  1.00000000E+03  5.60000000E+01  0.00000000E+00
  1.00000000E+03  5.40000000E+01  0.00000000E+00
  1.00000000E+03  5.20000000E+01  0.00000000E+00
  1.00000000E+03  5.00000000E+01  0.00000000E+00
  1.00000000E+03  4.80000000E+01  0.00000000E+00
  1.00000000E+03  4.60000000E+01  0.00000000E+00
  1.00000000E+03  4.40000000E+01  0.00000000E+00
  1.00000000E+03  4.20000000E+01  0.00000000E+00
  1.00000000E+03  4.00000000E+01  0.00000000E+00
  1.00000000E+03  3.80000000E+01  0.00000000E+00
  1.00000000E+03  3.60000000E+01  0.00000000E+00
  1.00000000E+03  3.40000000E+01  0.00000000E+00
  1.00000000E+03  3.20000000E+01  0.00000000E+00
  1.00000000E+03  3.00000000E+01  0.00000000E+00
  1.00000000E+03  2.80000000E+01  0.00000000E+00
  1.00000000E+03  2.60000000E+01  0.00000000E+00
  1.00000000E+03  2.40000000E+01  0.00000000E+00
  1.00000000E+03  2.20000000E+01  0.00000000E+00
  1.00000000E+03  2.00000000E+01  0.00000000E+00
  1.00000000E+03  1.80000000E+01  0.00000000E+00
  1.00000000E+03  1.60000000E+01  0.00000000E+00
  1.00000000E+03  1.40000000E+01  0.00000000E+00
  1.00000000E+03  1.20000000E+01  0.00000000E+00
  1.00000000E+03  1.00000000E+01  0.00000000E+00
  1.00000000E+03  8.00000000E+00  0.00000000E+00
  1.00000000E+03  6.00000000E+00  0.00000000E+00
  1.00000000E+03  4.00000000E+00  0.00000000E+00
  1.00000000E+03  2.00000000E+00  0.00000000E+00
  1.00000000E+03 -3.33066907E-14  0.00000000E+00
CELLS      5000     25000
         4           0           1          52          51
         4           1           2          53          52
         4           2           3          54          53
         4           3           4          55          54
         4           4           5          56          55
         4           5           6          57          56
         4           6           7          58          57
         4           7           8          59          58
         4           8           9          60          59
         4           9          10          61          60
         4          10          11          62          61
         4          11          12          63          62
         4          12          13          64          63
         4          13          14          65          64
         4          14          15          66          65
         4          15          16          67          66
         4          16          17          68          67
         4          17          18          69          68
         4          18          19          70          69
         4          19          20          71          70
         4          20          21          72          71
         4          21          22          73          72
         4          22          23          74          73
         4          23          24          75          74
         4          24          25          76          75
         4          25          26          77          76
         4          26          27          78          77
         4          27          28          79          78
         4          28          29          80          79
         4          29          30          81          80
         4          30          31          82          81
         4          31          32          83          82
         4          32          33          84          83
         4          33          34          85          84
         4          34          35          86          85
         4          35          36          87          86
         4          36          37          88          87
         4          37          38          89          88
         4          38          39          90          89
         4          39          40          91          90
         4          40          41          92          91
         4          41          42          93          92
         4          42          43          94          93
         4          43          44          95          94
         4          44          45          96          95
         4          45          46          97          96
         4          46          47          98          97
         4          47          48          99          98
         4          48          49         100          99
         4          49          50         101         100
         4          51          52         103         102
         4          52          53         104         103
         4          53          54         105         104
         4          54          55         106         105
         4          55          56         107         106
         4          56          57         108         107
         4          57          58         109         108
         4          58          59         110         109
         4          59          60         111         110
         4          60          61         112         111
         4          61          62         113         112
         4          62          63         114         113
         4          63          64         115         114
         4          64          65         116         115
         4          65          66         117         116
         4          66          67         118         117
         4          67          68         119         118
         4          68          69         120         119
         4          69          70         121         120
         4          70          71         122         121
         4          71          72         123         122
         4          72          73         124         123
         4          73          74         125         124
         4          74          75         126         125
         4          75          76         127         126
         4          76          77         128         127
         4          77          78         129         128
         4          78          79         130         129
         4          79          80         131         130
         4          80          81         132         131
         4          81          82         133         132
         4          82          83         134         133
         4          83          84         135         134
         4          84          85         136         135
         4          85          86         137         136
         4          86          87         138         137
         4          87          88         139         138
         4          88          89         140         139
         4          89          90         141         140
         4          90          91         142         141
         4          91          92         143         142
         4          92          93         144         143
         4          93          94         145         144
         4          94          95         146         145
         4          95          96         147         146
         4          96          97         148         147
         4          97          98         149         148
         4          98          99         150         149
         4          99         100         151         150
         4         100         101         152         151
         4         102         103         154         153
         4         103         104         155         154
         4         104         105         156         155
         4         105         106         157         156
         4         106         107         158         157
         4         107         108         159         158
         4         108         109         160         159
         4         109         110         161         160
         4         110         111         162         161
         4         111         112         163         162
         4         112         113         164         163
         4         113         114         165         164
         4         114         115         166         165
         4         115         116         167         166
         4         116         117         168         167
         4         117         118         169         168
         4         118         119         170         169
         4         119         120         171         170
         4         120         121         172         171
         4         121         122         173         172
         4         122         123         174         173
         4         123         124         175         174
         4         124         125         176         175
         4         125         126         177         176
         4         126         127         178         177
         4         127         128         179         178
         4         128         129         180         179
         4         129         130         181         180
         4         130         131         182         181
         4         131         132         183         182
         4         132         133         184         183
         4         133         134         185         184
         4         134         135         186         185
         4         135         136         187         186
         4         136         137         188         187
         4         137         138         189         188
         4         138         139         190         189
         4         139         140         191         190
         4         140         141         192         191
         4         141         142         193         192
         4         142         143         194         193
         4         143         144         195         194
         4         144         145         196         195
         4         145         146         197         196
         4         146         147         198         197
         4         147         148         199         198
         4         148         149         200         199
         4         149         150         201         200
         4         150         151         202         201
         4         151         152         203         202
         4         153         154         205         204
         4         154         155         206         205
         4         155         156         207         206
         4         156         157         208         207
         4         157         158         209         208
         4         158         159         210         209
         4         159         160         211         210
         4         160         161         212         211
         4         161         162         213         212
         4         162         163         214         213
         4         163         164         215         214
         4         164         165         216         215
         4         165         166         217         216
         4         166         167         218         217
         4         167         168         219         218
         4         168         169         220         219
         4         169         170         221         220
         4         170         171         222         221
         4         171         172         223         222
         4         172         173         224         223
         4         173         174         225         224
         4         174         175         226         225
         4         175         176         227         226
         4         176         177         228         227
         4         177         178         229         228
         4         178         179         230         229
         4         179         180         231         230
         4         180         181         232         231
         4         181         182         233         232
         4         182         183         234         233
         4         183         184         235         234
         4         184         185         236         235
         4         185         186         237         236
         4         186         187         238         237
         4         187         188         239         238
         4         188         189         240         239
         4         189         190         241         240
         4         190         191         242         241
         4         191         192         243         242
         4         192         193         244         243
         4         193         194         245         244
         4         194         195         246         245
         4         195         196         247         246
         4         196         197         248         247
         4         197         198         249         248
         4         198         199         250         249
         4         199         200         251         250
         4         200         201         252         251
         4         201         202         253         252
         4         202         203         254         253
         4         204         205         256         255
         4         205         206         257         256
         4         206         207         258         257
         4         207         208         259         258
         4         208         209         260         259
         4         209         210         261         260
         4         210         211         262         261
         4         211         212         263         262
         4         212         213         264         263
         4         213         214         265         264
         4         214         215         266         265
         4         215         216         267         266
         4         216         217         268         267
         4         217         218         269         268
         4         218         219         270         269
         4         219         220         271         270
         4         220         221         272         271
         4         221         222         273         272
         4         222         223         274         273
         4         223         224         275         274
         4         224         225         276         275
         4         225         226         277         276
         4         226         227         278         277
         4         227         228         279         278
         4         228         229         280         279
         4         229         230         281         280
         4         230         231         282         281
         4         231         232         283         282
         4         232         233         284         283
         4         233         234         285         284
         4         234         235         286         285
         4         235         236         287         286
         4         236         237         288         287
         4         237         238         289         288
         4         238         239         290         289
         4         239         240         291         290
         4         240         241         292         291
         4         241         242         293         292
         4         242         243         294         293
         4         243         244         295         294
         4         244         245         296         295
         4         245         246         297         296
         4         246         247         298         297
         4         247         248         299         298
         4         248         249         300         299
         4         249         250         301         300
         4         250         251         302         301
         4         251         252         303         302
         4         252         253         304         303
         4         253         254         305         304
         4         255         256         307         306
         4         256         257         308         307
         4         257         258         309         308
         4         258         259         310         309
         4         259         260         311         310
         4         260         261         312         311
         4         261         262         313         312
         4         262         263         314         313
         4         263         264         315         314
         4         264         265         316         315
         4         265         266         317         316
         4         266         267         318         317
         4         267         268         319         318
         4         268         269         320         319
         4         269         270         321         320
         4         270         271         322         321
         4         271         272         323         322
         4         272         273         324         323
         4         273         274         325         324
         4         274         275         326         325
         4         275         276         327         326
         4         276         277         328         327
         4         277         278         329         328
         4         278         279         330         329
         4         279         280         331         330
         4         280         281         332         331
         4         281         282         333         332
         4         282         283         334         333
         4         283         284         335         334
         4         284         285         336         335
         4         285         286         337         336
         4         286         287         338         337
         4         287         288         339         338
         4         288         289         340         339
         4         289         290         341         340
         4         290         291         342         341
         4         291         292         343         342
         4         292         293         344         343
         4         293         294         345         344
         4         294         295         346         345
         4         295         296         347         346
         4         296         297         348         347
         4         297         298         349         348
         4         298         299         350         349
         4         299         300         351         350
         4         300         301         352         351
         4         301         302         353         352
         4         302         303         354         353
         4         303         304         355         354
         4         304         305         356         355
         4         306         307         358         357
         4         307         308         359         358
         4         308         309         360         359
         4         309         310         361         360
         4         310         311         362         361
         4         311         312         363         362
         4         312         313         364         363
         4         313         314         365         364
         4         314         315         366         365
         4         315         316         367         366
         4         316         317         368         367
         4         317         318         369         368
         4         318         319         370         369
         4         319         320         371         370
         4         320         321         372         371
         4         321         322         373         372
         4         322         323         374         373
         4         323         324         375         374
         4         324         325         376         375
         4         325         326         377         376
         4         326         327         378         377
         4         327         328         379         378
         4         328         329         380         379
         4         329         330         381         380
         4         330         331         382         381
         4         331         332         383         382
         4         332         333         384         383
         4         333         334         385         384
         4         334         335         386         385
         4         335         336         387         386
         4         336         337         388         387
         4         337         338         389         388
         4         338         339         390         389
         4         339         340         391         390
         4         340         341         392         391
         4         341         342         393         392
         4         342         343         394         393
         4         343         344         395         394
         4         344         345         396         395
         4         345         346         397         396
         4         346         347         398         397
         4         347         348         399         398
         4         348         349         400         399
         4         349         350         401         400
         4         350         351         402         401
         4         351         352         403         402
         4         352         353         404         403
         4         353         354         405         404
         4         354         355         406         405
         4         355         356         407         406
         4         357         358         409         408
         4         358         359         410         409
         4         359         360         411         410
         4         360         361         412         411
         4         361         362         413         412
         4         362         363         414         413
         4         363         364         415         414
         4         364         365         416         415
         4         365         366         417         416
         4         366         367         418         417
         4         367         368         419         418
         4         368         369         420         419
         4         369         370         421         420
         4         370         371         422         421
         4         371         372         423         422
         4         372         373         424         423
         4         373         374         425         424
         4         374         375         426         425
         4         375         376         427         426
         4         376         377         428         427
         4         377         378         429         428
         4         378         379         430         429
         4         379         380         431         430
         4         380         381         432         431
         4         381         382         433         432
         4         382         383         434         433
         4         383         384         435         434
         4         384         385         436         435
         4         385         386         437         436
         4         386         387         438         437
         4         387         388         439         438
         4         388         389         440         439
         4         389         390         441         440
         4         390         391         442         441
         4         391         392         443         442
         4         392         393         444         443
         4         393         394         445         444
         4         394         395         446         445
         4         395         396         447         446
         4         396         397         448         447
         4         397         398         449         448
         4         398         399         450         449
         4         399         400         451         450
         4         400         401         452         451
         4         401         402         453         452
         4         402         403         454         453
         4         403         404         455         454
         4         404         405         456         455
         4         405         406         457         456
         4         406         407         458         457
         4         408         409         460         459
         4         409         410         461         460
         4         410         411         462         461
         4         411         412         463         462
         4         412         413         464         463
         4         413         414         465         464
         4         414         415         466         465
         4         415         416         467         466
         4         416         417         468         467
         4         417         418         469         468
         4         418         419         470         469
         4         419         420         471         470
         4         420         421         472         471
         4         421         422         473         472
         4         422         423         474         473
         4         423         424         475         474
         4         424         425         476         475
         4         425         426         477         476
         4         426         427         478         477
         4         427         428         479         478
         4         428         429         480         479
         4         429         430         481         480
         4         430         431         482         481
         4         431         432         483         482
         4         432         433         484         483
         4         433         434         485         484
         4         434         435         486         485
         4         435         436         487         486
         4         436         437         488         487
         4         437         438         489         488
         4         438         439         490         489
         4         439         440         491         490
         4         440         441         492         491
         4         441         442         493         492
         4         442         443         494         493
         4         443         444         495         494
         4         444         445         496         495
         4         445         446         497         496
         4         446         447         498         497
         4         447         448         499         498
         4         448         449         500         499
         4         449         450         501         500
         4         450         451         502         501
         4         451         452         503         502
         4         452         453         504         503
         4         453         454         505         504
         4         454         455         506         505
         4         455         456         507         506
         4         456         457         508         507
         4         457         458         509         508
         4         459         460         511         510
         4         460         461         512         511
         4         461         462         513         512
         4         462         463         514         513
         4         463         464         515         514
         4         464         465         516         515
         4         465         466         517         516
         4         466         467         518         517
         4         467         468         519         518
         4         468         469         520         519
         4         469         470         521         520
         4         470         471         522         521
         4         471         472         523         522
         4         472         473         524         523
         4         473         474         525         524
         4         474         475         526         525
         4         475         476         527         526
         4         476         477         528         527
         4         477         478         529         528
         4         478         479         530         529
         4         479         480         531         530
         4         480         481         532         531
         4         481         482         533         532
         4         482         483         534         533
         4         483         484         535         534
         4         484         485         536         535
         4         485         486         537         536
         4         486         487         538         537
         4         487         488         539         538
         4         488         489         540         539
         4         489         490         541         540
         4         490         491         542         541
         4         491         492         543         542
         4         492         493         544         543
         4         493         494         545         544
         4         494         495         546         545
         4         495         496         547         546
         4         496         497         548         547
         4         497         498         549         548
         4         498         499         550         549
         4         499         500         551         550
         4         500         501         552         551
         4         501         502         553         552
         4         502         503         554         553
         4         503         504         555         554
         4         504         505         556         555
         4         505         506         557         556
         4         506         507         558         557
         4         507         508         559         558
         4         508         509         560         559
         4         510         511         562         561
         4         511         512         563         562
         4         512         513         564         563
         4         513         514         565         564
         4         514         515         566         565
         4         515         516         567         566
         4         516         517         568         567
         4         517         518         569         568
         4         518         519         570         569
         4         519         520         571         570
         4         520         521         572         571
         4         521         522         573         572
         4         522         523         574         573
         4         523         524         575         574
         4         524         525         576         575
         4         525         526         577         576
         4         526         527         578         577
         4         527         528         579         578
         4         528         529         580         579
         4         529         530         581         580
         4         530         531         582         581
         4         531         532         583         582
         4         532         533         584         583
         4         533         534         585         584
         4         534         535         586         585
         4         535         536         587         586
         4         536         537         588         587
         4         537         538         589         588
         4         538         539         590         589
         4         539         540         591         590
         4         540         541         592         591
         4         541         542         593         592
         4         542         543         594         593
         4         543         544         595         594
         4         544         545         596         595
         4         545         546         597         596
         4         546         547         598         597
         4         547         548         599         598
         4         548         549         600         599
         4         549         550         601         600
         4         550         551         602         601
         4         551         552         603         602
         4         552         553         604         603
         4         553         554         605         604
         4         554         555         606         605
         4         555         556         607         606
         4         556         557         608         607
         4         557         558         609         608
         4         558         559         610         609
         4         559         560         611         610
         4         561         562         613         612
         4         562         563         614         613
         4         563         564         615         614
         4         564         565         616         615
         4         565         566         617         616
         4         566         567         618         617
         4         567         568         619         618
         4         568         569         620         619
         4         569         570         621         620
         4         570         571         622         621
         4         571         572         623         622
         4         572         573         624         623
         4         573         574         625         624
         4         574         575         626         625
         4         575         576         627         626
         4         576         577         628         627
         4         577         578         629         628
         4         578         579         630         629
         4         579         580         631         630
         4         580         581         632         631
         4         581         582         633         632
         4         582         583         634         633
         4         583         584         635         634
         4         584         585         636         635
         4         585         586         637         636
         4         586         587         638         637
         4         587         588         639         638
         4         588         589         640         639
         4         589         590         641         640
         4         590         591         642         641
         4         591         592         643         642
         4         592         593         644         643
         4         593         594         645         644
         4         594         595         646         645
         4         595         596         647         646
         4         596         597         648         647
         4         597         598         649         648
         4         598         599         650         649
         4         599         600         651         650
         4         600         601         652         651
         4         601         602         653         652
         4         602         603         654         653
         4         603         604         655         654
         4         604         605         656         655
         4         605         606         657         656
         4         606         607         658         657
         4         607         608         659         658
         4         608         609         660         659
         4         609         610         661         660
         4         610         611         662         661
         4         612         613         664         663
         4         613         614         665         664
         4         614         615         666         665
         4         615         616         667         666
         4         616         617         668         667
         4         617         618         669         668
         4         618         619         670         669
         4         619         620         671         670
         4         620         621         672         671
         4         621         622         673         672
         4         622         623         674         673
         4         623         624         675         674
         4         624         625         676         675
         4         625         626         677         676
         4         626         627         678         677
         4         627         628         679         678
         4         628         629         680         679
         4         629         630         681         680
         4         630         631         682         681
         4         631         632         683         682
         4         632         633         684         683
         4         633         634         685         684
         4         634         635         686         685
         4         635         636         687         686
         4         636         637         688         687
         4         637         638         689         688
         4         638         639         690         689
         4         639         640         691         690
         4         640         641         692         691
         4         641         642         693         692
         4         642         643         694         693
         4         643         644         695         694
         4         644         645         696         695
         4         645         646         697         696
         4         646         647         698         697
         4         647         648         699         698
         4         648         649         700         699
         4         649         650         701         700
         4         650         651         702         701
         4         651         652         703         702
         4         652         653         704         703
         4         653         654         705         704
         4         654         655         706         705
         4         655         656         707         706
         4         656         657         708         707
         4         657         658         709         708
         4         658         659         710         709
         4         659         660         711         710
         4         660         661         712         711
         4         661         662         713         712
         4         663         664         715         714
         4         664         665         716         715
         4         665         666         717         716
         4         666         667         718         717
         4         667         668         719         718
         4         668         669         720         719
         4         669         670         721         720
         4         670         671         722         721
         4         671         672         723         722
         4         672         673         724         723
         4         673         674         725         724
         4         674         675         726         725
         4         675         676         727         726
         4         676         677         728         727
         4         677         678         729         728
         4         678         679         730         729
         4         679         680         731         730
         4         680         681         732         731
         4         681         682         733         732
         4         682         683         734         733
         4         683         684         735         734
         4         684         685         736         735
         4         685         686         737         736
         4         686         687         738         737
         4         687         688         739         738
         4         688         689         740         739
         4         689         690         741         740
         4         690         691         742         741
         4         691         692         743         742
         4         692         693         744         743
         4         693         694         745         744
         4         694         695         746         745
         4         695         696         747         746
         4         696         697         748         747
         4         697         698         749         748
         4         698         699         750         749
         4         699         700         751         750
         4         700         701         752         751
         4         701         702         753         752
         4         702         703         754         753
         4         703         704         755         754
         4         704         705         756         755
         4         705         706         757         756
         4         706         707         758         757
         4         707         708         759         758
         4         708         709         760         759
         4         709         710         761         760
         4         710         711         762         761
         4         711         712         763         762
         4         712         713         764         763
         4         714         715         766         765
         4         715         716         767         766
         4         716         717         768         767
         4         717         718         769         768
         4         718         719         770         769
         4         719         720         771         770
         4         720         721         772         771
         4         721         722         773         772
         4         722         723         774         773
         4         723         724         775         774
         4         724         725         776         775
         4         725         726         777         776
         4         726         727         778         777
         4         727         728         779         778
         4         728         729         780         779
         4         729         730         781         780
         4         730         731         782         781
         4         731         732         783         782
         4         732         733         784         783
         4         733         734         785         784
         4         734         735         786         785
         4         735         736         787         786
         4         736         737         788         787
         4         737         738         789         788
         4         738         739         790         789
         4         739         740         791         790
         4         740         741         792         791
         4         741         742         793         792
         4         742         743         794         793
         4         743         744         795         794
         4         744         745         796         795
         4         745         746         797         796
         4         746         747         798         797
         4         747         748         799         798
         4         748         749         800         799
         4         749         750         801         800
         4         750         751         802         801
         4         751         752         803         802
         4         752         753         804         803
         4         753         754         805         804
         4         754         755         806         805
         4         755         756         807         806
         4         756         757         808         807
         4         757         758         809         808
         4         758         759         810         809
         4         759         760         811         810
         4         760         761         812         811
         4         761         762         813         812
         4         762         763         814         813
         4         763         764         815         814
         4         765         766         817         816
         4         766         767         818         817
         4         767         768         819         818
         4         768         769         820         819
         4         769         770         821         820
         4         770         771         822         821
         4         771         772         823         822
         4         772         773         824         823
         4         773         774         825         824
         4         774         775         826         825
         4         775         776         827         826
         4         776         777         828         827
         4         777         778         829         828
         4         778         779         830         829
         4         779         780         831         830
         4         780         781         832         831
         4         781         782         833         832
         4         782         783         834         833
         4         783         784         835         834
         4         784         785         836         835
         4         785         786         837         836
         4         786         787         838         837
         4         787         788         839         838
         4         788         789         840         839
         4         789         790         841         840
         4         790         791         842         841
         4         791         792         843         842
         4         792         793         844         843
         4         793         794         845         844
         4         794         795         846         845
         4         795         796         847         846
         4         796         797         848         847
         4         797         798         849         848
         4         798         799         850         849
         4         799         800         851         850
         4         800         801         852         851
         4         801         802         853         852
         4         802         803         854         853
         4         803         804         855         854
         4         804         805         856         855
         4         805         806         857         856
         4         806         807         858         857
         4         807         808         859         858
         4         808         809         860         859
         4         809         810         861         860
         4         810         811         862         861
         4         811         812         863         862
         4         812         813         864         863
         4         813         814         865         864
         4         814         815         866         865
         4         816         817         868         867
         4         817         818         869         868
         4         818         819         870         869
         4         819         820         871         870
         4         820         821         872         871
         4         821         822         873         872
         4         822         823         874         873
         4         823         824         875         874
         4         824         825         876         875
         4         825         826         877         876
         4         826         827         878         877
         4         827         828         879         878
         4         828         829         880         879
         4         829         830         881         880
         4         830         831         882         881
         4         831         832         883         882
         4         832         833         884         883
         4         833         834         885         884
         4         834         835         886         885
         4         835         836         887         886
         4         836         837         888         887
         4         837         838         889         888
         4         838         839         890         889
         4         839         840         891         890
         4         840         841         892         891
         4         841         842         893         892
         4         842         843         894         893
         4         843         844         895         894
         4         844         845         896         895
         4         845         846         897         896
         4         846         847         898         897
         4         847         848         899         898
         4         848         849         900         899
         4         849         850         901         900
         4         850         851         902         901
         4         851         852         903         902
         4         852         853         904         903
         4         853         854         905         904
         4         854         855         906         905
         4         855         856         907         906
         4         856         857         908         907
         4         857         858         909         908
         4         858         859         910         909
         4         859         860         911         910
         4         860         861         912         911
         4         861         862         913         912
         4         862         863         914         913
         4         863         864         915         914
         4         864         865         916         915
         4         865         866         917         916
         4         867         868         919         918
         4         868         869         920         919
         4         869         870         921         920
         4         870         871         922         921
         4         871         872         923         922
         4         872         873         924         923
         4         873         874         925         924
         4         874         875         926         925
         4         875         876         927         926
         4         876         877         928         927
         4         877         878         929         928
         4         878         879         930         929
         4         879         880         931         930
         4         880         881         932         931
         4         881         882         933         932
         4         882         883         934         933
         4         883         884         935         934
         4         884         885         936         935
         4         885         886         937         936
         4         886         887         938         937
         4         887         888         939         938
         4         888         889         940         939
         4         889         890         941         940
         4         890         891         942         941
         4         891         892         943         942
         4         892         893         944         943
         4         893         894         945         944
         4         894         895         946         945
         4         895         896         947         946
         4         896         897         948         947
         4         897         898         949         948
         4         898         899         950         949
         4         899         900         951         950
         4         900         901         952         951
         4         901         902         953         952
         4         902         903         954         953
         4         903         904         955         954
         4         904         905         956         955
         4         905         906         957         956
         4         906         907         958         957
         4         907         908         959         958
         4         908         909         960         959
         4         909         910         961         960
         4         910         911         962         961
         4         911         912         963         962
         4         912         913         964         963
         4         913         914         965         964
         4         914         915         966         965
         4         915         916         967         966
         4         916         917         968         967
         4         918         919         970         969
         4         919         920         971         970
         4         920         921         972         971
         4         921         922         973         972
         4         922         923         974         973
         4         923         924         975         974
         4         924         925         976         975
         4         925         926         977         976
         4         926         927         978         977
         4         927         928         979         978
         4         928         929         980         979
         4         929         930         981         980
         4         930         931         982         981
         4         931         932         983         982
         4         932         933         984         983
         4         933         934         985         984
         4         934         935         986         985
         4         935         936         987         986
         4         936         937         988         987
         4         937         938         989         988
         4         938         939         990         989
         4         939         940         991         990
         4         940         941         992         991
         4         941         942         993         992
         4         942         943         994         993
         4         943         944         995         994
         4         944         945         996         995
         4         945         946         997         996
         4         946         947         998         997
         4         947         948         999         998
         4         948         949        1000         999
         4         949         950        1001        1000
         4         950         951        1002        1001
         4         951         952        1003        1002
         4         952         953        1004        1003
         4         953         954        1005        1004
         4         954         955        1006        1005
         4         955         956        1007        1006
         4         956         957        1008        1007
         4         957         958        1009        1008
         4         958         959        1010        1009
         4         959         960        1011        1010
         4         960         961        1012        1011
         4         961         962        1013        1012
         4         962         963        1014        1013
         4         963         964        1015        1014
         4         964         965        1016        1015
         4         965         966        1017        1016
         4         966         967        1018        1017
         4         967         968        1019        1018
         4         969         970        1021        1020
         4         970         971        1022        1021
         4         971         972        1023        1022
         4         972         973        1024        1023
         4         973         974        1025        1024
         4         974         975        1026        1025
         4         975         976        1027        1026
         4         976         977        1028        1027
         4         977         978        1029        1028
         4         978         979        1030        1029
         4         979         980        1031        1030
         4         980         981        1032        1031
         4         981         982        1033        1032
         4         982         983        1034        1033
         4         983         984        1035        1034
         4         984         985        1036        1035
         4         985         986        1037        1036
         4         986         987        1038        1037
         4         987         988        1039        1038
         4         988         989        1040        1039
         4         989         990        1041        1040
         4         990         991        1042        1041
         4         991         992        1043        1042
         4         992         993        1044        1043
         4         993         994        1045        1044
         4         994         995        1046        1045
         4         995         996        1047        1046
         4         996         997        1048        1047
         4         997         998        1049        1048
         4         998         999        1050        1049
         4         999        1000        1051        1050
         4        1000        1001        1052        1051
         4        1001        1002        1053        1052
         4        1002        1003        1054        1053
         4        1003        1004        1055        1054
         4        1004        1005        1056        1055
         4        1005        1006        1057        1056
         4        1006        1007        1058        1057
         4        1007        1008        1059        1058
         4        1008        1009        1060        1059
         4        1009        1010        1061        1060
         4        1010        1011        1062        1061
         4        1011        1012        1063        1062
         4        1012        1013        1064        1063
         4        1013        1014        1065        1064
         4        1014        1015        1066        1065
         4        1015        1016        1067        1066
         4        1016        1017        1068        1067
         4        1017        1018        1069        1068
         4        1018        1019        1070        1069
         4        1020        1021        1072        1071
         4        1021        1022        1073        1072
         4        1022        1023        1074        1073
         4        1023        1024        1075        1074
         4        1024        1025        1076        1075
         4        1025        1026        1077        1076
         4        1026        1027        1078        1077
         4        1027        1028        1079        1078
         4        1028        1029        1080        1079
         4        1029        1030        1081        1080
         4        1030        1031        1082        1081
         4        1031        1032        1083        1082
         4        1032        1033        1084        1083
         4        1033        1034        1085        1084
         4        1034        1035        1086        1085
         4        1035        1036        1087        1086
         4        1036        1037        1088        1087
         4        1037        1038        1089        1088
         4        1038        1039        1090        1089
         4        1039        1040        1091        1090
         4        1040        1041        1092        1091
         4        1041        1042        1093        1092
         4        1042        1043        1094        1093
         4        1043        1044        1095        1094
         4        1044        1045        1096        1095
         4        1045        1046        1097        1096
         4        1046        1047        1098        1097
         4        1047        1048        1099        1098
         4        1048        1049        1100        1099
         4        1049        1050        1101        1100
         4        1050        1051        1102        1101
         4        1051        1052        1103        1102
         4        1052        1053        1104        1103
         4        1053        1054        1105        1104
         4        1054        1055        1106        1105
         4        1055        1056        1107        1106
         4        1056        1057        1108        1107
         4        1057        1058        1109        1108
         4        1058        1059        1110        1109
         4        1059        1060        1111        1110
         4        1060        1061        1112        1111
         4        1061        1062        1113        1112
         4        1062        1063        1114        1113
         4        1063        1064        1115        1114
         4        1064        1065        1116        1115
         4        1065        1066        1117        1116
         4        1066        1067        1118        1117
         4        1067        1068        1119        1118
         4        1068        1069        1120        1119
         4        1069        1070        1121        1120
         4        1071        1072        1123        1122
         4        1072        1073        1124        1123
         4        1073        1074        1125        1124
         4        1074        1075        1126        1125
         4        1075        1076        1127        1126
         4        1076        1077        1128        1127
         4        1077        1078        1129        1128
         4        1078        1079        1130        1129
         4        1079        1080        1131        1130
         4        1080        1081        1132        1131
         4        1081        1082        1133        1132
         4        1082        1083        1134        1133
         4        1083        1084        1135        1134
         4        1084        1085        1136        1135
         4        1085        1086        1137        1136
         4        1086        1087        1138        1137
         4        1087        1088        1139        1138
         4        1088        1089        1140        1139
         4        1089        1090        1141        1140
         4        1090        1091        1142        1141
         4        1091        1092        1143        1142
         4        1092        1093        1144        1143
         4        1093        1094        1145        1144
         4        1094        1095        1146        1145
         4        1095        1096        1147        1146
         4        1096        1097        1148        1147
         4        1097        1098        1149        1148
         4        1098        1099        1150        1149
         4        1099        1100        1151        1150
         4        1100        1101        1152        1151
         4        1101        1102        1153        1152
         4        1102        1103        1154        1153
         4        1103        1104        1155        1154
         4        1104        1105        1156        1155
         4        1105        1106        1157        1156
         4        1106        1107        1158        1157
         4        1107        1108        1159        1158
         4        1108        1109        1160        1159
         4        1109        1110        1161        1160
         4        1110        1111        1162        1161
         4        1111        1112        1163        1162
         4        1112        1113        1164        1163
         4        1113        1114        1165        1164
         4        1114        1115        1166        1165
         4        1115        1116        1167        1166
         4        1116        1117        1168        1167
         4        1117        1118        1169        1168
         4        1118        1119        1170        1169
         4        1119        1120        1171        1170
         4        1120        1121        1172        1171
         4        1122        1123        1174        1173
         4        1123        1124        1175        1174
         4        1124        1125        1176        1175
         4        1125        1126        1177        1176
         4        1126        1127        1178        1177
         4        1127        1128        1179        1178
         4        1128        1129        1180        1179
         4        1129        1130        1181        1180
         4        1130        1131        1182        1181
         4        1131        1132        1183        1182
         4        1132        1133        1184        1183
         4        1133        1134        1185        1184
         4        1134        1135        1186        1185
         4        1135        1136        1187        1186
         4        1136        1137        1188        1187
         4        1137        1138        1189        1188
         4        1138        1139        1190        1189
         4        1139        1140        1191        1190
         4        1140        1141        1192        1191
         4        1141        1142        1193        1192
         4        1142        1143        1194        1193
         4        1143        1144        1195        1194
         4        1144        1145        1196        1195
         4        1145        1146        1197        1196
         4        1146        1147        1198        1197
         4        1147        1148        1199        1198
         4        1148        1149        1200        1199
         4        1149        1150        1201        1200
         4        1150        1151        1202        1201
         4        1151        1152        1203        1202
         4        1152        1153        1204        1203
         4        1153        1154        1205        1204
         4        1154        1155        1206        1205
         4        1155        1156        1207        1206
         4        1156        1157        1208        1207
         4        1157        1158        1209        1208
         4        1158        1159        1210        1209
         4        1159        1160        1211        1210
         4        1160        1161        1212        1211
         4        1161        1162        1213        1212
         4        1162        1163        1214        1213
         4        1163        1164        1215        1214
         4        1164        1165        1216        1215
         4        1165        1166        1217        1216
         4        1166        1167        1218        1217
         4        1167        1168        1219        1218
         4        1168        1169        1220        1219
         4        1169        1170        1221        1220
         4        1170        1171        1222        1221
         4        1171        1172        1223        1222
         4        1173        1174        1225        1224
         4        1174        1175        1226        1225
         4        1175        1176        1227        1226
         4        1176        1177        1228        1227
         4        1177        1178        1229        1228
         4        1178        1179        1230        1229
         4        1179        1180        1231        1230
         4        1180        1181        1232        1231
         4        1181        1182        1233        1232
         4        1182        1183        1234        1233
         4        1183        1184        1235        1234
         4        1184        1185        1236        1235
         4        1185        1186        1237        1236
         4        1186        1187        1238        1237
         4        1187        1188        1239        1238
         4        1188        1189        1240        1239
         4        1189        1190        1241        1240
         4        1190        1191        1242        1241
         4        1191        1192        1243        1242
         4        1192        1193        1244        1243
         4        1193        1194        1245        1244
         4        1194        1195        1246        1245
         4        1195        1196        1247        1246
         4        1196        1197        1248        1247
         4        1197        1198        1249        1248
         4        1198        1199        1250        1249
         4        1199        1200        1251        1250
         4        1200        1201        1252        1251
         4        1201        1202        1253        1252
         4        1202        1203        1254        1253
         4        1203        1204        1255        1254
         4        1204        1205        1256        1255
         4        1205        1206        1257        1256
         4        1206        1207        1258        1257
         4        1207        1208        1259        1258
         4        1208        1209        1260        1259
         4        1209        1210        1261        1260
         4        1210        1211        1262        1261
         4        1211        1212        1263        1262
         4        1212        1213        1264        1263
         4        1213        1214        1265        1264
         4        1214        1215        1266        1265
         4        1215        1216        1267        1266
         4        1216        1217        1268        1267
         4        1217        1218        1269        1268
         4        1218        1219        1270        1269
         4        1219        1220        1271        1270
         4        1220        1221        1272        1271
         4        1221        1222        1273        1272
         4        1222        1223        1274        1273
         4        1224        1225        1276        1275
         4        1225        1226        1277        1276
         4        1226        1227        1278        1277
         4        1227        1228        1279        1278
         4        1228        1229        1280        1279
         4        1229        1230        1281        1280
         4        1230        1231        1282        1281
         4        1231        1232        1283        1282
         4        1232        1233        1284        1283
         4        1233        1234        1285        1284
         4        1234        1235        1286        1285
         4        1235        1236        1287        1286
         4        1236        1237        1288        1287
         4        1237        1238        1289        1288
         4        1238        1239        1290        1289
         4        1239        1240        1291        1290
         4        1240        1241        1292        1291
         4        1241        1242        1293        1292
         4        1242        1243        1294        1293
         4        1243        1244        1295        1294
         4        1244        1245        1296        1295
         4        1245        1246        1297        1296
         4        1246        1247        1298        1297
         4        1247        1248        1299        1298
         4        1248        1249        1300        1299
         4        1249        1250        1301        1300
         4        1250        1251        1302        1301
         4        1251        1252        1303        1302
         4        1252        1253        1304        1303
         4        1253        1254        1305        1304
         4        1254        1255        1306        1305
         4        1255        1256        1307        1306
         4        1256        1257        1308        1307
         4        1257        1258        1309        1308
         4        1258        1259        1310        1309
         4        1259        1260        1311        1310
         4        1260        1261        1312        1311
         4        1261        1262        1313        1312
         4        1262        1263        1314        1313
         4        1263        1264        1315        1314
         4        1264        1265        1316        1315
         4        1265        1266        1317        1316
         4        1266        1267        1318        1317
         4        1267        1268        1319        1318
         4        1268        1269        1320        1319
         4        1269        1270        1321        1320
         4        1270        1271        1322        1321
         4        1271        1272        1323        1322
         4        1272        1273        1324        1323
         4        1273        1274        1325        1324
         4        1275        1276        1327        1326
         4        1276        1277        1328        1327
         4        1277        1278        1329        1328
         4        1278        1279        1330        1329
         4        1279        1280        1331        1330
         4        1280        1281        1332        1331
         4        1281        1282        1333        1332
         4        1282        1283        1334        1333
         4        1283        1284        1335        1334
         4        1284        1285        1336        1335
         4        1285        1286        1337        1336
         4        1286        1287        1338        1337
         4        1287        1288        1339        1338
         4        1288        1289        1340        1339
         4        1289        1290        1341        1340
         4        1290        1291        1342        1341
         4        1291        1292        1343        1342
         4        1292        1293        1344        1343
         4        1293        1294        1345        1344
         4        1294        1295        1346        1345
         4        1295        1296        1347        1346
         4        1296        1297        1348        1347
         4        1297        1298        1349        1348
         4        1298        1299        1350        1349
         4        1299        1300        1351        1350
         4        1300        1301        1352        1351
         4        1301        1302        1353        1352
         4        1302        1303        1354        1353
         4        1303        1304        1355        1354
         4        1304        1305        1356        1355
         4        1305        1306        1357        1356
         4        1306        1307        1358        1357
         4        1307        1308        1359        1358
         4        1308        1309        1360        1359
         4        1309        1310        1361        1360
         4        1310        1311        1362        1361
         4        1311        1312        1363        1362
         4        1312        1313        1364        1363
         4        1313        1314        1365        1364
         4        1314        1315        1366        1365
         4        1315        1316        1367        1366
         4        1316        1317        1368        1367
         4        1317        1318        1369        1368
         4        1318        1319        1370        1369
         4        1319        1320        1371        1370
         4        1320        1321        1372        1371
         4        1321        1322        1373        1372
         4        1322        1323        1374        1373
         4        1323        1324        1375        1374
         4        1324        1325        1376        1375
         4        1326        1327        1378        1377
         4        1327        1328        1379        1378
         4        1328        1329        1380        1379
         4        1329        1330        1381        1380
         4        1330        1331        1382        1381
         4        1331        1332        1383        1382
         4        1332        1333        1384        1383
         4        1333        1334        1385        1384
         4        1334        1335        1386        1385
         4        1335        1336        1387        1386
         4        1336        1337        1388        1387
         4        1337        1338        1389        1388
         4        1338        1339        1390        1389
         4        1339        1340        1391        1390
         4        1340        1341        1392        1391
         4        1341        1342        1393        1392
         4        1342        1343        1394        1393
         4        1343        1344        1395        1394
         4        1344        1345        1396        1395
         4        1345        1346        1397        1396
         4        1346        1347        1398        1397
         4        1347        1348        1399        1398
         4        1348        1349        1400        1399
         4        1349        1350        1401        1400
         4        1350        1351        1402        1401
         4        1351        1352        1403        1402
         4        1352        1353        1404        1403
         4        1353        1354        1405        1404
         4        1354        1355        1406        1405
         4        1355        1356        1407        1406
         4        1356        1357        1408        1407
         4        1357        1358        1409        1408
         4        1358        1359        1410        1409
         4        1359        1360        1411        1410
         4        1360        1361        1412        1411
         4        1361        1362        1413        1412
         4        1362        1363        1414        1413
         4        1363        1364        1415        1414
         4        1364        1365        1416        1415
         4        1365        1366        1417        1416
         4        1366        1367        1418        1417
         4        1367        1368        1419        1418
         4        1368        1369        1420        1419
         4        1369        1370        1421        1420
         4        1370        1371        1422        1421
         4        1371        1372        1423        1422
         4        1372        1373        1424        1423
         4        1373        1374        1425        1424
         4        1374        1375        1426        1425
         4        1375        1376        1427        1426
         4        1377        1378        1429        1428
         4        1378        1379        1430        1429
         4        1379        1380        1431        1430
         4        1380        1381        1432        1431
         4        1381        1382        1433        1432
         4        1382        1383        1434        1433
         4        1383        1384        1435        1434
         4        1384        1385        1436        1435
         4        1385        1386        1437        1436
         4        1386        1387        1438        1437
         4        1387        1388        1439        1438
         4        1388        1389        1440        1439
         4        1389        1390        1441        1440
         4        1390        1391        1442        1441
         4        1391        1392        1443        1442
         4        1392        1393        1444        1443
         4        1393        1394        1445        1444
         4        1394        1395        1446        1445
         4        1395        1396        1447        1446
         4        1396        1397        1448        1447
         4        1397        1398        1449        1448
         4        1398        1399        1450        1449
         4        1399        1400        1451        1450
         4        1400        1401        1452        1451
         4        1401        1402        1453        1452
         4        1402        1403        1454        1453
         4        1403        1404        1455        1454
         4        1404        1405        1456        1455
         4        1405        1406        1457        1456
         4        1406        1407        1458        1457
         4        1407        1408        1459        1458
         4        1408        1409        1460        1459
         4        1409        1410        1461        1460
         4        1410        1411        1462        1461
         4        1411        1412        1463        1462
         4        1412        1413        1464        1463
         4        1413        1414        1465        1464
         4        1414        1415        1466        1465
         4        1415        1416        1467        1466
         4        1416        1417        1468        1467
         4        1417        1418        1469        1468
         4        1418        1419        1470        1469
         4        1419        1420        1471        1470
         4        1420        1421        1472        1471
         4        1421        1422        1473        1472
         4        1422        1423        1474        1473
         4        1423        1424        1475        1474
         4        1424        1425        1476        1475
         4        1425        1426        1477        1476
         4        1426        1427        1478        1477
         4        1428        1429        1480        1479
         4        1429        1430        1481        1480
         4        1430        1431        1482        1481
         4        1431        1432        1483        1482
         4        1432        1433        1484        1483
         4        1433        1434        1485        1484
         4        1434        1435        1486        1485
         4        1435        1436        1487        1486
         4        1436        1437        1488        1487
         4        1437        1438        1489        1488
         4        1438        1439        1490        1489
         4        1439        1440        1491        1490
         4        1440        1441        1492        1491
         4        1441        1442        1493        1492
         4        1442        1443        1494        1493
         4        1443        1444        1495        1494
         4        1444        1445        1496        1495
         4        1445        1446        1497        1496
         4        1446        1447        1498        1497
         4        1447        1448        1499        1498
         4        1448        1449        1500        1499
         4        1449        1450        1501        1500
         4        1450        1451        1502        1501
         4        1451        1452        1503        1502
         4        1452        1453        1504        1503
         4        1453        1454        1505        1504
         4        1454        1455        1506        1505
         4        1455        1456        1507        1506
         4        1456        1457        1508        1507
         4        1457        1458        1509        1508
         4        1458        1459        1510        1509
         4        1459        1460        1511        1510
         4        1460        1461        1512        1511
         4        1461        1462        1513        1512
         4        1462        1463        1514        1513
         4        1463        1464        1515        1514
         4        1464        1465        1516        1515
         4        1465        1466        1517        1516
         4        1466        1467        1518        1517
         4        1467        1468        1519        1518
         4        1468        1469        1520        1519
         4        1469        1470        1521        1520
         4        1470        1471        1522        1521
         4        1471        1472        1523        1522
         4        1472        1473        1524        1523
         4        1473        1474        1525        1524
         4        1474        1475        1526        1525
         4        1475        1476        1527        1526
         4        1476        1477        1528        1527
         4        1477        1478        1529        1528
         4        1479        1480        1531        1530
         4        1480        1481        1532        1531
         4        1481        1482        1533        1532
         4        1482        1483        1534        1533
         4        1483        1484        1535        1534
         4        1484        1485        1536        1535
         4        1485        1486        1537        1536
         4        1486        1487        1538        1537
         4        1487        1488        1539        1538
         4        1488        1489        1540        1539
         4        1489        1490        1541        1540
         4        1490        1491        1542        1541
         4        1491        1492        1543        1542
         4        1492        1493        1544        1543
         4        1493        1494        1545        1544
         4        1494        1495        1546        1545
         4        1495        1496        1547        1546
         4        1496        1497        1548        1547
         4        1497        1498        1549        1548
         4        1498        1499        1550        1549
         4        1499        1500        1551        1550
         4        1500        1501        1552        1551
         4        1501        1502        1553        1552
         4        1502        1503        1554        1553
         4        1503        1504        1555        1554
         4        1504        1505        1556        1555
         4        1505        1506        1557        1556
         4        1506        1507        1558        1557
         4        1507        1508        1559        1558
         4        1508        1509        1560        1559
         4        1509        1510        1561        1560
         4        1510        1511        1562        1561
         4        1511        1512        1563        1562
         4        1512        1513        1564        1563
         4        1513        1514        1565        1564
         4        1514        1515        1566        1565
         4        1515        1516        1567        1566
         4        1516        1517        1568        1567
         4        1517        1518        1569        1568
         4        1518        1519        1570        1569
         4        1519        1520        1571        1570
         4        1520        1521        1572        1571
         4        1521        1522        1573        1572
         4        1522        1523        1574        1573
         4        1523        1524        1575        1574
         4        1524        1525        1576        1575
         4        1525        1526        1577        1576
         4        1526        1527        1578        1577
         4        1527        1528        1579        1578
         4        1528        1529        1580        1579
         4        1530        1531        1582        1581
         4        1531        1532        1583        1582
         4        1532        1533        1584        1583
         4        1533        1534        1585        1584
         4        1534        1535        1586        1585
         4        1535        1536        1587        1586
         4        1536        1537        1588        1587
         4        1537        1538        1589        1588
         4        1538        1539        1590        1589
         4        1539        1540        1591        1590
         4        1540        1541        1592        1591
         4        1541        1542        1593        1592
         4        1542        1543        1594        1593
         4        1543        1544        1595        1594
         4        1544        1545        1596        1595
         4        1545        1546        1597        1596
         4        1546        1547        1598        1597
         4        1547        1548        1599        1598
         4        1548        1549        1600        1599
         4        1549        1550        1601        1600
         4        1550        1551        1602        1601
         4        1551        1552        1603        1602
         4        1552        1553        1604        1603
         4        1553        1554        1605        1604
         4        1554        1555        1606        1605
         4        1555        1556        1607        1606
         4        1556        1557        1608        1607
         4        1557        1558        1609        1608
         4        1558        1559        1610        1609
         4        1559        1560        1611        1610
         4        1560        1561        1612        1611
         4        1561        1562        1613        1612
         4        1562        1563        1614        1613
         4        1563        1564        1615        1614
         4        1564        1565        1616        1615
         4        1565        1566        1617        1616
         4        1566        1567        1618        1617
         4        1567        1568        1619        1618
         4        1568        1569        1620        1619
         4        1569        1570        1621        1620
         4        1570        1571        1622        1621
         4        1571        1572        1623        1622
         4        1572        1573        1624        1623
         4        1573        1574        1625        1624
         4        1574        1575        1626        1625
         4        1575        1576        1627        1626
         4        1576        1577        1628        1627
         4        1577        1578        1629        1628
         4        1578        1579        1630        1629
         4        1579        1580        1631        1630
         4        1581        1582        1633        1632
         4        1582        1583        1634        1633
         4        1583        1584        1635        1634
         4        1584        1585        1636        1635
         4        1585        1586        1637        1636
         4        1586        1587        1638        1637
         4        1587        1588        1639        1638
         4        1588        1589        1640        1639
         4        1589        1590        1641        1640
         4        1590        1591        1642        1641
         4        1591        1592        1643        1642
         4        1592        1593        1644        1643
         4        1593        1594        1645        1644
         4        1594        1595        1646        1645
         4        1595        1596        1647        1646
         4        1596        1597        1648        1647
         4        1597        1598        1649        1648
         4        1598        1599        1650        1649
         4        1599        1600        1651        1650
         4        1600        1601        1652        1651
         4        1601        1602        1653        1652
         4        1602        1603        1654        1653
         4        1603        1604        1655        1654
         4        1604        1605        1656        1655
         4        1605        1606        1657        1656
         4        1606        1607        1658        1657
         4        1607        1608        1659        1658
         4        1608        1609        1660        1659
         4        1609        1610        1661        1660
         4        1610        1611        1662        1661
         4        1611        1612        1663        1662
         4        1612        1613        1664        1663
         4        1613        1614        1665        1664
         4        1614        1615        1666        1665
         4        1615        1616        1667        1666
         4        1616        1617        1668        1667
         4        1617        1618        1669        1668
         4        1618        1619        1670        1669
         4        1619        1620        1671        1670
         4        1620        1621        1672        1671
         4        1621        1622        1673        1672
         4        1622        1623        1674        1673
         4        1623        1624        1675        1674
         4        1624        1625        1676        1675
         4        1625        1626        1677        1676
         4        1626        1627        1678        1677
         4        1627        1628        1679        1678
         4        1628        1629        1680        1679
         4        1629        1630        1681        1680
         4        1630        1631        1682        1681
         4        1632        1633        1684        1683
         4        1633        1634        1685        1684
         4        1634        1635        1686        1685
         4        1635        1636        1687        1686
         4        1636        1637        1688        1687
         4        1637        1638        1689        1688
         4        1638        1639        1690        1689
         4        1639        1640        1691        1690
         4        1640        1641        1692        1691
         4        1641        1642        1693        1692
         4        1642        1643        1694        1693
         4        1643        1644        1695        1694
         4        1644        1645        1696        1695
         4        1645        1646        1697        1696
         4        1646        1647        1698        1697
         4        1647        1648        1699        1698
         4        1648        1649        1700        1699
         4        1649        1650        1701        1700
         4        1650        1651        1702        1701
         4        1651        1652        1703        1702
         4        1652        1653        1704        1703
         4        1653        1654        1705        1704
         4        1654        1655        1706        1705
         4        1655        1656        1707        1706
         4        1656        1657        1708        1707
         4        1657        1658        1709        1708
         4        1658        1659        1710        1709
         4        1659        1660        1711        1710
         4        1660        1661        1712        1711
         4        1661        1662        1713        1712
         4        1662        1663        1714        1713
         4        1663        1664        1715        1714
         4        1664        1665        1716        1715
         4        1665        1666        1717        1716
         4        1666        1667        1718        1717
         4        1667        1668        1719        1718
         4        1668        1669        1720        1719
         4        1669        1670        1721        1720
         4        1670        1671        1722        1721
         4        1671        1672        1723        1722
         4        1672        1673        1724        1723
         4        1673        1674        1725        1724
         4        1674        1675        1726        1725
         4        1675        1676        1727        1726
         4        1676        1677        1728        1727
         4        1677        1678        1729        1728
         4        1678        1679        1730        1729
         4        1679        1680        1731        1730
         4        1680        1681        1732        1731
         4        1681        1682        1733        1732
         4        1683        1684        1735        1734
         4        1684        1685        1736        1735
         4        1685        1686        1737        1736
         4        1686        1687        1738        1737
         4        1687        1688        1739        1738
         4        1688        1689        1740        1739
         4        1689        1690        1741        1740
         4        1690        1691        1742        1741
         4        1691        1692        1743        1742
         4        1692        1693        1744        1743
         4        1693        1694        1745        1744
         4        1694        1695        1746        1745
         4        1695        1696        1747        1746
         4        1696        1697        1748        1747
         4        1697        1698        1749        1748
         4        1698        1699        1750        1749
         4        1699        1700        1751        1750
         4        1700        1701        1752        1751
         4        1701        1702        1753        1752
         4        1702        1703        1754        1753
         4        1703        1704        1755        1754
         4        1704        1705        1756        1755
         4        1705        1706        1757        1756
         4        1706        1707        1758        1757
         4        1707        1708        1759        1758
         4        1708        1709        1760        1759
         4        1709        1710        1761        1760
         4        1710        1711        1762        1761
         4        1711        1712        1763        1762
         4        1712        1713        1764        1763
         4        1713        1714        1765        1764
         4        1714        1715        1766        1765
         4        1715        1716        1767        1766
         4        1716        1717        1768        1767
         4        1717        1718        1769        1768
         4        1718        1719        1770        1769
         4        1719        1720        1771        1770
         4        1720        1721        1772        1771
         4        1721        1722        1773        1772
         4        1722        1723        1774        1773
         4        1723        1724        1775        1774
         4        1724        1725        1776        1775
         4        1725        1726        1777        1776
         4        1726        1727        1778        1777
         4        1727        1728        1779        1778
         4        1728        1729        1780        1779
         4        1729        1730        1781        1780
         4        1730        1731        1782        1781
         4        1731        1732        1783        1782
         4        1732        1733        1784        1783
         4        1734        1735        1786        1785
         4        1735        1736        1787        1786
         4        1736        1737        1788        1787
         4        1737        1738        1789        1788
         4        1738        1739        1790        1789
         4        1739        1740        1791        1790
         4        1740        1741        1792        1791
         4        1741        1742        1793        1792
         4        1742        1743        1794        1793
         4        1743        1744        1795        1794
         4        1744        1745        1796        1795
         4        1745        1746        1797        1796
         4        1746        1747        1798        1797
         4        1747        1748        1799        1798
         4        1748        1749        1800        1799
         4        1749        1750        1801        1800
         4        1750        1751        1802        1801
         4        1751        1752        1803        1802
         4        1752        1753        1804        1803
         4        1753        1754        1805        1804
         4        1754        1755        1806        1805
         4        1755        1756        1807        1806
         4        1756        1757        1808        1807
         4        1757        1758        1809        1808
         4        1758        1759        1810        1809
         4        1759        1760        1811        1810
         4        1760        1761        1812        1811
         4        1761        1762        1813        1812
         4        1762        1763        1814        1813
         4        1763        1764        1815        1814
         4        1764        1765        1816        1815
         4        1765        1766        1817        1816
         4        1766        1767        1818        1817
         4        1767        1768        1819        1818
         4        1768        1769        1820        1819
         4        1769        1770        1821        1820
         4        1770        1771        1822        1821
         4        1771        1772        1823        1822
         4        1772        1773        1824        1823
         4        1773        1774        1825        1824
         4        1774        1775        1826        1825
         4        1775        1776        1827        1826
         4        1776        1777        1828        1827
         4        1777        1778        1829        1828
         4        1778        1779        1830        1829
         4        1779        1780        1831        1830
         4        1780        1781        1832        1831
         4        1781        1782        1833        1832
         4        1782        1783        1834        1833
         4        1783        1784        1835        1834
         4        1785        1786        1837        1836
         4        1786        1787        1838        1837
         4        1787        1788        1839        1838
         4        1788        1789        1840        1839
         4        1789        1790        1841        1840
         4        1790        1791        1842        1841
         4        1791        1792        1843        1842
         4        1792        1793        1844        1843
         4        1793        1794        1845        1844
         4        1794        1795        1846        1845
         4        1795        1796        1847        1846
         4        1796        1797        1848        1847
         4        1797        1798        1849        1848
         4        1798        1799        1850        1849
         4        1799        1800        1851        1850
         4        1800        1801        1852        1851
         4        1801        1802        1853        1852
         4        1802        1803        1854        1853
         4        1803        1804        1855        1854
         4        1804        1805        1856        1855
         4        1805        1806        1857        1856
         4        1806        1807        1858        1857
         4        1807        1808        1859        1858
         4        1808        1809        1860        1859
         4        1809        1810        1861        1860
         4        1810        1811        1862        1861
         4        1811        1812        1863        1862
         4        1812        1813        1864        1863
         4        1813        1814        1865        1864
         4        1814        1815        1866        1865
         4        1815        1816        1867        1866
         4        1816        1817        1868        1867
         4        1817        1818        1869        1868
         4        1818        1819        1870        1869
         4        1819        1820        1871        1870
         4        1820        1821        1872        1871
         4        1821        1822        1873        1872
         4        1822        1823        1874        1873
         4        1823        1824        1875        1874
         4        1824        1825        1876        1875
         4        1825        1826        1877        1876
         4        1826        1827        1878        1877
         4        1827        1828        1879        1878
         4        1828        1829        1880        1879
         4        1829        1830        1881        1880
         4        1830        1831        1882        1881
         4        1831        1832        1883        1882
         4        1832        1833        1884        1883
         4        1833        1834        1885        1884
         4        1834        1835        1886        1885
         4        1836        1837        1888        1887
         4        1837        1838        1889        1888
         4        1838        1839        1890        1889
         4        1839        1840        1891        1890
         4        1840        1841        1892        1891
         4        1841        1842        1893        1892
         4        1842        1843        1894        1893
         4        1843        1844        1895        1894
         4        1844        1845        1896        1895
         4        1845        1846        1897        1896
         4        1846        1847        1898        1897
         4        1847        1848        1899        1898
         4        1848        1849        1900        1899
         4        1849        1850        1901        1900
         4        1850        1851        1902        1901
         4        1851        1852        1903        1902
         4        1852        1853        1904        1903
         4        1853        1854        1905        1904
         4        1854        1855        1906        1905
         4        1855        1856        1907        1906
         4        1856        1857        1908        1907
         4        1857        1858        1909        1908
         4        1858        1859        1910        1909
         4        1859        1860        1911        1910
         4        1860        1861        1912        1911
         4        1861        1862        1913        1912
         4        1862        1863        1914        1913
         4        1863        1864        1915        1914
         4        1864        1865        1916        1915
         4        1865        1866        1917        1916
         4        1866        1867        1918        1917
         4        1867        1868        1919        1918
         4        1868        1869        1920        1919
         4        1869        1870        1921        1920
         4        1870        1871        1922        1921
         4        1871        1872        1923        1922
         4        1872        1873        1924        1923
         4        1873        1874        1925        1924
         4        1874        1875        1926        1925
         4        1875        1876        1927        1926
         4        1876        1877        1928        1927
         4        1877        1878        1929        1928
         4        1878        1879        1930        1929
         4        1879        1880        1931        1930
         4        1880        1881        1932        1931
         4        1881        1882        1933        1932
         4        1882        1883        1934        1933
         4        1883        1884        1935        1934
         4        1884        1885        1936        1935
         4        1885        1886        1937        1936
         4        1887        1888        1939        1938
         4        1888        1889        1940        1939
         4        1889        1890        1941        1940
         4        1890        1891        1942        1941
         4        1891        1892        1943        1942
         4        1892        1893        1944        1943
         4        1893        1894        1945        1944
         4        1894        1895        1946        1945
         4        1895        1896        1947        1946
         4        1896        1897        1948        1947
         4        1897        1898        1949        1948
         4        1898        1899        1950        1949
         4        1899        1900        1951        1950
         4        1900        1901        1952        1951
         4        1901        1902        1953        1952
         4        1902        1903        1954        1953
         4        1903        1904        1955        1954
         4        1904        1905        1956        1955
         4        1905        1906        1957        1956
         4        1906        1907        1958        1957
         4        1907        1908        1959        1958
         4        1908        1909        1960        1959
         4        1909        1910        1961        1960
         4        1910        1911        1962        1961
         4        1911        1912        1963        1962
         4        1912        1913        1964        1963
         4        1913        1914        1965        1964
         4        1914        1915        1966        1965
         4        1915        1916        1967        1966
         4        1916        1917        1968        1967
         4        1917        1918        1969        1968
         4        1918        1919        1970        1969
         4        1919        1920        1971        1970
         4        1920        1921        1972        1971
         4        1921        1922        1973        1972
         4        1922        1923        1974        1973
         4        1923        1924        1975        1974
         4        1924        1925        1976        1975
         4        1925        1926        1977        1976
         4        1926        1927        1978        1977
         4        1927        1928        1979        1978
         4        1928        1929        1980        1979
         4        1929        1930        1981        1980
         4        1930        1931        1982        1981
         4        1931        1932        1983        1982
         4        1932        1933        1984        1983
         4        1933        1934        1985        1984
         4        1934        1935        1986        1985
         4        1935        1936        1987        1986
         4        1936        1937        1988        1987
         4        1938        1939        1990        1989
         4        1939        1940        1991        1990
         4        1940        1941        1992        1991
         4        1941        1942        1993        1992
         4        1942        1943        1994        1993
         4        1943        1944        1995        1994
         4        1944        1945        1996        1995
         4        1945        1946        1997        1996
         4        1946        1947        1998        1997
         4        1947        1948        1999        1998
         4        1948        1949        2000        1999
         4        1949        1950        2001        2000
         4        1950        1951        2002        2001
         4        1951        1952        2003        2002
         4        1952        1953        2004        2003
         4        1953        1954        2005        2004
         4        1954        1955        2006        2005
         4        1955        1956        2007        2006
         4        1956        1957        2008        2007
         4        1957        1958        2009        2008
         4        1958        1959        2010        2009
         4        1959        1960        2011        2010
         4        1960        1961        2012        2011
         4        1961        1962        2013        2012
         4        1962        1963        2014        2013
         4        1963        1964        2015        2014
         4        1964        1965        2016        2015
         4        1965        1966        2017        2016
         4        1966        1967        2018        2017
         4        1967        1968        2019        2018
         4        1968        1969        2020        2019
         4        1969        1970        2021        2020
         4        1970        1971        2022        2021
         4        1971        1972        2023        2022
         4        1972        1973        2024        2023
         4        1973        1974        2025        2024
         4        1974        1975        2026        2025
         4        1975        1976        2027        2026
         4        1976        1977        2028        2027
         4        1977        1978        2029        2028
         4        1978        1979        2030        2029
         4        1979        1980        2031        2030
         4        1980        1981        2032        2031
         4        1981        1982        2033        2032
         4        1982        1983        2034        2033
         4        1983        1984        2035        2034
         4        1984        1985        2036        2035
         4        1985        1986        2037        2036
         4        1986        1987        2038        2037
         4        1987        1988        2039        2038
         4        1989        1990        2041        2040
         4        1990        1991        2042        2041
         4        1991        1992        2043        2042
         4        1992        1993        2044        2043
         4        1993        1994        2045        2044
         4        1994        1995        2046        2045
         4        1995        1996        2047        2046
         4        1996        1997        2048        2047
         4        1997        1998        2049        2048
         4        1998        1999        2050        2049
         4        1999        2000        2051        2050
         4        2000        2001        2052        2051
         4        2001        2002        2053        2052
         4        2002        2003        2054        2053
         4        2003        2004        2055        2054
         4        2004        2005        2056        2055
         4        2005        2006        2057        2056
         4        2006        2007        2058        2057
         4        2007        2008        2059        2058
         4        2008        2009        2060        2059
         4        2009        2010        2061        2060
         4        2010        2011        2062        2061
         4        2011        2012        2063        2062
         4        2012        2013        2064        2063
         4        2013        2014        2065        2064
         4        2014        2015        2066        2065
         4        2015        2016        2067        2066
         4        2016        2017        2068        2067
         4        2017        2018        2069        2068
         4        2018        2019        2070        2069
         4        2019        2020        2071        2070
         4        2020        2021        2072        2071
         4        2021        2022        2073        2072
         4        2022        2023        2074        2073
         4        2023        2024        2075        2074
         4        2024        2025        2076        2075
         4        2025        2026        2077        2076
         4        2026        2027        2078        2077
         4        2027        2028        2079        2078
         4        2028        2029        2080        2079
         4        2029        2030        2081        2080
         4        2030        2031        2082        2081
         4        2031        2032        2083        2082
         4        2032        2033        2084        2083
         4        2033        2034        2085        2084
         4        2034        2035        2086        2085
         4        2035        2036        2087        2086
         4        2036        2037        2088        2087
         4        2037        2038        2089        2088
         4        2038        2039        2090        2089
         4        2040        2041        2092        2091
         4        2041        2042        2093        2092
         4        2042        2043        2094        2093
         4        2043        2044        2095        2094
         4        2044        2045        2096        2095
         4        2045        2046        2097        2096
         4        2046        2047        2098        2097
         4        2047        2048        2099        2098
         4        2048        2049        2100        2099
         4        2049        2050        2101        2100
         4        2050        2051        2102        2101
         4        2051        2052        2103        2102
         4        2052        2053        2104        2103
         4        2053        2054        2105        2104
         4        2054        2055        2106        2105
         4        2055        2056        2107        2106
         4        2056        2057        2108        2107
         4        2057        2058        2109        2108
         4        2058        2059        2110        2109
         4        2059        2060        2111        2110
         4        2060        2061        2112        2111
         4        2061        2062        2113        2112
         4        2062        2063        2114        2113
         4        2063        2064        2115        2114
         4        2064        2065        2116        2115
         4        2065        2066        2117        2116
         4        2066        2067        2118        2117
         4        2067        2068        2119        2118
         4        2068        2069        2120        2119
         4        2069        2070        2121        2120
         4        2070        2071        2122        2121
         4        2071        2072        2123        2122
         4        2072        2073        2124        2123
         4        2073        2074        2125        2124
         4        2074        2075        2126        2125
         4        2075        2076        2127        2126
         4        2076        2077        2128        2127
         4        2077        2078        2129        2128
         4        2078        2079        2130        2129
         4        2079        2080        2131        2130
         4        2080        2081        2132        2131
         4        2081        2082        2133        2132
         4        2082        2083        2134        2133
         4        2083        2084        2135        2134
         4        2084        2085        2136        2135
         4        2085        2086        2137        2136
         4        2086        2087        2138        2137
         4        2087        2088        2139        2138
         4        2088        2089        2140        2139
         4        2089        2090        2141        2140
         4        2091        2092        2143        2142
         4        2092        2093        2144        2143
         4        2093        2094        2145        2144
         4        2094        2095        2146        2145
         4        2095        2096        2147        2146
         4        2096        2097        2148        2147
         4        2097        2098        2149        2148
         4        2098        2099        2150        2149
         4        2099        2100        2151        2150
         4        2100        2101        2152        2151
         4        2101        2102        2153        2152
         4        2102        2103        2154        2153
         4        2103        2104        2155        2154
         4        2104        2105        2156        2155
         4        2105        2106        2157        2156
         4        2106        2107        2158        2157
         4        2107        2108        2159        2158
         4        2108        2109        2160        2159
         4        2109        2110        2161        2160
         4        2110        2111        2162        2161
         4        2111        2112        2163        2162
         4        2112        2113        2164        2163
         4        2113        2114        2165        2164
         4        2114        2115        2166        2165
         4        2115        2116        2167        2166
         4        2116        2117        2168        2167
         4        2117        2118        2169        2168
         4        2118        2119        2170        2169
         4        2119        2120        2171        2170
         4        2120        2121        2172        2171
         4        2121        2122        2173        2172
         4        2122        2123        2174        2173
         4        2123        2124        2175        2174
         4        2124        2125        2176        2175
         4        2125        2126        2177        2176
         4        2126        2127        2178        2177
         4        2127        2128        2179        2178
         4        2128        2129        2180        2179
         4        2129        2130        2181        2180
         4        2130        2131        2182        2181
         4        2131        2132        2183        2182
         4        2132        2133        2184        2183
         4        2133        2134        2185        2184
         4        2134        2135        2186        2185
         4        2135        2136        2187        2186
         4        2136        2137        2188        2187
         4        2137        2138        2189        2188
         4        2138        2139        2190        2189
         4        2139        2140        2191        2190
         4        2140        2141        2192        2191
         4        2142        2143        2194        2193
         4        2143        2144        2195        2194
         4        2144        2145        2196        2195
         4        2145        2146        2197        2196
         4        2146        2147        2198        2197
         4        2147        2148        2199        2198
         4        2148        2149        2200        2199
         4        2149        2150        2201        2200
         4        2150        2151        2202        2201
         4        2151        2152        2203        2202
         4        2152        2153        2204        2203
         4        2153        2154        2205        2204
         4        2154        2155        2206        2205
         4        2155        2156        2207        2206
         4        2156        2157        2208        2207
         4        2157        2158        2209        2208
         4        2158        2159        2210        2209
         4        2159        2160        2211        2210
         4        2160        2161        2212        2211
         4        2161        2162        2213        2212
         4        2162        2163        2214        2213
         4        2163        2164        2215        2214
         4        2164        2165        2216        2215
         4        2165        2166        2217        2216
         4        2166        2167        2218        2217
         4        2167        2168        2219        2218
         4        2168        2169        2220        2219
         4        2169        2170        2221        2220
         4        2170        2171        2222        2221
         4        2171        2172        2223        2222
         4        2172        2173        2224        2223
         4        2173        2174        2225        2224
         4        2174        2175        2226        2225
         4        2175        2176        2227        2226
         4        2176        2177        2228        2227
         4        2177        2178        2229        2228
         4        2178        2179        2230        2229
         4        2179        2180        2231        2230
         4        2180        2181        2232        2231
         4        2181        2182        2233        2232
         4        2182        2183        2234        2233
         4        2183        2184        2235        2234
         4        2184        2185        2236        2235
         4        2185        2186        2237        2236
         4        2186        2187        2238        2237
         4        2187        2188        2239        2238
         4        2188        2189        2240        2239
         4        2189        2190        2241        2240
         4        2190        2191        2242        2241
         4        2191        2192        2243        2242
         4        2193        2194        2245        2244
         4        2194        2195        2246        2245
         4        2195        2196        2247        2246
         4        2196        2197        2248        2247
         4        2197        2198        2249        2248
         4        2198        2199        2250        2249
         4        2199        2200        2251        2250
         4        2200        2201        2252        2251
         4        2201        2202        2253        2252
         4        2202        2203        2254        2253
         4        2203        2204        2255        2254
         4        2204        2205        2256        2255
         4        2205        2206        2257        2256
         4        2206        2207        2258        2257
         4        2207        2208        2259        2258
         4        2208        2209        2260        2259
         4        2209        2210        2261        2260
         4        2210        2211        2262        2261
         4        2211        2212        2263        2262
         4        2212        2213        2264        2263
         4        2213        2214        2265        2264
         4        2214        2215        2266        2265
         4        2215        2216        2267        2266
         4        2216        2217        2268        2267
         4        2217        2218        2269        2268
         4        2218        2219        2270        2269
         4        2219        2220        2271        2270
         4        2220        2221        2272        2271
         4        2221        2222        2273        2272
         4        2222        2223        2274        2273
         4        2223        2224        2275        2274
         4        2224        2225        2276        2275
         4        2225        2226        2277        2276
         4        2226        2227        2278        2277
         4        2227        2228        2279        2278
         4        2228        2229        2280        2279
         4        2229        2230        2281        2280
         4        2230        2231        2282        2281
         4        2231        2232        2283        2282
         4        2232        2233        2284        2283
         4        2233        2234        2285        2284
         4        2234        2235        2286        2285
         4        2235        2236        2287        2286
         4        2236        2237        2288        2287
         4        2237        2238        2289        2288
         4        2238        2239        2290        2289
         4        2239        2240        2291        2290
         4        2240        2241        2292        2291
         4        2241        2242        2293        2292
         4        2242        2243        2294        2293
         4        2244        2245        2296        2295
         4        2245        2246        2297        2296
         4        2246        2247        2298        2297
         4        2247        2248        2299        2298
         4        2248        2249        2300        2299
         4        2249        2250        2301        2300
         4        2250        2251        2302        2301
         4        2251        2252        2303        2302
         4        2252        2253        2304        2303
         4        2253        2254        2305        2304
         4        2254        2255        2306        2305
         4        2255        2256        2307        2306
         4        2256        2257        2308        2307
         4        2257        2258        2309        2308
         4        2258        2259        2310        2309
         4        2259        2260        2311        2310
         4        2260        2261        2312        2311
         4        2261        2262        2313        2312
         4        2262        2263        2314        2313
         4        2263        2264        2315        2314
         4        2264        2265        2316        2315
         4        2265        2266        2317        2316
         4        2266        2267        2318        2317
         4        2267        2268        2319        2318
         4        2268        2269        2320        2319
         4        2269        2270        2321        2320
         4        2270        2271        2322        2321
         4        2271        2272        2323        2322
         4        2272        2273        2324        2323
         4        2273        2274        2325        2324
         4        2274        2275        2326        2325
         4        2275        2276        2327        2326
         4        2276        2277        2328        2327
         4        2277        2278        2329        2328
         4        2278        2279        2330        2329
         4        2279        2280        2331        2330
         4        2280        2281        2332        2331
         4        2281        2282        2333        2332
         4        2282        2283        2334        2333
         4        2283        2284        2335        2334
         4        2284        2285        2336        2335
         4        2285        2286        2337        2336
         4        2286        2287        2338        2337
         4        2287        2288        2339        2338
         4        2288        2289        2340        2339
         4        2289        2290        2341        2340
         4        2290        2291        2342        2341
         4        2291        2292        2343        2342
         4        2292        2293        2344        2343
         4        2293        2294        2345        2344
         4        2295        2296        2347        2346
         4        2296        2297        2348        2347
         4        2297        2298        2349        2348
         4        2298        2299        2350        2349
         4        2299        2300        2351        2350
         4        2300        2301        2352        2351
         4        2301        2302        2353        2352
         4        2302        2303        2354        2353
         4        2303        2304        2355        2354
         4        2304        2305        2356        2355
         4        2305        2306        2357        2356
         4        2306        2307        2358        2357
         4        2307        2308        2359        2358
         4        2308        2309        2360        2359
         4        2309        2310        2361        2360
         4        2310        2311        2362        2361
         4        2311        2312        2363        2362
         4        2312        2313        2364        2363
         4        2313        2314        2365        2364
         4        2314        2315        2366        2365
         4        2315        2316        2367        2366
         4        2316        2317        2368        2367
         4        2317        2318        2369        2368
         4        2318        2319        2370        2369
         4        2319        2320        2371        2370
         4        2320        2321        2372        2371
         4        2321        2322        2373        2372
         4        2322        2323        2374        2373
         4        2323        2324        2375        2374
         4        2324        2325        2376        2375
         4        2325        2326        2377        2376
         4        2326        2327        2378        2377
         4        2327        2328        2379        2378
         4        2328        2329        2380        2379
         4        2329        2330        2381        2380
         4        2330        2331        2382        2381
         4        2331        2332        2383        2382
         4        2332        2333        2384        2383
         4        2333        2334        2385        2384
         4        2334        2335        2386        2385
         4        2335        2336        2387        2386
         4        2336        2337        2388        2387
         4        2337        2338        2389        2388
         4        2338        2339        2390        2389
         4        2339        2340        2391        2390
         4        2340        2341        2392        2391
         4        2341        2342        2393        2392
         4        2342        2343        2394        2393
         4        2343        2344        2395        2394
         4        2344        2345        2396        2395
         4        2346        2347        2398        2397
         4        2347        2348        2399        2398
         4        2348        2349        2400        2399
         4        2349        2350        2401        2400
         4        2350        2351        2402        2401
         4        2351        2352        2403        2402
         4        2352        2353        2404        2403
         4        2353        2354        2405        2404
         4        2354        2355        2406        2405
         4        2355        2356        2407        2406
         4        2356        2357        2408        2407
         4        2357        2358        2409        2408
         4        2358        2359        2410        2409
         4        2359        2360        2411        2410
         4        2360        2361        2412        2411
         4        2361        2362        2413        2412
         4        2362        2363        2414        2413
         4        2363        2364        2415        2414
         4        2364        2365        2416        2415
         4        2365        2366        2417        2416
         4        2366        2367        2418        2417
         4        2367        2368        2419        2418
         4        2368        2369        2420        2419
         4        2369        2370        2421        2420
         4        2370        2371        2422        2421
         4        2371        2372        2423        2422
         4        2372        2373        2424        2423
         4        2373        2374        2425        2424
         4        2374        2375        2426        2425
         4        2375        2376        2427        2426
         4        2376        2377        2428        2427
         4        2377        2378        2429        2428
         4        2378        2379        2430        2429
         4        2379        2380        2431        2430
         4        2380        2381        2432        2431
         4        2381        2382        2433        2432
         4        2382        2383        2434        2433
         4        2383        2384        2435        2434
         4        2384        2385        2436        2435
         4        2385        2386        2437        2436
         4        2386        2387        2438        2437
         4        2387        2388        2439        2438
         4        2388        2389        2440        2439
         4        2389        2390        2441        2440
         4        2390        2391        2442        2441
         4        2391        2392        2443        2442
         4        2392        2393        2444        2443
         4        2393        2394        2445        2444
         4        2394        2395        2446        2445
         4        2395        2396        2447        2446
         4        2397        2398        2449        2448
         4        2398        2399        2450        2449
         4        2399        2400        2451        2450
         4        2400        2401        2452        2451
         4        2401        2402        2453        2452
         4        2402        2403        2454        2453
         4        2403        2404        2455        2454
         4        2404        2405        2456        2455
         4        2405        2406        2457        2456
         4        2406        2407        2458        2457
         4        2407        2408        2459        2458
         4        2408        2409        2460        2459
         4        2409        2410        2461        2460
         4        2410        2411        2462        2461
         4        2411        2412        2463        2462
         4        2412        2413        2464        2463
         4        2413        2414        2465        2464
         4        2414        2415        2466        2465
         4        2415        2416        2467        2466
         4        2416        2417        2468        2467
         4        2417        2418        2469        2468
         4        2418        2419        2470        2469
         4        2419        2420        2471        2470
         4        2420        2421        2472        2471
         4        2421        2422        2473        2472
         4        2422        2423        2474        2473
         4        2423        2424        2475        2474
         4        2424        2425        2476        2475
         4        2425        2426        2477        2476
         4        2426        2427        2478        2477
         4        2427        2428        2479        2478
         4        2428        2429        2480        2479
         4        2429        2430        2481        2480
         4        2430        2431        2482        2481
         4        2431        2432        2483        2482
         4        2432        2433        2484        2483
         4        2433        2434        2485        2484
         4        2434        2435        2486        2485
         4        2435        2436        2487        2486
         4        2436        2437        2488        2487
         4        2437        2438        2489        2488
         4        2438        2439        2490        2489
         4        2439        2440        2491        2490
         4        2440        2441        2492        2491
         4        2441        2442        2493        2492
         4        2442        2443        2494        2493
         4        2443        2444        2495        2494
         4        2444        2445        2496        2495
         4        2445        2446        2497        2496
         4        2446        2447        2498        2497
         4        2448        2449        2500        2499
         4        2449        2450        2501        2500
         4        2450        2451        2502        2501
         4        2451        2452        2503        2502
         4        2452        2453        2504        2503
         4        2453        2454        2505        2504
         4        2454        2455        2506        2505
         4        2455        2456        2507        2506
         4        2456        2457        2508        2507
         4        2457        2458        2509        2508
         4        2458        2459        2510        2509
         4        2459        2460        2511        2510
         4        2460        2461        2512        2511
         4        2461        2462        2513        2512
         4        2462        2463        2514        2513
         4        2463        2464        2515        2514
         4        2464        2465        2516        2515
         4        2465        2466        2517        2516
         4        2466        2467        2518        2517
         4        2467        2468        2519        2518
         4        2468        2469        2520        2519
         4        2469        2470        2521        2520
         4        2470        2471        2522        2521
         4        2471        2472        2523        2522
         4        2472        2473        2524        2523
         4        2473        2474        2525        2524
         4        2474        2475        2526        2525
         4        2475        2476        2527        2526
         4        2476        2477        2528        2527
         4        2477        2478        2529        2528
         4        2478        2479        2530        2529
         4        2479        2480        2531        2530
         4        2480        2481        2532        2531
         4        2481        2482        2533        2532
         4        2482        2483        2534        2533
         4        2483        2484        2535        2534
         4        2484        2485        2536        2535
         4        2485        2486        2537        2536
         4        2486        2487        2538        2537
         4        2487        2488        2539        2538
         4        2488        2489        2540        2539
         4        2489        2490        2541        2540
         4        2490        2491        2542        2541
         4        2491        2492        2543        2542
         4        2492        2493        2544        2543
         4        2493        2494        2545        2544
         4        2494        2495        2546        2545
         4        2495        2496        2547        2546
         4        2496        2497        2548        2547
         4        2497        2498        2549        2548
         4        2499        2500        2551        2550
         4        2500        2501        2552        2551
         4        2501        2502        2553        2552
         4        2502        2503        2554        2553
         4        2503        2504        2555        2554
         4        2504        2505        2556        2555
         4        2505        2506        2557        2556
         4        2506        2507        2558        2557
         4        2507        2508        2559        2558
         4        2508        2509        2560        2559
         4        2509        2510        2561        2560
         4        2510        2511        2562        2561
         4        2511        2512        2563        2562
         4        2512        2513        2564        2563
         4        2513        2514        2565        2564
         4        2514        2515        2566        2565
         4        2515        2516        2567        2566
         4        2516        2517        2568        2567
         4        2517        2518        2569        2568
         4        2518        2519        2570        2569
         4        2519        2520        2571        2570
         4        2520        2521        2572        2571
         4        2521        2522        2573        2572
         4        2522        2523        2574        2573
         4        2523        2524        2575        2574
         4        2524        2525        2576        2575
         4        2525        2526        2577        2576
         4        2526        2527        2578        2577
         4        2527        2528        2579        2578
         4        2528        2529        2580        2579
         4        2529        2530        2581        2580
         4        2530        2531        2582        2581
         4        2531        2532        2583        2582
         4        2532        2533        2584        2583
         4        2533        2534        2585        2584
         4        2534        2535        2586        2585
         4        2535        2536        2587        2586
         4        2536        2537        2588        2587
         4        2537        2538        2589        2588
         4        2538        2539        2590        2589
         4        2539        2540        2591        2590
         4        2540        2541        2592        2591
         4        2541        2542        2593        2592
         4        2542        2543        2594        2593
         4        2543        2544        2595        2594
         4        2544        2545        2596        2595
         4        2545        2546        2597        2596
         4        2546        2547        2598        2597
         4        2547        2548        2599        2598
         4        2548        2549        2600        2599
         4        2550        2551        2602        2601
         4        2551        2552        2603        2602
         4        2552        2553        2604        2603
         4        2553        2554        2605        2604
         4        2554        2555        2606        2605
         4        2555        2556        2607        2606
         4        2556        2557        2608        2607
         4        2557        2558        2609        2608
         4        2558        2559        2610        2609
         4        2559        2560        2611        2610
         4        2560        2561        2612        2611
         4        2561        2562        2613        2612
         4        2562        2563        2614        2613
         4        2563        2564        2615        2614
         4        2564        2565        2616        2615
         4        2565        2566        2617        2616
         4        2566        2567        2618        2617
         4        2567        2568        2619        2618
         4        2568        2569        2620        2619
         4        2569        2570        2621        2620
         4        2570        2571        2622        2621
         4        2571        2572        2623        2622
         4        2572        2573        2624        2623
         4        2573        2574        2625        2624
         4        2574        2575        2626        2625
         4        2575        2576        2627        2626
         4        2576        2577        2628        2627
         4        2577        2578        2629        2628
         4        2578        2579        2630        2629
         4        2579        2580        2631        2630
         4        2580        2581        2632        2631
         4        2581        2582        2633        2632
         4        2582        2583        2634        2633
         4        2583        2584        2635        2634
         4        2584        2585        2636        2635
         4        2585        2586        2637        2636
         4        2586        2587        2638        2637
         4        2587        2588        2639        2638
         4        2588        2589        2640        2639
         4        2589        2590        2641        2640
         4        2590        2591        2642        2641
         4        2591        2592        2643        2642
         4        2592        2593        2644        2643
         4        2593        2594        2645        2644
         4        2594        2595        2646        2645
         4        2595        2596        2647        2646
         4        2596        2597        2648        2647
         4        2597        2598        2649        2648
         4        2598        2599        2650        2649
         4        2599        2600        2651        2650
         4        2601        2602        2653        2652
         4        2602        2603        2654        2653
         4        2603        2604        2655        2654
         4        2604        2605        2656        2655
         4        2605        2606        2657        2656
         4        2606        2607        2658        2657
         4        2607        2608        2659        2658
         4        2608        2609        2660        2659
         4        2609        2610        2661        2660
         4        2610        2611        2662        2661
         4        2611        2612        2663        2662
         4        2612        2613        2664        2663
         4        2613        2614        2665        2664
         4        2614        2615        2666        2665
         4        2615        2616        2667        2666
         4        2616        2617        2668        2667
         4        2617        2618        2669        2668
         4        2618        2619        2670        2669
         4        2619        2620        2671        2670
         4        2620        2621        2672        2671
         4        2621        2622        2673        2672
         4        2622        2623        2674        2673
         4        2623        2624        2675        2674
         4        2624        2625        2676        2675
         4        2625        2626        2677        2676
         4        2626        2627        2678        2677
         4        2627        2628        2679        2678
         4        2628        2629        2680        2679
         4        2629        2630        2681        2680
         4        2630        2631        2682        2681
         4        2631        2632        2683        2682
         4        2632        2633        2684        2683
         4        2633        2634        2685        2684
         4        2634        2635        2686        2685
         4        2635        2636        2687        2686
         4        2636        2637        2688        2687
         4        2637        2638        2689        2688
         4        2638        2639        2690        2689
         4        2639        2640        2691        2690
         4        2640        2641        2692        2691
         4        2641        2642        2693        2692
         4        2642        2643        2694        2693
         4        2643        2644        2695        2694
         4        2644        2645        2696        2695
         4        2645        2646        2697        2696
         4        2646        2647        2698        2697
         4        2647        2648        2699        2698
         4        2648        2649        2700        2699
         4        2649        2650        2701        2700
         4        2650        2651        2702        2701
         4        2652        2653        2704        2703
         4        2653        2654        2705        2704
         4        2654        2655        2706        2705
         4        2655        2656        2707        2706
         4        2656        2657        2708        2707
         4        2657        2658        2709        2708
         4        2658        2659        2710        2709
         4        2659        2660        2711        2710
         4        2660        2661        2712        2711
         4        2661        2662        2713        2712
         4        2662        2663        2714        2713
         4        2663        2664        2715        2714
         4        2664        2665        2716        2715
         4        2665        2666        2717        2716
         4        2666        2667        2718        2717
         4        2667        2668        2719        2718
         4        2668        2669        2720        2719
         4        2669        2670        2721        2720
         4        2670        2671        2722        2721
         4        2671        2672        2723        2722
         4        2672        2673        2724        2723
         4        2673        2674        2725        2724
         4        2674        2675        2726        2725
         4        2675        2676        2727        2726
         4        2676        2677        2728        2727
         4        2677        2678        2729        2728
         4        2678        2679        2730        2729
         4        2679        2680        2731        2730
         4        2680        2681        2732        2731
         4        2681        2682        2733        2732
         4        2682        2683        2734        2733
         4        2683        2684        2735        2734
         4        2684        2685        2736        2735
         4        2685        2686        2737        2736
         4        2686        2687        2738        2737
         4        2687        2688        2739        2738
         4        2688        2689        2740        2739
         4        2689        2690        2741        2740
         4        2690        2691        2742        2741
         4        2691        2692        2743        2742
         4        2692        2693        2744        2743
         4        2693        2694        2745        2744
         4        2694        2695        2746        2745
         4        2695        2696        2747        2746
         4        2696        2697        2748        2747
         4        2697        2698        2749        2748
         4        2698        2699        2750        2749
         4        2699        2700        2751        2750
         4        2700        2701        2752        2751
         4        2701        2702        2753        2752
         4        2703        2704        2755        2754
         4        2704        2705        2756        2755
         4        2705        2706        2757        2756
         4        2706        2707        2758        2757
         4        2707        2708        2759        2758
         4        2708        2709        2760        2759
         4        2709        2710        2761        2760
         4        2710        2711        2762        2761
         4        2711        2712        2763        2762
         4        2712        2713        2764        2763
         4        2713        2714        2765        2764
         4        2714        2715        2766        2765
         4        2715        2716        2767        2766
         4        2716        2717        2768        2767
         4        2717        2718        2769        2768
         4        2718        2719        2770        2769
         4        2719        2720        2771        2770
         4        2720        2721        2772        2771
         4        2721        2722        2773        2772
         4        2722        2723        2774        2773
         4        2723        2724        2775        2774
         4        2724        2725        2776        2775
         4        2725        2726        2777        2776
         4        2726        2727        2778        2777
         4        2727        2728        2779        2778
         4        2728        2729        2780        2779
         4        2729        2730        2781        2780
         4        2730        2731        2782        2781
         4        2731        2732        2783        2782
         4        2732        2733        2784        2783
         4        2733        2734        2785        2784
         4        2734        2735        2786        2785
         4        2735        2736        2787        2786
         4        2736        2737        2788        2787
         4        2737        2738        2789        2788
         4        2738        2739        2790        2789
         4        2739        2740        2791        2790
         4        2740        2741        2792        2791
         4        2741        2742        2793        2792
         4        2742        2743        2794        2793
         4        2743        2744        2795        2794
         4        2744        2745        2796        2795
         4        2745        2746        2797        2796
         4        2746        2747        2798        2797
         4        2747        2748        2799        2798
         4        2748        2749        2800        2799
         4        2749        2750        2801        2800
         4        2750        2751        2802        2801
         4        2751        2752        2803        2802
         4        2752        2753        2804        2803
         4        2754        2755        2806        2805
         4        2755        2756        2807        2806
         4        2756        2757        2808        2807
         4        2757        2758        2809        2808
         4        2758        2759        2810        2809
         4        2759        2760        2811        2810
         4        2760        2761        2812        2811
         4        2761        2762        2813        2812
         4        2762        2763        2814        2813
         4        2763        2764        2815        2814
         4        2764        2765        2816        2815
         4        2765        2766        2817        2816
         4        2766        2767        2818        2817
         4        2767        2768        2819        2818
         4        2768        2769        2820        2819
         4        2769        2770        2821        2820
         4        2770        2771        2822        2821
         4        2771        2772        2823        2822
         4        2772        2773        2824        2823
         4        2773        2774        2825        2824
         4        2774        2775        2826        2825
         4        2775        2776        2827        2826
         4        2776        2777        2828        2827
         4        2777        2778        2829        2828
         4        2778        2779        2830        2829
         4        2779        2780        2831        2830
         4        2780        2781        2832        2831
         4        2781        2782        2833        2832
         4        2782        2783        2834        2833
         4        2783        2784        2835        2834
         4        2784        2785        2836        2835
         4        2785        2786        2837        2836
         4        2786        2787        2838        2837
         4        2787        2788        2839        2838
         4        2788        2789        2840        2839
         4        2789        2790        2841        2840
         4        2790        2791        2842        2841
         4        2791        2792        2843        2842
         4        2792        2793        2844        2843
         4        2793        2794        2845        2844
         4        2794        2795        2846        2845
         4        2795        2796        2847        2846
         4        2796        2797        2848        2847
         4        2797        2798        2849        2848
         4        2798        2799        2850        2849
         4        2799        2800        2851        2850
         4        2800        2801        2852        2851
         4        2801        2802        2853        2852
         4        2802        2803        2854        2853
         4        2803        2804        2855        2854
         4        2805        2806        2857        2856
         4        2806        2807        2858        2857
         4        2807        2808        2859        2858
         4        2808        2809        2860        2859
         4        2809        2810        2861        2860
         4        2810        2811        2862        2861
         4        2811        2812        2863        2862
         4        2812        2813        2864        2863
         4        2813        2814        2865        2864
         4        2814        2815        2866        2865
         4        2815        2816        2867        2866
         4        2816        2817        2868        2867
         4        2817        2818        2869        2868
         4        2818        2819        2870        2869
         4        2819        2820        2871        2870
         4        2820        2821        2872        2871
         4        2821        2822        2873        2872
         4        2822        2823        2874        2873
         4        2823        2824        2875        2874
         4        2824        2825        2876        2875
         4        2825        2826        2877        2876
         4        2826        2827        2878        2877
         4        2827        2828        2879        2878
         4        2828        2829        2880        2879
         4        2829        2830        2881        2880
         4        2830        2831        2882        2881
         4        2831        2832        2883        2882
         4        2832        2833        2884        2883
         4        2833        2834        2885        2884
         4        2834        2835        2886        2885
         4        2835        2836        2887        2886
         4        2836        2837        2888        2887
         4        2837        2838        2889        2888
         4        2838        2839        2890        2889
         4        2839        2840        2891        2890
         4        2840        2841        2892        2891
         4        2841        2842        2893        2892
         4        2842        2843        2894        2893
         4        2843        2844        2895        2894
         4        2844        2845        2896        2895
         4        2845        2846        2897        2896
         4        2846        2847        2898        2897
         4        2847        2848        2899        2898
         4        2848        2849        2900        2899
         4        2849        2850        2901        2900
         4        2850        2851        2902        2901
         4        2851        2852        2903        2902
         4        2852        2853        2904        2903
         4        2853        2854        2905        2904
         4        2854        2855        2906        2905
         4        2856        2857        2908        2907
         4        2857        2858        2909        2908
         4        2858        2859        2910        2909
         4        2859        2860        2911        2910
         4        2860        2861        2912        2911
         4        2861        2862        2913        2912
         4        2862        2863        2914        2913
         4        2863        2864        2915        2914
         4        2864        2865        2916        2915
         4        2865        2866        2917        2916
         4        2866        2867        2918        2917
         4        2867        2868        2919        2918
         4        2868        2869        2920        2919
         4        2869        2870        2921        2920
         4        2870        2871        2922        2921
         4        2871        2872        2923        2922
         4        2872        2873        2924        2923
         4        2873        2874        2925        2924
         4        2874        2875        2926        2925
         4        2875        2876        2927        2926
         4        2876        2877        2928        2927
         4        2877        2878        2929        2928
         4        2878        2879        2930        2929
         4        2879        2880        2931        2930
         4        2880        2881        2932        2931
         4        2881        2882        2933        2932
         4        2882        2883        2934        2933
         4        2883        2884        2935        2934
         4        2884        2885        2936        2935
         4        2885        2886        2937        2936
         4        2886        2887        2938        2937
         4        2887        2888        2939        2938
         4        2888        2889        2940        2939
         4        2889        2890        2941        2940
         4        2890        2891        2942        2941
         4        2891        2892        2943        2942
         4        2892        2893        2944        2943
         4        2893        2894        2945        2944
         4        2894        2895        2946        2945
         4        2895        2896        2947        2946
         4        2896        2897        2948        2947
         4        2897        2898        2949        2948
         4        2898        2899        2950        2949
         4        2899        2900        2951        2950
         4        2900        2901        2952        2951
         4        2901        2902        2953        2952
         4        2902        2903        2954        2953
         4        2903        2904        2955        2954
         4        2904        2905        2956        2955
         4        2905        2906        2957        2956
         4        2907        2908        2959        2958
         4        2908        2909        2960        2959
         4        2909        2910        2961        2960
         4        2910        2911        2962        2961
         4        2911        2912        2963        2962
         4        2912        2913        2964        2963
         4        2913        2914        2965        2964
         4        2914        2915        2966        2965
         4        2915        2916        2967        2966
         4        2916        2917        2968        2967
         4        2917        2918        2969        2968
         4        2918        2919        2970        2969
         4        2919        2920        2971        2970
         4        2920        2921        2972        2971
         4        2921        2922        2973        2972
         4        2922        2923        2974        2973
         4        2923        2924        2975        2974
         4        2924        2925        2976        2975
         4        2925        2926        2977        2976
         4        2926        2927        2978        2977
         4        2927        2928        2979        2978
         4        2928        2929        2980        2979
         4        2929        2930        2981        2980
         4        2930        2931        2982        2981
         4        2931        2932        2983        2982
         4        2932        2933        2984        2983
         4        2933        2934        2985        2984
         4        2934        2935        2986        2985
         4        2935        2936        2987        2986
         4        2936        2937        2988        2987
         4        2937        2938        2989        2988
         4        2938        2939        2990        2989
         4        2939        2940        2991        2990
         4        2940        2941        2992        2991
         4        2941        2942        2993        2992
         4        2942        2943        2994        2993
         4        2943        2944        2995        2994
         4        2944        2945        2996        2995
         4        2945        2946        2997        2996
         4        2946        2947        2998        2997
         4        2947        2948        2999        2998
         4        2948        2949        3000        2999
         4        2949        2950        3001        3000
         4        2950        2951        3002        3001
         4        2951        2952        3003        3002
         4        2952        2953        3004        3003
         4        2953        2954        3005        3004
         4        2954        2955        3006        3005
         4        2955        2956        3007        3006
         4        2956        2957        3008        3007
         4        2958        2959        3010        3009
         4        2959        2960        3011        3010
         4        2960        2961        3012        3011
         4        2961        2962        3013        3012
         4        2962        2963        3014        3013
         4        2963        2964        3015        3014
         4        2964        2965        3016        3015
         4        2965        2966        3017        3016
         4        2966        2967        3018        3017
         4        2967        2968        3019        3018
         4        2968        2969        3020        3019
         4        2969        2970        3021        3020
         4        2970        2971        3022        3021
         4        2971        2972        3023        3022
         4        2972        2973        3024        3023
         4        2973        2974        3025        3024
         4        2974        2975        3026        3025
         4        2975        2976        3027        3026
         4        2976        2977        3028        3027
         4        2977        2978        3029        3028
         4        2978        2979        3030        3029
         4        2979        2980        3031        3030
         4        2980        2981        3032        3031
         4        2981        2982        3033        3032
         4        2982        2983        3034        3033
         4        2983        2984        3035        3034
         4        2984        2985        3036        3035
         4        2985        2986        3037        3036
         4        2986        2987        3038        3037
         4        2987        2988        3039        3038
         4        2988        2989        3040        3039
         4        2989        2990        3041        3040
         4        2990        2991        3042        3041
         4        2991        2992        3043        3042
         4        2992        2993        3044        3043
         4        2993        2994        3045        3044
         4        2994        2995        3046        3045
         4        2995        2996        3047        3046
         4        2996        2997        3048        3047
         4        2997        2998        3049        3048
         4        2998        2999        3050        3049
         4        2999        3000        3051        3050
         4        3000        3001        3052        3051
         4        3001        3002        3053        3052
         4        3002        3003        3054        3053
         4        3003        3004        3055        3054
         4        3004        3005        3056        3055
         4        3005        3006        3057        3056
         4        3006        3007        3058        3057
         4        3007        3008        3059        3058
         4        3009        3010        3061        3060
         4        3010        3011        3062        3061
         4        3011        3012        3063        3062
         4        3012        3013        3064        3063
         4        3013        3014        3065        3064
         4        3014        3015        3066        3065
         4        3015        3016        3067        3066
         4        3016        3017        3068        3067
         4        3017        3018        3069        3068
         4        3018        3019        3070        3069
         4        3019        3020        3071        3070
         4        3020        3021        3072        3071
         4        3021        3022        3073        3072
         4        3022        3023        3074        3073
         4        3023        3024        3075        3074
         4        3024        3025        3076        3075
         4        3025        3026        3077        3076
         4        3026        3027        3078        3077
         4        3027        3028        3079        3078
         4        3028        3029        3080        3079
         4        3029        3030        3081        3080
         4        3030        3031        3082        3081
         4        3031        3032        3083        3082
         4        3032        3033        3084        3083
         4        3033        3034        3085        3084
         4        3034        3035        3086        3085
         4        3035        3036        3087        3086
         4        3036        3037        3088        3087
         4        3037        3038        3089        3088
         4        3038        3039        3090        3089
         4        3039        3040        3091        3090
         4        3040        3041        3092        3091
         4        3041        3042        3093        3092
         4        3042        3043        3094        3093
         4        3043        3044        3095        3094
         4        3044        3045        3096        3095
         4        3045        3046        3097        3096
         4        3046        3047        3098        3097
         4        3047        3048        3099        3098
         4        3048        3049        3100        3099
         4        3049        3050        3101        3100
         4        3050        3051        3102        3101
         4        3051        3052        3103        3102
         4        3052        3053        3104        3103
         4        3053        3054        3105        3104
         4        3054        3055        3106        3105
         4        3055        3056        3107        3106
         4        3056        3057        3108        3107
         4        3057        3058        3109        3108
         4        3058        3059        3110        3109
         4        3060        3061        3112        3111
         4        3061        3062        3113        3112
         4        3062        3063        3114        3113
         4        3063        3064        3115        3114
         4        3064        3065        3116        3115
         4        3065        3066        3117        3116
         4        3066        3067        3118        3117
         4        3067        3068        3119        3118
         4        3068        3069        3120        3119
         4        3069        3070        3121        3120
         4        3070        3071        3122        3121
         4        3071        3072        3123        3122
         4        3072        3073        3124        3123
         4        3073        3074        3125        3124
         4        3074        3075        3126        3125
         4        3075        3076        3127        3126
         4        3076        3077        3128        3127
         4        3077        3078        3129        3128
         4        3078        3079        3130        3129
         4        3079        3080        3131        3130
         4        3080        3081        3132        3131
         4        3081        3082        3133        3132
         4        3082        3083        3134        3133
         4        3083        3084        3135        3134
         4        3084        3085        3136        3135
         4        3085        3086        3137        3136
         4        3086        3087        3138        3137
         4        3087        3088        3139        3138
         4        3088        3089        3140        3139
         4        3089        3090        3141        3140
         4        3090        3091        3142        3141
         4        3091        3092        3143        3142
         4        3092        3093        3144        3143
         4        3093        3094        3145        3144
         4        3094        3095        3146        3145
         4        3095        3096        3147        3146
         4        3096        3097        3148        3147
         4        3097        3098        3149        3148
         4        3098        3099        3150        3149
         4        3099        3100        3151        3150
         4        3100        3101        3152        3151
         4        3101        3102        3153        3152
         4        3102        3103        3154        3153
         4        3103        3104        3155        3154
         4        3104        3105        3156        3155
         4        3105        3106        3157        3156
         4        3106        3107        3158        3157
         4        3107        3108        3159        3158
         4        3108        3109        3160        3159
         4        3109        3110        3161        3160
         4        3111        3112        3163        3162
         4        3112        3113        3164        3163
         4        3113        3114        3165        3164
         4        3114        3115        3166        3165
         4        3115        3116        3167        3166
         4        3116        3117        3168        3167
         4        3117        3118        3169        3168
         4        3118        3119        3170        3169
         4        3119        3120        3171        3170
         4        3120        3121        3172        3171
         4        3121        3122        3173        3172
         4        3122        3123        3174        3173
         4        3123        3124        3175        3174
         4        3124        3125        3176        3175
         4        3125        3126        3177        3176
         4        3126        3127        3178        3177
         4        3127        3128        3179        3178
         4        3128        3129        3180        3179
         4        3129        3130        3181        3180
         4        3130        3131        3182        3181
         4        3131        3132        3183        3182
         4        3132        3133        3184        3183
         4        3133        3134        3185        3184
         4        3134        3135        3186        3185
         4        3135        3136        3187        3186
         4        3136        3137        3188        3187
         4        3137        3138        3189        3188
         4        3138        3139        3190        3189
         4        3139        3140        3191        3190
         4        3140        3141        3192        3191
         4        3141        3142        3193        3192
         4        3142        3143        3194        3193
         4        3143        3144        3195        3194
         4        3144        3145        3196        3195
         4        3145        3146        3197        3196
         4        3146        3147        3198        3197
         4        3147        3148        3199        3198
         4        3148        3149        3200        3199
         4        3149        3150        3201        3200
         4        3150        3151        3202        3201
         4        3151        3152        3203        3202
         4        3152        3153        3204        3203
         4        3153        3154        3205        3204
         4        3154        3155        3206        3205
         4        3155        3156        3207        3206
         4        3156        3157        3208        3207
         4        3157        3158        3209        3208
         4        3158        3159        3210        3209
         4        3159        3160        3211        3210
         4        3160        3161        3212        3211
         4        3162        3163        3214        3213
         4        3163        3164        3215        3214
         4        3164        3165        3216        3215
         4        3165        3166        3217        3216
         4        3166        3167        3218        3217
         4        3167        3168        3219        3218
         4        3168        3169        3220        3219
         4        3169        3170        3221        3220
         4        3170        3171        3222        3221
         4        3171        3172        3223        3222
         4        3172        3173        3224        3223
         4        3173        3174        3225        3224
         4        3174        3175        3226        3225
         4        3175        3176        3227        3226
         4        3176        3177        3228        3227
         4        3177        3178        3229        3228
         4        3178        3179        3230        3229
         4        3179        3180        3231        3230
         4        3180        3181        3232        3231
         4        3181        3182        3233        3232
         4        3182        3183        3234        3233
         4        3183        3184        3235        3234
         4        3184        3185        3236        3235
         4        3185        3186        3237        3236
         4        3186        3187        3238        3237
         4        3187        3188        3239        3238
         4        3188        3189        3240        3239
         4        3189        3190        3241        3240
         4        3190        3191        3242        3241
         4        3191        3192        3243        3242
         4        3192        3193        3244        3243
         4        3193        3194        3245        3244
         4        3194        3195        3246        3245
         4        3195        3196        3247        3246
         4        3196        3197        3248        3247
         4        3197        3198        3249        3248
         4        3198        3199        3250        3249
         4        3199        3200        3251        3250
         4        3200        3201        3252        3251
         4        3201        3202        3253        3252
         4        3202        3203        3254        3253
         4        3203        3204        3255        3254
         4        3204        3205        3256        3255
         4        3205        3206        3257        3256
         4        3206        3207        3258        3257
         4        3207        3208        3259        3258
         4        3208        3209        3260        3259
         4        3209        3210        3261        3260
         4        3210        3211        3262        3261
         4        3211        3212        3263        3262
         4        3213        3214        3265        3264
         4        3214        3215        3266        3265
         4        3215        3216        3267        3266
         4        3216        3217        3268        3267
         4        3217        3218        3269        3268
         4        3218        3219        3270        3269
         4        3219        3220        3271        3270
         4        3220        3221        3272        3271
         4        3221        3222        3273        3272
         4        3222        3223        3274        3273
         4        3223        3224        3275        3274
         4        3224        3225        3276        3275
         4        3225        3226        3277        3276
         4        3226        3227        3278        3277
         4        3227        3228        3279        3278
         4        3228        3229        3280        3279
         4        3229        3230        3281        3280
         4        3230        3231        3282        3281
         4        3231        3232        3283        3282
         4        3232        3233        3284        3283
         4        3233        3234        3285        3284
         4        3234        3235        3286        3285
         4        3235        3236        3287        3286
         4        3236        3237        3288        3287
         4        3237        3238        3289        3288
         4        3238        3239        3290        3289
         4        3239        3240        3291        3290
         4        3240        3241        3292        3291
         4        3241        3242        3293        3292
         4        3242        3243        3294        3293
         4        3243        3244        3295        3294
         4        3244        3245        3296        3295
         4        3245        3246        3297        3296
         4        3246        3247        3298        3297
         4        3247        3248        3299        3298
         4        3248        3249        3300        3299
         4        3249        3250        3301        3300
         4        3250        3251        3302        3301
         4        3251        3252        3303        3302
         4        3252        3253        3304        3303
         4        3253        3254        3305        3304
         4        3254        3255        3306        3305
         4        3255        3256        3307        3306
         4        3256        3257        3308        3307
         4        3257        3258        3309        3308
         4        3258        3259        3310        3309
         4        3259        3260        3311        3310
         4        3260        3261        3312        3311
         4        3261        3262        3313        3312
         4        3262        3263        3314        3313
         4        3264        3265        3316        3315
         4        3265        3266        3317        3316
         4        3266        3267        3318        3317
         4        3267        3268        3319        3318
         4        3268        3269        3320        3319
         4        3269        3270        3321        3320
         4        3270        3271        3322        3321
         4        3271        3272        3323        3322
         4        3272        3273        3324        3323
         4        3273        3274        3325        3324
         4        3274        3275        3326        3325
         4        3275        3276        3327        3326
         4        3276        3277        3328        3327
         4        3277        3278        3329        3328
         4        3278        3279        3330        3329
         4        3279        3280        3331        3330
         4        3280        3281        3332        3331
         4        3281        3282        3333        3332
         4        3282        3283        3334        3333
         4        3283        3284        3335        3334
         4        3284        3285        3336        3335
         4        3285        3286        3337        3336
         4        3286        3287        3338        3337
         4        3287        3288        3339        3338
         4        3288        3289        3340        3339
         4        3289        3290        3341        3340
         4        3290        3291        3342        3341
         4        3291        3292        3343        3342
         4        3292        3293        3344        3343
         4        3293        3294        3345        3344
         4        3294        3295        3346        3345
         4        3295        3296        3347        3346
         4        3296        3297        3348        3347
         4        3297        3298        3349        3348
         4        3298        3299        3350        3349
         4        3299        3300        3351        3350
         4        3300        3301        3352        3351
         4        3301        3302        3353        3352
         4        3302        3303        3354        3353
         4        3303        3304        3355        3354
         4        3304        3305        3356        3355
         4        3305        3306        3357        3356
         4        3306        3307        3358        3357
         4        3307        3308        3359        3358
         4        3308        3309        3360        3359
         4        3309        3310        3361        3360
         4        3310        3311        3362        3361
         4        3311        3312        3363        3362
         4        3312        3313        3364        3363
         4        3313        3314        3365        3364
         4        3315        3316        3367        3366
         4        3316        3317        3368        3367
         4        3317        3318        3369        3368
         4        3318        3319        3370        3369
         4        3319        3320        3371        3370
         4        3320        3321        3372        3371
         4        3321        3322        3373        3372
         4        3322        3323        3374        3373
         4        3323        3324        3375        3374
         4        3324        3325        3376        3375
         4        3325        3326        3377        3376
         4        3326        3327        3378        3377
         4        3327        3328        3379        3378
         4        3328        3329        3380        3379
         4        3329        3330        3381        3380
         4        3330        3331        3382        3381
         4        3331        3332        3383        3382
         4        3332        3333        3384        3383
         4        3333        3334        3385        3384
         4        3334        3335        3386        3385
         4        3335        3336        3387        3386
         4        3336        3337        3388        3387
         4        3337        3338        3389        3388
         4        3338        3339        3390        3389
         4        3339        3340        3391        3390
         4        3340        3341        3392        3391
         4        3341        3342        3393        3392
         4        3342        3343        3394        3393
         4        3343        3344        3395        3394
         4        3344        3345        3396        3395
         4        3345        3346        3397        3396
         4        3346        3347        3398        3397
         4        3347        3348        3399        3398
         4        3348        3349        3400        3399
         4        3349        3350        3401        3400
         4        3350        3351        3402        3401
         4        3351        3352        3403        3402
         4        3352        3353        3404        3403
         4        3353        3354        3405        3404
         4        3354        3355        3406        3405
         4        3355        3356        3407        3406
         4        3356        3357        3408        3407
         4        3357        3358        3409        3408
         4        3358        3359        3410        3409
         4        3359        3360        3411        3410
         4        3360        3361        3412        3411
         4        3361        3362        3413        3412
         4        3362        3363        3414        3413
         4        3363        3364        3415        3414
         4        3364        3365        3416        3415
         4        3366        3367        3418        3417
         4        3367        3368        3419        3418
         4        3368        3369        3420        3419
         4        3369        3370        3421        3420
         4        3370        3371        3422        3421
         4        3371        3372        3423        3422
         4        3372        3373        3424        3423
         4        3373        3374        3425        3424
         4        3374        3375        3426        3425
         4        3375        3376        3427        3426
         4        3376        3377        3428        3427
         4        3377        3378        3429        3428
         4        3378        3379        3430        3429
         4        3379        3380        3431        3430
         4        3380        3381        3432        3431
         4        3381        3382        3433        3432
         4        3382        3383        3434        3433
         4        3383        3384        3435        3434
         4        3384        3385        3436        3435
         4        3385        3386        3437        3436
         4        3386        3387        3438        3437
         4        3387        3388        3439        3438
         4        3388        3389        3440        3439
         4        3389        3390        3441        3440
         4        3390        3391        3442        3441
         4        3391        3392        3443        3442
         4        3392        3393        3444        3443
         4        3393        3394        3445        3444
         4        3394        3395        3446        3445
         4        3395        3396        3447        3446
         4        3396        3397        3448        3447
         4        3397        3398        3449        3448
         4        3398        3399        3450        3449
         4        3399        3400        3451        3450
         4        3400        3401        3452        3451
         4        3401        3402        3453        3452
         4        3402        3403        3454        3453
         4        3403        3404        3455        3454
         4        3404        3405        3456        3455
         4        3405        3406        3457        3456
         4        3406        3407        3458        3457
         4        3407        3408        3459        3458
         4        3408        3409        3460        3459
         4        3409        3410        3461        3460
         4        3410        3411        3462        3461
         4        3411        3412        3463        3462
         4        3412        3413        3464        3463
         4        3413        3414        3465        3464
         4        3414        3415        3466        3465
         4        3415        3416        3467        3466
         4        3417        3418        3469        3468
         4        3418        3419        3470        3469
         4        3419        3420        3471        3470
         4        3420        3421        3472        3471
         4        3421        3422        3473        3472
         4        3422        3423        3474        3473
         4        3423        3424        3475        3474
         4        3424        3425        3476        3475
         4        3425        3426        3477        3476
         4        3426        3427        3478        3477
         4        3427        3428        3479        3478
         4        3428        3429        3480        3479
         4        3429        3430        3481        3480
         4        3430        3431        3482        3481
         4        3431        3432        3483        3482
         4        3432        3433        3484        3483
         4        3433        3434        3485        3484
         4        3434        3435        3486        3485
         4        3435        3436        3487        3486
         4        3436        3437        3488        3487
         4        3437        3438        3489        3488
         4        3438        3439        3490        3489
         4        3439        3440        3491        3490
         4        3440        3441        3492        3491
         4        3441        3442        3493        3492
         4        3442        3443        3494        3493
         4        3443        3444        3495        3494
         4        3444        3445        3496        3495
         4        3445        3446        3497        3496
         4        3446        3447        3498        3497
         4        3447        3448        3499        3498
         4        3448        3449        3500        3499
         4        3449        3450        3501        3500
         4        3450        3451        3502        3501
         4        3451        3452        3503        3502
         4        3452        3453        3504        3503
         4        3453        3454        3505        3504
         4        3454        3455        3506        3505
         4        3455        3456        3507        3506
         4        3456        3457        3508        3507
         4        3457        3458        3509        3508
         4        3458        3459        3510        3509
         4        3459        3460        3511        3510
         4        3460        3461        3512        3511
         4        3461        3462        3513        3512
         4        3462        3463        3514        3513
         4        3463        3464        3515        3514
         4        3464        3465        3516        3515
         4        3465        3466        3517        3516
         4        3466        3467        3518        3517
         4        3468        3469        3520        3519
         4        3469        3470        3521        3520
         4        3470        3471        3522        3521
         4        3471        3472        3523        3522
         4        3472        3473        3524        3523
         4        3473        3474        3525        3524
         4        3474        3475        3526        3525
         4        3475        3476        3527        3526
         4        3476        3477        3528        3527
         4        3477        3478        3529        3528
         4        3478        3479        3530        3529
         4        3479        3480        3531        3530
         4        3480        3481        3532        3531
         4        3481        3482        3533        3532
         4        3482        3483        3534        3533
         4        3483        3484        3535        3534
         4        3484        3485        3536        3535
         4        3485        3486        3537        3536
         4        3486        3487        3538        3537
         4        3487        3488        3539        3538
         4        3488        3489        3540        3539
         4        3489        3490        3541        3540
         4        3490        3491        3542        3541
         4        3491        3492        3543        3542
         4        3492        3493        3544        3543
         4        3493        3494        3545        3544
         4        3494        3495        3546        3545
         4        3495        3496        3547        3546
         4        3496        3497        3548        3547
         4        3497        3498        3549        3548
         4        3498        3499        3550        3549
         4        3499        3500        3551        3550
         4        3500        3501        3552        3551
         4        3501        3502        3553        3552
         4        3502        3503        3554        3553
         4        3503        3504        3555        3554
         4        3504        3505        3556        3555
         4        3505        3506        3557        3556
         4        3506        3507        3558        3557
         4        3507        3508        3559        3558
         4        3508        3509        3560        3559
         4        3509        3510        3561        3560
         4        3510        3511        3562        3561
         4        3511        3512        3563        3562
         4        3512        3513        3564        3563
         4        3513        3514        3565        3564
         4        3514        3515        3566        3565
         4        3515        3516        3567        3566
         4        3516        3517        3568        3567
         4        3517        3518        3569        3568
         4        3519        3520        3571        3570
         4        3520        3521        3572        3571
         4        3521        3522        3573        3572
         4        3522        3523        3574        3573
         4        3523        3524        3575        3574
         4        3524        3525        3576        3575
         4        3525        3526        3577        3576
         4        3526        3527        3578        3577
         4        3527        3528        3579        3578
         4        3528        3529        3580        3579
         4        3529        3530        3581        3580
         4        3530        3531        3582        3581
         4        3531        3532        3583        3582
         4        3532        3533        3584        3583
         4        3533        3534        3585        3584
         4        3534        3535        3586        3585
         4        3535        3536        3587        3586
         4        3536        3537        3588        3587
         4        3537        3538        3589        3588
         4        3538        3539        3590        3589
         4        3539        3540        3591        3590
         4        3540        3541        3592        3591
         4        3541        3542        3593        3592
         4        3542        3543        3594        3593
         4        3543        3544        3595        3594
         4        3544        3545        3596        3595
         4        3545        3546        3597        3596
         4        3546        3547        3598        3597
         4        3547        3548        3599        3598
         4        3548        3549        3600        3599
         4        3549        3550        3601        3600
         4        3550        3551        3602        3601
         4        3551        3552        3603        3602
         4        3552        3553        3604        3603
         4        3553        3554        3605        3604
         4        3554        3555        3606        3605
         4        3555        3556        3607        3606
         4        3556        3557        3608        3607
         4        3557        3558        3609        3608
         4        3558        3559        3610        3609
         4        3559        3560        3611        3610
         4        3560        3561        3612        3611
         4        3561        3562        3613        3612
         4        3562        3563        3614        3613
         4        3563        3564        3615        3614
         4        3564        3565        3616        3615
         4        3565        3566        3617        3616
         4        3566        3567        3618        3617
         4        3567        3568        3619        3618
         4        3568        3569        3620        3619
         4        3570        3571        3622        3621
         4        3571        3572        3623        3622
         4        3572        3573        3624        3623
         4        3573        3574        3625        3624
         4        3574        3575        3626        3625
         4        3575        3576        3627        3626
         4        3576        3577        3628        3627
         4        3577        3578        3629        3628
         4        3578        3579        3630        3629
         4        3579        3580        3631        3630
         4        3580        3581        3632        3631
         4        3581        3582        3633        3632
         4        3582        3583        3634        3633
         4        3583        3584        3635        3634
         4        3584        3585        3636        3635
         4        3585        3586        3637        3636
         4        3586        3587        3638        3637
         4        3587        3588        3639        3638
         4        3588        3589        3640        3639
         4        3589        3590        3641        3640
         4        3590        3591        3642        3641
         4        3591        3592        3643        3642
         4        3592        3593        3644        3643
         4        3593        3594        3645        3644
         4        3594        3595        3646        3645
         4        3595        3596        3647        3646
         4        3596        3597        3648        3647
         4        3597        3598        3649        3648
         4        3598        3599        3650        3649
         4        3599        3600        3651        3650
         4        3600        3601        3652        3651
         4        3601        3602        3653        3652
         4        3602        3603        3654        3653
         4        3603        3604        3655        3654
         4        3604        3605        3656        3655
         4        3605        3606        3657        3656
         4        3606        3607        3658        3657
         4        3607        3608        3659        3658
         4        3608        3609        3660        3659
         4        3609        3610        3661        3660
         4        3610        3611        3662        3661
         4        3611        3612        3663        3662
         4        3612        3613        3664        3663
         4        3613        3614        3665        3664
         4        3614        3615        3666        3665
         4        3615        3616        3667        3666
         4        3616        3617        3668        3667
         4        3617        3618        3669        3668
         4        3618        3619        3670        3669
         4        3619        3620        3671        3670
         4        3621        3622        3673        3672
         4        3622        3623        3674        3673
         4        3623        3624        3675        3674
         4        3624        3625        3676        3675
         4        3625        3626        3677        3676
         4        3626        3627        3678        3677
         4        3627        3628        3679        3678
         4        3628        3629        3680        3679
         4        3629        3630        3681        3680
         4        3630        3631        3682        3681
         4        3631        3632        3683        3682
         4        3632        3633        3684        3683
         4        3633        3634        3685        3684
         4        3634        3635        3686        3685
         4        3635        3636        3687        3686
         4        3636        3637        3688        3687
         4        3637        3638        3689        3688
         4        3638        3639        3690        3689
         4        3639        3640        3691        3690
         4        3640        3641        3692        3691
         4        3641        3642        3693        3692
         4        3642        3643        3694        3693
         4        3643        3644        3695        3694
         4        3644        3645        3696        3695
         4        3645        3646        3697        3696
         4        3646        3647        3698        3697
         4        3647        3648        3699        3698
         4        3648        3649        3700        3699
         4        3649        3650        3701        3700
         4        3650        3651        3702        3701
         4        3651        3652        3703        3702
         4        3652        3653        3704        3703
         4        3653        3654        3705        3704
         4        3654        3655        3706        3705
         4        3655        3656        3707        3706
         4        3656        3657        3708        3707
         4        3657        3658        3709        3708
         4        3658        3659        3710        3709
         4        3659        3660        3711        3710
         4        3660        3661        3712        3711
         4        3661        3662        3713        3712
         4        3662        3663        3714        3713
         4        3663        3664        3715        3714
         4        3664        3665        3716        3715
         4        3665        3666        3717        3716
         4        3666        3667        3718        3717
         4        3667        3668        3719        3718
         4        3668        3669        3720        3719
         4        3669        3670        3721        3720
         4        3670        3671        3722        3721
         4        3672        3673        3724        3723
         4        3673        3674        3725        3724
         4        3674        3675        3726        3725
         4        3675        3676        3727        3726
         4        3676        3677        3728        3727
         4        3677        3678        3729        3728
         4        3678        3679        3730        3729
         4        3679        3680        3731        3730
         4        3680        3681        3732        3731
         4        3681        3682        3733        3732
         4        3682        3683        3734        3733
         4        3683        3684        3735        3734
         4        3684        3685        3736        3735
         4        3685        3686        3737        3736
         4        3686        3687        3738        3737
         4        3687        3688        3739        3738
         4        3688        3689        3740        3739
         4        3689        3690        3741        3740
         4        3690        3691        3742        3741
         4        3691        3692        3743        3742
         4        3692        3693        3744        3743
         4        3693        3694        3745        3744
         4        3694        3695        3746        3745
         4        3695        3696        3747        3746
         4        3696        3697        3748        3747
         4        3697        3698        3749        3748
         4        3698        3699        3750        3749
         4        3699        3700        3751        3750
         4        3700        3701        3752        3751
         4        3701        3702        3753        3752
         4        3702        3703        3754        3753
         4        3703        3704        3755        3754
         4        3704        3705        3756        3755
         4        3705        3706        3757        3756
         4        3706        3707        3758        3757
         4        3707        3708        3759        3758
         4        3708        3709        3760        3759
         4        3709        3710        3761        3760
         4        3710        3711        3762        3761
         4        3711        3712        3763        3762
         4        3712        3713        3764        3763
         4        3713        3714        3765        3764
         4        3714        3715        3766        3765
         4        3715        3716        3767        3766
         4        3716        3717        3768        3767
         4        3717        3718        3769        3768
         4        3718        3719        3770        3769
         4        3719        3720        3771        3770
         4        3720        3721        3772        3771
         4        3721        3722        3773        3772
         4        3723        3724        3775        3774
         4        3724        3725        3776        3775
         4        3725        3726        3777        3776
         4        3726        3727        3778        3777
         4        3727        3728        3779        3778
         4        3728        3729        3780        3779
         4        3729        3730        3781        3780
         4        3730        3731        3782        3781
         4        3731        3732        3783        3782
         4        3732        3733        3784        3783
         4        3733        3734        3785        3784
         4        3734        3735        3786        3785
         4        3735        3736        3787        3786
         4        3736        3737        3788        3787
         4        3737        3738        3789        3788
         4        3738        3739        3790        3789
         4        3739        3740        3791        3790
         4        3740        3741        3792        3791
         4        3741        3742        3793        3792
         4        3742        3743        3794        3793
         4        3743        3744        3795        3794
         4        3744        3745        3796        3795
         4        3745        3746        3797        3796
         4        3746        3747        3798        3797
         4        3747        3748        3799        3798
         4        3748        3749        3800        3799
         4        3749        3750        3801        3800
         4        3750        3751        3802        3801
         4        3751        3752        3803        3802
         4        3752        3753        3804        3803
         4        3753        3754        3805        3804
         4        3754        3755        3806        3805
         4        3755        3756        3807        3806
         4        3756        3757        3808        3807
         4        3757        3758        3809        3808
         4        3758        3759        3810        3809
         4        3759        3760        3811        3810
         4        3760        3761        3812        3811
         4        3761        3762        3813        3812
         4        3762        3763        3814        3813
         4        3763        3764        3815        3814
         4        3764        3765        3816        3815
         4        3765        3766        3817        3816
         4        3766        3767        3818        3817
         4        3767        3768        3819        3818
         4        3768        3769        3820        3819
         4        3769        3770        3821        3820
         4        3770        3771        3822        3821
         4        3771        3772        3823        3822
         4        3772        3773        3824        3823
         4        3774        3775        3826        3825
         4        3775        3776        3827        3826
         4        3776        3777        3828        3827
         4        3777        3778        3829        3828
         4        3778        3779        3830        3829
         4        3779        3780        3831        3830
         4        3780        3781        3832        3831
         4        3781        3782        3833        3832
         4        3782        3783        3834        3833
         4        3783        3784        3835        3834
         4        3784        3785        3836        3835
         4        3785        3786        3837        3836
         4        3786        3787        3838        3837
         4        3787        3788        3839        3838
         4        3788        3789        3840        3839
         4        3789        3790        3841        3840
         4        3790        3791        3842        3841
         4        3791        3792        3843        3842
         4        3792        3793        3844        3843
         4        3793        3794        3845        3844
         4        3794        3795        3846        3845
         4        3795        3796        3847        3846
         4        3796        3797        3848        3847
         4        3797        3798        3849        3848
         4        3798        3799        3850        3849
         4        3799        3800        3851        3850
         4        3800        3801        3852        3851
         4        3801        3802        3853        3852
         4        3802        3803        3854        3853
         4        3803        3804        3855        3854
         4        3804        3805        3856        3855
         4        3805        3806        3857        3856
         4        3806        3807        3858        3857
         4        3807        3808        3859        3858
         4        3808        3809        3860        3859
         4        3809        3810        3861        3860
         4        3810        3811        3862        3861
         4        3811        3812        3863        3862
         4        3812        3813        3864        3863
         4        3813        3814        3865        3864
         4        3814        3815        3866        3865
         4        3815        3816        3867        3866
         4        3816        3817        3868        3867
         4        3817        3818        3869        3868
         4        3818        3819        3870        3869
         4        3819        3820        3871        3870
         4        3820        3821        3872        3871
         4        3821        3822        3873        3872
         4        3822        3823        3874        3873
         4        3823        3824        3875        3874
         4        3825        3826        3877        3876
         4        3826        3827        3878        3877
         4        3827        3828        3879        3878
         4        3828        3829        3880        3879
         4        3829        3830        3881        3880
         4        3830        3831        3882        3881
         4        3831        3832        3883        3882
         4        3832        3833        3884        3883
         4        3833        3834        3885        3884
         4        3834        3835        3886        3885
         4        3835        3836        3887        3886
         4        3836        3837        3888        3887
         4        3837        3838        3889        3888
         4        3838        3839        3890        3889
         4        3839        3840        3891        3890
         4        3840        3841        3892        3891
         4        3841        3842        3893        3892
         4        3842        3843        3894        3893
         4        3843        3844        3895        3894
         4        3844        3845        3896        3895
         4        3845        3846        3897        3896
         4        3846        3847        3898        3897
         4        3847        3848        3899        3898
         4        3848        3849        3900        3899
         4        3849        3850        3901        3900
         4        3850        3851        3902        3901
         4        3851        3852        3903        3902
         4        3852        3853        3904        3903
         4        3853        3854        3905        3904
         4        3854        3855        3906        3905
         4        3855        3856        3907        3906
         4        3856        3857        3908        3907
         4        3857        3858        3909        3908
         4        3858        3859        3910        3909
         4        3859        3860        3911        3910
         4        3860        3861        3912        3911
         4        3861        3862        3913        3912
         4        3862        3863        3914        3913
         4        3863        3864        3915        3914
         4        3864        3865        3916        3915
         4        3865        3866        3917        3916
         4        3866        3867        3918        3917
         4        3867        3868        3919        3918
         4        3868        3869        3920        3919
         4        3869        3870        3921        3920
         4        3870        3871        3922        3921
         4        3871        3872        3923        3922
         4        3872        3873        3924        3923
         4        3873        3874        3925        3924
         4        3874        3875        3926        3925
         4        3876        3877        3928        3927
         4        3877        3878        3929        3928
         4        3878        3879        3930        3929
         4        3879        3880        3931        3930
         4        3880        3881        3932        3931
         4        3881        3882        3933        3932
         4        3882        3883        3934        3933
         4        3883        3884        3935        3934
         4        3884        3885        3936        3935
         4        3885        3886        3937        3936
         4        3886        3887        3938        3937
         4        3887        3888        3939        3938
         4        3888        3889        3940        3939
         4        3889        3890        3941        3940
         4        3890        3891        3942        3941
         4        3891        3892        3943        3942
         4        3892        3893        3944        3943
         4        3893        3894        3945        3944
         4        3894        3895        3946        3945
         4        3895        3896        3947        3946
         4        3896        3897        3948        3947
         4        3897        3898        3949        3948
         4        3898        3899        3950        3949
         4        3899        3900        3951        3950
         4        3900        3901        3952        3951
         4        3901        3902        3953        3952
         4        3902        3903        3954        3953
         4        3903        3904        3955        3954
         4        3904        3905        3956        3955
         4        3905        3906        3957        3956
         4        3906        3907        3958        3957
         4        3907        3908        3959        3958
         4        3908        3909        3960        3959
         4        3909        3910        3961        3960
         4        3910        3911        3962        3961
         4        3911        3912        3963        3962
         4        3912        3913        3964        3963
         4        3913        3914        3965        3964
         4        3914        3915        3966        3965
         4        3915        3916        3967        3966
         4        3916        3917        3968        3967
         4        3917        3918        3969        3968
         4        3918        3919        3970        3969
         4        3919        3920        3971        3970
         4        3920        3921        3972        3971
         4        3921        3922        3973        3972
         4        3922        3923        3974        3973
         4        3923        3924        3975        3974
         4        3924        3925        3976        3975
         4        3925        3926        3977        3976
         4        3927        3928        3979        3978
         4        3928        3929        3980        3979
         4        3929        3930        3981        3980
         4        3930        3931        3982        3981
         4        3931        3932        3983        3982
         4        3932        3933        3984        3983
         4        3933        3934        3985        3984
         4        3934        3935        3986        3985
         4        3935        3936        3987        3986
         4        3936        3937        3988        3987
         4        3937        3938        3989        3988
         4        3938        3939        3990        3989
         4        3939        3940        3991        3990
         4        3940        3941        3992        3991
         4        3941        3942        3993        3992
         4        3942        3943        3994        3993
         4        3943        3944        3995        3994
         4        3944        3945        3996        3995
         4        3945        3946        3997        3996
         4        3946        3947        3998        3997
         4        3947        3948        3999        3998
         4        3948        3949        4000        3999
         4        3949        3950        4001        4000
         4        3950        3951        4002        4001
         4        3951        3952        4003        4002
         4        3952        3953        4004        4003
         4        3953        3954        4005        4004
         4        3954        3955        4006        4005
         4        3955        3956        4007        4006
         4        3956        3957        4008        4007
         4        3957        3958        4009        4008
         4        3958        3959        4010        4009
         4        3959        3960        4011        4010
         4        3960        3961        4012        4011
         4        3961        3962        4013        4012
         4        3962        3963        4014        4013
         4        3963        3964        4015        4014
         4        3964        3965        4016        4015
         4        3965        3966        4017        4016
         4        3966        3967        4018        4017
         4        3967        3968        4019        4018
         4        3968        3969        4020        4019
         4        3969        3970        4021        4020
         4        3970        3971        4022        4021
         4        3971        3972        4023        4022
         4        3972        3973        4024        4023
         4        3973        3974        4025        4024
         4        3974        3975        4026        4025
         4        3975        3976        4027        4026
         4        3976        3977        4028        4027
         4        3978        3979        4030        4029
         4        3979        3980        4031        4030
         4        3980        3981        4032        4031
         4        3981        3982        4033        4032
         4        3982        3983        4034        4033
         4        3983        3984        4035        4034
         4        3984        3985        4036        4035
         4        3985        3986        4037        4036
         4        3986        3987        4038        4037
         4        3987        3988        4039        4038
         4        3988        3989        4040        4039
         4        3989        3990        4041        4040
         4        3990        3991        4042        4041
         4        3991        3992        4043        4042
         4        3992        3993        4044        4043
         4        3993        3994        4045        4044
         4        3994        3995        4046        4045
         4        3995        3996        4047        4046
         4        3996        3997        4048        4047
         4        3997        3998        4049        4048
         4        3998        3999        4050        4049
         4        3999        4000        4051        4050
         4        4000        4001        4052        4051
         4        4001        4002        4053        4052
         4        4002        4003        4054        4053
         4        4003        4004        4055        4054
         4        4004        4005        4056        4055
         4        4005        4006        4057        4056
         4        4006        4007        4058        4057
         4        4007        4008        4059        4058
         4        4008        4009        4060        4059
         4        4009        4010        4061        4060
         4        4010        4011        4062        4061
         4        4011        4012        4063        4062
         4        4012        4013        4064        4063
         4        4013        4014        4065        4064
         4        4014        4015        4066        4065
         4        4015        4016        4067        4066
         4        4016        4017        4068        4067
         4        4017        4018        4069        4068
         4        4018        4019        4070        4069
         4        4019        4020        4071        4070
         4        4020        4021        4072        4071
         4        4021        4022        4073        4072
         4        4022        4023        4074        4073
         4        4023        4024        4075        4074
         4        4024        4025        4076        4075
         4        4025        4026        4077        4076
         4        4026        4027        4078        4077
         4        4027        4028        4079        4078
         4        4029        4030        4081        4080
         4        4030        4031        4082        4081
         4        4031        4032        4083        4082
         4        4032        4033        4084        4083
         4        4033        4034        4085        4084
         4        4034        4035        4086        4085
         4        4035        4036        4087        4086
         4        4036        4037        4088        4087
         4        4037        4038        4089        4088
         4        4038        4039        4090        4089
         4        4039        4040        4091        4090
         4        4040        4041        4092        4091
         4        4041        4042        4093        4092
         4        4042        4043        4094        4093
         4        4043        4044        4095        4094
         4        4044        4045        4096        4095
         4        4045        4046        4097        4096
         4        4046        4047        4098        4097
         4        4047        4048        4099        4098
         4        4048        4049        4100        4099
         4        4049        4050        4101        4100
         4        4050        4051        4102        4101
         4        4051        4052        4103        4102
         4        4052        4053        4104        4103
         4        4053        4054        4105        4104
         4        4054        4055        4106        4105
         4        4055        4056        4107        4106
         4        4056        4057        4108        4107
         4        4057        4058        4109        4108
         4        4058        4059        4110        4109
         4        4059        4060        4111        4110
         4        4060        4061        4112        4111
         4        4061        4062        4113        4112
         4        4062        4063        4114        4113
         4        4063        4064        4115        4114
         4        4064        4065        4116        4115
         4        4065        4066        4117        4116
         4        4066        4067        4118        4117
         4        4067        4068        4119        4118
         4        4068        4069        4120        4119
         4        4069        4070        4121        4120
         4        4070        4071        4122        4121
         4        4071        4072        4123        4122
         4        4072        4073        4124        4123
         4        4073        4074        4125        4124
         4        4074        4075        4126        4125
         4        4075        4076        4127        4126
         4        4076        4077        4128        4127
         4        4077        4078        4129        4128
         4        4078        4079        4130        4129
         4        4080        4081        4132        4131
         4        4081        4082        4133        4132
         4        4082        4083        4134        4133
         4        4083        4084        4135        4134
         4        4084        4085        4136        4135
         4        4085        4086        4137        4136
         4        4086        4087        4138        4137
         4        4087        4088        4139        4138
         4        4088        4089        4140        4139
         4        4089        4090        4141        4140
         4        4090        4091        4142        4141
         4        4091        4092        4143        4142
         4        4092        4093        4144        4143
         4        4093        4094        4145        4144
         4        4094        4095        4146        4145
         4        4095        4096        4147        4146
         4        4096        4097        4148        4147
         4        4097        4098        4149        4148
         4        4098        4099        4150        4149
         4        4099        4100        4151        4150
         4        4100        4101        4152        4151
         4        4101        4102        4153        4152
         4        4102        4103        4154        4153
         4        4103        4104        4155        4154
         4        4104        4105        4156        4155
         4        4105        4106        4157        4156
         4        4106        4107        4158        4157
         4        4107        4108        4159        4158
         4        4108        4109        4160        4159
         4        4109        4110        4161        4160
         4        4110        4111        4162        4161
         4        4111        4112        4163        4162
         4        4112        4113        4164        4163
         4        4113        4114        4165        4164
         4        4114        4115        4166        4165
         4        4115        4116        4167        4166
         4        4116        4117        4168        4167
         4        4117        4118        4169        4168
         4        4118        4119        4170        4169
         4        4119        4120        4171        4170
         4        4120        4121        4172        4171
         4        4121        4122        4173        4172
         4        4122        4123        4174        4173
         4        4123        4124        4175        4174
         4        4124        4125        4176        4175
         4        4125        4126        4177        4176
         4        4126        4127        4178        4177
         4        4127        4128        4179        4178
         4        4128        4129        4180        4179
         4        4129        4130        4181        4180
         4        4131        4132        4183        4182
         4        4132        4133        4184        4183
         4        4133        4134        4185        4184
         4        4134        4135        4186        4185
         4        4135        4136        4187        4186
         4        4136        4137        4188        4187
         4        4137        4138        4189        4188
         4        4138        4139        4190        4189
         4        4139        4140        4191        4190
         4        4140        4141        4192        4191
         4        4141        4142        4193        4192
         4        4142        4143        4194        4193
         4        4143        4144        4195        4194
         4        4144        4145        4196        4195
         4        4145        4146        4197        4196
         4        4146        4147        4198        4197
         4        4147        4148        4199        4198
         4        4148        4149        4200        4199
         4        4149        4150        4201        4200
         4        4150        4151        4202        4201
         4        4151        4152        4203        4202
         4        4152        4153        4204        4203
         4        4153        4154        4205        4204
         4        4154        4155        4206        4205
         4        4155        4156        4207        4206
         4        4156        4157        4208        4207
         4        4157        4158        4209        4208
         4        4158        4159        4210        4209
         4        4159        4160        4211        4210
         4        4160        4161        4212        4211
         4        4161        4162        4213        4212
         4        4162        4163        4214        4213
         4        4163        4164        4215        4214
         4        4164        4165        4216        4215
         4        4165        4166        4217        4216
         4        4166        4167        4218        4217
         4        4167        4168        4219        4218
         4        4168        4169        4220        4219
         4        4169        4170        4221        4220
         4        4170        4171        4222        4221
         4        4171        4172        4223        4222
         4        4172        4173        4224        4223
         4        4173        4174        4225        4224
         4        4174        4175        4226        4225
         4        4175        4176        4227        4226
         4        4176        4177        4228        4227
         4        4177        4178        4229        4228
         4        4178        4179        4230        4229
         4        4179        4180        4231        4230
         4        4180        4181        4232        4231
         4        4182        4183        4234        4233
         4        4183        4184        4235        4234
         4        4184        4185        4236        4235
         4        4185        4186        4237        4236
         4        4186        4187        4238        4237
         4        4187        4188        4239        4238
         4        4188        4189        4240        4239
         4        4189        4190        4241        4240
         4        4190        4191        4242        4241
         4        4191        4192        4243        4242
         4        4192        4193        4244        4243
         4        4193        4194        4245        4244
         4        4194        4195        4246        4245
         4        4195        4196        4247        4246
         4        4196        4197        4248        4247
         4        4197        4198        4249        4248
         4        4198        4199        4250        4249
         4        4199        4200        4251        4250
         4        4200        4201        4252        4251
         4        4201        4202        4253        4252
         4        4202        4203        4254        4253
         4        4203        4204        4255        4254
         4        4204        4205        4256        4255
         4        4205        4206        4257        4256
         4        4206        4207        4258        4257
         4        4207        4208        4259        4258
         4        4208        4209        4260        4259
         4        4209        4210        4261        4260
         4        4210        4211        4262        4261
         4        4211        4212        4263        4262
         4        4212        4213        4264        4263
         4        4213        4214        4265        4264
         4        4214        4215        4266        4265
         4        4215        4216        4267        4266
         4        4216        4217        4268        4267
         4        4217        4218        4269        4268
         4        4218        4219        4270        4269
         4        4219        4220        4271        4270
         4        4220        4221        4272        4271
         4        4221        4222        4273        4272
         4        4222        4223        4274        4273
         4        4223        4224        4275        4274
         4        4224        4225        4276        4275
         4        4225        4226        4277        4276
         4        4226        4227        4278        4277
         4        4227        4228        4279        4278
         4        4228        4229        4280        4279
         4        4229        4230        4281        4280
         4        4230        4231        4282        4281
         4        4231        4232        4283        4282
         4        4233        4234        4285        4284
         4        4234        4235        4286        4285
         4        4235        4236        4287        4286
         4        4236        4237        4288        4287
         4        4237        4238        4289        4288
         4        4238        4239        4290        4289
         4        4239        4240        4291        4290
         4        4240        4241        4292        4291
         4        4241        4242        4293        4292
         4        4242        4243        4294        4293
         4        4243        4244        4295        4294
         4        4244        4245        4296        4295
         4        4245        4246        4297        4296
         4        4246        4247        4298        4297
         4        4247        4248        4299        4298
         4        4248        4249        4300        4299
         4        4249        4250        4301        4300
         4        4250        4251        4302        4301
         4        4251        4252        4303        4302
         4        4252        4253        4304        4303
         4        4253        4254        4305        4304
         4        4254        4255        4306        4305
         4        4255        4256        4307        4306
         4        4256        4257        4308        4307
         4        4257        4258        4309        4308
         4        4258        4259        4310        4309
         4        4259        4260        4311        4310
         4        4260        4261        4312        4311
         4        4261        4262        4313        4312
         4        4262        4263        4314        4313
         4        4263        4264        4315        4314
         4        4264        4265        4316        4315
         4        4265        4266        4317        4316
         4        4266        4267        4318        4317
         4        4267        4268        4319        4318
         4        4268        4269        4320        4319
         4        4269        4270        4321        4320
         4        4270        4271        4322        4321
         4        4271        4272        4323        4322
         4        4272        4273        4324        4323
         4        4273        4274        4325        4324
         4        4274        4275        4326        4325
         4        4275        4276        4327        4326
         4        4276        4277        4328        4327
         4        4277        4278        4329        4328
         4        4278        4279        4330        4329
         4        4279        4280        4331        4330
         4        4280        4281        4332        4331
         4        4281        4282        4333        4332
         4        4282        4283        4334        4333
         4        4284        4285        4336        4335
         4        4285        4286        4337        4336
         4        4286        4287        4338        4337
         4        4287        4288        4339        4338
         4        4288        4289        4340        4339
         4        4289        4290        4341        4340
         4        4290        4291        4342        4341
         4        4291        4292        4343        4342
         4        4292        4293        4344        4343
         4        4293        4294        4345        4344
         4        4294        4295        4346        4345
         4        4295        4296        4347        4346
         4        4296        4297        4348        4347
         4        4297        4298        4349        4348
         4        4298        4299        4350        4349
         4        4299        4300        4351        4350
         4        4300        4301        4352        4351
         4        4301        4302        4353        4352
         4        4302        4303        4354        4353
         4        4303        4304        4355        4354
         4        4304        4305        4356        4355
         4        4305        4306        4357        4356
         4        4306        4307        4358        4357
         4        4307        4308        4359        4358
         4        4308        4309        4360        4359
         4        4309        4310        4361        4360
         4        4310        4311        4362        4361
         4        4311        4312        4363        4362
         4        4312        4313        4364        4363
         4        4313        4314        4365        4364
         4        4314        4315        4366        4365
         4        4315        4316        4367        4366
         4        4316        4317        4368        4367
         4        4317        4318        4369        4368
         4        4318        4319        4370        4369
         4        4319        4320        4371        4370
         4        4320        4321        4372        4371
         4        4321        4322        4373        4372
         4        4322        4323        4374        4373
         4        4323        4324        4375        4374
         4        4324        4325        4376        4375
         4        4325        4326        4377        4376
         4        4326        4327        4378        4377
         4        4327        4328        4379        4378
         4        4328        4329        4380        4379
         4        4329        4330        4381        4380
         4        4330        4331        4382        4381
         4        4331        4332        4383        4382
         4        4332        4333        4384        4383
         4        4333        4334        4385        4384
         4        4335        4336        4387        4386
         4        4336        4337        4388        4387
         4        4337        4338        4389        4388
         4        4338        4339        4390        4389
         4        4339        4340        4391        4390
         4        4340        4341        4392        4391
         4        4341        4342        4393        4392
         4        4342        4343        4394        4393
         4        4343        4344        4395        4394
         4        4344        4345        4396        4395
         4        4345        4346        4397        4396
         4        4346        4347        4398        4397
         4        4347        4348        4399        4398
         4        4348        4349        4400        4399
         4        4349        4350        4401        4400
         4        4350        4351        4402        4401
         4        4351        4352        4403        4402
         4        4352        4353        4404        4403
         4        4353        4354        4405        4404
         4        4354        4355        4406        4405
         4        4355        4356        4407        4406
         4        4356        4357        4408        4407
         4        4357        4358        4409        4408
         4        4358        4359        4410        4409
         4        4359        4360        4411        4410
         4        4360        4361        4412        4411
         4        4361        4362        4413        4412
         4        4362        4363        4414        4413
         4        4363        4364        4415        4414
         4        4364        4365        4416        4415
         4        4365        4366        4417        4416
         4        4366        4367        4418        4417
         4        4367        4368        4419        4418
         4        4368        4369        4420        4419
         4        4369        4370        4421        4420
         4        4370        4371        4422        4421
         4        4371        4372        4423        4422
         4        4372        4373        4424        4423
         4        4373        4374        4425        4424
         4        4374        4375        4426        4425
         4        4375        4376        4427        4426
         4        4376        4377        4428        4427
         4        4377        4378        4429        4428
         4        4378        4379        4430        4429
         4        4379        4380        4431        4430
         4        4380        4381        4432        4431
         4        4381        4382        4433        4432
         4        4382        4383        4434        4433
         4        4383        4384        4435        4434
         4        4384        4385        4436        4435
         4        4386        4387        4438        4437
         4        4387        4388        4439        4438
         4        4388        4389        4440        4439
         4        4389        4390        4441        4440
         4        4390        4391        4442        4441
         4        4391        4392        4443        4442
         4        4392        4393        4444        4443
         4        4393        4394        4445        4444
         4        4394        4395        4446        4445
         4        4395        4396        4447        4446
         4        4396        4397        4448        4447
         4        4397        4398        4449        4448
         4        4398        4399        4450        4449
         4        4399        4400        4451        4450
         4        4400        4401        4452        4451
         4        4401        4402        4453        4452
         4        4402        4403        4454        4453
         4        4403        4404        4455        4454
         4        4404        4405        4456        4455
         4        4405        4406        4457        4456
         4        4406        4407        4458        4457
         4        4407        4408        4459        4458
         4        4408        4409        4460        4459
         4        4409        4410        4461        4460
         4        4410        4411        4462        4461
         4        4411        4412        4463        4462
         4        4412        4413        4464        4463
         4        4413        4414        4465        4464
         4        4414        4415        4466        4465
         4        4415        4416        4467        4466
         4        4416        4417        4468        4467
         4        4417        4418        4469        4468
         4        4418        4419        4470        4469
         4        4419        4420        4471        4470
         4        4420        4421        4472        4471
         4        4421        4422        4473        4472
         4        4422        4423        4474        4473
         4        4423        4424        4475        4474
         4        4424        4425        4476        4475
         4        4425        4426        4477        4476
         4        4426        4427        4478        4477
         4        4427        4428        4479        4478
         4        4428        4429        4480        4479
         4        4429        4430        4481        4480
         4        4430        4431        4482        4481
         4        4431        4432        4483        4482
         4        4432        4433        4484        4483
         4        4433        4434        4485        4484
         4        4434        4435        4486        4485
         4        4435        4436        4487        4486
         4        4437        4438        4489        4488
         4        4438        4439        4490        4489
         4        4439        4440        4491        4490
         4        4440        4441        4492        4491
         4        4441        4442        4493        4492
         4        4442        4443        4494        4493
         4        4443        4444        4495        4494
         4        4444        4445        4496        4495
         4        4445        4446        4497        4496
         4        4446        4447        4498        4497
         4        4447        4448        4499        4498
         4        4448        4449        4500        4499
         4        4449        4450        4501        4500
         4        4450        4451        4502        4501
         4        4451        4452        4503        4502
         4        4452        4453        4504        4503
         4        4453        4454        4505        4504
         4        4454        4455        4506        4505
         4        4455        4456        4507        4506
         4        4456        4457        4508        4507
         4        4457        4458        4509        4508
         4        4458        4459        4510        4509
         4        4459        4460        4511        4510
         4        4460        4461        4512        4511
         4        4461        4462        4513        4512
         4        4462        4463        4514        4513
         4        4463        4464        4515        4514
         4        4464        4465        4516        4515
         4        4465        4466        4517        4516
         4        4466        4467        4518        4517
         4        4467        4468        4519        4518
         4        4468        4469        4520        4519
         4        4469        4470        4521        4520
         4        4470        4471        4522        4521
         4        4471        4472        4523        4522
         4        4472        4473        4524        4523
         4        4473        4474        4525        4524
         4        4474        4475        4526        4525
         4        4475        4476        4527        4526
         4        4476        4477        4528        4527
         4        4477        4478        4529        4528
         4        4478        4479        4530        4529
         4        4479        4480        4531        4530
         4        4480        4481        4532        4531
         4        4481        4482        4533        4532
         4        4482        4483        4534        4533
         4        4483        4484        4535        4534
         4        4484        4485        4536        4535
         4        4485        4486        4537        4536
         4        4486        4487        4538        4537
         4        4488        4489        4540        4539
         4        4489        4490        4541        4540
         4        4490        4491        4542        4541
         4        4491        4492        4543        4542
         4        4492        4493        4544        4543
         4        4493        4494        4545        4544
         4        4494        4495        4546        4545
         4        4495        4496        4547        4546
         4        4496        4497        4548        4547
         4        4497        4498        4549        4548
         4        4498        4499        4550        4549
         4        4499        4500        4551        4550
         4        4500        4501        4552        4551
         4        4501        4502        4553        4552
         4        4502        4503        4554        4553
         4        4503        4504        4555        4554
         4        4504        4505        4556        4555
         4        4505        4506        4557        4556
         4        4506        4507        4558        4557
         4        4507        4508        4559        4558
         4        4508        4509        4560        4559
         4        4509        4510        4561        4560
         4        4510        4511        4562        4561
         4        4511        4512        4563        4562
         4        4512        4513        4564        4563
         4        4513        4514        4565        4564
         4        4514        4515        4566        4565
         4        4515        4516        4567        4566
         4        4516        4517        4568        4567
         4        4517        4518        4569        4568
         4        4518        4519        4570        4569
         4        4519        4520        4571        4570
         4        4520        4521        4572        4571
         4        4521        4522        4573        4572
         4        4522        4523        4574        4573
         4        4523        4524        4575        4574
         4        4524        4525        4576        4575
         4        4525        4526        4577        4576
         4        4526        4527        4578        4577
         4        4527        4528        4579        4578
         4        4528        4529        4580        4579
         4        4529        4530        4581        4580
         4        4530        4531        4582        4581
         4        4531        4532        4583        4582
         4        4532        4533        4584        4583
         4        4533        4534        4585        4584
         4        4534        4535        4586        4585
         4        4535        4536        4587        4586
         4        4536        4537        4588        4587
         4        4537        4538        4589        4588
         4        4539        4540        4591        4590
         4        4540        4541        4592        4591
         4        4541        4542        4593        4592
         4        4542        4543        4594        4593
         4        4543        4544        4595        4594
         4        4544        4545        4596        4595
         4        4545        4546        4597        4596
         4        4546        4547        4598        4597
         4        4547        4548        4599        4598
         4        4548        4549        4600        4599
         4        4549        4550        4601        4600
         4        4550        4551        4602        4601
         4        4551        4552        4603        4602
         4        4552        4553        4604        4603
         4        4553        4554        4605        4604
         4        4554        4555        4606        4605
         4        4555        4556        4607        4606
         4        4556        4557        4608        4607
         4        4557        4558        4609        4608
         4        4558        4559        4610        4609
         4        4559        4560        4611        4610
         4        4560        4561        4612        4611
         4        4561        4562        4613        4612
         4        4562        4563        4614        4613
         4        4563        4564        4615        4614
         4        4564        4565        4616        4615
         4        4565        4566        4617        4616
         4        4566        4567        4618        4617
         4        4567        4568        4619        4618
         4        4568        4569        4620        4619
         4        4569        4570        4621        4620
         4        4570        4571        4622        4621
         4        4571        4572        4623        4622
         4        4572        4573        4624        4623
         4        4573        4574        4625        4624
         4        4574        4575        4626        4625
         4        4575        4576        4627        4626
         4        4576        4577        4628        4627
         4        4577        4578        4629        4628
         4        4578        4579        4630        4629
         4        4579        4580        4631        4630
         4        4580        4581        4632        4631
         4        4581        4582        4633        4632
         4        4582        4583        4634        4633
         4        4583        4584        4635        4634
         4        4584        4585        4636        4635
         4        4585        4586        4637        4636
         4        4586        4587        4638        4637
         4        4587        4588        4639        4638
         4        4588        4589        4640        4639
         4        4590        4591        4642        4641
         4        4591        4592        4643        4642
         4        4592        4593        4644        4643
         4        4593        4594        4645        4644
         4        4594        4595        4646        4645
         4        4595        4596        4647        4646
         4        4596        4597        4648        4647
         4        4597        4598        4649        4648
         4        4598        4599        4650        4649
         4        4599        4600        4651        4650
         4        4600        4601        4652        4651
         4        4601        4602        4653        4652
         4        4602        4603        4654        4653
         4        4603        4604        4655        4654
         4        4604        4605        4656        4655
         4        4605        4606        4657        4656
         4        4606        4607        4658        4657
         4        4607        4608        4659        4658
         4        4608        4609        4660        4659
         4        4609        4610        4661        4660
         4        4610        4611        4662        4661
         4        4611        4612        4663        4662
         4        4612        4613        4664        4663
         4        4613        4614        4665        4664
         4        4614        4615        4666        4665
         4        4615        4616        4667        4666
         4        4616        4617        4668        4667
         4        4617        4618        4669        4668
         4        4618        4619        4670        4669
         4        4619        4620        4671        4670
         4        4620        4621        4672        4671
         4        4621        4622        4673        4672
         4        4622        4623        4674        4673
         4        4623        4624        4675        4674
         4        4624        4625        4676        4675
         4        4625        4626        4677        4676
         4        4626        4627        4678        4677
         4        4627        4628        4679        4678
         4        4628        4629        4680        4679
         4        4629        4630        4681        4680
         4        4630        4631        4682        4681
         4        4631        4632        4683        4682
         4        4632        4633        4684        4683
         4        4633        4634        4685        4684
         4        4634        4635        4686        4685
         4        4635        4636        4687        4686
         4        4636        4637        4688        4687
         4        4637        4638        4689        4688
         4        4638        4639        4690        4689
         4        4639        4640        4691        4690
         4        4641        4642        4693        4692
         4        4642        4643        4694        4693
         4        4643        4644        4695        4694
         4        4644        4645        4696        4695
         4        4645        4646        4697        4696
         4        4646        4647        4698        4697
         4        4647        4648        4699        4698
         4        4648        4649        4700        4699
         4        4649        4650        4701        4700
         4        4650        4651        4702        4701
         4        4651        4652        4703        4702
         4        4652        4653        4704        4703
         4        4653        4654        4705        4704
         4        4654        4655        4706        4705
         4        4655        4656        4707        4706
         4        4656        4657        4708        4707
         4        4657        4658        4709        4708
         4        4658        4659        4710        4709
         4        4659        4660        4711        4710
         4        4660        4661        4712        4711
         4        4661        4662        4713        4712
         4        4662        4663        4714        4713
         4        4663        4664        4715        4714
         4        4664        4665        4716        4715
         4        4665        4666        4717        4716
         4        4666        4667        4718        4717
         4        4667        4668        4719        4718
         4        4668        4669        4720        4719
         4        4669        4670        4721        4720
         4        4670        4671        4722        4721
         4        4671        4672        4723        4722
         4        4672        4673        4724        4723
         4        4673        4674        4725        4724
         4        4674        4675        4726        4725
         4        4675        4676        4727        4726
         4        4676        4677        4728        4727
         4        4677        4678        4729        4728
         4        4678        4679        4730        4729
         4        4679        4680        4731        4730
         4        4680        4681        4732        4731
         4        4681        4682        4733        4732
         4        4682        4683        4734        4733
         4        4683        4684        4735        4734
         4        4684        4685        4736        4735
         4        4685        4686        4737        4736
         4        4686        4687        4738        4737
         4        4687        4688        4739        4738
         4        4688        4689        4740        4739
         4        4689        4690        4741        4740
         4        4690        4691        4742        4741
         4        4692        4693        4744        4743
         4        4693        4694        4745        4744
         4        4694        4695        4746        4745
         4        4695        4696        4747        4746
         4        4696        4697        4748        4747
         4        4697        4698        4749        4748
         4        4698        4699        4750        4749
         4        4699        4700        4751        4750
         4        4700        4701        4752        4751
         4        4701        4702        4753        4752
         4        4702        4703        4754        4753
         4        4703        4704        4755        4754
         4        4704        4705        4756        4755
         4        4705        4706        4757        4756
         4        4706        4707        4758        4757
         4        4707        4708        4759        4758
         4        4708        4709        4760        4759
         4        4709        4710        4761        4760
         4        4710        4711        4762        4761
         4        4711        4712        4763        4762
         4        4712        4713        4764        4763
         4        4713        4714        4765        4764
         4        4714        4715        4766        4765
         4        4715        4716        4767        4766
         4        4716        4717        4768        4767
         4        4717        4718        4769        4768
         4        4718        4719        4770        4769
         4        4719        4720        4771        4770
         4        4720        4721        4772        4771
         4        4721        4722        4773        4772
         4        4722        4723        4774        4773
         4        4723        4724        4775        4774
         4        4724        4725        4776        4775
         4        4725        4726        4777        4776
         4        4726        4727        4778        4777
         4        4727        4728        4779        4778
         4        4728        4729        4780        4779
         4        4729        4730        4781        4780
         4        4730        4731        4782        4781
         4        4731        4732        4783        4782
         4        4732        4733        4784        4783
         4        4733        4734        4785        4784
         4        4734        4735        4786        4785
         4        4735        4736        4787        4786
         4        4736        4737        4788        4787
         4        4737        4738        4789        4788
         4        4738        4739        4790        4789
         4        4739        4740        4791        4790
         4        4740        4741        4792        4791
         4        4741        4742        4793        4792
         4        4743        4744        4795        4794
         4        4744        4745        4796        4795
         4        4745        4746        4797        4796
         4        4746        4747        4798        4797
         4        4747        4748        4799        4798
         4        4748        4749        4800        4799
         4        4749        4750        4801        4800
         4        4750        4751        4802        4801
         4        4751        4752        4803        4802
         4        4752        4753        4804        4803
         4        4753        4754        4805        4804
         4        4754        4755        4806        4805
         4        4755        4756        4807        4806
         4        4756        4757        4808        4807
         4        4757        4758        4809        4808
         4        4758        4759        4810        4809
         4        4759        4760        4811        4810
         4        4760        4761        4812        4811
         4        4761        4762        4813        4812
         4        4762        4763        4814        4813
         4        4763        4764        4815        4814
         4        4764        4765        4816        4815
         4        4765        4766        4817        4816
         4        4766        4767        4818        4817
         4        4767        4768        4819        4818
         4        4768        4769        4820        4819
         4        4769        4770        4821        4820
         4        4770        4771        4822        4821
         4        4771        4772        4823        4822
         4        4772        4773        4824        4823
         4        4773        4774        4825        4824
         4        4774        4775        4826        4825
         4        4775        4776        4827        4826
         4        4776        4777        4828        4827
         4        4777        4778        4829        4828
         4        4778        4779        4830        4829
         4        4779        4780        4831        4830
         4        4780        4781        4832        4831
         4        4781        4782        4833        4832
         4        4782        4783        4834        4833
         4        4783        4784        4835        4834
         4        4784        4785        4836        4835
         4        4785        4786        4837        4836
         4        4786        4787        4838        4837
         4        4787        4788        4839        4838
         4        4788        4789        4840        4839
         4        4789        4790        4841        4840
         4        4790        4791        4842        4841
         4        4791        4792        4843        4842
         4        4792        4793        4844        4843
         4        4794        4795        4846        4845
         4        4795        4796        4847        4846
         4        4796        4797        4848        4847
         4        4797        4798        4849        4848
         4        4798        4799        4850        4849
         4        4799        4800        4851        4850
         4        4800        4801        4852        4851
         4        4801        4802        4853        4852
         4        4802        4803        4854        4853
         4        4803        4804        4855        4854
         4        4804        4805        4856        4855
         4        4805        4806        4857        4856
         4        4806        4807        4858        4857
         4        4807        4808        4859        4858
         4        4808        4809        4860        4859
         4        4809        4810        4861        4860
         4        4810        4811        4862        4861
         4        4811        4812        4863        4862
         4        4812        4813        4864        4863
         4        4813        4814        4865        4864
         4        4814        4815        4866        4865
         4        4815        4816        4867        4866
         4        4816        4817        4868        4867
         4        4817        4818        4869        4868
         4        4818        4819        4870        4869
         4        4819        4820        4871        4870
         4        4820        4821        4872        4871
         4        4821        4822        4873        4872
         4        4822        4823        4874        4873
         4        4823        4824        4875        4874
         4        4824        4825        4876        4875
         4        4825        4826        4877        4876
         4        4826        4827        4878        4877
         4        4827        4828        4879        4878
         4        4828        4829        4880        4879
         4        4829        4830        4881        4880
         4        4830        4831        4882        4881
         4        4831        4832        4883        4882
         4        4832        4833        4884        4883
         4        4833        4834        4885        4884
         4        4834        4835        4886        4885
         4        4835        4836        4887        4886
         4        4836        4837        4888        4887
         4        4837        4838        4889        4888
         4        4838        4839        4890        4889
         4        4839        4840        4891        4890
         4        4840        4841        4892        4891
         4        4841        4842        4893        4892
         4        4842        4843        4894        4893
         4        4843        4844        4895        4894
         4        4845        4846        4897        4896
         4        4846        4847        4898        4897
         4        4847        4848        4899        4898
         4        4848        4849        4900        4899
         4        4849        4850        4901        4900
         4        4850        4851        4902        4901
         4        4851        4852        4903        4902
         4        4852        4853        4904        4903
         4        4853        4854        4905        4904
         4        4854        4855        4906        4905
         4        4855        4856        4907        4906
         4        4856        4857        4908        4907
         4        4857        4858        4909        4908
         4        4858        4859        4910        4909
         4        4859        4860        4911        4910
         4        4860        4861        4912        4911
         4        4861        4862        4913        4912
         4        4862        4863        4914        4913
         4        4863        4864        4915        4914
         4        4864        4865        4916        4915
         4        4865        4866        4917        4916
         4        4866        4867        4918        4917
         4        4867        4868        4919        4918
         4        4868        4869        4920        4919
         4        4869        4870        4921        4920
         4        4870        4871        4922        4921
         4        4871        4872        4923        4922
         4        4872        4873        4924        4923
         4        4873        4874        4925        4924
         4        4874        4875        4926        4925
         4        4875        4876        4927        4926
         4        4876        4877        4928        4927
         4        4877        4878        4929        4928
         4        4878        4879        4930        4929
         4        4879        4880        4931        4930
         4        4880        4881        4932        4931
         4        4881        4882        4933        4932
         4        4882        4883        4934        4933
         4        4883        4884        4935        4934
         4        4884        4885        4936        4935
         4        4885        4886        4937        4936
         4        4886        4887        4938        4937
         4        4887        4888        4939        4938
         4        4888        4889        4940        4939
         4        4889        4890        4941        4940
         4        4890        4891        4942        4941
         4        4891        4892        4943        4942
         4        4892        4893        4944        4943
         4        4893        4894        4945        4944
         4        4894        4895        4946        4945
         4        4896        4897        4948        4947
         4        4897        4898        4949        4948
         4        4898        4899        4950        4949
         4        4899        4900        4951        4950
         4        4900        4901        4952        4951
         4        4901        4902        4953        4952
         4        4902        4903        4954        4953
         4        4903        4904        4955        4954
         4        4904        4905        4956        4955
         4        4905        4906        4957        4956
         4        4906        4907        4958        4957
         4        4907        4908        4959        4958
         4        4908        4909        4960        4959
         4        4909        4910        4961        4960
         4        4910        4911        4962        4961
         4        4911        4912        4963        4962
         4        4912        4913        4964        4963
         4        4913        4914        4965        4964
         4        4914        4915        4966        4965
         4        4915        4916        4967        4966
         4        4916        4917        4968        4967
         4        4917        4918        4969        4968
         4        4918        4919        4970        4969
         4        4919        4920        4971        4970
         4        4920        4921        4972        4971
         4        4921        4922        4973        4972
         4        4922        4923        4974        4973
         4        4923        4924        4975        4974
         4        4924        4925        4976        4975
         4        4925        4926        4977        4976
         4        4926        4927        4978        4977
         4        4927        4928        4979        4978
         4        4928        4929        4980        4979
         4        4929        4930        4981        4980
         4        4930        4931        4982        4981
         4        4931        4932        4983        4982
         4        4932        4933        4984        4983
         4        4933        4934        4985        4984
         4        4934        4935        4986        4985
         4        4935        4936        4987        4986
         4        4936        4937        4988        4987
         4        4937        4938        4989        4988
         4        4938        4939        4990        4989
         4        4939        4940        4991        4990
         4        4940        4941        4992        4991
         4        4941        4942        4993        4992
         4        4942        4943        4994        4993
         4        4943        4944        4995        4994
         4        4944        4945        4996        4995
         4        4945        4946        4997        4996
         4        4947        4948        4999        4998
         4        4948        4949        5000        4999
         4        4949        4950        5001        5000
         4        4950        4951        5002        5001
         4        4951        4952        5003        5002
         4        4952        4953        5004        5003
         4        4953        4954        5005        5004
         4        4954        4955        5006        5005
         4        4955        4956        5007        5006
         4        4956        4957        5008        5007
         4        4957        4958        5009        5008
         4        4958        4959        5010        5009
         4        4959        4960        5011        5010
         4        4960        4961        5012        5011
         4        4961        4962        5013        5012
         4        4962        4963        5014        5013
         4        4963        4964        5015        5014
         4        4964        4965        5016        5015
         4        4965        4966        5017        5016
         4        4966        4967        5018        5017
         4        4967        4968        5019        5018
         4        4968        4969        5020        5019
         4        4969        4970        5021        5020
         4        4970        4971        5022        5021
         4        4971        4972        5023        5022
         4        4972        4973        5024        5023
         4        4973        4974        5025        5024
         4        4974        4975        5026        5025
         4        4975        4976        5027        5026
         4        4976        4977        5028        5027
         4        4977        4978        5029        5028
         4        4978        4979        5030        5029
         4        4979        4980        5031        5030
         4        4980        4981        5032        5031
         4        4981        4982        5033        5032
         4        4982        4983        5034        5033
         4        4983        4984        5035        5034
         4        4984        4985        5036        5035
         4        4985        4986        5037        5036
         4        4986        4987        5038        5037
         4        4987        4988        5039        5038
         4        4988        4989        5040        5039
         4        4989        4990        5041        5040
         4        4990        4991        5042        5041
         4        4991        4992        5043        5042
         4        4992        4993        5044        5043
         4        4993        4994        5045        5044
         4        4994        4995        5046        5045
         4        4995        4996        5047        5046
         4        4996        4997        5048        5047
         4        4998        4999        5050        5049
         4        4999        5000        5051        5050
         4        5000        5001        5052        5051
         4        5001        5002        5053        5052
         4        5002        5003        5054        5053
         4        5003        5004        5055        5054
         4        5004        5005        5056        5055
         4        5005        5006        5057        5056
         4        5006        5007        5058        5057
         4        5007        5008        5059        5058
         4        5008        5009        5060        5059
         4        5009        5010        5061        5060
         4        5010        5011        5062        5061
         4        5011        5012        5063        5062
         4        5012        5013        5064        5063
         4        5013        5014        5065        5064
         4        5014        5015        5066        5065
         4        5015        5016        5067        5066
         4        5016        5017        5068        5067
         4        5017        5018        5069        5068
         4        5018        5019        5070        5069
         4        5019        5020        5071        5070
         4        5020        5021        5072        5071
         4        5021        5022        5073        5072
         4        5022        5023        5074        5073
         4        5023        5024        5075        5074
         4        5024        5025        5076        5075
         4        5025        5026        5077        5076
         4        5026        5027        5078        5077
         4        5027        5028        5079        5078
         4        5028        5029        5080        5079
         4        5029        5030        5081        5080
         4        5030        5031        5082        5081
         4        5031        5032        5083        5082
         4        5032        5033        5084        5083
         4        5033        5034        5085        5084
         4        5034        5035        5086        5085
         4        5035        5036        5087        5086
         4        5036        5037        5088        5087
         4        5037        5038        5089        5088
         4        5038        5039        5090        5089
         4        5039        5040        5091        5090
         4        5040        5041        5092        5091
         4        5041        5042        5093        5092
         4        5042        5043        5094        5093
         4        5043        5044        5095        5094
         4        5044        5045        5096        5095
         4        5045        5046        5097        5096
         4        5046        5047        5098        5097
         4        5047        5048        5099        5098
         4        5049        5050        5101        5100
         4        5050        5051        5102        5101
         4        5051        5052        5103        5102
         4        5052        5053        5104        5103
         4        5053        5054        5105        5104
         4        5054        5055        5106        5105
         4        5055        5056        5107        5106
         4        5056        5057        5108        5107
         4        5057        5058        5109        5108
         4        5058        5059        5110        5109
         4        5059        5060        5111        5110
         4        5060        5061        5112        5111
         4        5061        5062        5113        5112
         4        5062        5063        5114        5113
         4        5063        5064        5115        5114
         4        5064        5065        5116        5115
         4        5065        5066        5117        5116
         4        5066        5067        5118        5117
         4        5067        5068        5119        5118
         4        5068        5069        5120        5119
         4        5069        5070        5121        5120
         4        5070        5071        5122        5121
         4        5071        5072        5123        5122
         4        5072        5073        5124        5123
         4        5073        5074        5125        5124
         4        5074        5075        5126        5125
         4        5075        5076        5127        5126
         4        5076        5077        5128        5127
         4        5077        5078        5129        5128
         4        5078        5079        5130        5129
         4        5079        5080        5131        5130
         4        5080        5081        5132        5131
         4        5081        5082        5133        5132
         4        5082        5083        5134        5133
         4        5083        5084        5135        5134
         4        5084        5085        5136        5135
         4        5085        5086        5137        5136
         4        5086        5087        5138        5137
         4        5087        5088        5139        5138
         4        5088        5089        5140        5139
         4        5089        5090        5141        5140
         4        5090        5091        5142        5141
         4        5091        5092        5143        5142
         4        5092        5093        5144        5143
         4        5093        5094        5145        5144
         4        5094        5095        5146        5145
         4        5095        5096        5147        5146
         4        5096        5097        5148        5147
         4        5097        5098        5149        5148
         4        5098        5099        5150        5149
CELL_TYPES       5000
9
9
9
9
9
9
9
9
9
9
9
9
9
9
9
9
9
9
9
9
9
9
9
9
9
9
9
9
9
9
9
9
9
9
9
9
9
9
9
9
9
9
9
9
9
9
9
9
9
9
9
9
9
9
9
9
9
9
9
9
9
9
9
9
9
9
9
9
9
9
9
9
9
9
9
9
9
9
9
9
9
9
9
9
9
9
9
9
9
9
9
9
9
9
9
9
9
9
9
9
9
9
9
9
9
9
9
9
9
9
9
9
9
9
9
9
9
9
9
9
9
9
9
9
9
9
9
9
9
9
9
9
9
9
9
9
9
9
9
9
9
9
9
9
9
9
9
9
9
9
9
9
9
9
9
9
9
9
9
9
9
9
9
9
9
9
9
9
9
9
9
9
9
9
9
9
9
9
9
9
9
9
9
9
9
9
9
9
9
9
9
9
9
9
9
9
9
9
9
9
9
9
9
9
9
9
9
9
9
9
9
9
9
9
9
9
9
9
9
9
9
9
9
9
9
9
9
9
9
9
9
9
9
9
9
9
9
9
9
9
9
9
9
9
9
9
9
9
9
9
9
9
9
9
9
9
9
9
9
9
9
9
9
9
9
9
9
9
9
9
9
9
9
9
9
9
9
9
9
9
9
9
9
9
9
9
9
9
9
9
9
9
9
9
9
9
9
9
9
9
9
9
9
9
9
9
9
9
9
9
9
9
9
9
9
9
9
9
9
9
9
9
9
9
9
9
9
9
9
9
9
9
9
9
9
9
9
9
9
9
9
9
9
9
9
9
9
9
9
9
9
9
9
9
9
9
9
9
9
9
9
9
9
9
9
9
9
9
9
9
9
9
9
9
9
9
9
9
9
9
9
9
9
9
9
9
9
9
9
9
9
9
9
9
9
9
9
9
9
9
9
9
9
9
9
9
9
9
9
9
9
9
9
9
9
9
9
9
9
9
9
9
9
9
9
9
9
9
9
9
9
9
9
9
9
9
9
9
9
9
9
9
9
9
9
9
9
9
9
9
9
9
9
9
9
9
9
9
9
9
9
9
9
9
9
9
9
9
9
9
9
9
9
9
9
9
9
9
9
9
9
9
9
9
9
9
9
9
9
9
9
9
9
9
9
9
9
9
9
9
9
9
9
9
9
9
9
9
9
9
9
9
9
9
9
9
9
9
9
9
9
9
9
9
9
9
9
9
9
9
9
9
9
9
9
9
9
9
9
9
9
9
9
9
9
9
9
9
9
9
9
9
9
9
9
9
9
9
9
9
9
9
9
9
9
9
9
9
9
9
9
9
9
9
9
9
9
9
9
9
9
9
9
9
9
9
9
9
9
9
9
9
9
9
9
9
9
9
9
9
9
9
9
9
9
9
9
9
9
9
9
9
9
9
9
9
9
9
9
9
9
9
9
9
9
9
9
9
9
9
9
9
9
9
9
9
9
9
9
9
9
9
9
9
9
9
9
9
9
9
9
9
9
9
9
9
9
9
9
9
9
9
9
9
9
9
9
9
9
9
9
9
9
9
9
9
9
9
9
9
9
9
9
9
9
9
9
9
9
9
9
9
9
9
9
9
9
9
9
9
9
9
9
9
9
9
9
9
9
9
9
9
9
9
9
9
9
9
9
9
9
9
9
9
9
9
9
9
9
9
9
9
9
9
9
9
9
9
9
9
9
9
9
9
9
9
9
9
9
9
9
9
9
9
9
9
9
9
9
9
9
9
9
9
9
9
9
9
9
9
9
9
9
9
9
9
9
9
9
9
9
9
9
9
9
9
9
9
9
9
9
9
9
9
9
9
9
9
9
9
9
9
9
9
9
9
9
9
9
9
9
9
9
9
9
9
9
9
9
9
9
9
9
9
9
9
9
9
9
9
9
9
9
9
9
9
9
9
9
9
9
9
9
9
9
9
9
9
9
9
9
9
9
9
9
9
9
9
9
9
9
9
9
9
9
9
9
9
9
9
9
9
9
9
9
9
9
9
9
9
9
9
9
9
9
9
9
9
9
9
9
9
9
9
9
9
9
9
9
9
9
9
9
9
9
9
9
9
9
9
9
9
9
9
9
9
9
9
9
9
9
9
9
9
9
9
9
9
9
9
9
9
9
9
9
9
9
9
9
9
9
9
9
9
9
9
9
9
9
9
9
9
9
9
9
9
9
9
9
9
9
9
9
9
9
9
9
9
9
9
9
9
9
9
9
9
9
9
9
9
9
9
9
9
9
9
9
9
9
9
9
9
9
9
9
9
9
9
9
9
9
9
9
9
9
9
9
9
9
9
9
9
9
9
9
9
9
9
9
9
9
9
9
9
9
9
9
9
9
9
9
9
9
9
9
9
9
9
9
9
9
9
9
9
9
9
9
9
9
9
9
9
9
9
9
9
9
9
9
9
9
9
9
9
9
9
9
9
9
9
9
9
9
9
9
9
9
9
9
9
9
9
9
9
9
9
9
9
9
9
9
9
9
9
9
9
9
9
9
9
9
9
9
9
9
9
9
9
9
9
9
9
9
9
9
9
9
9
9
9
9
9
9
9
9
9
9
9
9
9
9
9
9
9
9
9
9
9
9
9
9
9
9
9
9
9
9
9
9
9
9
9
9
9
9
9
9
9
9
9
9
9
9
9
9
9
9
9
9
9
9
9
9
9
9
9
9
9
9
9
9
9
9
9
9
9
9
9
9
9
9
9
9
9
9
9
9
9
9
9
9
9
9
9
9
9
9
9
9
9
9
9
9
9
9
9
9
9
9
9
9
9
9
9
9
9
9
9
9
9
9
9
9
9
9
9
9
9
9
9
9
9
9
9
9
9
9
9
9
9
9
9
9
9
9
9
9
9
9
9
9
9
9
9
9
9
9
9
9
9
9
9
9
9
9
9
9
9
9
9
9
9
9
9
9
9
9
9
9
9
9
9
9
9
9
9
9
9
9
9
9
9
9
9
9
9
9
9
9
9
9
9
9
9
9
9
9
9
9
9
9
9
9
9
9
9
9
9
9
9
9
9
9
9
9
9
9
9
9
9
9
9
9
9
9
9
9
9
9
9
9
9
9
9
9
9
9
9
9
9
9
9
9
9
9
9
9
9
9
9
9
9
9
9
9
9
9
9
9
9
9
9
9
9
9
9
9
9
9
9
9
9
9
9
9
9
9
9
9
9
9
9
9
9
9
9
9
9
9
9
9
9
9
9
9
9
9
9
9
9
9
9
9
9
9
9
9
9
9
9
9
9
9
9
9
9
9
9
9
9
9
9
9
9
9
9
9
9
9
9
9
9
9
9
9
9
9
9
9
9
9
9
9
9
9
9
9
9
9
9
9
9
9
9
9
9
9
9
9
9
9
9
9
9
9
9
9
9
9
9
9
9
9
9
9
9
9
9
9
9
9
9
9
9
9
9
9
9
9
9
9
9
9
9
9
9
9
9
9
9
9
9
9
9
9
9
9
9
9
9
9
9
9
9
9
9
9
9
9
9
9
9
9
9
9
9
9
9
9
9
9
9
9
9
9
9
9
9
9
9
9
9
9
9
9
9
9
9
9
9
9
9
9
9
9
9
9
9
9
9
9
9
9
9
9
9
9
9
9
9
9
9
9
9
9
9
9
9
9
9
9
9
9
9
9
9
9
9
9
9
9
9
9
9
9
9
9
9
9
9
9
9
9
9
9
9
9
9
9
9
9
9
9
9
9
9
9
9
9
9
9
9
9
9
9
9
9
9
9
9
9
9
9
9
9
9
9
9
9
9
9
9
9
9
9
9
9
9
9
9
9
9
9
9
9
9
9
9
9
9
9
9
9
9
9
9
9
9
9
9
9
9
9
9
9
9
9
9
9
9
9
9
9
9
9
9
9
9
9
9
9
9
9
9
9
9
9
9
9
9
9
9
9
9
9
9
9
9
9
9
9
9
9
9
9
9
9
9
9
9
9
9
9
9
9
9
9
9
9
9
9
9
9
9
9
9
9
9
9
9
9
9
9
9
9
9
9
9
9
9
9
9
9
9
9
9
9
9
9
9
9
9
9
9
9
9
9
9
9
9
9
9
9
9
9
9
9
9
9
9
9
9
9
9
9
9
9
9
9
9
9
9
9
9
9
9
9
9
9
9
9
9
9
9
9
9
9
9
9
9
9
9
9
9
9
9
9
9
9
9
9
9
9
9
9
9
9
9
9
9
9
9
9
9
9
9
9
9
9
9
9
9
9
9
9
9
9
9
9
9
9
9
9
9
9
9
9
9
9
9
9
9
9
9
9
9
9
9
9
9
9
9
9
9
9
9
9
9
9
9
9
9
9
9
9
9
9
9
9
9
9
9
9
9
9
9
9
9
9
9
9
9
9
9
9
9
9
9
9
9
9
9
9
9
9
9
9
9
9
9
9
9
9
9
9
9
9
9
9
9
9
9
9
9
9
9
9
9
9
9
9
9
9
9
9
9
9
9
9
9
9
9
9
9
9
9
9
9
9
9
9
9
9
9
9
9
9
9
9
9
9
9
9
9
9
9
9
9
9
9
9
9
9
9
9
9
9
9
9
9
9
9
9
9
9
9
9
9
9
9
9
9
9
9
9
9
9
9
9
9
9
9
9
9
9
9
9
9
9
9
9
9
9
9
9
9
9
9
9
9
9
9
9
9
9
9
9
9
9
9
9
9
9
9
9
9
9
9
9
9
9
9
9
9
9
9
9
9
9
9
9
9
9
9
9
9
9
9
9
9
9
9
9
9
9
9
9
9
9
9
9
9
9
9
9
9
9
9
9
9
9
9
9
9
9
9
9
9
9
9
9
9
9
9
9
9
9
9
9
9
9
9
9
9
9
9
9
9
9
9
9
9
9
9
9
9
9
9
9
9
9
9
9
9
9
9
9
9
9
9
9
9
9
9
9
9
9
9
9
9
9
9
9
9
9
9
9
9
9
9
9
9
9
9
9
9
9
9
9
9
9
9
9
9
9
9
9
9
9
9
9
9
9
9
9
9
9
9
9
9
9
9
9
9
9
9
9
9
9
9
9
9
9
9
9
9
9
9
9
9
9
9
9
9
9
9
9
9
9
9
9
9
9
9
9
9
9
9
9
9
9
9
9
9
9
9
9
9
9
9
9
9
9
9
9
9
9
9
9
9
9
9
9
9
9
9
9
9
9
9
9
9
9
9
9
9
9
9
9
9
9
9
9
9
9
9
9
9
9
9
9
9
9
9
9
9
9
9
9
9
9
9
9
9
9
9
9
9
9
9
9
9
9
9
9
9
9
9
9
9
9
9
9
9
9
9
9
9
9
9
9
9
9
9
9
9
9
9
9
9
9
9
9
9
9
9
9
9
9
9
9
9
9
9
9
9
9
9
9
9
9
9
9
9
9
9
9
9
9
9
9
9
9
9
9
9
9
9
9
9
9
9
9
9
9
9
9
9
9
9
9
9
9
9
9
9
9
9
9
9
9
9
9
9
9
9
9
9
9
9
9
9
9
9
9
9
9
9
9
9
9
9
9
9
9
9
9
9
9
9
9
9
9
9
9
9
9
9
9
9
9
9
9
9
9
9
9
9
9
9
9
9
9
9
9
9
9
9
9
9
9
9
9
9
9
9
9
9
9
9
9
9
9
9
9
9
9
9
9
9
9
9
9
9
9
9
9
9
9
9
9
9
9
9
9
9
9
9
9
9
9
9
9
9
9
9
9
9
9
9
9
9
9
9
9
9
9
9
9
9
9
9
9
9
9
9
9
9
9
9
9
9
9
9
9
9
9
9
9
9
9
9
9
9
9
9
9
9
9
9
9
9
9
9
9
9
9
9
9
9
9
9
9
9
9
9
9
9
9
9
9
9
9
9
9
9
9
9
9
9
9
9
9
9
9
9
9
9
9
9
9
9
9
9
9
9
9
9
9
9
9
9
9
9
9
9
9
9
9
9
9
9
9
9
9
9
9
9
9
9
9
9
9
9
9
9
9
9
9
9
9
9
9
9
9
9
9
9
9
9
9
9
9
9
9
9
9
9
9
9
9
9
9
9
9
9
9
9
9
9
9
9
9
9
9
9
9
9
9
9
9
9
9
9
9
9
9
9
9
9
9
9
9
9
9
9
9
9
9
9
9
9
9
9
9
9
9
9
9
9
9
9
9
9
9
9
9
9
9
9
9
9
9
9
9
9
9
9
9
9
9
9
9
9
9
9
9
9
9
9
9
9
9
9
9
9
9
9
9
9
9
9
9
9
9
9
9
9
9
9
9
9
9
9
9
9
9
9
9
9
9
9
9
9
9
9
9
9
9
9
9
9
9
9
9
9
9
9
9
9
9
9
9
9
9
9
9
9
9
9
9
9
9
9
9
9
9
9
9
9
9
9
9
9
9
9
9
9
9
9
9
9
9
9
9
9
9
9
9
9
9
9
9
9
9
9
9
9
9
9
9
9
9
9
9
9
9
9
9
9
9
9
9
9
9
9
9
9
9
9
9
9
9
9
9
9
9
9
9
9
9
9
9
9
9
9
9
9
9
9
9
9
9
9
9
9
9
9
9
9
9
9
9
9
9
9
9
9
9
9
9
9
9
9
9
9
9
9
9
9
9
9
9
9
9
9
9
9
9
9
9
9
9
9
9
9
9
9
9
9
9
9
9
9
9
9
9
9
9
9
9
9
9
9
9
9
9
9
9
9
9
9
9
9
9
9
9
9
9
9
9
9
9
9
9
9
9
9
9
9
9
9
9
9
9
9
9
9
9
9
9
9
9
9
9
9
9
9
9
9
9
9
9
9
9
9
9
9
9
9
9
9
9
9
9
9
9
9
9
9
9
9
9
9
9
9
9
9
9
9
9
9
9
9
9
9
9
9
9
9
9
9
9
9
9
9
9
9
9
9
9
9
9
9
9
9
9
9
9
9
9
9
9
9
9
9
9
9
9
9
9
9
9
9
9
9
9
9
9
9
9
9
9
9
9
9
9
9
9
9
9
9
9
9
9
9
9
9
9
9
9
9
9
9
9
9
9
9
9
9
9
9
9
9
9
9
9
9
9
9
9
9
9
9
9
9
9
9
9
9
9
9
9
9
9
9
9
9
9
9
9
9
9
9
9
9
9
9
9
9
9
9
9
9
9
9
9
9
9
9
9
9
9
9
9
9
9
9
9
9
9
9
9
9
9
9
9
9
9
9
9
9
9
9
9
9
9
9
9
9
9
9
9
9
9
9
9
9
9
9
9
9
9
9
9
9
9
9
9
9
9
9
9
9
9
9
9
9
9
9
9
9
9
9
9
9
9
9
9
9
9
9
9
9
9
9
9
9
9
9
9
9
9
9
9
9
9
9
9
9
9
9
9
9
9
9
9
9
9
9
9
9
9
9
9
9
9
9
9
9
9
9
9
9
9
9
9
9
9
9
9
9
9
9
9
9
9
9
9
9
9
9
9
9
9
9
9
9
9
9
9
9
9
9
9
9
9
9
9
9
9
9
9
9
9
9
9
9
9
9
9
9
9
9
9
9
9
9
9
9
9
9
9
9
9
9
9
9
9
9
9
9
9
9
9
9
9
9
9
9
9
9
9
9
9
9
9
9
9
9
9
9
9
9
9
9
9
9
9
9
9
9
9
9
9
9
9
9
9
9
9
9
9
9
9
9
9
9
9
9
9
9
9
9
9
9
9
9
9
9
9
9
9
9
9
9
9
9
9
9
9
9
9
9
9
9
9
9
9
9
9
9
9
9
9
9
9
9
9
9
9
9
9
9
9
9
9
9
9
9
9
9
9
9
9
9
9
9
9
9
9
9
9
9
9
9
9
9
9
9
9
9
9
9
9
9
9
9
9
9
9
9
9
9
9
9
9
9
9
9
9
9
9
9
9
9
9
9
9
9
9
9
9
9
9
9
9
9
9
9
9
9
9
9
9
9
9
9
9
9
9
9
9
9
9
9
9
9
9
9
9
9
9
9
9
9
9
9
9
9
9
9
9
9
9
9
9
9
9
9
9
9
9
9
9
9
9
9
9
9
9
9
9
9
9
9
9
9
9
9
9
9
9
9
9
9
9
9
9
9
9
9
9
9
9
9
9
9
9
9
9
9
9
9
9
9
9
9
9
9
9
9
9
9
9
9
9
9
9
9
9
9
9
9
9
9
9
9
9
9
9
9
9
9
9
9
9
9
9
9
9
9
9
9
9
9
9
9
9
9
9
9
9
9
9
9
9
9
9
9
9
9
9
9
9
9
9
9
9
9
9
9
9
9
9
9
9
9
9
9
9
9
9
9
9
9
9
9
9
9
9
9
9
9
9
9
9
9
9
9
9
9
9
9
9
9
9
9
9
9
9
9
9
9
9
9
9
9
9
9
9
9
9
9
9
9
9
9
9
9
9
9
9
9
9
9
9
9
9
9
9
9
9
9
9
9
9
9
9
9
9
9
9
9
9
9
9
9
9
9
9
9
9
9
9
9
9
9
9
9
9
9
9
9
9
9
9
9
9
9
9
9
9
9
9
9
9
9
9
9
9
9
9
9
9
9
9
9
9
9
9
9
9
9
9
9
9
9
9
9
9
9
9
9
9
9
9
9
9
9
9
9
9
9
9
9
9
9
9
9
9
9
9
9
9
9
9
9
9
9
9
9
9
9
9
9
9
9
9
9
9
9
9
9
9
9
9
9
9
9
9
9
9
9
9
9
9
9
9
9
9
9
9
9
9
9
9
9
9
9
9
9
9
9
9
9
9
9
9
9
9
9
9
9
9
9
9
9
9
9
9
9
9
9
9
9
9
9
9
9
9
9
9
9
9
9
9
9
9
9
9
9
9
9
9
9
9
9
9
9
9
9
9
9
9
9
9
9
9
9
9
9
9
9
9
9
9
9
9
9
9
9
9
9
9
9
9
9
9
9
9
9
9
9
9
9
9
9
9
9
9
9
9
9
9
9
9
9
9
9
9
9
9
9
9
9
9
9
9
9
9
9
9
9
9
9
9
9
9
9
9
9
9
9
9
9
9
9
9
9
9
9
9
9
9
9
9
9
9
9
9
9
9
9
9
9
9
9
9
9
9
9
9
9
9
9
9
9
9
9
9
9
9
9
9
9
9
9
9
9
9
9
9
9
9
9
9
9
9
9
9
9
9
9
9
9
9
9
9
9
9
9
9
9
9
9
9
9
9
9
9
9
9
9
9
9
9
9
9
9
9
9
9
9
9
9
9
9
9
9
9
9
9
9
9
9
9
9
9
9
9
9
9
9
9
9
9
9
9
9
9
9
9
9
9
9
9
9
9
9
9
9
9
9
9
9
9
9
9
9
9
9
9
9
9
9
9
9
9
9
9
9
9
9
9
9
9
9
9
9
9
9
9
9
9
9
9
9
9
9
9
9
9
9
9
9
9
9
9
9
9
9
9
9
9
9
9
9
9
9
9
9
9
9
9
9
9
9
9
9
9
9
9
9
9
9
9
9
9
9
9
9
9
9
9
9
9
9
9
9
9
9
9
9
9
9
9
9
9
9
9
9
9
9
9
9
9
9
9
9
9
9
9
9
9
9
9
9
9
9
9
9
9
9
9
9
9
9
9
9
9
9
9
9
9
9
9
9
9
9
9
9
9
9
9
9
9
9
9
9
9
9
9
9
9
9
9
9
9
9
9
9
9
9
9
9
9
9
9
9
9
9
9
9
9
9
9
9
9
9
9
9
9
9
9
9
9
9
9
9
9
9
9
9
9
9
9
9
9
9
9
9
9
9
9
9
9
9
9
9
9
9
9
9
9
9
9
9
9
9
9
9
9
9
9
9
9
9
9
9
9
9
9
9
9
9
9
9
9
9
9
9
9
9
9
9
9
9
9
9
9
9
9
9
9
9
9
9
9
9
9
9
9
9
9
9
9
9
9
9
9
9
9
9
9
9
9
9
9
9
9
9
9
9
9
9
9
9
9
9
9
9
9
9
9
9
9
9
9
9
9
9
9
9
9
9
9
9
9
9
9
9
9
9
9
9
9
9
9
9
9
9
9
9
9
9
9
9
9
9
9
9
9
9
9
9
9
9
9
9
9
9
9
9
9
9
9
9
9
9
9
9
9
9
9
9
9
9
9
9
9
9
9
9
9
9
9
9
9
9
9
9
9
9
9
9
9
9
9
9
9
9
9
9
9
9
9
9
9
9
9
9
9
9
9
9
9
9
9
9
9
9
9
9
9
9
9
9
9
9
9
9
9
9
9
9
9
9
9
9
9
9
9
9
9
9
9
9
9
9
9
9
9
9
9
9
9
9
9
9
9
9
9
9
9
9
9
9
9
9
9
9
9
9
9
9
9
9
9
9
9
9
9
9
9
9
9
9
9
9
9
9
9
9
9
9
9
9
9
9
9
9
9
9
9
9
9
9
9
9
9
9
9
9
9
9
9
9
9
9
9
9
9
9
9
9
9
9
9
9
9
9
9
9
9
9
9
9
9
9
9
9
9
9
9
9
9
9
9
9
9
9
9
9
9
9
9
9
9
9
9
9
9
9
9
9
9
9
9
9
9
9
9
9
9
9
9
9
9
9
9
9
9
9
9
9
9
9
9
9
9
9
9
9
9
9
9
9
9
9
9
9
9
9
9
9
9
9
9
9
9
9
9
9
9
9
9
9
9
9
9
9
9
9
9
9
9
9
9
9
9
9
9
9
9
9
9
9
9
9
9
9
9
9
9
9
9
9
9
9
9
9
9
9
9
9
9
9
9
9
9
9
9
9
9
9
9
9
9
9
9
9
9
9
9
9
9
9
9
9
9
9
9
9
9
9
9
9
9
9
9
9
9
9
9
9
9
9
9
9
9
9
9
9
9
9
9
9
9
9
9
9
9
9
9
9
9
9
9
9
9
9
9
9
9
9
9
9
9
9
9
9
9
9
9
9
9
9
9
9
9
9
9
9
9
9
9
9
9
9
9
9
9
9
9
9
9
9
9
9
9
9
9
9
9
9
9
9
9
9
9
9
9
9
9
9
9
9
9
9
9
9
9
9
9
9
9
9
9
9
9
9
9
9
9
9
9
9
9
9
9
9
9
9
9
9
9
9
9
9
9
9
9
9
9
9
9
9
9
9
9
9
9
9
9
9
9
9
9
9
9
9
9
9
9
9
9
9
9
9
9
9
9
9
9
9
9
9
9
9
9
9
9
9
9
9
9
9
9
9
9
9
9
9
9
9
9
9
9
9
9
9
9
9
9
9
9
9
9
9
9
9
9
9
9
9
9
9
9
9
9
9
9
9
9
9
9
9
9
9
9
9
9
9
9
9
9
9
9
9
9
9
9
9
9
9
9
9
9
9
POINT_DATA      5151
SCALARS p double 
LOOKUP_TABLE default
   70000000.0000000     
   70000000.0000000     
   70000000.0000000     
   70000000.0000000     
   70000000.0000000     
   70000000.0000000     
   70000000.0000000     
   70000000.0000000     
   70000000.0000000     
   70000000.0000000     
   70000000.0000000     
   70000000.0000000     
   70000000.0000000     
   70000000.0000000     
   70000000.0000000     
   70000000.0000000     
   70000000.0000000     
   70000000.0000000     
   70000000.0000000     
   70000000.0000000     
   70000000.0000000     
   70000000.0000000     
   70000000.0000000     
   70000000.0000000     
   70000000.0000000     
   70000000.0000000     
   70000000.0000000     
   70000000.0000000     
   70000000.0000000     
   70000000.0000000     
   70000000.0000000     
   70000000.0000000     
   70000000.0000000     
   70000000.0000000     
   70000000.0000000     
   70000000.0000000     
   70000000.0000000     
   70000000.0000000     
   70000000.0000000     
   70000000.0000000     
   70000000.0000000     
   70000000.0000000     
   70000000.0000000     
   70000000.0000000     
   70000000.0000000     
   70000000.0000000     
   70000000.0000000     
   70000000.0000000     
   70000000.0000000     
   70000000.0000000     
   70000000.0000000     
   63823119.0222735     
   63823119.0222735     
   63823119.0222735     
   63823119.0222735     
   63823119.0222735     
   63823119.0222735     
   63823119.0222735     
   63823119.0222735     
   63823119.0222735     
   63823119.0222734     
   63823119.0222734     
   63823119.0222734     
   63823119.0222734     
   63823119.0222734     
   63823119.0222734     
   63823119.0222734     
   63823119.0222734     
   63823119.0222734     
   63823119.0222734     
   63823119.0222734     
   63823119.0222734     
   63823119.0222734     
   63823119.0222734     
   63823119.0222734     
   63823119.0222734     
   63823119.0222735     
   63823119.0222735     
   63823119.0222735     
   63823119.0222735     
   63823119.0222735     
   63823119.0222735     
   63823119.0222735     
   63823119.0222735     
   63823119.0222735     
   63823119.0222735     
   63823119.0222735     
   63823119.0222735     
   63823119.0222735     
   63823119.0222735     
   63823119.0222735     
   63823119.0222735     
   63823119.0222735     
   63823119.0222735     
   63823119.0222735     
   63823119.0222735     
   63823119.0222735     
   63823119.0222735     
   63823119.0222735     
   63823119.0222735     
   63823119.0222735     
   63823119.0222735     
   58566179.7818773     
   58566179.7818773     
   58566179.7818773     
   58566179.7818773     
   58566179.7818772     
   58566179.7818772     
   58566179.7818772     
   58566179.7818772     
   58566179.7818771     
   58566179.7818772     
   58566179.7818771     
   58566179.7818771     
   58566179.7818771     
   58566179.7818772     
   58566179.7818772     
   58566179.7818772     
   58566179.7818772     
   58566179.7818772     
   58566179.7818772     
   58566179.7818772     
   58566179.7818773     
   58566179.7818773     
   58566179.7818772     
   58566179.7818772     
   58566179.7818772     
   58566179.7818771     
   58566179.7818771     
   58566179.7818771     
   58566179.7818771     
   58566179.7818771     
   58566179.7818771     
   58566179.7818772     
   58566179.7818772     
   58566179.7818773     
   58566179.7818773     
   58566179.7818773     
   58566179.7818772     
   58566179.7818773     
   58566179.7818773     
   58566179.7818773     
   58566179.7818773     
   58566179.7818773     
   58566179.7818773     
   58566179.7818773     
   58566179.7818772     
   58566179.7818772     
   58566179.7818772     
   58566179.7818772     
   58566179.7818772     
   58566179.7818772     
   58566179.7818771     
   54743026.6240857     
   54743026.6240857     
   54743026.6240856     
   54743026.6240856     
   54743026.6240856     
   54743026.6240856     
   54743026.6240856     
   54743026.6240855     
   54743026.6240855     
   54743026.6240856     
   54743026.6240857     
   54743026.6240858     
   54743026.6240858     
   54743026.6240857     
   54743026.6240857     
   54743026.6240858     
   54743026.6240858     
   54743026.6240858     
   54743026.6240858     
   54743026.6240858     
   54743026.6240859     
   54743026.6240858     
   54743026.6240858     
   54743026.6240858     
   54743026.6240858     
   54743026.6240858     
   54743026.6240858     
   54743026.6240858     
   54743026.6240858     
   54743026.6240859     
   54743026.6240859     
   54743026.6240859     
   54743026.6240859     
   54743026.6240859     
   54743026.6240860     
   54743026.6240860     
   54743026.6240859     
   54743026.6240859     
   54743026.6240858     
   54743026.6240858     
   54743026.6240857     
   54743026.6240857     
   54743026.6240857     
   54743026.6240857     
   54743026.6240857     
   54743026.6240857     
   54743026.6240857     
   54743026.6240857     
   54743026.6240857     
   54743026.6240857     
   54743026.6240857     
   52349189.6980267     
   52349189.6980267     
   52349189.6980267     
   52349189.6980267     
   52349189.6980267     
   52349189.6980267     
   52349189.6980267     
   52349189.6980268     
   52349189.6980268     
   52349189.6980268     
   52349189.6980268     
   52349189.6980268     
   52349189.6980268     
   52349189.6980269     
   52349189.6980269     
   52349189.6980270     
   52349189.6980270     
   52349189.6980270     
   52349189.6980270     
   52349189.6980270     
   52349189.6980270     
   52349189.6980270     
   52349189.6980270     
   52349189.6980270     
   52349189.6980270     
   52349189.6980270     
   52349189.6980271     
   52349189.6980271     
   52349189.6980271     
   52349189.6980271     
   52349189.6980270     
   52349189.6980271     
   52349189.6980271     
   52349189.6980271     
   52349189.6980271     
   52349189.6980270     
   52349189.6980270     
   52349189.6980270     
   52349189.6980270     
   52349189.6980270     
   52349189.6980270     
   52349189.6980270     
   52349189.6980270     
   52349189.6980269     
   52349189.6980269     
   52349189.6980269     
   52349189.6980269     
   52349189.6980269     
   52349189.6980268     
   52349189.6980269     
   52349189.6980269     
   51045709.8710371     
   51045709.8710371     
   51045709.8710371     
   51045709.8710371     
   51045709.8710371     
   51045709.8710371     
   51045709.8710372     
   51045709.8710371     
   51045709.8710371     
   51045709.8710371     
   51045709.8710371     
   51045709.8710372     
   51045709.8710371     
   51045709.8710372     
   51045709.8710372     
   51045709.8710372     
   51045709.8710373     
   51045709.8710373     
   51045709.8710373     
   51045709.8710374     
   51045709.8710374     
   51045709.8710374     
   51045709.8710374     
   51045709.8710374     
   51045709.8710375     
   51045709.8710375     
   51045709.8710375     
   51045709.8710375     
   51045709.8710374     
   51045709.8710374     
   51045709.8710375     
   51045709.8710375     
   51045709.8710375     
   51045709.8710374     
   51045709.8710375     
   51045709.8710374     
   51045709.8710374     
   51045709.8710374     
   51045709.8710374     
   51045709.8710374     
   51045709.8710374     
   51045709.8710374     
   51045709.8710373     
   51045709.8710373     
   51045709.8710372     
   51045709.8710372     
   51045709.8710371     
   51045709.8710371     
   51045709.8710371     
   51045709.8710371     
   51045709.8710371     
   50421291.6493363     
   50421291.6493363     
   50421291.6493363     
   50421291.6493363     
   50421291.6493364     
   50421291.6493364     
   50421291.6493363     
   50421291.6493363     
   50421291.6493363     
   50421291.6493363     
   50421291.6493363     
   50421291.6493363     
   50421291.6493363     
   50421291.6493363     
   50421291.6493364     
   50421291.6493364     
   50421291.6493364     
   50421291.6493365     
   50421291.6493365     
   50421291.6493365     
   50421291.6493365     
   50421291.6493365     
   50421291.6493365     
   50421291.6493365     
   50421291.6493365     
   50421291.6493365     
   50421291.6493365     
   50421291.6493365     
   50421291.6493366     
   50421291.6493366     
   50421291.6493366     
   50421291.6493366     
   50421291.6493366     
   50421291.6493366     
   50421291.6493366     
   50421291.6493366     
   50421291.6493366     
   50421291.6493365     
   50421291.6493365     
   50421291.6493365     
   50421291.6493365     
   50421291.6493364     
   50421291.6493364     
   50421291.6493364     
   50421291.6493363     
   50421291.6493363     
   50421291.6493363     
   50421291.6493363     
   50421291.6493362     
   50421291.6493362     
   50421291.6493362     
   50154894.1839097     
   50154894.1839097     
   50154894.1839096     
   50154894.1839096     
   50154894.1839096     
   50154894.1839096     
   50154894.1839096     
   50154894.1839096     
   50154894.1839095     
   50154894.1839095     
   50154894.1839095     
   50154894.1839094     
   50154894.1839094     
   50154894.1839095     
   50154894.1839095     
   50154894.1839096     
   50154894.1839096     
   50154894.1839096     
   50154894.1839096     
   50154894.1839096     
   50154894.1839096     
   50154894.1839096     
   50154894.1839096     
   50154894.1839096     
   50154894.1839096     
   50154894.1839096     
   50154894.1839096     
   50154894.1839097     
   50154894.1839098     
   50154894.1839098     
   50154894.1839098     
   50154894.1839098     
   50154894.1839098     
   50154894.1839097     
   50154894.1839096     
   50154894.1839096     
   50154894.1839096     
   50154894.1839096     
   50154894.1839096     
   50154894.1839096     
   50154894.1839097     
   50154894.1839097     
   50154894.1839097     
   50154894.1839096     
   50154894.1839095     
   50154894.1839095     
   50154894.1839095     
   50154894.1839094     
   50154894.1839094     
   50154894.1839094     
   50154894.1839094     
   50052427.8626423     
   50052427.8626423     
   50052427.8626423     
   50052427.8626423     
   50052427.8626423     
   50052427.8626423     
   50052427.8626423     
   50052427.8626422     
   50052427.8626422     
   50052427.8626422     
   50052427.8626422     
   50052427.8626422     
   50052427.8626421     
   50052427.8626421     
   50052427.8626421     
   50052427.8626421     
   50052427.8626421     
   50052427.8626421     
   50052427.8626421     
   50052427.8626421     
   50052427.8626421     
   50052427.8626421     
   50052427.8626421     
   50052427.8626421     
   50052427.8626421     
   50052427.8626421     
   50052427.8626422     
   50052427.8626422     
   50052427.8626423     
   50052427.8626423     
   50052427.8626423     
   50052427.8626423     
   50052427.8626423     
   50052427.8626422     
   50052427.8626423     
   50052427.8626422     
   50052427.8626422     
   50052427.8626423     
   50052427.8626423     
   50052427.8626423     
   50052427.8626423     
   50052427.8626422     
   50052427.8626422     
   50052427.8626421     
   50052427.8626421     
   50052427.8626420     
   50052427.8626420     
   50052427.8626420     
   50052427.8626420     
   50052427.8626420     
   50052427.8626420     
   50016477.4980577     
   50016477.4980577     
   50016477.4980577     
   50016477.4980577     
   50016477.4980577     
   50016477.4980577     
   50016477.4980577     
   50016477.4980577     
   50016477.4980576     
   50016477.4980575     
   50016477.4980575     
   50016477.4980575     
   50016477.4980574     
   50016477.4980574     
   50016477.4980574     
   50016477.4980574     
   50016477.4980573     
   50016477.4980573     
   50016477.4980573     
   50016477.4980573     
   50016477.4980573     
   50016477.4980573     
   50016477.4980572     
   50016477.4980572     
   50016477.4980572     
   50016477.4980573     
   50016477.4980573     
   50016477.4980573     
   50016477.4980574     
   50016477.4980574     
   50016477.4980574     
   50016477.4980574     
   50016477.4980574     
   50016477.4980574     
   50016477.4980574     
   50016477.4980574     
   50016477.4980574     
   50016477.4980573     
   50016477.4980573     
   50016477.4980574     
   50016477.4980574     
   50016477.4980574     
   50016477.4980574     
   50016477.4980573     
   50016477.4980573     
   50016477.4980572     
   50016477.4980572     
   50016477.4980572     
   50016477.4980572     
   50016477.4980572     
   50016477.4980572     
   50004847.5175595     
   50004847.5175595     
   50004847.5175595     
   50004847.5175595     
   50004847.5175596     
   50004847.5175595     
   50004847.5175595     
   50004847.5175594     
   50004847.5175594     
   50004847.5175593     
   50004847.5175592     
   50004847.5175592     
   50004847.5175592     
   50004847.5175592     
   50004847.5175591     
   50004847.5175591     
   50004847.5175591     
   50004847.5175591     
   50004847.5175591     
   50004847.5175591     
   50004847.5175591     
   50004847.5175590     
   50004847.5175590     
   50004847.5175590     
   50004847.5175590     
   50004847.5175590     
   50004847.5175590     
   50004847.5175591     
   50004847.5175591     
   50004847.5175591     
   50004847.5175591     
   50004847.5175591     
   50004847.5175591     
   50004847.5175590     
   50004847.5175590     
   50004847.5175590     
   50004847.5175590     
   50004847.5175590     
   50004847.5175590     
   50004847.5175590     
   50004847.5175589     
   50004847.5175589     
   50004847.5175589     
   50004847.5175588     
   50004847.5175588     
   50004847.5175588     
   50004847.5175588     
   50004847.5175588     
   50004847.5175588     
   50004847.5175587     
   50004847.5175587     
   50001344.7061055     
   50001344.7061055     
   50001344.7061055     
   50001344.7061055     
   50001344.7061055     
   50001344.7061055     
   50001344.7061055     
   50001344.7061054     
   50001344.7061054     
   50001344.7061053     
   50001344.7061052     
   50001344.7061052     
   50001344.7061051     
   50001344.7061051     
   50001344.7061051     
   50001344.7061051     
   50001344.7061051     
   50001344.7061051     
   50001344.7061051     
   50001344.7061051     
   50001344.7061050     
   50001344.7061050     
   50001344.7061050     
   50001344.7061050     
   50001344.7061050     
   50001344.7061050     
   50001344.7061050     
   50001344.7061049     
   50001344.7061050     
   50001344.7061050     
   50001344.7061050     
   50001344.7061050     
   50001344.7061050     
   50001344.7061050     
   50001344.7061049     
   50001344.7061049     
   50001344.7061049     
   50001344.7061049     
   50001344.7061049     
   50001344.7061049     
   50001344.7061048     
   50001344.7061048     
   50001344.7061048     
   50001344.7061047     
   50001344.7061047     
   50001344.7061046     
   50001344.7061046     
   50001344.7061046     
   50001344.7061046     
   50001344.7061046     
   50001344.7061046     
   50000354.0382142     
   50000354.0382142     
   50000354.0382142     
   50000354.0382142     
   50000354.0382142     
   50000354.0382142     
   50000354.0382141     
   50000354.0382140     
   50000354.0382140     
   50000354.0382139     
   50000354.0382138     
   50000354.0382138     
   50000354.0382138     
   50000354.0382138     
   50000354.0382137     
   50000354.0382137     
   50000354.0382137     
   50000354.0382137     
   50000354.0382137     
   50000354.0382137     
   50000354.0382137     
   50000354.0382137     
   50000354.0382137     
   50000354.0382136     
   50000354.0382136     
   50000354.0382136     
   50000354.0382136     
   50000354.0382136     
   50000354.0382136     
   50000354.0382136     
   50000354.0382136     
   50000354.0382136     
   50000354.0382136     
   50000354.0382136     
   50000354.0382136     
   50000354.0382136     
   50000354.0382136     
   50000354.0382135     
   50000354.0382135     
   50000354.0382135     
   50000354.0382134     
   50000354.0382134     
   50000354.0382133     
   50000354.0382133     
   50000354.0382132     
   50000354.0382132     
   50000354.0382132     
   50000354.0382132     
   50000354.0382132     
   50000354.0382132     
   50000354.0382132     
   50000088.9778727     
   50000088.9778727     
   50000088.9778727     
   50000088.9778728     
   50000088.9778728     
   50000088.9778727     
   50000088.9778727     
   50000088.9778726     
   50000088.9778726     
   50000088.9778725     
   50000088.9778725     
   50000088.9778724     
   50000088.9778724     
   50000088.9778724     
   50000088.9778724     
   50000088.9778724     
   50000088.9778724     
   50000088.9778724     
   50000088.9778724     
   50000088.9778724     
   50000088.9778724     
   50000088.9778723     
   50000088.9778723     
   50000088.9778722     
   50000088.9778722     
   50000088.9778722     
   50000088.9778722     
   50000088.9778722     
   50000088.9778722     
   50000088.9778722     
   50000088.9778722     
   50000088.9778721     
   50000088.9778721     
   50000088.9778721     
   50000088.9778721     
   50000088.9778721     
   50000088.9778721     
   50000088.9778721     
   50000088.9778721     
   50000088.9778720     
   50000088.9778720     
   50000088.9778719     
   50000088.9778719     
   50000088.9778718     
   50000088.9778718     
   50000088.9778718     
   50000088.9778717     
   50000088.9778717     
   50000088.9778717     
   50000088.9778717     
   50000088.9778717     
   50000021.4536579     
   50000021.4536579     
   50000021.4536579     
   50000021.4536579     
   50000021.4536579     
   50000021.4536579     
   50000021.4536579     
   50000021.4536578     
   50000021.4536577     
   50000021.4536576     
   50000021.4536576     
   50000021.4536576     
   50000021.4536576     
   50000021.4536576     
   50000021.4536576     
   50000021.4536576     
   50000021.4536576     
   50000021.4536576     
   50000021.4536576     
   50000021.4536576     
   50000021.4536576     
   50000021.4536575     
   50000021.4536575     
   50000021.4536574     
   50000021.4536574     
   50000021.4536573     
   50000021.4536573     
   50000021.4536574     
   50000021.4536574     
   50000021.4536574     
   50000021.4536573     
   50000021.4536573     
   50000021.4536573     
   50000021.4536573     
   50000021.4536573     
   50000021.4536573     
   50000021.4536572     
   50000021.4536572     
   50000021.4536572     
   50000021.4536572     
   50000021.4536572     
   50000021.4536571     
   50000021.4536571     
   50000021.4536570     
   50000021.4536570     
   50000021.4536569     
   50000021.4536569     
   50000021.4536569     
   50000021.4536569     
   50000021.4536569     
   50000021.4536569     
   50000004.9842926     
   50000004.9842926     
   50000004.9842926     
   50000004.9842926     
   50000004.9842926     
   50000004.9842926     
   50000004.9842925     
   50000004.9842925     
   50000004.9842924     
   50000004.9842923     
   50000004.9842923     
   50000004.9842922     
   50000004.9842922     
   50000004.9842922     
   50000004.9842922     
   50000004.9842921     
   50000004.9842922     
   50000004.9842922     
   50000004.9842922     
   50000004.9842923     
   50000004.9842923     
   50000004.9842922     
   50000004.9842922     
   50000004.9842921     
   50000004.9842921     
   50000004.9842921     
   50000004.9842921     
   50000004.9842921     
   50000004.9842921     
   50000004.9842921     
   50000004.9842920     
   50000004.9842920     
   50000004.9842920     
   50000004.9842920     
   50000004.9842920     
   50000004.9842920     
   50000004.9842920     
   50000004.9842920     
   50000004.9842920     
   50000004.9842919     
   50000004.9842919     
   50000004.9842918     
   50000004.9842917     
   50000004.9842917     
   50000004.9842916     
   50000004.9842915     
   50000004.9842915     
   50000004.9842915     
   50000004.9842915     
   50000004.9842915     
   50000004.9842915     
   50000001.1200464     
   50000001.1200464     
   50000001.1200464     
   50000001.1200464     
   50000001.1200464     
   50000001.1200463     
   50000001.1200463     
   50000001.1200462     
   50000001.1200462     
   50000001.1200461     
   50000001.1200460     
   50000001.1200460     
   50000001.1200460     
   50000001.1200459     
   50000001.1200459     
   50000001.1200459     
   50000001.1200459     
   50000001.1200460     
   50000001.1200460     
   50000001.1200461     
   50000001.1200461     
   50000001.1200460     
   50000001.1200460     
   50000001.1200460     
   50000001.1200459     
   50000001.1200459     
   50000001.1200458     
   50000001.1200458     
   50000001.1200458     
   50000001.1200458     
   50000001.1200458     
   50000001.1200458     
   50000001.1200458     
   50000001.1200458     
   50000001.1200458     
   50000001.1200458     
   50000001.1200457     
   50000001.1200457     
   50000001.1200457     
   50000001.1200456     
   50000001.1200456     
   50000001.1200455     
   50000001.1200455     
   50000001.1200454     
   50000001.1200453     
   50000001.1200453     
   50000001.1200452     
   50000001.1200452     
   50000001.1200452     
   50000001.1200452     
   50000001.1200452     
   50000000.2442485     
   50000000.2442485     
   50000000.2442485     
   50000000.2442485     
   50000000.2442485     
   50000000.2442484     
   50000000.2442484     
   50000000.2442483     
   50000000.2442482     
   50000000.2442482     
   50000000.2442482     
   50000000.2442481     
   50000000.2442481     
   50000000.2442481     
   50000000.2442481     
   50000000.2442480     
   50000000.2442480     
   50000000.2442481     
   50000000.2442481     
   50000000.2442481     
   50000000.2442481     
   50000000.2442481     
   50000000.2442481     
   50000000.2442480     
   50000000.2442479     
   50000000.2442479     
   50000000.2442479     
   50000000.2442479     
   50000000.2442480     
   50000000.2442480     
   50000000.2442480     
   50000000.2442479     
   50000000.2442479     
   50000000.2442479     
   50000000.2442479     
   50000000.2442479     
   50000000.2442479     
   50000000.2442478     
   50000000.2442478     
   50000000.2442478     
   50000000.2442477     
   50000000.2442476     
   50000000.2442475     
   50000000.2442474     
   50000000.2442473     
   50000000.2442473     
   50000000.2442472     
   50000000.2442472     
   50000000.2442472     
   50000000.2442472     
   50000000.2442472     
   50000000.0518370     
   50000000.0518370     
   50000000.0518370     
   50000000.0518370     
   50000000.0518370     
   50000000.0518370     
   50000000.0518369     
   50000000.0518368     
   50000000.0518368     
   50000000.0518367     
   50000000.0518367     
   50000000.0518367     
   50000000.0518367     
   50000000.0518367     
   50000000.0518367     
   50000000.0518367     
   50000000.0518368     
   50000000.0518367     
   50000000.0518368     
   50000000.0518368     
   50000000.0518367     
   50000000.0518367     
   50000000.0518367     
   50000000.0518366     
   50000000.0518366     
   50000000.0518366     
   50000000.0518365     
   50000000.0518365     
   50000000.0518366     
   50000000.0518366     
   50000000.0518365     
   50000000.0518365     
   50000000.0518365     
   50000000.0518365     
   50000000.0518365     
   50000000.0518365     
   50000000.0518365     
   50000000.0518364     
   50000000.0518364     
   50000000.0518363     
   50000000.0518363     
   50000000.0518362     
   50000000.0518361     
   50000000.0518361     
   50000000.0518360     
   50000000.0518359     
   50000000.0518358     
   50000000.0518358     
   50000000.0518358     
   50000000.0518358     
   50000000.0518358     
   50000000.0107338     
   50000000.0107338     
   50000000.0107339     
   50000000.0107339     
   50000000.0107339     
   50000000.0107338     
   50000000.0107338     
   50000000.0107338     
   50000000.0107337     
   50000000.0107336     
   50000000.0107335     
   50000000.0107335     
   50000000.0107335     
   50000000.0107335     
   50000000.0107335     
   50000000.0107335     
   50000000.0107336     
   50000000.0107336     
   50000000.0107336     
   50000000.0107336     
   50000000.0107336     
   50000000.0107336     
   50000000.0107335     
   50000000.0107335     
   50000000.0107334     
   50000000.0107334     
   50000000.0107333     
   50000000.0107333     
   50000000.0107333     
   50000000.0107333     
   50000000.0107333     
   50000000.0107333     
   50000000.0107332     
   50000000.0107332     
   50000000.0107332     
   50000000.0107332     
   50000000.0107331     
   50000000.0107331     
   50000000.0107331     
   50000000.0107331     
   50000000.0107330     
   50000000.0107330     
   50000000.0107329     
   50000000.0107328     
   50000000.0107328     
   50000000.0107327     
   50000000.0107327     
   50000000.0107326     
   50000000.0107326     
   50000000.0107326     
   50000000.0107326     
   50000000.0021734     
   50000000.0021734     
   50000000.0021734     
   50000000.0021734     
   50000000.0021735     
   50000000.0021735     
   50000000.0021734     
   50000000.0021734     
   50000000.0021733     
   50000000.0021733     
   50000000.0021732     
   50000000.0021732     
   50000000.0021732     
   50000000.0021731     
   50000000.0021732     
   50000000.0021732     
   50000000.0021732     
   50000000.0021732     
   50000000.0021732     
   50000000.0021732     
   50000000.0021732     
   50000000.0021732     
   50000000.0021731     
   50000000.0021730     
   50000000.0021730     
   50000000.0021730     
   50000000.0021729     
   50000000.0021729     
   50000000.0021729     
   50000000.0021729     
   50000000.0021729     
   50000000.0021728     
   50000000.0021729     
   50000000.0021728     
   50000000.0021728     
   50000000.0021728     
   50000000.0021727     
   50000000.0021727     
   50000000.0021727     
   50000000.0021727     
   50000000.0021726     
   50000000.0021725     
   50000000.0021725     
   50000000.0021724     
   50000000.0021724     
   50000000.0021723     
   50000000.0021722     
   50000000.0021722     
   50000000.0021722     
   50000000.0021721     
   50000000.0021721     
   50000000.0004312     
   50000000.0004312     
   50000000.0004312     
   50000000.0004312     
   50000000.0004313     
   50000000.0004312     
   50000000.0004312     
   50000000.0004312     
   50000000.0004312     
   50000000.0004311     
   50000000.0004311     
   50000000.0004310     
   50000000.0004310     
   50000000.0004310     
   50000000.0004310     
   50000000.0004310     
   50000000.0004310     
   50000000.0004310     
   50000000.0004310     
   50000000.0004310     
   50000000.0004310     
   50000000.0004310     
   50000000.0004310     
   50000000.0004309     
   50000000.0004308     
   50000000.0004308     
   50000000.0004308     
   50000000.0004308     
   50000000.0004308     
   50000000.0004308     
   50000000.0004308     
   50000000.0004307     
   50000000.0004307     
   50000000.0004307     
   50000000.0004307     
   50000000.0004306     
   50000000.0004306     
   50000000.0004306     
   50000000.0004306     
   50000000.0004305     
   50000000.0004305     
   50000000.0004304     
   50000000.0004303     
   50000000.0004303     
   50000000.0004302     
   50000000.0004302     
   50000000.0004301     
   50000000.0004301     
   50000000.0004300     
   50000000.0004300     
   50000000.0004300     
   50000000.0000840     
   50000000.0000840     
   50000000.0000840     
   50000000.0000840     
   50000000.0000840     
   50000000.0000840     
   50000000.0000840     
   50000000.0000839     
   50000000.0000839     
   50000000.0000838     
   50000000.0000838     
   50000000.0000838     
   50000000.0000838     
   50000000.0000837     
   50000000.0000837     
   50000000.0000837     
   50000000.0000837     
   50000000.0000837     
   50000000.0000838     
   50000000.0000838     
   50000000.0000838     
   50000000.0000838     
   50000000.0000838     
   50000000.0000837     
   50000000.0000837     
   50000000.0000837     
   50000000.0000837     
   50000000.0000837     
   50000000.0000837     
   50000000.0000837     
   50000000.0000836     
   50000000.0000836     
   50000000.0000836     
   50000000.0000836     
   50000000.0000836     
   50000000.0000836     
   50000000.0000835     
   50000000.0000835     
   50000000.0000835     
   50000000.0000834     
   50000000.0000834     
   50000000.0000833     
   50000000.0000833     
   50000000.0000832     
   50000000.0000831     
   50000000.0000830     
   50000000.0000830     
   50000000.0000829     
   50000000.0000829     
   50000000.0000829     
   50000000.0000829     
   50000000.0000162     
   50000000.0000162     
   50000000.0000162     
   50000000.0000162     
   50000000.0000162     
   50000000.0000162     
   50000000.0000161     
   50000000.0000161     
   50000000.0000160     
   50000000.0000160     
   50000000.0000159     
   50000000.0000159     
   50000000.0000159     
   50000000.0000158     
   50000000.0000158     
   50000000.0000158     
   50000000.0000159     
   50000000.0000159     
   50000000.0000159     
   50000000.0000159     
   50000000.0000159     
   50000000.0000159     
   50000000.0000159     
   50000000.0000159     
   50000000.0000158     
   50000000.0000158     
   50000000.0000158     
   50000000.0000158     
   50000000.0000158     
   50000000.0000158     
   50000000.0000158     
   50000000.0000158     
   50000000.0000158     
   50000000.0000158     
   50000000.0000158     
   50000000.0000158     
   50000000.0000158     
   50000000.0000157     
   50000000.0000157     
   50000000.0000156     
   50000000.0000156     
   50000000.0000155     
   50000000.0000155     
   50000000.0000154     
   50000000.0000153     
   50000000.0000152     
   50000000.0000152     
   50000000.0000152     
   50000000.0000151     
   50000000.0000151     
   50000000.0000151     
   50000000.0000033     
   50000000.0000033     
   50000000.0000033     
   50000000.0000033     
   50000000.0000033     
   50000000.0000032     
   50000000.0000032     
   50000000.0000031     
   50000000.0000031     
   50000000.0000030     
   50000000.0000029     
   50000000.0000028     
   50000000.0000028     
   50000000.0000028     
   50000000.0000028     
   50000000.0000028     
   50000000.0000028     
   50000000.0000028     
   50000000.0000029     
   50000000.0000029     
   50000000.0000029     
   50000000.0000028     
   50000000.0000028     
   50000000.0000028     
   50000000.0000028     
   50000000.0000028     
   50000000.0000027     
   50000000.0000027     
   50000000.0000028     
   50000000.0000028     
   50000000.0000028     
   50000000.0000028     
   50000000.0000028     
   50000000.0000028     
   50000000.0000028     
   50000000.0000028     
   50000000.0000028     
   50000000.0000028     
   50000000.0000027     
   50000000.0000027     
   50000000.0000027     
   50000000.0000026     
   50000000.0000025     
   50000000.0000024     
   50000000.0000023     
   50000000.0000023     
   50000000.0000022     
   50000000.0000022     
   50000000.0000022     
   50000000.0000022     
   50000000.0000022     
   50000000.0000009     
   50000000.0000009     
   50000000.0000009     
   50000000.0000009     
   50000000.0000009     
   50000000.0000009     
   50000000.0000008     
   50000000.0000007     
   50000000.0000006     
   50000000.0000006     
   50000000.0000005     
   50000000.0000004     
   50000000.0000004     
   50000000.0000004     
   50000000.0000004     
   50000000.0000003     
   50000000.0000004     
   50000000.0000004     
   50000000.0000004     
   50000000.0000004     
   50000000.0000004     
   50000000.0000004     
   50000000.0000004     
   50000000.0000003     
   50000000.0000003     
   50000000.0000003     
   50000000.0000003     
   50000000.0000003     
   50000000.0000004     
   50000000.0000004     
   50000000.0000003     
   50000000.0000003     
   50000000.0000003     
   50000000.0000003     
   50000000.0000003     
   50000000.0000003     
   50000000.0000003     
   50000000.0000003     
   50000000.0000003     
   50000000.0000002     
   50000000.0000001     
   50000000.0000001     
   50000000.0000000     
   50000000.0000000     
   49999999.9999999     
   49999999.9999999     
   49999999.9999998     
   49999999.9999998     
   49999999.9999997     
   49999999.9999997     
   49999999.9999997     
   50000000.0000005     
   50000000.0000005     
   50000000.0000005     
   50000000.0000005     
   50000000.0000004     
   50000000.0000004     
   50000000.0000004     
   50000000.0000003     
   50000000.0000002     
   50000000.0000001     
   50000000.0000001     
   50000000.0000000     
   50000000.0000000     
   49999999.9999999     
   49999999.9999999     
   49999999.9999999     
   49999999.9999999     
   49999999.9999999     
   49999999.9999999     
   49999999.9999999     
   49999999.9999999     
   49999999.9999999     
   49999999.9999999     
   49999999.9999998     
   49999999.9999998     
   49999999.9999998     
   49999999.9999998     
   49999999.9999997     
   49999999.9999998     
   49999999.9999998     
   49999999.9999997     
   49999999.9999997     
   49999999.9999997     
   49999999.9999998     
   49999999.9999998     
   49999999.9999998     
   49999999.9999998     
   49999999.9999998     
   49999999.9999997     
   49999999.9999997     
   49999999.9999997     
   49999999.9999996     
   49999999.9999996     
   49999999.9999995     
   49999999.9999994     
   49999999.9999994     
   49999999.9999993     
   49999999.9999993     
   49999999.9999993     
   49999999.9999993     
   49999999.9999993     
   50000000.0000004     
   50000000.0000004     
   50000000.0000004     
   50000000.0000004     
   50000000.0000004     
   50000000.0000003     
   50000000.0000002     
   50000000.0000002     
   50000000.0000001     
   50000000.0000000     
   49999999.9999999     
   49999999.9999999     
   49999999.9999999     
   49999999.9999998     
   49999999.9999998     
   49999999.9999998     
   49999999.9999998     
   49999999.9999998     
   49999999.9999998     
   49999999.9999998     
   49999999.9999998     
   49999999.9999997     
   49999999.9999997     
   49999999.9999996     
   49999999.9999996     
   49999999.9999996     
   49999999.9999996     
   49999999.9999996     
   49999999.9999997     
   49999999.9999997     
   49999999.9999996     
   49999999.9999996     
   49999999.9999996     
   49999999.9999997     
   49999999.9999997     
   49999999.9999997     
   49999999.9999997     
   49999999.9999997     
   49999999.9999996     
   49999999.9999996     
   49999999.9999995     
   49999999.9999995     
   49999999.9999994     
   49999999.9999993     
   49999999.9999993     
   49999999.9999992     
   49999999.9999992     
   49999999.9999992     
   49999999.9999992     
   49999999.9999991     
   49999999.9999991     
   50000000.0000003     
   50000000.0000004     
   50000000.0000004     
   50000000.0000004     
   50000000.0000003     
   50000000.0000003     
   50000000.0000002     
   50000000.0000001     
   50000000.0000000     
   50000000.0000000     
   49999999.9999999     
   49999999.9999999     
   49999999.9999998     
   49999999.9999998     
   49999999.9999998     
   49999999.9999998     
   49999999.9999998     
   49999999.9999998     
   49999999.9999998     
   49999999.9999998     
   49999999.9999998     
   49999999.9999997     
   49999999.9999997     
   49999999.9999996     
   49999999.9999996     
   49999999.9999996     
   49999999.9999996     
   49999999.9999996     
   49999999.9999996     
   49999999.9999996     
   49999999.9999996     
   49999999.9999996     
   49999999.9999997     
   49999999.9999997     
   49999999.9999997     
   49999999.9999997     
   49999999.9999997     
   49999999.9999996     
   49999999.9999996     
   49999999.9999996     
   49999999.9999995     
   49999999.9999994     
   49999999.9999993     
   49999999.9999993     
   49999999.9999992     
   49999999.9999991     
   49999999.9999991     
   49999999.9999991     
   49999999.9999991     
   49999999.9999991     
   49999999.9999991     
   50000000.0000001     
   50000000.0000002     
   50000000.0000002     
   50000000.0000002     
   50000000.0000002     
   50000000.0000002     
   50000000.0000001     
   50000000.0000001     
   50000000.0000000     
   50000000.0000000     
   49999999.9999999     
   49999999.9999998     
   49999999.9999999     
   49999999.9999999     
   49999999.9999999     
   49999999.9999998     
   49999999.9999998     
   49999999.9999998     
   49999999.9999998     
   49999999.9999998     
   49999999.9999999     
   49999999.9999998     
   49999999.9999998     
   49999999.9999997     
   49999999.9999997     
   49999999.9999997     
   49999999.9999997     
   49999999.9999996     
   49999999.9999997     
   49999999.9999997     
   49999999.9999996     
   49999999.9999996     
   49999999.9999997     
   49999999.9999997     
   49999999.9999997     
   49999999.9999997     
   49999999.9999997     
   49999999.9999996     
   49999999.9999996     
   49999999.9999996     
   49999999.9999995     
   49999999.9999995     
   49999999.9999994     
   49999999.9999993     
   49999999.9999993     
   49999999.9999992     
   49999999.9999991     
   49999999.9999991     
   49999999.9999991     
   49999999.9999990     
   49999999.9999990     
   50000000.0000002     
   50000000.0000002     
   50000000.0000002     
   50000000.0000002     
   50000000.0000002     
   50000000.0000002     
   50000000.0000001     
   50000000.0000001     
   50000000.0000000     
   50000000.0000000     
   49999999.9999999     
   49999999.9999998     
   49999999.9999998     
   49999999.9999998     
   49999999.9999998     
   49999999.9999998     
   49999999.9999998     
   49999999.9999998     
   49999999.9999998     
   49999999.9999998     
   49999999.9999998     
   49999999.9999997     
   49999999.9999997     
   49999999.9999997     
   49999999.9999997     
   49999999.9999997     
   49999999.9999997     
   49999999.9999997     
   49999999.9999997     
   49999999.9999997     
   49999999.9999997     
   49999999.9999996     
   49999999.9999996     
   49999999.9999997     
   49999999.9999997     
   49999999.9999997     
   49999999.9999997     
   49999999.9999996     
   49999999.9999996     
   49999999.9999996     
   49999999.9999995     
   49999999.9999995     
   49999999.9999995     
   49999999.9999994     
   49999999.9999993     
   49999999.9999992     
   49999999.9999992     
   49999999.9999991     
   49999999.9999991     
   49999999.9999991     
   49999999.9999991     
   50000000.0000003     
   50000000.0000003     
   50000000.0000003     
   50000000.0000002     
   50000000.0000002     
   50000000.0000002     
   50000000.0000001     
   50000000.0000000     
   50000000.0000000     
   49999999.9999999     
   49999999.9999999     
   49999999.9999998     
   49999999.9999998     
   49999999.9999998     
   49999999.9999998     
   49999999.9999998     
   49999999.9999998     
   49999999.9999998     
   49999999.9999999     
   49999999.9999999     
   49999999.9999999     
   49999999.9999998     
   49999999.9999997     
   49999999.9999997     
   49999999.9999997     
   49999999.9999997     
   49999999.9999997     
   49999999.9999997     
   49999999.9999997     
   49999999.9999997     
   49999999.9999997     
   49999999.9999997     
   49999999.9999997     
   49999999.9999997     
   49999999.9999997     
   49999999.9999997     
   49999999.9999997     
   49999999.9999997     
   49999999.9999996     
   49999999.9999995     
   49999999.9999995     
   49999999.9999994     
   49999999.9999994     
   49999999.9999993     
   49999999.9999993     
   49999999.9999992     
   49999999.9999992     
   49999999.9999992     
   49999999.9999992     
   49999999.9999992     
   49999999.9999992     
   50000000.0000003     
   50000000.0000003     
   50000000.0000003     
   50000000.0000003     
   50000000.0000003     
   50000000.0000002     
   50000000.0000002     
   50000000.0000001     
   50000000.0000000     
   50000000.0000000     
   49999999.9999999     
   49999999.9999999     
   49999999.9999999     
   49999999.9999999     
   49999999.9999999     
   49999999.9999999     
   49999999.9999999     
   49999999.9999998     
   49999999.9999998     
   49999999.9999998     
   49999999.9999998     
   49999999.9999998     
   49999999.9999998     
   49999999.9999997     
   49999999.9999997     
   49999999.9999997     
   49999999.9999997     
   49999999.9999997     
   49999999.9999997     
   49999999.9999997     
   49999999.9999997     
   49999999.9999997     
   49999999.9999998     
   49999999.9999998     
   49999999.9999998     
   49999999.9999998     
   49999999.9999998     
   49999999.9999998     
   49999999.9999998     
   49999999.9999997     
   49999999.9999997     
   49999999.9999996     
   49999999.9999996     
   49999999.9999995     
   49999999.9999994     
   49999999.9999993     
   49999999.9999992     
   49999999.9999992     
   49999999.9999991     
   49999999.9999991     
   49999999.9999991     
   50000000.0000004     
   50000000.0000004     
   50000000.0000004     
   50000000.0000003     
   50000000.0000003     
   50000000.0000003     
   50000000.0000002     
   50000000.0000001     
   50000000.0000001     
   50000000.0000000     
   49999999.9999999     
   49999999.9999999     
   49999999.9999999     
   49999999.9999998     
   49999999.9999998     
   49999999.9999998     
   49999999.9999998     
   49999999.9999998     
   49999999.9999999     
   49999999.9999999     
   49999999.9999999     
   49999999.9999998     
   49999999.9999998     
   49999999.9999998     
   49999999.9999998     
   49999999.9999998     
   49999999.9999998     
   49999999.9999997     
   49999999.9999998     
   49999999.9999998     
   49999999.9999998     
   49999999.9999997     
   49999999.9999998     
   49999999.9999998     
   49999999.9999998     
   49999999.9999998     
   49999999.9999998     
   49999999.9999998     
   49999999.9999998     
   49999999.9999998     
   49999999.9999997     
   49999999.9999996     
   49999999.9999996     
   49999999.9999995     
   49999999.9999994     
   49999999.9999994     
   49999999.9999993     
   49999999.9999993     
   49999999.9999992     
   49999999.9999992     
   49999999.9999992     
   50000000.0000002     
   50000000.0000002     
   50000000.0000003     
   50000000.0000003     
   50000000.0000003     
   50000000.0000003     
   50000000.0000002     
   50000000.0000001     
   50000000.0000001     
   50000000.0000000     
   50000000.0000000     
   49999999.9999999     
   49999999.9999999     
   49999999.9999999     
   49999999.9999999     
   49999999.9999998     
   49999999.9999998     
   49999999.9999998     
   49999999.9999999     
   49999999.9999999     
   49999999.9999999     
   49999999.9999998     
   49999999.9999998     
   49999999.9999998     
   49999999.9999998     
   49999999.9999998     
   49999999.9999998     
   49999999.9999998     
   49999999.9999998     
   49999999.9999998     
   49999999.9999998     
   49999999.9999998     
   49999999.9999998     
   49999999.9999998     
   49999999.9999998     
   49999999.9999998     
   49999999.9999998     
   49999999.9999998     
   49999999.9999998     
   49999999.9999997     
   49999999.9999997     
   49999999.9999996     
   49999999.9999996     
   49999999.9999995     
   49999999.9999994     
   49999999.9999993     
   49999999.9999993     
   49999999.9999992     
   49999999.9999992     
   49999999.9999992     
   49999999.9999992     
   50000000.0000002     
   50000000.0000002     
   50000000.0000002     
   50000000.0000002     
   50000000.0000002     
   50000000.0000002     
   50000000.0000001     
   50000000.0000001     
   50000000.0000000     
   49999999.9999999     
   49999999.9999999     
   49999999.9999999     
   49999999.9999999     
   49999999.9999999     
   49999999.9999998     
   49999999.9999998     
   49999999.9999998     
   49999999.9999999     
   49999999.9999999     
   49999999.9999999     
   49999999.9999999     
   49999999.9999998     
   49999999.9999998     
   49999999.9999997     
   49999999.9999997     
   49999999.9999997     
   49999999.9999997     
   49999999.9999997     
   49999999.9999998     
   49999999.9999998     
   49999999.9999998     
   49999999.9999998     
   49999999.9999998     
   49999999.9999998     
   49999999.9999998     
   49999999.9999998     
   49999999.9999998     
   49999999.9999998     
   49999999.9999998     
   49999999.9999998     
   49999999.9999997     
   49999999.9999996     
   49999999.9999996     
   49999999.9999995     
   49999999.9999994     
   49999999.9999993     
   49999999.9999993     
   49999999.9999992     
   49999999.9999992     
   49999999.9999992     
   49999999.9999992     
   50000000.0000000     
   50000000.0000001     
   50000000.0000001     
   50000000.0000001     
   50000000.0000001     
   50000000.0000001     
   50000000.0000000     
   50000000.0000000     
   50000000.0000000     
   49999999.9999999     
   49999999.9999999     
   49999999.9999999     
   49999999.9999999     
   49999999.9999998     
   49999999.9999999     
   49999999.9999999     
   49999999.9999999     
   49999999.9999999     
   49999999.9999999     
   49999999.9999999     
   49999999.9999999     
   49999999.9999999     
   49999999.9999999     
   49999999.9999998     
   49999999.9999998     
   49999999.9999998     
   49999999.9999997     
   49999999.9999997     
   49999999.9999997     
   49999999.9999997     
   49999999.9999997     
   49999999.9999997     
   49999999.9999998     
   49999999.9999998     
   49999999.9999998     
   49999999.9999998     
   49999999.9999998     
   49999999.9999998     
   49999999.9999998     
   49999999.9999997     
   49999999.9999997     
   49999999.9999996     
   49999999.9999995     
   49999999.9999995     
   49999999.9999994     
   49999999.9999993     
   49999999.9999993     
   49999999.9999993     
   49999999.9999992     
   49999999.9999992     
   49999999.9999992     
   49999999.9999999     
   49999999.9999999     
   50000000.0000000     
   50000000.0000000     
   50000000.0000000     
   50000000.0000000     
   50000000.0000000     
   49999999.9999999     
   49999999.9999999     
   49999999.9999998     
   49999999.9999998     
   49999999.9999998     
   49999999.9999998     
   49999999.9999998     
   49999999.9999998     
   49999999.9999998     
   49999999.9999998     
   49999999.9999999     
   49999999.9999999     
   49999999.9999999     
   49999999.9999999     
   49999999.9999999     
   49999999.9999998     
   49999999.9999998     
   49999999.9999998     
   49999999.9999998     
   49999999.9999998     
   49999999.9999997     
   49999999.9999998     
   49999999.9999998     
   49999999.9999998     
   49999999.9999998     
   49999999.9999998     
   49999999.9999998     
   49999999.9999998     
   49999999.9999998     
   49999999.9999998     
   49999999.9999998     
   49999999.9999998     
   49999999.9999997     
   49999999.9999997     
   49999999.9999996     
   49999999.9999995     
   49999999.9999995     
   49999999.9999994     
   49999999.9999993     
   49999999.9999993     
   49999999.9999992     
   49999999.9999992     
   49999999.9999992     
   49999999.9999992     
   50000000.0000001     
   50000000.0000001     
   50000000.0000001     
   50000000.0000001     
   50000000.0000001     
   50000000.0000001     
   50000000.0000000     
   50000000.0000000     
   49999999.9999999     
   49999999.9999999     
   49999999.9999999     
   49999999.9999998     
   49999999.9999998     
   49999999.9999998     
   49999999.9999998     
   49999999.9999998     
   49999999.9999998     
   49999999.9999999     
   49999999.9999999     
   49999999.9999999     
   49999999.9999999     
   49999999.9999999     
   49999999.9999999     
   49999999.9999998     
   49999999.9999997     
   49999999.9999997     
   49999999.9999997     
   49999999.9999997     
   49999999.9999998     
   49999999.9999998     
   49999999.9999998     
   49999999.9999998     
   49999999.9999998     
   49999999.9999998     
   49999999.9999998     
   49999999.9999998     
   49999999.9999998     
   49999999.9999998     
   49999999.9999998     
   49999999.9999997     
   49999999.9999997     
   49999999.9999996     
   49999999.9999996     
   49999999.9999995     
   49999999.9999994     
   49999999.9999993     
   49999999.9999993     
   49999999.9999992     
   49999999.9999992     
   49999999.9999992     
   49999999.9999992     
   50000000.0000002     
   50000000.0000002     
   50000000.0000002     
   50000000.0000002     
   50000000.0000002     
   50000000.0000002     
   50000000.0000001     
   50000000.0000001     
   50000000.0000000     
   49999999.9999999     
   49999999.9999999     
   49999999.9999998     
   49999999.9999999     
   49999999.9999998     
   49999999.9999998     
   49999999.9999998     
   49999999.9999998     
   49999999.9999998     
   49999999.9999999     
   49999999.9999999     
   49999999.9999999     
   49999999.9999999     
   49999999.9999999     
   49999999.9999999     
   49999999.9999998     
   49999999.9999998     
   49999999.9999998     
   49999999.9999998     
   49999999.9999998     
   49999999.9999998     
   49999999.9999998     
   49999999.9999998     
   49999999.9999998     
   49999999.9999999     
   49999999.9999999     
   49999999.9999999     
   49999999.9999999     
   49999999.9999998     
   49999999.9999998     
   49999999.9999997     
   49999999.9999997     
   49999999.9999996     
   49999999.9999996     
   49999999.9999995     
   49999999.9999994     
   49999999.9999993     
   49999999.9999993     
   49999999.9999993     
   49999999.9999993     
   49999999.9999993     
   49999999.9999993     
   50000000.0000003     
   50000000.0000003     
   50000000.0000003     
   50000000.0000002     
   50000000.0000002     
   50000000.0000002     
   50000000.0000002     
   50000000.0000001     
   50000000.0000000     
   49999999.9999999     
   49999999.9999999     
   49999999.9999998     
   49999999.9999998     
   49999999.9999998     
   49999999.9999998     
   49999999.9999998     
   49999999.9999998     
   49999999.9999998     
   49999999.9999998     
   49999999.9999999     
   49999999.9999999     
   49999999.9999998     
   49999999.9999998     
   49999999.9999998     
   49999999.9999998     
   49999999.9999998     
   49999999.9999997     
   49999999.9999998     
   49999999.9999998     
   49999999.9999999     
   49999999.9999999     
   49999999.9999999     
   49999999.9999999     
   49999999.9999999     
   49999999.9999999     
   49999999.9999999     
   49999999.9999998     
   49999999.9999998     
   49999999.9999997     
   49999999.9999997     
   49999999.9999996     
   49999999.9999996     
   49999999.9999995     
   49999999.9999995     
   49999999.9999994     
   49999999.9999994     
   49999999.9999993     
   49999999.9999993     
   49999999.9999993     
   49999999.9999993     
   49999999.9999993     
   50000000.0000002     
   50000000.0000003     
   50000000.0000003     
   50000000.0000003     
   50000000.0000003     
   50000000.0000002     
   50000000.0000001     
   50000000.0000000     
   50000000.0000000     
   49999999.9999999     
   49999999.9999999     
   49999999.9999999     
   49999999.9999999     
   49999999.9999999     
   49999999.9999999     
   49999999.9999999     
   49999999.9999999     
   49999999.9999999     
   49999999.9999999     
   49999999.9999999     
   49999999.9999999     
   49999999.9999999     
   49999999.9999998     
   49999999.9999998     
   49999999.9999998     
   49999999.9999997     
   49999999.9999997     
   49999999.9999997     
   49999999.9999998     
   49999999.9999998     
   49999999.9999998     
   49999999.9999998     
   49999999.9999998     
   49999999.9999999     
   49999999.9999999     
   49999999.9999999     
   49999999.9999999     
   49999999.9999999     
   49999999.9999998     
   49999999.9999998     
   49999999.9999997     
   49999999.9999997     
   49999999.9999996     
   49999999.9999996     
   49999999.9999995     
   49999999.9999994     
   49999999.9999993     
   49999999.9999993     
   49999999.9999992     
   49999999.9999992     
   49999999.9999992     
   50000000.0000003     
   50000000.0000003     
   50000000.0000003     
   50000000.0000003     
   50000000.0000002     
   50000000.0000002     
   50000000.0000002     
   50000000.0000001     
   50000000.0000001     
   50000000.0000000     
   49999999.9999999     
   49999999.9999999     
   49999999.9999999     
   49999999.9999999     
   49999999.9999999     
   49999999.9999998     
   49999999.9999999     
   49999999.9999999     
   49999999.9999999     
   50000000.0000000     
   50000000.0000000     
   49999999.9999999     
   49999999.9999999     
   49999999.9999998     
   49999999.9999998     
   49999999.9999998     
   49999999.9999998     
   49999999.9999998     
   49999999.9999998     
   49999999.9999998     
   49999999.9999998     
   49999999.9999998     
   49999999.9999999     
   49999999.9999999     
   49999999.9999999     
   49999999.9999999     
   49999999.9999999     
   49999999.9999999     
   49999999.9999998     
   49999999.9999998     
   49999999.9999998     
   49999999.9999997     
   49999999.9999996     
   49999999.9999995     
   49999999.9999994     
   49999999.9999993     
   49999999.9999993     
   49999999.9999993     
   49999999.9999992     
   49999999.9999992     
   49999999.9999992     
   50000000.0000003     
   50000000.0000003     
   50000000.0000003     
   50000000.0000003     
   50000000.0000003     
   50000000.0000003     
   50000000.0000002     
   50000000.0000002     
   50000000.0000001     
   50000000.0000001     
   50000000.0000000     
   50000000.0000000     
   50000000.0000000     
   50000000.0000000     
   49999999.9999999     
   49999999.9999999     
   50000000.0000000     
   50000000.0000000     
   50000000.0000000     
   50000000.0000000     
   50000000.0000000     
   50000000.0000000     
   49999999.9999999     
   49999999.9999999     
   49999999.9999999     
   49999999.9999999     
   49999999.9999998     
   49999999.9999998     
   49999999.9999999     
   49999999.9999999     
   49999999.9999999     
   49999999.9999999     
   49999999.9999999     
   49999999.9999999     
   49999999.9999999     
   49999999.9999999     
   49999999.9999999     
   49999999.9999999     
   49999999.9999999     
   49999999.9999998     
   49999999.9999998     
   49999999.9999997     
   49999999.9999997     
   49999999.9999996     
   49999999.9999995     
   49999999.9999995     
   49999999.9999994     
   49999999.9999994     
   49999999.9999994     
   49999999.9999994     
   49999999.9999994     
   50000000.0000003     
   50000000.0000003     
   50000000.0000003     
   50000000.0000003     
   50000000.0000003     
   50000000.0000003     
   50000000.0000002     
   50000000.0000002     
   50000000.0000002     
   50000000.0000001     
   50000000.0000001     
   50000000.0000000     
   50000000.0000000     
   50000000.0000000     
   50000000.0000000     
   50000000.0000000     
   50000000.0000000     
   50000000.0000000     
   50000000.0000000     
   50000000.0000001     
   50000000.0000001     
   50000000.0000000     
   50000000.0000000     
   49999999.9999999     
   49999999.9999999     
   49999999.9999999     
   49999999.9999999     
   49999999.9999999     
   49999999.9999999     
   49999999.9999999     
   49999999.9999999     
   49999999.9999999     
   49999999.9999999     
   50000000.0000000     
   49999999.9999999     
   49999999.9999999     
   49999999.9999999     
   49999999.9999999     
   49999999.9999999     
   49999999.9999998     
   49999999.9999997     
   49999999.9999997     
   49999999.9999996     
   49999999.9999995     
   49999999.9999995     
   49999999.9999994     
   49999999.9999994     
   49999999.9999994     
   49999999.9999994     
   49999999.9999994     
   49999999.9999994     
   50000000.0000003     
   50000000.0000003     
   50000000.0000003     
   50000000.0000003     
   50000000.0000004     
   50000000.0000004     
   50000000.0000003     
   50000000.0000003     
   50000000.0000002     
   50000000.0000001     
   50000000.0000001     
   50000000.0000001     
   50000000.0000001     
   50000000.0000000     
   50000000.0000001     
   50000000.0000001     
   50000000.0000001     
   50000000.0000001     
   50000000.0000001     
   50000000.0000001     
   50000000.0000001     
   50000000.0000000     
   50000000.0000000     
   49999999.9999999     
   49999999.9999999     
   49999999.9999999     
   49999999.9999999     
   49999999.9999998     
   49999999.9999999     
   49999999.9999999     
   49999999.9999999     
   49999999.9999998     
   49999999.9999998     
   49999999.9999998     
   49999999.9999998     
   49999999.9999998     
   49999999.9999998     
   49999999.9999998     
   49999999.9999998     
   49999999.9999997     
   49999999.9999997     
   49999999.9999996     
   49999999.9999996     
   49999999.9999996     
   49999999.9999995     
   49999999.9999994     
   49999999.9999993     
   49999999.9999993     
   49999999.9999993     
   49999999.9999993     
   49999999.9999993     
   50000000.0000004     
   50000000.0000004     
   50000000.0000004     
   50000000.0000004     
   50000000.0000004     
   50000000.0000003     
   50000000.0000003     
   50000000.0000002     
   50000000.0000002     
   50000000.0000001     
   50000000.0000001     
   50000000.0000001     
   50000000.0000001     
   50000000.0000000     
   50000000.0000000     
   50000000.0000000     
   50000000.0000001     
   50000000.0000000     
   50000000.0000001     
   50000000.0000001     
   50000000.0000000     
   50000000.0000000     
   49999999.9999999     
   49999999.9999999     
   49999999.9999998     
   49999999.9999998     
   49999999.9999998     
   49999999.9999998     
   49999999.9999999     
   49999999.9999998     
   49999999.9999998     
   49999999.9999998     
   49999999.9999998     
   49999999.9999998     
   49999999.9999998     
   49999999.9999998     
   49999999.9999998     
   49999999.9999997     
   49999999.9999997     
   49999999.9999997     
   49999999.9999997     
   49999999.9999996     
   49999999.9999996     
   49999999.9999995     
   49999999.9999995     
   49999999.9999994     
   49999999.9999994     
   49999999.9999994     
   49999999.9999993     
   49999999.9999993     
   49999999.9999993     
   50000000.0000004     
   50000000.0000004     
   50000000.0000004     
   50000000.0000004     
   50000000.0000004     
   50000000.0000003     
   50000000.0000003     
   50000000.0000002     
   50000000.0000002     
   50000000.0000001     
   50000000.0000000     
   50000000.0000000     
   50000000.0000000     
   49999999.9999999     
   50000000.0000000     
   50000000.0000000     
   50000000.0000000     
   50000000.0000000     
   50000000.0000000     
   50000000.0000000     
   49999999.9999999     
   49999999.9999999     
   49999999.9999999     
   49999999.9999998     
   49999999.9999998     
   49999999.9999998     
   49999999.9999998     
   49999999.9999998     
   49999999.9999998     
   49999999.9999998     
   49999999.9999998     
   49999999.9999998     
   49999999.9999998     
   49999999.9999998     
   49999999.9999997     
   49999999.9999997     
   49999999.9999997     
   49999999.9999997     
   49999999.9999996     
   49999999.9999996     
   49999999.9999996     
   49999999.9999995     
   49999999.9999995     
   49999999.9999994     
   49999999.9999994     
   49999999.9999993     
   49999999.9999993     
   49999999.9999993     
   49999999.9999992     
   49999999.9999992     
   49999999.9999992     
   50000000.0000003     
   50000000.0000003     
   50000000.0000003     
   50000000.0000003     
   50000000.0000003     
   50000000.0000003     
   50000000.0000003     
   50000000.0000002     
   50000000.0000001     
   50000000.0000001     
   50000000.0000000     
   49999999.9999999     
   49999999.9999999     
   49999999.9999999     
   49999999.9999999     
   49999999.9999999     
   49999999.9999999     
   49999999.9999999     
   49999999.9999999     
   49999999.9999999     
   49999999.9999999     
   49999999.9999998     
   49999999.9999998     
   49999999.9999998     
   49999999.9999998     
   49999999.9999998     
   49999999.9999997     
   49999999.9999997     
   49999999.9999998     
   49999999.9999997     
   49999999.9999997     
   49999999.9999997     
   49999999.9999997     
   49999999.9999997     
   49999999.9999997     
   49999999.9999997     
   49999999.9999997     
   49999999.9999997     
   49999999.9999996     
   49999999.9999996     
   49999999.9999996     
   49999999.9999995     
   49999999.9999994     
   49999999.9999994     
   49999999.9999993     
   49999999.9999992     
   49999999.9999992     
   49999999.9999992     
   49999999.9999992     
   49999999.9999992     
   49999999.9999992     
   50000000.0000001     
   50000000.0000001     
   50000000.0000002     
   50000000.0000002     
   50000000.0000002     
   50000000.0000001     
   50000000.0000001     
   50000000.0000001     
   50000000.0000000     
   50000000.0000000     
   49999999.9999999     
   49999999.9999999     
   49999999.9999998     
   49999999.9999998     
   49999999.9999997     
   49999999.9999997     
   49999999.9999997     
   49999999.9999998     
   49999999.9999998     
   49999999.9999999     
   49999999.9999998     
   49999999.9999998     
   49999999.9999998     
   49999999.9999997     
   49999999.9999997     
   49999999.9999997     
   49999999.9999997     
   49999999.9999997     
   49999999.9999997     
   49999999.9999997     
   49999999.9999997     
   49999999.9999996     
   49999999.9999997     
   49999999.9999997     
   49999999.9999997     
   49999999.9999997     
   49999999.9999997     
   49999999.9999997     
   49999999.9999997     
   49999999.9999996     
   49999999.9999996     
   49999999.9999995     
   49999999.9999995     
   49999999.9999994     
   49999999.9999993     
   49999999.9999993     
   49999999.9999993     
   49999999.9999992     
   49999999.9999992     
   49999999.9999992     
   49999999.9999992     
   50000000.0000000     
   50000000.0000000     
   50000000.0000001     
   50000000.0000001     
   50000000.0000001     
   50000000.0000001     
   50000000.0000000     
   50000000.0000000     
   49999999.9999999     
   49999999.9999999     
   49999999.9999998     
   49999999.9999998     
   49999999.9999998     
   49999999.9999997     
   49999999.9999997     
   49999999.9999997     
   49999999.9999997     
   49999999.9999997     
   49999999.9999998     
   49999999.9999998     
   49999999.9999997     
   49999999.9999997     
   49999999.9999997     
   49999999.9999997     
   49999999.9999997     
   49999999.9999997     
   49999999.9999996     
   49999999.9999996     
   49999999.9999997     
   49999999.9999997     
   49999999.9999997     
   49999999.9999997     
   49999999.9999998     
   49999999.9999998     
   49999999.9999998     
   49999999.9999998     
   49999999.9999998     
   49999999.9999997     
   49999999.9999997     
   49999999.9999996     
   49999999.9999996     
   49999999.9999995     
   49999999.9999995     
   49999999.9999994     
   49999999.9999993     
   49999999.9999993     
   49999999.9999993     
   49999999.9999993     
   49999999.9999993     
   49999999.9999992     
   49999999.9999992     
   50000000.0000001     
   50000000.0000001     
   50000000.0000001     
   50000000.0000001     
   50000000.0000001     
   50000000.0000000     
   50000000.0000000     
   49999999.9999999     
   49999999.9999999     
   49999999.9999998     
   49999999.9999998     
   49999999.9999998     
   49999999.9999998     
   49999999.9999997     
   49999999.9999997     
   49999999.9999997     
   49999999.9999997     
   49999999.9999998     
   49999999.9999998     
   49999999.9999999     
   49999999.9999999     
   49999999.9999998     
   49999999.9999998     
   49999999.9999997     
   49999999.9999997     
   49999999.9999997     
   49999999.9999997     
   49999999.9999997     
   49999999.9999997     
   49999999.9999998     
   49999999.9999998     
   49999999.9999998     
   49999999.9999998     
   49999999.9999998     
   49999999.9999998     
   49999999.9999998     
   49999999.9999998     
   49999999.9999998     
   49999999.9999997     
   49999999.9999997     
   49999999.9999997     
   49999999.9999996     
   49999999.9999995     
   49999999.9999995     
   49999999.9999994     
   49999999.9999993     
   49999999.9999993     
   49999999.9999992     
   49999999.9999992     
   49999999.9999992     
   49999999.9999992     
   50000000.0000002     
   50000000.0000002     
   50000000.0000002     
   50000000.0000002     
   50000000.0000002     
   50000000.0000001     
   50000000.0000001     
   50000000.0000000     
   50000000.0000000     
   49999999.9999999     
   49999999.9999999     
   49999999.9999999     
   49999999.9999999     
   49999999.9999998     
   49999999.9999998     
   49999999.9999998     
   49999999.9999998     
   49999999.9999998     
   49999999.9999999     
   49999999.9999999     
   49999999.9999999     
   49999999.9999999     
   49999999.9999999     
   49999999.9999998     
   49999999.9999998     
   49999999.9999997     
   49999999.9999997     
   49999999.9999997     
   49999999.9999998     
   49999999.9999998     
   49999999.9999998     
   49999999.9999997     
   49999999.9999998     
   49999999.9999998     
   49999999.9999998     
   49999999.9999998     
   49999999.9999998     
   49999999.9999998     
   49999999.9999998     
   49999999.9999998     
   49999999.9999997     
   49999999.9999996     
   49999999.9999996     
   49999999.9999995     
   49999999.9999994     
   49999999.9999994     
   49999999.9999993     
   49999999.9999993     
   49999999.9999992     
   49999999.9999992     
   49999999.9999992     
   50000000.0000003     
   50000000.0000003     
   50000000.0000003     
   50000000.0000003     
   50000000.0000003     
   50000000.0000003     
   50000000.0000002     
   50000000.0000001     
   50000000.0000000     
   50000000.0000000     
   49999999.9999999     
   49999999.9999998     
   49999999.9999999     
   49999999.9999998     
   49999999.9999998     
   49999999.9999998     
   49999999.9999999     
   49999999.9999999     
   49999999.9999999     
   49999999.9999999     
   49999999.9999999     
   49999999.9999999     
   49999999.9999998     
   49999999.9999998     
   49999999.9999998     
   49999999.9999998     
   49999999.9999997     
   49999999.9999997     
   49999999.9999998     
   49999999.9999998     
   49999999.9999998     
   49999999.9999998     
   49999999.9999998     
   49999999.9999998     
   49999999.9999998     
   49999999.9999998     
   49999999.9999998     
   49999999.9999998     
   49999999.9999997     
   49999999.9999997     
   49999999.9999996     
   49999999.9999996     
   49999999.9999995     
   49999999.9999995     
   49999999.9999994     
   49999999.9999993     
   49999999.9999993     
   49999999.9999993     
   49999999.9999993     
   49999999.9999993     
   49999999.9999993     
   50000000.0000004     
   50000000.0000004     
   50000000.0000004     
   50000000.0000004     
   50000000.0000004     
   50000000.0000003     
   50000000.0000003     
   50000000.0000002     
   50000000.0000001     
   50000000.0000000     
   50000000.0000000     
   49999999.9999999     
   49999999.9999999     
   49999999.9999998     
   49999999.9999998     
   49999999.9999998     
   49999999.9999999     
   49999999.9999999     
   49999999.9999999     
   49999999.9999999     
   49999999.9999999     
   49999999.9999998     
   49999999.9999998     
   49999999.9999998     
   49999999.9999997     
   49999999.9999998     
   49999999.9999997     
   49999999.9999997     
   49999999.9999998     
   49999999.9999998     
   49999999.9999998     
   49999999.9999997     
   49999999.9999998     
   49999999.9999998     
   49999999.9999998     
   49999999.9999998     
   49999999.9999998     
   49999999.9999998     
   49999999.9999997     
   49999999.9999997     
   49999999.9999996     
   49999999.9999995     
   49999999.9999995     
   49999999.9999994     
   49999999.9999994     
   49999999.9999993     
   49999999.9999993     
   49999999.9999993     
   49999999.9999993     
   49999999.9999993     
   49999999.9999993     
   50000000.0000003     
   50000000.0000003     
   50000000.0000003     
   50000000.0000003     
   50000000.0000003     
   50000000.0000003     
   50000000.0000002     
   50000000.0000001     
   50000000.0000001     
   50000000.0000000     
   49999999.9999999     
   49999999.9999999     
   49999999.9999999     
   49999999.9999999     
   49999999.9999998     
   49999999.9999998     
   49999999.9999998     
   49999999.9999998     
   49999999.9999998     
   49999999.9999999     
   49999999.9999998     
   49999999.9999998     
   49999999.9999998     
   49999999.9999998     
   49999999.9999997     
   49999999.9999997     
   49999999.9999997     
   49999999.9999997     
   49999999.9999997     
   49999999.9999998     
   49999999.9999997     
   49999999.9999997     
   49999999.9999998     
   49999999.9999998     
   49999999.9999998     
   49999999.9999998     
   49999999.9999998     
   49999999.9999997     
   49999999.9999997     
   49999999.9999997     
   49999999.9999996     
   49999999.9999995     
   49999999.9999995     
   49999999.9999994     
   49999999.9999994     
   49999999.9999993     
   49999999.9999993     
   49999999.9999993     
   49999999.9999993     
   49999999.9999993     
   49999999.9999993     
   50000000.0000003     
   50000000.0000003     
   50000000.0000003     
   50000000.0000003     
   50000000.0000003     
   50000000.0000002     
   50000000.0000001     
   50000000.0000000     
   50000000.0000000     
   49999999.9999999     
   49999999.9999998     
   49999999.9999997     
   49999999.9999997     
   49999999.9999997     
   49999999.9999997     
   49999999.9999997     
   49999999.9999998     
   49999999.9999998     
   49999999.9999998     
   49999999.9999999     
   49999999.9999999     
   49999999.9999998     
   49999999.9999998     
   49999999.9999997     
   49999999.9999997     
   49999999.9999997     
   49999999.9999997     
   49999999.9999997     
   49999999.9999997     
   49999999.9999997     
   49999999.9999997     
   49999999.9999997     
   49999999.9999998     
   49999999.9999998     
   49999999.9999998     
   49999999.9999998     
   49999999.9999998     
   49999999.9999998     
   49999999.9999998     
   49999999.9999997     
   49999999.9999997     
   49999999.9999996     
   49999999.9999996     
   49999999.9999996     
   49999999.9999995     
   49999999.9999995     
   49999999.9999994     
   49999999.9999994     
   49999999.9999994     
   49999999.9999994     
   49999999.9999994     
   50000000.0000002     
   50000000.0000002     
   50000000.0000002     
   50000000.0000002     
   50000000.0000002     
   50000000.0000002     
   50000000.0000001     
   50000000.0000001     
   50000000.0000000     
   49999999.9999999     
   49999999.9999998     
   49999999.9999998     
   49999999.9999998     
   49999999.9999997     
   49999999.9999997     
   49999999.9999997     
   49999999.9999997     
   49999999.9999998     
   49999999.9999998     
   49999999.9999999     
   49999999.9999999     
   49999999.9999998     
   49999999.9999998     
   49999999.9999997     
   49999999.9999997     
   49999999.9999997     
   49999999.9999997     
   49999999.9999997     
   49999999.9999997     
   49999999.9999998     
   49999999.9999998     
   49999999.9999998     
   49999999.9999998     
   49999999.9999999     
   49999999.9999999     
   49999999.9999999     
   49999999.9999999     
   49999999.9999999     
   49999999.9999999     
   49999999.9999999     
   49999999.9999998     
   49999999.9999998     
   49999999.9999997     
   49999999.9999996     
   49999999.9999996     
   49999999.9999995     
   49999999.9999995     
   49999999.9999995     
   49999999.9999994     
   49999999.9999994     
   49999999.9999994     
   50000000.0000003     
   50000000.0000003     
   50000000.0000003     
   50000000.0000003     
   50000000.0000003     
   50000000.0000003     
   50000000.0000002     
   50000000.0000001     
   50000000.0000001     
   50000000.0000000     
   49999999.9999999     
   49999999.9999999     
   49999999.9999999     
   49999999.9999998     
   49999999.9999998     
   49999999.9999998     
   49999999.9999998     
   49999999.9999998     
   49999999.9999999     
   49999999.9999999     
   49999999.9999999     
   49999999.9999998     
   49999999.9999998     
   49999999.9999997     
   49999999.9999997     
   49999999.9999997     
   49999999.9999997     
   49999999.9999997     
   49999999.9999998     
   49999999.9999998     
   49999999.9999997     
   49999999.9999997     
   49999999.9999998     
   49999999.9999998     
   49999999.9999999     
   49999999.9999999     
   49999999.9999999     
   49999999.9999999     
   49999999.9999999     
   49999999.9999998     
   49999999.9999998     
   49999999.9999997     
   49999999.9999997     
   49999999.9999996     
   49999999.9999995     
   49999999.9999995     
   49999999.9999995     
   49999999.9999994     
   49999999.9999994     
   49999999.9999995     
   49999999.9999995     
   50000000.0000002     
   50000000.0000002     
   50000000.0000002     
   50000000.0000002     
   50000000.0000002     
   50000000.0000002     
   50000000.0000001     
   50000000.0000001     
   50000000.0000000     
   50000000.0000000     
   50000000.0000000     
   49999999.9999999     
   49999999.9999999     
   49999999.9999999     
   49999999.9999999     
   49999999.9999999     
   49999999.9999999     
   49999999.9999999     
   50000000.0000000     
   49999999.9999999     
   49999999.9999999     
   49999999.9999999     
   49999999.9999999     
   49999999.9999998     
   49999999.9999998     
   49999999.9999998     
   49999999.9999998     
   49999999.9999998     
   49999999.9999998     
   49999999.9999998     
   49999999.9999999     
   49999999.9999999     
   49999999.9999999     
   49999999.9999999     
   49999999.9999999     
   49999999.9999999     
   49999999.9999999     
   49999999.9999999     
   49999999.9999999     
   49999999.9999998     
   49999999.9999998     
   49999999.9999997     
   49999999.9999997     
   49999999.9999996     
   49999999.9999996     
   49999999.9999995     
   49999999.9999994     
   49999999.9999994     
   49999999.9999994     
   49999999.9999994     
   49999999.9999994     
   50000000.0000003     
   50000000.0000003     
   50000000.0000003     
   50000000.0000002     
   50000000.0000002     
   50000000.0000003     
   50000000.0000002     
   50000000.0000002     
   50000000.0000001     
   50000000.0000001     
   50000000.0000000     
   50000000.0000000     
   50000000.0000000     
   50000000.0000000     
   50000000.0000000     
   50000000.0000000     
   50000000.0000000     
   50000000.0000000     
   50000000.0000000     
   50000000.0000001     
   50000000.0000000     
   50000000.0000000     
   49999999.9999999     
   49999999.9999999     
   49999999.9999998     
   49999999.9999998     
   49999999.9999998     
   49999999.9999998     
   49999999.9999998     
   49999999.9999998     
   49999999.9999998     
   49999999.9999998     
   49999999.9999998     
   49999999.9999998     
   49999999.9999999     
   49999999.9999999     
   49999999.9999999     
   49999999.9999999     
   49999999.9999999     
   49999999.9999999     
   49999999.9999998     
   49999999.9999997     
   49999999.9999997     
   49999999.9999996     
   49999999.9999995     
   49999999.9999994     
   49999999.9999994     
   49999999.9999993     
   49999999.9999993     
   49999999.9999993     
   49999999.9999993     
   50000000.0000003     
   50000000.0000003     
   50000000.0000003     
   50000000.0000003     
   50000000.0000003     
   50000000.0000003     
   50000000.0000002     
   50000000.0000002     
   50000000.0000001     
   50000000.0000001     
   50000000.0000000     
   50000000.0000000     
   50000000.0000000     
   49999999.9999999     
   50000000.0000000     
   49999999.9999999     
   50000000.0000000     
   50000000.0000000     
   50000000.0000000     
   50000000.0000000     
   50000000.0000000     
   50000000.0000000     
   49999999.9999999     
   49999999.9999998     
   49999999.9999998     
   49999999.9999998     
   49999999.9999998     
   49999999.9999998     
   49999999.9999998     
   49999999.9999998     
   49999999.9999998     
   49999999.9999998     
   49999999.9999998     
   49999999.9999999     
   49999999.9999999     
   49999999.9999999     
   49999999.9999999     
   49999999.9999998     
   49999999.9999998     
   49999999.9999998     
   49999999.9999998     
   49999999.9999997     
   49999999.9999997     
   49999999.9999996     
   49999999.9999995     
   49999999.9999994     
   49999999.9999993     
   49999999.9999993     
   49999999.9999993     
   49999999.9999993     
   49999999.9999993     
   50000000.0000003     
   50000000.0000003     
   50000000.0000003     
   50000000.0000003     
   50000000.0000004     
   50000000.0000004     
   50000000.0000003     
   50000000.0000003     
   50000000.0000002     
   50000000.0000001     
   50000000.0000000     
   50000000.0000000     
   50000000.0000000     
   50000000.0000000     
   50000000.0000000     
   49999999.9999999     
   50000000.0000000     
   50000000.0000000     
   50000000.0000000     
   50000000.0000001     
   50000000.0000000     
   50000000.0000000     
   50000000.0000000     
   49999999.9999999     
   49999999.9999999     
   49999999.9999999     
   49999999.9999999     
   49999999.9999999     
   49999999.9999999     
   49999999.9999999     
   49999999.9999998     
   49999999.9999998     
   49999999.9999998     
   49999999.9999999     
   49999999.9999999     
   49999999.9999999     
   49999999.9999999     
   49999999.9999999     
   49999999.9999999     
   49999999.9999998     
   49999999.9999998     
   49999999.9999997     
   49999999.9999996     
   49999999.9999996     
   49999999.9999995     
   49999999.9999994     
   49999999.9999994     
   49999999.9999994     
   49999999.9999994     
   49999999.9999994     
   49999999.9999994     
   50000000.0000004     
   50000000.0000004     
   50000000.0000004     
   50000000.0000004     
   50000000.0000005     
   50000000.0000004     
   50000000.0000004     
   50000000.0000003     
   50000000.0000002     
   50000000.0000002     
   50000000.0000001     
   50000000.0000001     
   50000000.0000000     
   50000000.0000000     
   50000000.0000000     
   50000000.0000000     
   50000000.0000000     
   50000000.0000000     
   50000000.0000000     
   50000000.0000001     
   50000000.0000000     
   50000000.0000000     
   50000000.0000000     
   49999999.9999999     
   49999999.9999999     
   49999999.9999998     
   49999999.9999998     
   49999999.9999998     
   49999999.9999999     
   49999999.9999999     
   49999999.9999998     
   49999999.9999998     
   49999999.9999999     
   49999999.9999999     
   49999999.9999999     
   49999999.9999999     
   49999999.9999999     
   49999999.9999998     
   49999999.9999998     
   49999999.9999998     
   49999999.9999998     
   49999999.9999997     
   49999999.9999997     
   49999999.9999996     
   49999999.9999995     
   49999999.9999995     
   49999999.9999994     
   49999999.9999994     
   49999999.9999994     
   49999999.9999994     
   49999999.9999994     
   50000000.0000004     
   50000000.0000004     
   50000000.0000004     
   50000000.0000004     
   50000000.0000004     
   50000000.0000004     
   50000000.0000003     
   50000000.0000003     
   50000000.0000002     
   50000000.0000001     
   50000000.0000001     
   50000000.0000000     
   50000000.0000000     
   50000000.0000000     
   50000000.0000000     
   50000000.0000000     
   50000000.0000000     
   50000000.0000000     
   50000000.0000000     
   50000000.0000000     
   50000000.0000000     
   50000000.0000000     
   49999999.9999999     
   49999999.9999999     
   49999999.9999999     
   49999999.9999998     
   49999999.9999998     
   49999999.9999998     
   49999999.9999999     
   49999999.9999999     
   49999999.9999999     
   49999999.9999999     
   49999999.9999999     
   49999999.9999999     
   49999999.9999999     
   49999999.9999999     
   49999999.9999999     
   49999999.9999999     
   49999999.9999999     
   49999999.9999998     
   49999999.9999998     
   49999999.9999998     
   49999999.9999997     
   49999999.9999997     
   49999999.9999996     
   49999999.9999995     
   49999999.9999995     
   49999999.9999994     
   49999999.9999994     
   49999999.9999994     
   49999999.9999994     
   50000000.0000004     
   50000000.0000004     
   50000000.0000004     
   50000000.0000004     
   50000000.0000005     
   50000000.0000005     
   50000000.0000004     
   50000000.0000003     
   50000000.0000003     
   50000000.0000003     
   50000000.0000002     
   50000000.0000001     
   50000000.0000001     
   50000000.0000001     
   50000000.0000001     
   50000000.0000000     
   50000000.0000001     
   50000000.0000001     
   50000000.0000001     
   50000000.0000001     
   50000000.0000001     
   50000000.0000000     
   50000000.0000000     
   49999999.9999999     
   49999999.9999999     
   49999999.9999999     
   49999999.9999999     
   49999999.9999999     
   49999999.9999999     
   49999999.9999999     
   49999999.9999999     
   49999999.9999999     
   49999999.9999999     
   49999999.9999999     
   49999999.9999999     
   49999999.9999999     
   49999999.9999999     
   49999999.9999998     
   49999999.9999998     
   49999999.9999998     
   49999999.9999998     
   49999999.9999997     
   49999999.9999996     
   49999999.9999996     
   49999999.9999995     
   49999999.9999994     
   49999999.9999994     
   49999999.9999993     
   49999999.9999993     
   49999999.9999993     
   49999999.9999993     
   50000000.0000003     
   50000000.0000003     
   50000000.0000003     
   50000000.0000003     
   50000000.0000003     
   50000000.0000003     
   50000000.0000003     
   50000000.0000003     
   50000000.0000002     
   50000000.0000002     
   50000000.0000002     
   50000000.0000001     
   50000000.0000001     
   50000000.0000001     
   50000000.0000001     
   50000000.0000001     
   50000000.0000001     
   50000000.0000001     
   50000000.0000001     
   50000000.0000001     
   50000000.0000001     
   50000000.0000001     
   50000000.0000000     
   50000000.0000000     
   49999999.9999999     
   49999999.9999999     
   49999999.9999999     
   49999999.9999999     
   49999999.9999999     
   49999999.9999999     
   49999999.9999999     
   49999999.9999998     
   49999999.9999999     
   49999999.9999999     
   49999999.9999999     
   49999999.9999999     
   49999999.9999999     
   49999999.9999998     
   49999999.9999998     
   49999999.9999998     
   49999999.9999997     
   49999999.9999997     
   49999999.9999996     
   49999999.9999996     
   49999999.9999995     
   49999999.9999994     
   49999999.9999994     
   49999999.9999993     
   49999999.9999993     
   49999999.9999993     
   49999999.9999993     
   50000000.0000004     
   50000000.0000004     
   50000000.0000004     
   50000000.0000004     
   50000000.0000004     
   50000000.0000004     
   50000000.0000003     
   50000000.0000003     
   50000000.0000002     
   50000000.0000001     
   50000000.0000001     
   50000000.0000000     
   50000000.0000001     
   50000000.0000000     
   50000000.0000000     
   50000000.0000000     
   50000000.0000000     
   50000000.0000000     
   50000000.0000000     
   50000000.0000001     
   50000000.0000001     
   50000000.0000000     
   50000000.0000000     
   50000000.0000000     
   50000000.0000000     
   50000000.0000000     
   49999999.9999999     
   49999999.9999999     
   49999999.9999999     
   49999999.9999999     
   49999999.9999999     
   49999999.9999999     
   49999999.9999999     
   49999999.9999999     
   49999999.9999999     
   49999999.9999999     
   49999999.9999998     
   49999999.9999998     
   49999999.9999998     
   49999999.9999997     
   49999999.9999997     
   49999999.9999996     
   49999999.9999996     
   49999999.9999995     
   49999999.9999994     
   49999999.9999994     
   49999999.9999993     
   49999999.9999993     
   49999999.9999993     
   49999999.9999993     
   49999999.9999993     
   50000000.0000003     
   50000000.0000003     
   50000000.0000003     
   50000000.0000003     
   50000000.0000003     
   50000000.0000003     
   50000000.0000003     
   50000000.0000002     
   50000000.0000002     
   50000000.0000001     
   50000000.0000001     
   50000000.0000001     
   50000000.0000000     
   50000000.0000000     
   50000000.0000000     
   50000000.0000000     
   50000000.0000000     
   50000000.0000000     
   50000000.0000001     
   50000000.0000001     
   50000000.0000001     
   50000000.0000001     
   50000000.0000000     
   50000000.0000000     
   49999999.9999999     
   49999999.9999999     
   49999999.9999999     
   49999999.9999999     
   49999999.9999999     
   49999999.9999999     
   49999999.9999999     
   49999999.9999999     
   49999999.9999999     
   49999999.9999999     
   49999999.9999999     
   49999999.9999999     
   49999999.9999999     
   49999999.9999999     
   49999999.9999998     
   49999999.9999998     
   49999999.9999997     
   49999999.9999997     
   49999999.9999996     
   49999999.9999995     
   49999999.9999994     
   49999999.9999993     
   49999999.9999993     
   49999999.9999993     
   49999999.9999993     
   49999999.9999993     
   49999999.9999993     
   50000000.0000003     
   50000000.0000003     
   50000000.0000003     
   50000000.0000003     
   50000000.0000003     
   50000000.0000003     
   50000000.0000002     
   50000000.0000002     
   50000000.0000002     
   50000000.0000001     
   50000000.0000001     
   50000000.0000001     
   50000000.0000000     
   50000000.0000000     
   50000000.0000000     
   50000000.0000000     
   50000000.0000000     
   50000000.0000000     
   50000000.0000000     
   50000000.0000000     
   50000000.0000000     
   50000000.0000000     
   50000000.0000000     
   49999999.9999999     
   49999999.9999999     
   49999999.9999999     
   49999999.9999998     
   49999999.9999998     
   49999999.9999998     
   49999999.9999999     
   49999999.9999999     
   49999999.9999998     
   49999999.9999998     
   49999999.9999998     
   49999999.9999998     
   49999999.9999998     
   49999999.9999998     
   49999999.9999998     
   49999999.9999998     
   49999999.9999998     
   49999999.9999997     
   49999999.9999996     
   49999999.9999996     
   49999999.9999995     
   49999999.9999994     
   49999999.9999994     
   49999999.9999993     
   49999999.9999993     
   49999999.9999993     
   49999999.9999993     
   49999999.9999993     
   50000000.0000002     
   50000000.0000002     
   50000000.0000002     
   50000000.0000003     
   50000000.0000003     
   50000000.0000003     
   50000000.0000002     
   50000000.0000002     
   50000000.0000001     
   50000000.0000000     
   50000000.0000000     
   49999999.9999999     
   49999999.9999999     
   49999999.9999999     
   49999999.9999999     
   49999999.9999999     
   49999999.9999999     
   49999999.9999999     
   50000000.0000000     
   50000000.0000000     
   50000000.0000000     
   50000000.0000000     
   50000000.0000000     
   49999999.9999999     
   49999999.9999999     
   49999999.9999999     
   49999999.9999998     
   49999999.9999998     
   49999999.9999999     
   49999999.9999999     
   49999999.9999999     
   49999999.9999999     
   49999999.9999999     
   49999999.9999999     
   49999999.9999999     
   49999999.9999999     
   49999999.9999999     
   49999999.9999999     
   49999999.9999999     
   49999999.9999998     
   49999999.9999998     
   49999999.9999997     
   49999999.9999996     
   49999999.9999995     
   49999999.9999994     
   49999999.9999993     
   49999999.9999993     
   49999999.9999992     
   49999999.9999992     
   49999999.9999992     
   49999999.9999992     
   50000000.0000002     
   50000000.0000003     
   50000000.0000003     
   50000000.0000003     
   50000000.0000002     
   50000000.0000002     
   50000000.0000001     
   50000000.0000001     
   50000000.0000000     
   50000000.0000000     
   49999999.9999999     
   49999999.9999999     
   49999999.9999999     
   49999999.9999998     
   49999999.9999998     
   49999999.9999998     
   49999999.9999999     
   49999999.9999999     
   49999999.9999999     
   50000000.0000000     
   50000000.0000000     
   49999999.9999999     
   49999999.9999999     
   49999999.9999998     
   49999999.9999998     
   49999999.9999998     
   49999999.9999998     
   49999999.9999998     
   49999999.9999998     
   49999999.9999999     
   49999999.9999999     
   49999999.9999999     
   49999999.9999999     
   50000000.0000000     
   49999999.9999999     
   49999999.9999999     
   49999999.9999999     
   49999999.9999999     
   49999999.9999999     
   49999999.9999998     
   49999999.9999997     
   49999999.9999996     
   49999999.9999995     
   49999999.9999995     
   49999999.9999993     
   49999999.9999993     
   49999999.9999993     
   49999999.9999992     
   49999999.9999992     
   49999999.9999992     
   49999999.9999991     
   50000000.0000002     
   50000000.0000002     
   50000000.0000003     
   50000000.0000003     
   50000000.0000003     
   50000000.0000002     
   50000000.0000002     
   50000000.0000001     
   50000000.0000001     
   50000000.0000000     
   50000000.0000000     
   49999999.9999999     
   49999999.9999999     
   49999999.9999999     
   49999999.9999999     
   49999999.9999999     
   49999999.9999999     
   49999999.9999999     
   49999999.9999999     
   49999999.9999999     
   49999999.9999999     
   49999999.9999999     
   49999999.9999999     
   49999999.9999998     
   49999999.9999998     
   49999999.9999998     
   49999999.9999997     
   49999999.9999997     
   49999999.9999998     
   49999999.9999998     
   49999999.9999998     
   49999999.9999998     
   49999999.9999998     
   49999999.9999998     
   49999999.9999999     
   49999999.9999999     
   49999999.9999998     
   49999999.9999998     
   49999999.9999997     
   49999999.9999996     
   49999999.9999996     
   49999999.9999995     
   49999999.9999994     
   49999999.9999994     
   49999999.9999993     
   49999999.9999992     
   49999999.9999992     
   49999999.9999991     
   49999999.9999991     
   49999999.9999990     
   49999999.9999991     
   50000000.0000002     
   50000000.0000003     
   50000000.0000003     
   50000000.0000003     
   50000000.0000003     
   50000000.0000002     
   50000000.0000002     
   50000000.0000001     
   50000000.0000000     
   50000000.0000000     
   49999999.9999999     
   49999999.9999999     
   49999999.9999998     
   49999999.9999998     
   49999999.9999999     
   49999999.9999998     
   49999999.9999999     
   49999999.9999999     
   50000000.0000000     
   50000000.0000000     
   50000000.0000000     
   49999999.9999999     
   49999999.9999999     
   49999999.9999998     
   49999999.9999998     
   49999999.9999998     
   49999999.9999997     
   49999999.9999998     
   49999999.9999998     
   49999999.9999998     
   49999999.9999998     
   49999999.9999997     
   49999999.9999998     
   49999999.9999998     
   49999999.9999998     
   49999999.9999998     
   49999999.9999997     
   49999999.9999997     
   49999999.9999997     
   49999999.9999996     
   49999999.9999995     
   49999999.9999995     
   49999999.9999995     
   49999999.9999994     
   49999999.9999993     
   49999999.9999993     
   49999999.9999992     
   49999999.9999992     
   49999999.9999992     
   49999999.9999992     
   49999999.9999991     
   50000000.0000001     
   50000000.0000001     
   50000000.0000001     
   50000000.0000001     
   50000000.0000001     
   50000000.0000001     
   50000000.0000000     
   50000000.0000000     
   49999999.9999999     
   49999999.9999999     
   49999999.9999998     
   49999999.9999997     
   49999999.9999997     
   49999999.9999997     
   49999999.9999997     
   49999999.9999997     
   49999999.9999997     
   49999999.9999998     
   49999999.9999998     
   49999999.9999998     
   49999999.9999998     
   49999999.9999998     
   49999999.9999997     
   49999999.9999997     
   49999999.9999997     
   49999999.9999997     
   49999999.9999996     
   49999999.9999996     
   49999999.9999996     
   49999999.9999996     
   49999999.9999996     
   49999999.9999996     
   49999999.9999996     
   49999999.9999996     
   49999999.9999996     
   49999999.9999996     
   49999999.9999996     
   49999999.9999996     
   49999999.9999995     
   49999999.9999995     
   49999999.9999994     
   49999999.9999994     
   49999999.9999993     
   49999999.9999993     
   49999999.9999992     
   49999999.9999991     
   49999999.9999991     
   49999999.9999991     
   49999999.9999991     
   49999999.9999991     
   49999999.9999991     
   49999999.9999993     
   49999999.9999993     
   49999999.9999993     
   49999999.9999993     
   49999999.9999994     
   49999999.9999994     
   49999999.9999993     
   49999999.9999993     
   49999999.9999992     
   49999999.9999991     
   49999999.9999991     
   49999999.9999990     
   49999999.9999990     
   49999999.9999990     
   49999999.9999990     
   49999999.9999990     
   49999999.9999991     
   49999999.9999991     
   49999999.9999991     
   49999999.9999991     
   49999999.9999991     
   49999999.9999990     
   49999999.9999990     
   49999999.9999989     
   49999999.9999989     
   49999999.9999989     
   49999999.9999989     
   49999999.9999989     
   49999999.9999989     
   49999999.9999989     
   49999999.9999989     
   49999999.9999989     
   49999999.9999989     
   49999999.9999989     
   49999999.9999989     
   49999999.9999989     
   49999999.9999989     
   49999999.9999989     
   49999999.9999989     
   49999999.9999989     
   49999999.9999988     
   49999999.9999988     
   49999999.9999987     
   49999999.9999987     
   49999999.9999986     
   49999999.9999985     
   49999999.9999985     
   49999999.9999985     
   49999999.9999984     
   49999999.9999984     
   49999999.9999984     
   49999999.9999956     
   49999999.9999956     
   49999999.9999956     
   49999999.9999956     
   49999999.9999956     
   49999999.9999955     
   49999999.9999955     
   49999999.9999955     
   49999999.9999954     
   49999999.9999954     
   49999999.9999954     
   49999999.9999954     
   49999999.9999954     
   49999999.9999954     
   49999999.9999954     
   49999999.9999954     
   49999999.9999954     
   49999999.9999955     
   49999999.9999955     
   49999999.9999955     
   49999999.9999955     
   49999999.9999954     
   49999999.9999953     
   49999999.9999953     
   49999999.9999952     
   49999999.9999952     
   49999999.9999952     
   49999999.9999952     
   49999999.9999952     
   49999999.9999952     
   49999999.9999952     
   49999999.9999952     
   49999999.9999952     
   49999999.9999952     
   49999999.9999952     
   49999999.9999952     
   49999999.9999952     
   49999999.9999952     
   49999999.9999951     
   49999999.9999951     
   49999999.9999951     
   49999999.9999950     
   49999999.9999950     
   49999999.9999949     
   49999999.9999949     
   49999999.9999948     
   49999999.9999948     
   49999999.9999947     
   49999999.9999947     
   49999999.9999947     
   49999999.9999947     
   49999999.9999759     
   49999999.9999759     
   49999999.9999759     
   49999999.9999759     
   49999999.9999759     
   49999999.9999759     
   49999999.9999759     
   49999999.9999759     
   49999999.9999759     
   49999999.9999759     
   49999999.9999759     
   49999999.9999759     
   49999999.9999759     
   49999999.9999759     
   49999999.9999759     
   49999999.9999759     
   49999999.9999759     
   49999999.9999760     
   49999999.9999760     
   49999999.9999760     
   49999999.9999760     
   49999999.9999759     
   49999999.9999759     
   49999999.9999758     
   49999999.9999758     
   49999999.9999757     
   49999999.9999757     
   49999999.9999757     
   49999999.9999757     
   49999999.9999757     
   49999999.9999757     
   49999999.9999756     
   49999999.9999756     
   49999999.9999756     
   49999999.9999756     
   49999999.9999756     
   49999999.9999756     
   49999999.9999756     
   49999999.9999756     
   49999999.9999756     
   49999999.9999755     
   49999999.9999755     
   49999999.9999754     
   49999999.9999754     
   49999999.9999753     
   49999999.9999753     
   49999999.9999752     
   49999999.9999752     
   49999999.9999752     
   49999999.9999751     
   49999999.9999752     
   49999999.9998743     
   49999999.9998743     
   49999999.9998743     
   49999999.9998743     
   49999999.9998743     
   49999999.9998743     
   49999999.9998742     
   49999999.9998742     
   49999999.9998741     
   49999999.9998741     
   49999999.9998741     
   49999999.9998740     
   49999999.9998741     
   49999999.9998741     
   49999999.9998741     
   49999999.9998741     
   49999999.9998742     
   49999999.9998742     
   49999999.9998742     
   49999999.9998742     
   49999999.9998742     
   49999999.9998741     
   49999999.9998741     
   49999999.9998740     
   49999999.9998740     
   49999999.9998740     
   49999999.9998739     
   49999999.9998739     
   49999999.9998739     
   49999999.9998739     
   49999999.9998739     
   49999999.9998739     
   49999999.9998738     
   49999999.9998738     
   49999999.9998738     
   49999999.9998738     
   49999999.9998738     
   49999999.9998738     
   49999999.9998738     
   49999999.9998738     
   49999999.9998738     
   49999999.9998737     
   49999999.9998737     
   49999999.9998736     
   49999999.9998735     
   49999999.9998735     
   49999999.9998735     
   49999999.9998734     
   49999999.9998734     
   49999999.9998734     
   49999999.9998734     
   49999999.9993536     
   49999999.9993536     
   49999999.9993536     
   49999999.9993536     
   49999999.9993536     
   49999999.9993536     
   49999999.9993535     
   49999999.9993534     
   49999999.9993534     
   49999999.9993533     
   49999999.9993533     
   49999999.9993533     
   49999999.9993533     
   49999999.9993533     
   49999999.9993533     
   49999999.9993533     
   49999999.9993533     
   49999999.9993534     
   49999999.9993534     
   49999999.9993534     
   49999999.9993534     
   49999999.9993533     
   49999999.9993533     
   49999999.9993532     
   49999999.9993531     
   49999999.9993531     
   49999999.9993531     
   49999999.9993532     
   49999999.9993532     
   49999999.9993532     
   49999999.9993532     
   49999999.9993531     
   49999999.9993531     
   49999999.9993531     
   49999999.9993531     
   49999999.9993531     
   49999999.9993531     
   49999999.9993531     
   49999999.9993531     
   49999999.9993530     
   49999999.9993530     
   49999999.9993529     
   49999999.9993529     
   49999999.9993528     
   49999999.9993528     
   49999999.9993527     
   49999999.9993527     
   49999999.9993527     
   49999999.9993527     
   49999999.9993527     
   49999999.9993527     
   49999999.9967404     
   49999999.9967404     
   49999999.9967404     
   49999999.9967404     
   49999999.9967404     
   49999999.9967404     
   49999999.9967403     
   49999999.9967403     
   49999999.9967402     
   49999999.9967401     
   49999999.9967401     
   49999999.9967400     
   49999999.9967400     
   49999999.9967400     
   49999999.9967400     
   49999999.9967400     
   49999999.9967400     
   49999999.9967400     
   49999999.9967401     
   49999999.9967401     
   49999999.9967401     
   49999999.9967400     
   49999999.9967400     
   49999999.9967400     
   49999999.9967399     
   49999999.9967399     
   49999999.9967399     
   49999999.9967399     
   49999999.9967399     
   49999999.9967399     
   49999999.9967399     
   49999999.9967399     
   49999999.9967399     
   49999999.9967399     
   49999999.9967399     
   49999999.9967399     
   49999999.9967399     
   49999999.9967399     
   49999999.9967399     
   49999999.9967398     
   49999999.9967398     
   49999999.9967397     
   49999999.9967396     
   49999999.9967396     
   49999999.9967395     
   49999999.9967395     
   49999999.9967394     
   49999999.9967394     
   49999999.9967394     
   49999999.9967394     
   49999999.9967394     
   49999999.9838999     
   49999999.9838999     
   49999999.9838999     
   49999999.9838999     
   49999999.9838999     
   49999999.9838999     
   49999999.9838999     
   49999999.9838998     
   49999999.9838997     
   49999999.9838996     
   49999999.9838996     
   49999999.9838995     
   49999999.9838995     
   49999999.9838995     
   49999999.9838995     
   49999999.9838994     
   49999999.9838995     
   49999999.9838995     
   49999999.9838995     
   49999999.9838995     
   49999999.9838995     
   49999999.9838995     
   49999999.9838995     
   49999999.9838994     
   49999999.9838994     
   49999999.9838994     
   49999999.9838993     
   49999999.9838994     
   49999999.9838994     
   49999999.9838994     
   49999999.9838994     
   49999999.9838994     
   49999999.9838994     
   49999999.9838993     
   49999999.9838994     
   49999999.9838993     
   49999999.9838993     
   49999999.9838993     
   49999999.9838993     
   49999999.9838992     
   49999999.9838992     
   49999999.9838991     
   49999999.9838991     
   49999999.9838990     
   49999999.9838989     
   49999999.9838989     
   49999999.9838989     
   49999999.9838989     
   49999999.9838988     
   49999999.9838988     
   49999999.9838988     
   49999999.9222452     
   49999999.9222452     
   49999999.9222452     
   49999999.9222452     
   49999999.9222452     
   49999999.9222452     
   49999999.9222452     
   49999999.9222451     
   49999999.9222450     
   49999999.9222449     
   49999999.9222449     
   49999999.9222448     
   49999999.9222448     
   49999999.9222448     
   49999999.9222448     
   49999999.9222448     
   49999999.9222448     
   49999999.9222448     
   49999999.9222448     
   49999999.9222448     
   49999999.9222448     
   49999999.9222447     
   49999999.9222447     
   49999999.9222446     
   49999999.9222446     
   49999999.9222446     
   49999999.9222446     
   49999999.9222446     
   49999999.9222447     
   49999999.9222447     
   49999999.9222447     
   49999999.9222446     
   49999999.9222446     
   49999999.9222446     
   49999999.9222446     
   49999999.9222446     
   49999999.9222446     
   49999999.9222446     
   49999999.9222446     
   49999999.9222446     
   49999999.9222446     
   49999999.9222445     
   49999999.9222445     
   49999999.9222444     
   49999999.9222444     
   49999999.9222443     
   49999999.9222443     
   49999999.9222442     
   49999999.9222442     
   49999999.9222442     
   49999999.9222442     
   49999999.6336281     
   49999999.6336281     
   49999999.6336281     
   49999999.6336281     
   49999999.6336281     
   49999999.6336281     
   49999999.6336280     
   49999999.6336280     
   49999999.6336279     
   49999999.6336278     
   49999999.6336278     
   49999999.6336277     
   49999999.6336277     
   49999999.6336277     
   49999999.6336277     
   49999999.6336277     
   49999999.6336277     
   49999999.6336277     
   49999999.6336278     
   49999999.6336278     
   49999999.6336277     
   49999999.6336277     
   49999999.6336277     
   49999999.6336276     
   49999999.6336276     
   49999999.6336276     
   49999999.6336275     
   49999999.6336275     
   49999999.6336276     
   49999999.6336275     
   49999999.6336275     
   49999999.6336275     
   49999999.6336275     
   49999999.6336275     
   49999999.6336275     
   49999999.6336275     
   49999999.6336275     
   49999999.6336275     
   49999999.6336275     
   49999999.6336275     
   49999999.6336275     
   49999999.6336274     
   49999999.6336274     
   49999999.6336274     
   49999999.6336273     
   49999999.6336272     
   49999999.6336272     
   49999999.6336272     
   49999999.6336271     
   49999999.6336271     
   49999999.6336271     
   49999998.3199311     
   49999998.3199311     
   49999998.3199312     
   49999998.3199312     
   49999998.3199312     
   49999998.3199312     
   49999998.3199311     
   49999998.3199310     
   49999998.3199310     
   49999998.3199309     
   49999998.3199309     
   49999998.3199308     
   49999998.3199308     
   49999998.3199307     
   49999998.3199308     
   49999998.3199307     
   49999998.3199307     
   49999998.3199308     
   49999998.3199308     
   49999998.3199309     
   49999998.3199309     
   49999998.3199309     
   49999998.3199308     
   49999998.3199308     
   49999998.3199307     
   49999998.3199306     
   49999998.3199306     
   49999998.3199306     
   49999998.3199306     
   49999998.3199306     
   49999998.3199306     
   49999998.3199306     
   49999998.3199306     
   49999998.3199306     
   49999998.3199306     
   49999998.3199306     
   49999998.3199307     
   49999998.3199307     
   49999998.3199307     
   49999998.3199306     
   49999998.3199306     
   49999998.3199305     
   49999998.3199305     
   49999998.3199304     
   49999998.3199304     
   49999998.3199303     
   49999998.3199303     
   49999998.3199303     
   49999998.3199303     
   49999998.3199302     
   49999998.3199302     
   49999992.5235616     
   49999992.5235616     
   49999992.5235616     
   49999992.5235616     
   49999992.5235617     
   49999992.5235616     
   49999992.5235616     
   49999992.5235615     
   49999992.5235615     
   49999992.5235614     
   49999992.5235614     
   49999992.5235613     
   49999992.5235613     
   49999992.5235613     
   49999992.5235613     
   49999992.5235613     
   49999992.5235613     
   49999992.5235614     
   49999992.5235614     
   49999992.5235615     
   49999992.5235615     
   49999992.5235615     
   49999992.5235614     
   49999992.5235613     
   49999992.5235613     
   49999992.5235613     
   49999992.5235612     
   49999992.5235613     
   49999992.5235613     
   49999992.5235613     
   49999992.5235613     
   49999992.5235612     
   49999992.5235612     
   49999992.5235612     
   49999992.5235612     
   49999992.5235612     
   49999992.5235612     
   49999992.5235612     
   49999992.5235612     
   49999992.5235612     
   49999992.5235612     
   49999992.5235611     
   49999992.5235611     
   49999992.5235610     
   49999992.5235610     
   49999992.5235609     
   49999992.5235609     
   49999992.5235609     
   49999992.5235609     
   49999992.5235609     
   49999992.5235609     
   49999967.8195135     
   49999967.8195136     
   49999967.8195136     
   49999967.8195136     
   49999967.8195136     
   49999967.8195136     
   49999967.8195135     
   49999967.8195135     
   49999967.8195135     
   49999967.8195134     
   49999967.8195134     
   49999967.8195133     
   49999967.8195133     
   49999967.8195132     
   49999967.8195133     
   49999967.8195133     
   49999967.8195133     
   49999967.8195133     
   49999967.8195133     
   49999967.8195134     
   49999967.8195134     
   49999967.8195134     
   49999967.8195134     
   49999967.8195133     
   49999967.8195133     
   49999967.8195132     
   49999967.8195132     
   49999967.8195132     
   49999967.8195133     
   49999967.8195133     
   49999967.8195133     
   49999967.8195133     
   49999967.8195133     
   49999967.8195133     
   49999967.8195133     
   49999967.8195133     
   49999967.8195133     
   49999967.8195133     
   49999967.8195132     
   49999967.8195132     
   49999967.8195132     
   49999967.8195131     
   49999967.8195131     
   49999967.8195130     
   49999967.8195130     
   49999967.8195129     
   49999967.8195128     
   49999967.8195128     
   49999967.8195128     
   49999967.8195128     
   49999967.8195129     
   49999866.5331914     
   49999866.5331914     
   49999866.5331913     
   49999866.5331914     
   49999866.5331914     
   49999866.5331914     
   49999866.5331914     
   49999866.5331913     
   49999866.5331912     
   49999866.5331912     
   49999866.5331911     
   49999866.5331911     
   49999866.5331911     
   49999866.5331910     
   49999866.5331911     
   49999866.5331911     
   49999866.5331911     
   49999866.5331911     
   49999866.5331912     
   49999866.5331912     
   49999866.5331912     
   49999866.5331912     
   49999866.5331912     
   49999866.5331911     
   49999866.5331910     
   49999866.5331910     
   49999866.5331910     
   49999866.5331910     
   49999866.5331911     
   49999866.5331911     
   49999866.5331911     
   49999866.5331911     
   49999866.5331911     
   49999866.5331910     
   49999866.5331911     
   49999866.5331911     
   49999866.5331911     
   49999866.5331910     
   49999866.5331910     
   49999866.5331910     
   49999866.5331910     
   49999866.5331909     
   49999866.5331909     
   49999866.5331908     
   49999866.5331907     
   49999866.5331907     
   49999866.5331907     
   49999866.5331907     
   49999866.5331906     
   49999866.5331907     
   49999866.5331907     
   49999468.9426794     
   49999468.9426794     
   49999468.9426794     
   49999468.9426794     
   49999468.9426794     
   49999468.9426794     
   49999468.9426794     
   49999468.9426793     
   49999468.9426793     
   49999468.9426792     
   49999468.9426792     
   49999468.9426791     
   49999468.9426791     
   49999468.9426791     
   49999468.9426791     
   49999468.9426791     
   49999468.9426791     
   49999468.9426791     
   49999468.9426791     
   49999468.9426791     
   49999468.9426791     
   49999468.9426791     
   49999468.9426791     
   49999468.9426790     
   49999468.9426790     
   49999468.9426790     
   49999468.9426789     
   49999468.9426790     
   49999468.9426790     
   49999468.9426790     
   49999468.9426790     
   49999468.9426790     
   49999468.9426790     
   49999468.9426790     
   49999468.9426790     
   49999468.9426790     
   49999468.9426790     
   49999468.9426790     
   49999468.9426790     
   49999468.9426790     
   49999468.9426789     
   49999468.9426789     
   49999468.9426788     
   49999468.9426788     
   49999468.9426787     
   49999468.9426787     
   49999468.9426787     
   49999468.9426786     
   49999468.9426786     
   49999468.9426786     
   49999468.9426786     
   49997982.9408424     
   49997982.9408424     
   49997982.9408424     
   49997982.9408424     
   49997982.9408424     
   49997982.9408424     
   49997982.9408424     
   49997982.9408423     
   49997982.9408422     
   49997982.9408422     
   49997982.9408422     
   49997982.9408421     
   49997982.9408421     
   49997982.9408421     
   49997982.9408421     
   49997982.9408420     
   49997982.9408420     
   49997982.9408420     
   49997982.9408420     
   49997982.9408420     
   49997982.9408420     
   49997982.9408420     
   49997982.9408420     
   49997982.9408420     
   49997982.9408420     
   49997982.9408420     
   49997982.9408420     
   49997982.9408420     
   49997982.9408420     
   49997982.9408420     
   49997982.9408420     
   49997982.9408420     
   49997982.9408420     
   49997982.9408420     
   49997982.9408420     
   49997982.9408420     
   49997982.9408420     
   49997982.9408420     
   49997982.9408420     
   49997982.9408420     
   49997982.9408419     
   49997982.9408419     
   49997982.9408419     
   49997982.9408418     
   49997982.9408417     
   49997982.9408417     
   49997982.9408417     
   49997982.9408417     
   49997982.9408416     
   49997982.9408416     
   49997982.9408416     
   49992728.7236613     
   49992728.7236613     
   49992728.7236613     
   49992728.7236614     
   49992728.7236614     
   49992728.7236613     
   49992728.7236613     
   49992728.7236613     
   49992728.7236612     
   49992728.7236611     
   49992728.7236611     
   49992728.7236611     
   49992728.7236611     
   49992728.7236611     
   49992728.7236611     
   49992728.7236611     
   49992728.7236611     
   49992728.7236611     
   49992728.7236612     
   49992728.7236612     
   49992728.7236612     
   49992728.7236612     
   49992728.7236611     
   49992728.7236611     
   49992728.7236611     
   49992728.7236610     
   49992728.7236610     
   49992728.7236610     
   49992728.7236610     
   49992728.7236610     
   49992728.7236609     
   49992728.7236609     
   49992728.7236609     
   49992728.7236609     
   49992728.7236609     
   49992728.7236609     
   49992728.7236609     
   49992728.7236609     
   49992728.7236609     
   49992728.7236609     
   49992728.7236609     
   49992728.7236608     
   49992728.7236607     
   49992728.7236607     
   49992728.7236606     
   49992728.7236606     
   49992728.7236605     
   49992728.7236606     
   49992728.7236606     
   49992728.7236605     
   49992728.7236605     
   49975283.7529140     
   49975283.7529140     
   49975283.7529140     
   49975283.7529140     
   49975283.7529140     
   49975283.7529140     
   49975283.7529139     
   49975283.7529139     
   49975283.7529139     
   49975283.7529138     
   49975283.7529138     
   49975283.7529137     
   49975283.7529138     
   49975283.7529137     
   49975283.7529137     
   49975283.7529137     
   49975283.7529138     
   49975283.7529138     
   49975283.7529138     
   49975283.7529138     
   49975283.7529138     
   49975283.7529138     
   49975283.7529137     
   49975283.7529136     
   49975283.7529136     
   49975283.7529136     
   49975283.7529136     
   49975283.7529136     
   49975283.7529136     
   49975283.7529136     
   49975283.7529136     
   49975283.7529136     
   49975283.7529136     
   49975283.7529136     
   49975283.7529136     
   49975283.7529136     
   49975283.7529136     
   49975283.7529136     
   49975283.7529135     
   49975283.7529135     
   49975283.7529135     
   49975283.7529134     
   49975283.7529134     
   49975283.7529133     
   49975283.7529132     
   49975283.7529132     
   49975283.7529131     
   49975283.7529131     
   49975283.7529131     
   49975283.7529131     
   49975283.7529132     
   49921358.2060369     
   49921358.2060369     
   49921358.2060369     
   49921358.2060369     
   49921358.2060369     
   49921358.2060369     
   49921358.2060368     
   49921358.2060368     
   49921358.2060368     
   49921358.2060367     
   49921358.2060367     
   49921358.2060367     
   49921358.2060366     
   49921358.2060366     
   49921358.2060367     
   49921358.2060366     
   49921358.2060367     
   49921358.2060367     
   49921358.2060367     
   49921358.2060367     
   49921358.2060367     
   49921358.2060366     
   49921358.2060366     
   49921358.2060365     
   49921358.2060365     
   49921358.2060364     
   49921358.2060364     
   49921358.2060364     
   49921358.2060364     
   49921358.2060365     
   49921358.2060364     
   49921358.2060364     
   49921358.2060364     
   49921358.2060364     
   49921358.2060364     
   49921358.2060364     
   49921358.2060364     
   49921358.2060364     
   49921358.2060363     
   49921358.2060363     
   49921358.2060363     
   49921358.2060362     
   49921358.2060362     
   49921358.2060361     
   49921358.2060361     
   49921358.2060360     
   49921358.2060360     
   49921358.2060360     
   49921358.2060360     
   49921358.2060360     
   49921358.2060359     
   49767658.7241358     
   49767658.7241358     
   49767658.7241357     
   49767658.7241357     
   49767658.7241358     
   49767658.7241358     
   49767658.7241357     
   49767658.7241357     
   49767658.7241356     
   49767658.7241356     
   49767658.7241355     
   49767658.7241355     
   49767658.7241355     
   49767658.7241355     
   49767658.7241355     
   49767658.7241356     
   49767658.7241356     
   49767658.7241356     
   49767658.7241356     
   49767658.7241357     
   49767658.7241356     
   49767658.7241356     
   49767658.7241355     
   49767658.7241355     
   49767658.7241354     
   49767658.7241354     
   49767658.7241353     
   49767658.7241353     
   49767658.7241354     
   49767658.7241354     
   49767658.7241353     
   49767658.7241353     
   49767658.7241353     
   49767658.7241353     
   49767658.7241353     
   49767658.7241353     
   49767658.7241352     
   49767658.7241352     
   49767658.7241352     
   49767658.7241352     
   49767658.7241351     
   49767658.7241351     
   49767658.7241351     
   49767658.7241350     
   49767658.7241349     
   49767658.7241349     
   49767658.7241349     
   49767658.7241349     
   49767658.7241349     
   49767658.7241349     
   49767658.7241349     
   49368062.5259954     
   49368062.5259954     
   49368062.5259955     
   49368062.5259955     
   49368062.5259955     
   49368062.5259954     
   49368062.5259954     
   49368062.5259954     
   49368062.5259953     
   49368062.5259952     
   49368062.5259952     
   49368062.5259952     
   49368062.5259952     
   49368062.5259952     
   49368062.5259952     
   49368062.5259952     
   49368062.5259953     
   49368062.5259953     
   49368062.5259953     
   49368062.5259953     
   49368062.5259953     
   49368062.5259953     
   49368062.5259952     
   49368062.5259952     
   49368062.5259951     
   49368062.5259951     
   49368062.5259950     
   49368062.5259950     
   49368062.5259951     
   49368062.5259951     
   49368062.5259952     
   49368062.5259951     
   49368062.5259951     
   49368062.5259951     
   49368062.5259951     
   49368062.5259951     
   49368062.5259950     
   49368062.5259950     
   49368062.5259950     
   49368062.5259949     
   49368062.5259948     
   49368062.5259948     
   49368062.5259947     
   49368062.5259947     
   49368062.5259946     
   49368062.5259946     
   49368062.5259945     
   49368062.5259945     
   49368062.5259945     
   49368062.5259945     
   49368062.5259945     
   48431435.1934441     
   48431435.1934441     
   48431435.1934441     
   48431435.1934441     
   48431435.1934441     
   48431435.1934441     
   48431435.1934441     
   48431435.1934440     
   48431435.1934439     
   48431435.1934439     
   48431435.1934438     
   48431435.1934438     
   48431435.1934438     
   48431435.1934437     
   48431435.1934438     
   48431435.1934438     
   48431435.1934438     
   48431435.1934438     
   48431435.1934439     
   48431435.1934439     
   48431435.1934439     
   48431435.1934438     
   48431435.1934438     
   48431435.1934438     
   48431435.1934438     
   48431435.1934437     
   48431435.1934437     
   48431435.1934437     
   48431435.1934438     
   48431435.1934437     
   48431435.1934437     
   48431435.1934437     
   48431435.1934437     
   48431435.1934437     
   48431435.1934437     
   48431435.1934437     
   48431435.1934436     
   48431435.1934436     
   48431435.1934435     
   48431435.1934435     
   48431435.1934434     
   48431435.1934434     
   48431435.1934433     
   48431435.1934433     
   48431435.1934432     
   48431435.1934432     
   48431435.1934432     
   48431435.1934431     
   48431435.1934431     
   48431435.1934431     
   48431435.1934431     
   46476215.4529596     
   46476215.4529596     
   46476215.4529597     
   46476215.4529596     
   46476215.4529596     
   46476215.4529597     
   46476215.4529596     
   46476215.4529595     
   46476215.4529595     
   46476215.4529594     
   46476215.4529593     
   46476215.4529593     
   46476215.4529593     
   46476215.4529593     
   46476215.4529593     
   46476215.4529593     
   46476215.4529593     
   46476215.4529593     
   46476215.4529593     
   46476215.4529594     
   46476215.4529594     
   46476215.4529594     
   46476215.4529594     
   46476215.4529593     
   46476215.4529593     
   46476215.4529592     
   46476215.4529592     
   46476215.4529592     
   46476215.4529592     
   46476215.4529592     
   46476215.4529592     
   46476215.4529591     
   46476215.4529591     
   46476215.4529591     
   46476215.4529591     
   46476215.4529591     
   46476215.4529591     
   46476215.4529591     
   46476215.4529590     
   46476215.4529591     
   46476215.4529590     
   46476215.4529589     
   46476215.4529589     
   46476215.4529588     
   46476215.4529588     
   46476215.4529587     
   46476215.4529587     
   46476215.4529587     
   46476215.4529588     
   46476215.4529587     
   46476215.4529587     
   42885460.0638714     
   42885460.0638714     
   42885460.0638714     
   42885460.0638714     
   42885460.0638713     
   42885460.0638714     
   42885460.0638713     
   42885460.0638713     
   42885460.0638712     
   42885460.0638712     
   42885460.0638711     
   42885460.0638711     
   42885460.0638711     
   42885460.0638711     
   42885460.0638711     
   42885460.0638711     
   42885460.0638710     
   42885460.0638711     
   42885460.0638711     
   42885460.0638711     
   42885460.0638711     
   42885460.0638711     
   42885460.0638710     
   42885460.0638710     
   42885460.0638709     
   42885460.0638709     
   42885460.0638709     
   42885460.0638709     
   42885460.0638709     
   42885460.0638709     
   42885460.0638709     
   42885460.0638710     
   42885460.0638710     
   42885460.0638710     
   42885460.0638709     
   42885460.0638709     
   42885460.0638709     
   42885460.0638709     
   42885460.0638709     
   42885460.0638709     
   42885460.0638708     
   42885460.0638708     
   42885460.0638707     
   42885460.0638707     
   42885460.0638706     
   42885460.0638706     
   42885460.0638705     
   42885460.0638705     
   42885460.0638705     
   42885460.0638705     
   42885460.0638705     
   37150730.3271840     
   37150730.3271841     
   37150730.3271841     
   37150730.3271840     
   37150730.3271841     
   37150730.3271841     
   37150730.3271840     
   37150730.3271839     
   37150730.3271839     
   37150730.3271838     
   37150730.3271838     
   37150730.3271837     
   37150730.3271837     
   37150730.3271837     
   37150730.3271837     
   37150730.3271837     
   37150730.3271837     
   37150730.3271837     
   37150730.3271837     
   37150730.3271837     
   37150730.3271837     
   37150730.3271837     
   37150730.3271837     
   37150730.3271836     
   37150730.3271836     
   37150730.3271836     
   37150730.3271836     
   37150730.3271836     
   37150730.3271836     
   37150730.3271836     
   37150730.3271836     
   37150730.3271836     
   37150730.3271837     
   37150730.3271836     
   37150730.3271837     
   37150730.3271836     
   37150730.3271836     
   37150730.3271836     
   37150730.3271837     
   37150730.3271836     
   37150730.3271835     
   37150730.3271836     
   37150730.3271834     
   37150730.3271834     
   37150730.3271834     
   37150730.3271834     
   37150730.3271834     
   37150730.3271834     
   37150730.3271834     
   37150730.3271834     
   37150730.3271833     
   29265321.4665896     
   29265321.4665896     
   29265321.4665896     
   29265321.4665896     
   29265321.4665896     
   29265321.4665896     
   29265321.4665896     
   29265321.4665894     
   29265321.4665895     
   29265321.4665895     
   29265321.4665894     
   29265321.4665894     
   29265321.4665894     
   29265321.4665894     
   29265321.4665894     
   29265321.4665894     
   29265321.4665894     
   29265321.4665894     
   29265321.4665894     
   29265321.4665895     
   29265321.4665895     
   29265321.4665895     
   29265321.4665894     
   29265321.4665894     
   29265321.4665894     
   29265321.4665894     
   29265321.4665894     
   29265321.4665894     
   29265321.4665894     
   29265321.4665894     
   29265321.4665894     
   29265321.4665894     
   29265321.4665895     
   29265321.4665894     
   29265321.4665894     
   29265321.4665894     
   29265321.4665894     
   29265321.4665894     
   29265321.4665894     
   29265321.4665894     
   29265321.4665893     
   29265321.4665893     
   29265321.4665893     
   29265321.4665893     
   29265321.4665893     
   29265321.4665892     
   29265321.4665892     
   29265321.4665893     
   29265321.4665892     
   29265321.4665893     
   29265321.4665891     
   20000000.0000000     
   20000000.0000000     
   20000000.0000000     
   20000000.0000000     
   20000000.0000000     
   20000000.0000000     
   20000000.0000000     
   20000000.0000000     
   20000000.0000000     
   20000000.0000000     
   20000000.0000000     
   20000000.0000000     
   20000000.0000000     
   20000000.0000000     
   20000000.0000000     
   20000000.0000000     
   20000000.0000000     
   20000000.0000000     
   20000000.0000000     
   20000000.0000000     
   20000000.0000000     
   20000000.0000000     
   20000000.0000000     
   20000000.0000000     
   20000000.0000000     
   20000000.0000000     
   20000000.0000000     
   20000000.0000000     
   20000000.0000000     
   20000000.0000000     
   20000000.0000000     
   20000000.0000000     
   20000000.0000000     
   20000000.0000000     
   20000000.0000000     
   20000000.0000000     
   20000000.0000000     
   20000000.0000000     
   20000000.0000000     
   20000000.0000000     
   20000000.0000000     
   20000000.0000000     
   20000000.0000000     
   20000000.0000000     
   20000000.0000000     
   20000000.0000000     
   20000000.0000000     
   20000000.0000000     
   20000000.0000000     
   20000000.0000000     
   20000000.0000000     
VECTORS u double 
    0.00000E+00         0.36946E+01         0.00000E+00
    0.00000E+00         0.35697E+01         0.00000E+00
    0.00000E+00         0.34462E+01         0.00000E+00
    0.00000E+00         0.33260E+01         0.00000E+00
    0.00000E+00         0.32102E+01         0.00000E+00
    0.00000E+00         0.30994E+01         0.00000E+00
    0.00000E+00         0.29939E+01         0.00000E+00
    0.00000E+00         0.28939E+01         0.00000E+00
    0.00000E+00         0.27984E+01         0.00000E+00
    0.00000E+00         0.27058E+01         0.00000E+00
    0.00000E+00         0.26160E+01         0.00000E+00
    0.00000E+00         0.25289E+01         0.00000E+00
    0.00000E+00         0.24446E+01         0.00000E+00
    0.00000E+00         0.23627E+01         0.00000E+00
    0.00000E+00         0.22832E+01         0.00000E+00
    0.00000E+00         0.22060E+01         0.00000E+00
    0.00000E+00         0.21308E+01         0.00000E+00
    0.00000E+00         0.20577E+01         0.00000E+00
    0.00000E+00         0.19864E+01         0.00000E+00
    0.00000E+00         0.19169E+01         0.00000E+00
    0.00000E+00         0.18490E+01         0.00000E+00
    0.00000E+00         0.17827E+01         0.00000E+00
    0.00000E+00         0.17179E+01         0.00000E+00
    0.00000E+00         0.16543E+01         0.00000E+00
    0.00000E+00         0.15921E+01         0.00000E+00
    0.00000E+00         0.15309E+01         0.00000E+00
    0.00000E+00         0.14709E+01         0.00000E+00
    0.00000E+00         0.14118E+01         0.00000E+00
    0.00000E+00         0.13536E+01         0.00000E+00
    0.00000E+00         0.12962E+01         0.00000E+00
    0.00000E+00         0.12396E+01         0.00000E+00
    0.00000E+00         0.11835E+01         0.00000E+00
    0.00000E+00         0.11280E+01         0.00000E+00
    0.00000E+00         0.10728E+01         0.00000E+00
    0.00000E+00         0.10180E+01         0.00000E+00
    0.00000E+00         0.96343E+00         0.00000E+00
    0.00000E+00         0.90889E+00         0.00000E+00
    0.00000E+00         0.85429E+00         0.00000E+00
    0.00000E+00         0.79946E+00         0.00000E+00
    0.00000E+00         0.74423E+00         0.00000E+00
    0.00000E+00         0.68840E+00         0.00000E+00
    0.00000E+00         0.63172E+00         0.00000E+00
    0.00000E+00         0.57390E+00         0.00000E+00
    0.00000E+00         0.51460E+00         0.00000E+00
    0.00000E+00         0.45339E+00         0.00000E+00
    0.00000E+00         0.38974E+00         0.00000E+00
    0.00000E+00         0.32295E+00         0.00000E+00
    0.00000E+00         0.25211E+00         0.00000E+00
    0.00000E+00         0.17598E+00         0.00000E+00
    0.00000E+00         0.92817E-01         0.00000E+00
    0.00000E+00         0.00000E+00         0.00000E+00
    0.99276E+00         0.32663E+01         0.00000E+00
    0.89043E+00         0.31946E+01         0.00000E+00
    0.80779E+00         0.31188E+01         0.00000E+00
    0.74039E+00         0.30406E+01         0.00000E+00
    0.68531E+00         0.29612E+01         0.00000E+00
    0.64044E+00         0.28817E+01         0.00000E+00
    0.60429E+00         0.28025E+01         0.00000E+00
    0.57580E+00         0.27233E+01         0.00000E+00
    0.55355E+00         0.26444E+01         0.00000E+00
    0.53603E+00         0.25661E+01         0.00000E+00
    0.52200E+00         0.24889E+01         0.00000E+00
    0.51061E+00         0.24128E+01         0.00000E+00
    0.50127E+00         0.23380E+01         0.00000E+00
    0.49351E+00         0.22646E+01         0.00000E+00
    0.48700E+00         0.21926E+01         0.00000E+00
    0.48147E+00         0.21221E+01         0.00000E+00
    0.47672E+00         0.20529E+01         0.00000E+00
    0.47257E+00         0.19851E+01         0.00000E+00
    0.46890E+00         0.19186E+01         0.00000E+00
    0.46559E+00         0.18534E+01         0.00000E+00
    0.46254E+00         0.17894E+01         0.00000E+00
    0.45967E+00         0.17266E+01         0.00000E+00
    0.45691E+00         0.16650E+01         0.00000E+00
    0.45420E+00         0.16043E+01         0.00000E+00
    0.45147E+00         0.15447E+01         0.00000E+00
    0.44868E+00         0.14860E+01         0.00000E+00
    0.44577E+00         0.14281E+01         0.00000E+00
    0.44269E+00         0.13710E+01         0.00000E+00
    0.43938E+00         0.13146E+01         0.00000E+00
    0.43580E+00         0.12588E+01         0.00000E+00
    0.43188E+00         0.12036E+01         0.00000E+00
    0.42757E+00         0.11488E+01         0.00000E+00
    0.42279E+00         0.10944E+01         0.00000E+00
    0.41747E+00         0.10403E+01         0.00000E+00
    0.41152E+00         0.98642E+00         0.00000E+00
    0.40484E+00         0.93260E+00         0.00000E+00
    0.39731E+00         0.87875E+00         0.00000E+00
    0.38879E+00         0.82474E+00         0.00000E+00
    0.37911E+00         0.77042E+00         0.00000E+00
    0.36807E+00         0.71563E+00         0.00000E+00
    0.35542E+00         0.66019E+00         0.00000E+00
    0.34088E+00         0.60389E+00         0.00000E+00
    0.32405E+00         0.54647E+00         0.00000E+00
    0.30446E+00         0.48766E+00         0.00000E+00
    0.28152E+00         0.42712E+00         0.00000E+00
    0.25441E+00         0.36444E+00         0.00000E+00
    0.22210E+00         0.29917E+00         0.00000E+00
    0.18311E+00         0.23074E+00         0.00000E+00
    0.13541E+00         0.15854E+00         0.00000E+00
    0.75947E-01         0.81852E-01         0.00000E+00
    0.00000E+00         0.00000E+00         0.00000E+00
    0.14647E+01         0.26990E+01         0.00000E+00
    0.13559E+01         0.26489E+01         0.00000E+00
    0.12602E+01         0.25996E+01         0.00000E+00
    0.11773E+01         0.25500E+01         0.00000E+00
    0.11061E+01         0.24998E+01         0.00000E+00
    0.10453E+01         0.24486E+01         0.00000E+00
    0.99345E+00         0.23965E+01         0.00000E+00
    0.94931E+00         0.23436E+01         0.00000E+00
    0.91185E+00         0.22899E+01         0.00000E+00
    0.88015E+00         0.22355E+01         0.00000E+00
    0.85332E+00         0.21805E+01         0.00000E+00
    0.83056E+00         0.21251E+01         0.00000E+00
    0.81118E+00         0.20694E+01         0.00000E+00
    0.79458E+00         0.20136E+01         0.00000E+00
    0.78028E+00         0.19577E+01         0.00000E+00
    0.76787E+00         0.19019E+01         0.00000E+00
    0.75699E+00         0.18464E+01         0.00000E+00
    0.74735E+00         0.17910E+01         0.00000E+00
    0.73872E+00         0.17360E+01         0.00000E+00
    0.73087E+00         0.16813E+01         0.00000E+00
    0.72363E+00         0.16270E+01         0.00000E+00
    0.71684E+00         0.15731E+01         0.00000E+00
    0.71035E+00         0.15196E+01         0.00000E+00
    0.70404E+00         0.14665E+01         0.00000E+00
    0.69779E+00         0.14137E+01         0.00000E+00
    0.69150E+00         0.13613E+01         0.00000E+00
    0.68505E+00         0.13093E+01         0.00000E+00
    0.67835E+00         0.12575E+01         0.00000E+00
    0.67129E+00         0.12060E+01         0.00000E+00
    0.66378E+00         0.11547E+01         0.00000E+00
    0.65570E+00         0.11036E+01         0.00000E+00
    0.64695E+00         0.10526E+01         0.00000E+00
    0.63739E+00         0.10017E+01         0.00000E+00
    0.62690E+00         0.95072E+00         0.00000E+00
    0.61532E+00         0.89970E+00         0.00000E+00
    0.60248E+00         0.84853E+00         0.00000E+00
    0.58819E+00         0.79713E+00         0.00000E+00
    0.57222E+00         0.74540E+00         0.00000E+00
    0.55432E+00         0.69325E+00         0.00000E+00
    0.53418E+00         0.64057E+00         0.00000E+00
    0.51145E+00         0.58725E+00         0.00000E+00
    0.48571E+00         0.53318E+00         0.00000E+00
    0.45646E+00         0.47823E+00         0.00000E+00
    0.42311E+00         0.42228E+00         0.00000E+00
    0.38495E+00         0.36522E+00         0.00000E+00
    0.34116E+00         0.30696E+00         0.00000E+00
    0.29074E+00         0.24745E+00         0.00000E+00
    0.23256E+00         0.18672E+00         0.00000E+00
    0.16540E+00         0.12492E+00         0.00000E+00
    0.88093E-01         0.62434E-01         0.00000E+00
    0.00000E+00         0.00000E+00         0.00000E+00
    0.16883E+01         0.21254E+01         0.00000E+00
    0.15846E+01         0.20954E+01         0.00000E+00
    0.14919E+01         0.20653E+01         0.00000E+00
    0.14089E+01         0.20349E+01         0.00000E+00
    0.13348E+01         0.20042E+01         0.00000E+00
    0.12689E+01         0.19729E+01         0.00000E+00
    0.12104E+01         0.19407E+01         0.00000E+00
    0.11586E+01         0.19077E+01         0.00000E+00
    0.11128E+01         0.18736E+01         0.00000E+00
    0.10725E+01         0.18386E+01         0.00000E+00
    0.10368E+01         0.18025E+01         0.00000E+00
    0.10054E+01         0.17655E+01         0.00000E+00
    0.97760E+00         0.17276E+01         0.00000E+00
    0.95300E+00         0.16889E+01         0.00000E+00
    0.93114E+00         0.16493E+01         0.00000E+00
    0.91163E+00         0.16091E+01         0.00000E+00
    0.89410E+00         0.15683E+01         0.00000E+00
    0.87824E+00         0.15269E+01         0.00000E+00
    0.86378E+00         0.14850E+01         0.00000E+00
    0.85046E+00         0.14427E+01         0.00000E+00
    0.83805E+00         0.14000E+01         0.00000E+00
    0.82636E+00         0.13571E+01         0.00000E+00
    0.81519E+00         0.13138E+01         0.00000E+00
    0.80439E+00         0.12703E+01         0.00000E+00
    0.79378E+00         0.12266E+01         0.00000E+00
    0.78323E+00         0.11826E+01         0.00000E+00
    0.77259E+00         0.11385E+01         0.00000E+00
    0.76173E+00         0.10941E+01         0.00000E+00
    0.75050E+00         0.10496E+01         0.00000E+00
    0.73878E+00         0.10048E+01         0.00000E+00
    0.72642E+00         0.95986E+00         0.00000E+00
    0.71329E+00         0.91465E+00         0.00000E+00
    0.69922E+00         0.86918E+00         0.00000E+00
    0.68407E+00         0.82343E+00         0.00000E+00
    0.66765E+00         0.77737E+00         0.00000E+00
    0.64977E+00         0.73098E+00         0.00000E+00
    0.63024E+00         0.68422E+00         0.00000E+00
    0.60882E+00         0.63707E+00         0.00000E+00
    0.58526E+00         0.58949E+00         0.00000E+00
    0.55927E+00         0.54148E+00         0.00000E+00
    0.53054E+00         0.49302E+00         0.00000E+00
    0.49872E+00         0.44410E+00         0.00000E+00
    0.46342E+00         0.39476E+00         0.00000E+00
    0.42423E+00         0.34503E+00         0.00000E+00
    0.38067E+00         0.29499E+00         0.00000E+00
    0.33227E+00         0.24479E+00         0.00000E+00
    0.27851E+00         0.19459E+00         0.00000E+00
    0.21890E+00         0.14466E+00         0.00000E+00
    0.15296E+00         0.95324E-01         0.00000E+00
    0.80213E-01         0.46977E-01         0.00000E+00
    0.00000E+00         0.00000E+00         0.00000E+00
    0.17313E+01         0.16236E+01         0.00000E+00
    0.16437E+01         0.16048E+01         0.00000E+00
    0.15624E+01         0.15866E+01         0.00000E+00
    0.14874E+01         0.15685E+01         0.00000E+00
    0.14185E+01         0.15503E+01         0.00000E+00
    0.13553E+01         0.15318E+01         0.00000E+00
    0.12974E+01         0.15127E+01         0.00000E+00
    0.12447E+01         0.14928E+01         0.00000E+00
    0.11966E+01         0.14721E+01         0.00000E+00
    0.11528E+01         0.14506E+01         0.00000E+00
    0.11129E+01         0.14280E+01         0.00000E+00
    0.10767E+01         0.14044E+01         0.00000E+00
    0.10437E+01         0.13799E+01         0.00000E+00
    0.10137E+01         0.13543E+01         0.00000E+00
    0.98624E+00         0.13277E+01         0.00000E+00
    0.96109E+00         0.13001E+01         0.00000E+00
    0.93797E+00         0.12716E+01         0.00000E+00
    0.91660E+00         0.12422E+01         0.00000E+00
    0.89674E+00         0.12119E+01         0.00000E+00
    0.87816E+00         0.11809E+01         0.00000E+00
    0.86065E+00         0.11490E+01         0.00000E+00
    0.84400E+00         0.11165E+01         0.00000E+00
    0.82803E+00         0.10832E+01         0.00000E+00
    0.81256E+00         0.10493E+01         0.00000E+00
    0.79743E+00         0.10148E+01         0.00000E+00
    0.78247E+00         0.97968E+00         0.00000E+00
    0.76753E+00         0.94401E+00         0.00000E+00
    0.75247E+00         0.90780E+00         0.00000E+00
    0.73714E+00         0.87107E+00         0.00000E+00
    0.72139E+00         0.83385E+00         0.00000E+00
    0.70508E+00         0.79615E+00         0.00000E+00
    0.68807E+00         0.75798E+00         0.00000E+00
    0.67021E+00         0.71936E+00         0.00000E+00
    0.65134E+00         0.68030E+00         0.00000E+00
    0.63131E+00         0.64081E+00         0.00000E+00
    0.60995E+00         0.60092E+00         0.00000E+00
    0.58709E+00         0.56065E+00         0.00000E+00
    0.56254E+00         0.52002E+00         0.00000E+00
    0.53613E+00         0.47907E+00         0.00000E+00
    0.50765E+00         0.43784E+00         0.00000E+00
    0.47689E+00         0.39639E+00         0.00000E+00
    0.44365E+00         0.35481E+00         0.00000E+00
    0.40770E+00         0.31319E+00         0.00000E+00
    0.36884E+00         0.27164E+00         0.00000E+00
    0.32686E+00         0.23032E+00         0.00000E+00
    0.28156E+00         0.18941E+00         0.00000E+00
    0.23276E+00         0.14913E+00         0.00000E+00
    0.18030E+00         0.10973E+00         0.00000E+00
    0.12407E+00         0.71501E-01         0.00000E+00
    0.63956E-01         0.34784E-01         0.00000E+00
    0.00000E+00         0.00000E+00         0.00000E+00
    0.16672E+01         0.12183E+01         0.00000E+00
    0.15973E+01         0.12058E+01         0.00000E+00
    0.15306E+01         0.11938E+01         0.00000E+00
    0.14674E+01         0.11823E+01         0.00000E+00
    0.14076E+01         0.11709E+01         0.00000E+00
    0.13513E+01         0.11594E+01         0.00000E+00
    0.12984E+01         0.11476E+01         0.00000E+00
    0.12489E+01         0.11354E+01         0.00000E+00
    0.12026E+01         0.11227E+01         0.00000E+00
    0.11594E+01         0.11093E+01         0.00000E+00
    0.11191E+01         0.10952E+01         0.00000E+00
    0.10815E+01         0.10803E+01         0.00000E+00
    0.10465E+01         0.10645E+01         0.00000E+00
    0.10138E+01         0.10478E+01         0.00000E+00
    0.98324E+00         0.10302E+01         0.00000E+00
    0.95466E+00         0.10117E+01         0.00000E+00
    0.92784E+00         0.99222E+00         0.00000E+00
    0.90260E+00         0.97184E+00         0.00000E+00
    0.87874E+00         0.95054E+00         0.00000E+00
    0.85610E+00         0.92835E+00         0.00000E+00
    0.83449E+00         0.90529E+00         0.00000E+00
    0.81376E+00         0.88139E+00         0.00000E+00
    0.79374E+00         0.85666E+00         0.00000E+00
    0.77428E+00         0.83114E+00         0.00000E+00
    0.75523E+00         0.80485E+00         0.00000E+00
    0.73646E+00         0.77783E+00         0.00000E+00
    0.71781E+00         0.75011E+00         0.00000E+00
    0.69915E+00         0.72172E+00         0.00000E+00
    0.68036E+00         0.69268E+00         0.00000E+00
    0.66130E+00         0.66304E+00         0.00000E+00
    0.64185E+00         0.63281E+00         0.00000E+00
    0.62189E+00         0.60205E+00         0.00000E+00
    0.60127E+00         0.57077E+00         0.00000E+00
    0.57990E+00         0.53902E+00         0.00000E+00
    0.55764E+00         0.50684E+00         0.00000E+00
    0.53437E+00         0.47429E+00         0.00000E+00
    0.50997E+00         0.44139E+00         0.00000E+00
    0.48432E+00         0.40823E+00         0.00000E+00
    0.45732E+00         0.37486E+00         0.00000E+00
    0.42884E+00         0.34136E+00         0.00000E+00
    0.39879E+00         0.30782E+00         0.00000E+00
    0.36707E+00         0.27434E+00         0.00000E+00
    0.33360E+00         0.24102E+00         0.00000E+00
    0.29831E+00         0.20801E+00         0.00000E+00
    0.26115E+00         0.17545E+00         0.00000E+00
    0.22210E+00         0.14349E+00         0.00000E+00
    0.18116E+00         0.11234E+00         0.00000E+00
    0.13837E+00         0.82176E-01         0.00000E+00
    0.93812E-01         0.53236E-01         0.00000E+00
    0.47628E-01         0.25761E-01         0.00000E+00
    0.00000E+00         0.00000E+00         0.00000E+00
    0.15501E+01         0.90467E+00         0.00000E+00
    0.14960E+01         0.89520E+00         0.00000E+00
    0.14431E+01         0.88632E+00         0.00000E+00
    0.13917E+01         0.87787E+00         0.00000E+00
    0.13420E+01         0.86968E+00         0.00000E+00
    0.12941E+01         0.86160E+00         0.00000E+00
    0.12481E+01         0.85350E+00         0.00000E+00
    0.12041E+01         0.84524E+00         0.00000E+00
    0.11620E+01         0.83671E+00         0.00000E+00
    0.11218E+01         0.82781E+00         0.00000E+00
    0.10835E+01         0.81844E+00         0.00000E+00
    0.10471E+01         0.80853E+00         0.00000E+00
    0.10125E+01         0.79802E+00         0.00000E+00
    0.97959E+00         0.78685E+00         0.00000E+00
    0.94824E+00         0.77498E+00         0.00000E+00
    0.91838E+00         0.76238E+00         0.00000E+00
    0.88988E+00         0.74902E+00         0.00000E+00
    0.86263E+00         0.73488E+00         0.00000E+00
    0.83652E+00         0.71996E+00         0.00000E+00
    0.81142E+00         0.70426E+00         0.00000E+00
    0.78721E+00         0.68778E+00         0.00000E+00
    0.76378E+00         0.67052E+00         0.00000E+00
    0.74100E+00         0.65251E+00         0.00000E+00
    0.71876E+00         0.63374E+00         0.00000E+00
    0.69694E+00         0.61426E+00         0.00000E+00
    0.67544E+00         0.59407E+00         0.00000E+00
    0.65414E+00         0.57320E+00         0.00000E+00
    0.63293E+00         0.55169E+00         0.00000E+00
    0.61172E+00         0.52956E+00         0.00000E+00
    0.59041E+00         0.50685E+00         0.00000E+00
    0.56889E+00         0.48359E+00         0.00000E+00
    0.54707E+00         0.45982E+00         0.00000E+00
    0.52486E+00         0.43559E+00         0.00000E+00
    0.50217E+00         0.41094E+00         0.00000E+00
    0.47893E+00         0.38593E+00         0.00000E+00
    0.45506E+00         0.36060E+00         0.00000E+00
    0.43047E+00         0.33502E+00         0.00000E+00
    0.40513E+00         0.30926E+00         0.00000E+00
    0.37895E+00         0.28338E+00         0.00000E+00
    0.35191E+00         0.25747E+00         0.00000E+00
    0.32396E+00         0.23161E+00         0.00000E+00
    0.29508E+00         0.20590E+00         0.00000E+00
    0.26528E+00         0.18042E+00         0.00000E+00
    0.23455E+00         0.15531E+00         0.00000E+00
    0.20294E+00         0.13066E+00         0.00000E+00
    0.17050E+00         0.10661E+00         0.00000E+00
    0.13732E+00         0.83277E-01         0.00000E+00
    0.10351E+00         0.60811E-01         0.00000E+00
    0.69217E-01         0.39348E-01         0.00000E+00
    0.34638E-01         0.19029E-01         0.00000E+00
    0.00000E+00         0.00000E+00         0.00000E+00
    0.14129E+01         0.66633E+00         0.00000E+00
    0.13715E+01         0.65838E+00         0.00000E+00
    0.13303E+01         0.65093E+00         0.00000E+00
    0.12893E+01         0.64388E+00         0.00000E+00
    0.12490E+01         0.63714E+00         0.00000E+00
    0.12093E+01         0.63060E+00         0.00000E+00
    0.11704E+01         0.62417E+00         0.00000E+00
    0.11325E+01         0.61775E+00         0.00000E+00
    0.10956E+01         0.61127E+00         0.00000E+00
    0.10598E+01         0.60463E+00         0.00000E+00
    0.10250E+01         0.59776E+00         0.00000E+00
    0.99138E+00         0.59060E+00         0.00000E+00
    0.95883E+00         0.58307E+00         0.00000E+00
    0.92736E+00         0.57513E+00         0.00000E+00
    0.89694E+00         0.56673E+00         0.00000E+00
    0.86752E+00         0.55783E+00         0.00000E+00
    0.83906E+00         0.54839E+00         0.00000E+00
    0.81149E+00         0.53840E+00         0.00000E+00
    0.78475E+00         0.52782E+00         0.00000E+00
    0.75877E+00         0.51665E+00         0.00000E+00
    0.73348E+00         0.50488E+00         0.00000E+00
    0.70881E+00         0.49251E+00         0.00000E+00
    0.68468E+00         0.47953E+00         0.00000E+00
    0.66101E+00         0.46596E+00         0.00000E+00
    0.63773E+00         0.45180E+00         0.00000E+00
    0.61476E+00         0.43706E+00         0.00000E+00
    0.59203E+00         0.42178E+00         0.00000E+00
    0.56946E+00         0.40596E+00         0.00000E+00
    0.54698E+00         0.38964E+00         0.00000E+00
    0.52452E+00         0.37284E+00         0.00000E+00
    0.50202E+00         0.35560E+00         0.00000E+00
    0.47942E+00         0.33796E+00         0.00000E+00
    0.45666E+00         0.31994E+00         0.00000E+00
    0.43368E+00         0.30161E+00         0.00000E+00
    0.41043E+00         0.28300E+00         0.00000E+00
    0.38689E+00         0.26416E+00         0.00000E+00
    0.36300E+00         0.24515E+00         0.00000E+00
    0.33876E+00         0.22603E+00         0.00000E+00
    0.31413E+00         0.20686E+00         0.00000E+00
    0.28911E+00         0.18771E+00         0.00000E+00
    0.26370E+00         0.16865E+00         0.00000E+00
    0.23793E+00         0.14975E+00         0.00000E+00
    0.21181E+00         0.13108E+00         0.00000E+00
    0.18540E+00         0.11273E+00         0.00000E+00
    0.15876E+00         0.94784E-01         0.00000E+00
    0.13197E+00         0.77315E-01         0.00000E+00
    0.10513E+00         0.60409E-01         0.00000E+00
    0.78352E-01         0.44149E-01         0.00000E+00
    0.51790E-01         0.28612E-01         0.00000E+00
    0.25609E-01         0.13874E-01         0.00000E+00
    0.00000E+00         0.00000E+00         0.00000E+00
    0.12731E+01         0.48619E+00         0.00000E+00
    0.12416E+01         0.47911E+00         0.00000E+00
    0.12096E+01         0.47243E+00         0.00000E+00
    0.11773E+01         0.46610E+00         0.00000E+00
    0.11450E+01         0.46005E+00         0.00000E+00
    0.11126E+01         0.45425E+00         0.00000E+00
    0.10804E+01         0.44861E+00         0.00000E+00
    0.10484E+01         0.44309E+00         0.00000E+00
    0.10169E+01         0.43761E+00         0.00000E+00
    0.98571E+00         0.43213E+00         0.00000E+00
    0.95505E+00         0.42658E+00         0.00000E+00
    0.92493E+00         0.42091E+00         0.00000E+00
    0.89538E+00         0.41507E+00         0.00000E+00
    0.86641E+00         0.40902E+00         0.00000E+00
    0.83804E+00         0.40271E+00         0.00000E+00
    0.81027E+00         0.39610E+00         0.00000E+00
    0.78308E+00         0.38917E+00         0.00000E+00
    0.75646E+00         0.38189E+00         0.00000E+00
    0.73038E+00         0.37424E+00         0.00000E+00
    0.70482E+00         0.36619E+00         0.00000E+00
    0.67974E+00         0.35773E+00         0.00000E+00
    0.65510E+00         0.34886E+00         0.00000E+00
    0.63086E+00         0.33957E+00         0.00000E+00
    0.60699E+00         0.32987E+00         0.00000E+00
    0.58343E+00         0.31974E+00         0.00000E+00
    0.56016E+00         0.30921E+00         0.00000E+00
    0.53711E+00         0.29828E+00         0.00000E+00
    0.51425E+00         0.28698E+00         0.00000E+00
    0.49154E+00         0.27531E+00         0.00000E+00
    0.46893E+00         0.26329E+00         0.00000E+00
    0.44640E+00         0.25097E+00         0.00000E+00
    0.42390E+00         0.23836E+00         0.00000E+00
    0.40140E+00         0.22549E+00         0.00000E+00
    0.37889E+00         0.21240E+00         0.00000E+00
    0.35633E+00         0.19914E+00         0.00000E+00
    0.33371E+00         0.18573E+00         0.00000E+00
    0.31101E+00         0.17222E+00         0.00000E+00
    0.28825E+00         0.15865E+00         0.00000E+00
    0.26541E+00         0.14508E+00         0.00000E+00
    0.24251E+00         0.13156E+00         0.00000E+00
    0.21957E+00         0.11812E+00         0.00000E+00
    0.19663E+00         0.10483E+00         0.00000E+00
    0.17371E+00         0.91743E-01         0.00000E+00
    0.15087E+00         0.78902E-01         0.00000E+00
    0.12818E+00         0.66362E-01         0.00000E+00
    0.10570E+00         0.54173E-01         0.00000E+00
    0.83524E-01         0.42383E-01         0.00000E+00
    0.61749E-01         0.31034E-01         0.00000E+00
    0.40485E-01         0.20167E-01         0.00000E+00
    0.19857E-01         0.98141E-02         0.00000E+00
    0.00000E+00         0.00000E+00         0.00000E+00
    0.11391E+01         0.35034E+00         0.00000E+00
    0.11152E+01         0.34390E+00         0.00000E+00
    0.10905E+01         0.33777E+00         0.00000E+00
    0.10652E+01         0.33194E+00         0.00000E+00
    0.10394E+01         0.32636E+00         0.00000E+00
    0.10132E+01         0.32102E+00         0.00000E+00
    0.98685E+00         0.31586E+00         0.00000E+00
    0.96030E+00         0.31086E+00         0.00000E+00
    0.93369E+00         0.30598E+00         0.00000E+00
    0.90709E+00         0.30116E+00         0.00000E+00
    0.88058E+00         0.29639E+00         0.00000E+00
    0.85421E+00         0.29161E+00         0.00000E+00
    0.82803E+00         0.28680E+00         0.00000E+00
    0.80207E+00         0.28191E+00         0.00000E+00
    0.77637E+00         0.27692E+00         0.00000E+00
    0.75094E+00         0.27179E+00         0.00000E+00
    0.72580E+00         0.26651E+00         0.00000E+00
    0.70096E+00         0.26104E+00         0.00000E+00
    0.67643E+00         0.25537E+00         0.00000E+00
    0.65219E+00         0.24948E+00         0.00000E+00
    0.62825E+00         0.24335E+00         0.00000E+00
    0.60459E+00         0.23698E+00         0.00000E+00
    0.58120E+00         0.23036E+00         0.00000E+00
    0.55807E+00         0.22349E+00         0.00000E+00
    0.53517E+00         0.21636E+00         0.00000E+00
    0.51249E+00         0.20898E+00         0.00000E+00
    0.49001E+00         0.20136E+00         0.00000E+00
    0.46772E+00         0.19349E+00         0.00000E+00
    0.44558E+00         0.18541E+00         0.00000E+00
    0.42359E+00         0.17711E+00         0.00000E+00
    0.40174E+00         0.16862E+00         0.00000E+00
    0.37999E+00         0.15996E+00         0.00000E+00
    0.35836E+00         0.15115E+00         0.00000E+00
    0.33682E+00         0.14221E+00         0.00000E+00
    0.31537E+00         0.13317E+00         0.00000E+00
    0.29401E+00         0.12406E+00         0.00000E+00
    0.27274E+00         0.11491E+00         0.00000E+00
    0.25158E+00         0.10575E+00         0.00000E+00
    0.23053E+00         0.96613E-01         0.00000E+00
    0.20961E+00         0.87531E-01         0.00000E+00
    0.18886E+00         0.78538E-01         0.00000E+00
    0.16829E+00         0.69667E-01         0.00000E+00
    0.14795E+00         0.60949E-01         0.00000E+00
    0.12788E+00         0.52417E-01         0.00000E+00
    0.10813E+00         0.44101E-01         0.00000E+00
    0.88752E-01         0.36026E-01         0.00000E+00
    0.69820E-01         0.28219E-01         0.00000E+00
    0.51399E-01         0.20699E-01         0.00000E+00
    0.33567E-01         0.13483E-01         0.00000E+00
    0.16405E-01         0.65818E-02         0.00000E+00
    0.00000E+00         0.00000E+00         0.00000E+00
    0.10145E+01         0.24831E+00         0.00000E+00
    0.99647E+00         0.24244E+00         0.00000E+00
    0.97751E+00         0.23682E+00         0.00000E+00
    0.95778E+00         0.23145E+00         0.00000E+00
    0.93737E+00         0.22630E+00         0.00000E+00
    0.91639E+00         0.22136E+00         0.00000E+00
    0.89493E+00         0.21660E+00         0.00000E+00
    0.87307E+00         0.21202E+00         0.00000E+00
    0.85089E+00         0.20758E+00         0.00000E+00
    0.82847E+00         0.20325E+00         0.00000E+00
    0.80587E+00         0.19902E+00         0.00000E+00
    0.78314E+00         0.19487E+00         0.00000E+00
    0.76035E+00         0.19075E+00         0.00000E+00
    0.73752E+00         0.18666E+00         0.00000E+00
    0.71471E+00         0.18257E+00         0.00000E+00
    0.69195E+00         0.17846E+00         0.00000E+00
    0.66926E+00         0.17431E+00         0.00000E+00
    0.64666E+00         0.17010E+00         0.00000E+00
    0.62418E+00         0.16582E+00         0.00000E+00
    0.60183E+00         0.16144E+00         0.00000E+00
    0.57962E+00         0.15697E+00         0.00000E+00
    0.55755E+00         0.15239E+00         0.00000E+00
    0.53563E+00         0.14769E+00         0.00000E+00
    0.51387E+00         0.14288E+00         0.00000E+00
    0.49227E+00         0.13794E+00         0.00000E+00
    0.47082E+00         0.13287E+00         0.00000E+00
    0.44952E+00         0.12769E+00         0.00000E+00
    0.42837E+00         0.12239E+00         0.00000E+00
    0.40738E+00         0.11698E+00         0.00000E+00
    0.38653E+00         0.11147E+00         0.00000E+00
    0.36582E+00         0.10586E+00         0.00000E+00
    0.34527E+00         0.10018E+00         0.00000E+00
    0.32486E+00         0.94436E-01         0.00000E+00
    0.30460E+00         0.88642E-01         0.00000E+00
    0.28450E+00         0.82815E-01         0.00000E+00
    0.26457E+00         0.76974E-01         0.00000E+00
    0.24480E+00         0.71137E-01         0.00000E+00
    0.22523E+00         0.65324E-01         0.00000E+00
    0.20586E+00         0.59555E-01         0.00000E+00
    0.18672E+00         0.53849E-01         0.00000E+00
    0.16782E+00         0.48226E-01         0.00000E+00
    0.14920E+00         0.42705E-01         0.00000E+00
    0.13088E+00         0.37305E-01         0.00000E+00
    0.11290E+00         0.32042E-01         0.00000E+00
    0.95297E-01         0.26931E-01         0.00000E+00
    0.78106E-01         0.21986E-01         0.00000E+00
    0.61375E-01         0.17217E-01         0.00000E+00
    0.45149E-01         0.12632E-01         0.00000E+00
    0.29477E-01         0.82342E-02         0.00000E+00
    0.14410E-01         0.40249E-02         0.00000E+00
    0.00000E+00         0.00000E+00         0.00000E+00
    0.90088E+00         0.17230E+00         0.00000E+00
    0.88736E+00         0.16699E+00         0.00000E+00
    0.87291E+00         0.16188E+00         0.00000E+00
    0.85762E+00         0.15697E+00         0.00000E+00
    0.84156E+00         0.15225E+00         0.00000E+00
    0.82483E+00         0.14771E+00         0.00000E+00
    0.80749E+00         0.14336E+00         0.00000E+00
    0.78962E+00         0.13916E+00         0.00000E+00
    0.77129E+00         0.13512E+00         0.00000E+00
    0.75256E+00         0.13122E+00         0.00000E+00
    0.73349E+00         0.12745E+00         0.00000E+00
    0.71413E+00         0.12378E+00         0.00000E+00
    0.69454E+00         0.12022E+00         0.00000E+00
    0.67475E+00         0.11673E+00         0.00000E+00
    0.65482E+00         0.11330E+00         0.00000E+00
    0.63477E+00         0.10993E+00         0.00000E+00
    0.61464E+00         0.10660E+00         0.00000E+00
    0.59446E+00         0.10330E+00         0.00000E+00
    0.57426E+00         0.10001E+00         0.00000E+00
    0.55406E+00         0.96726E-01         0.00000E+00
    0.53388E+00         0.93439E-01         0.00000E+00
    0.51374E+00         0.90140E-01         0.00000E+00
    0.49365E+00         0.86823E-01         0.00000E+00
    0.47363E+00         0.83485E-01         0.00000E+00
    0.45369E+00         0.80121E-01         0.00000E+00
    0.43384E+00         0.76731E-01         0.00000E+00
    0.41408E+00         0.73314E-01         0.00000E+00
    0.39444E+00         0.69872E-01         0.00000E+00
    0.37491E+00         0.66407E-01         0.00000E+00
    0.35551E+00         0.62923E-01         0.00000E+00
    0.33624E+00         0.59426E-01         0.00000E+00
    0.31711E+00         0.55922E-01         0.00000E+00
    0.29813E+00         0.52419E-01         0.00000E+00
    0.27931E+00         0.48926E-01         0.00000E+00
    0.26067E+00         0.45451E-01         0.00000E+00
    0.24220E+00         0.42004E-01         0.00000E+00
    0.22394E+00         0.38596E-01         0.00000E+00
    0.20589E+00         0.35238E-01         0.00000E+00
    0.18806E+00         0.31939E-01         0.00000E+00
    0.17048E+00         0.28711E-01         0.00000E+00
    0.15317E+00         0.25564E-01         0.00000E+00
    0.13614E+00         0.22507E-01         0.00000E+00
    0.11942E+00         0.19549E-01         0.00000E+00
    0.10304E+00         0.16697E-01         0.00000E+00
    0.87014E-01         0.13958E-01         0.00000E+00
    0.71377E-01         0.11336E-01         0.00000E+00
    0.56156E-01         0.88333E-02         0.00000E+00
    0.41378E-01         0.64516E-02         0.00000E+00
    0.27073E-01         0.41887E-02         0.00000E+00
    0.13271E-01         0.20405E-02         0.00000E+00
    0.00000E+00         0.00000E+00         0.00000E+00
    0.79846E+00         0.11637E+00         0.00000E+00
    0.78847E+00         0.11160E+00         0.00000E+00
    0.77756E+00         0.10700E+00         0.00000E+00
    0.76579E+00         0.10255E+00         0.00000E+00
    0.75324E+00         0.98270E-01         0.00000E+00
    0.73997E+00         0.94151E-01         0.00000E+00
    0.72605E+00         0.90191E-01         0.00000E+00
    0.71153E+00         0.86387E-01         0.00000E+00
    0.69648E+00         0.82735E-01         0.00000E+00
    0.68094E+00         0.79226E-01         0.00000E+00
    0.66498E+00         0.75856E-01         0.00000E+00
    0.64863E+00         0.72616E-01         0.00000E+00
    0.63195E+00         0.69498E-01         0.00000E+00
    0.61497E+00         0.66493E-01         0.00000E+00
    0.59774E+00         0.63594E-01         0.00000E+00
    0.58030E+00         0.60791E-01         0.00000E+00
    0.56268E+00         0.58077E-01         0.00000E+00
    0.54490E+00         0.55443E-01         0.00000E+00
    0.52701E+00         0.52883E-01         0.00000E+00
    0.50902E+00         0.50388E-01         0.00000E+00
    0.49097E+00         0.47953E-01         0.00000E+00
    0.47287E+00         0.45572E-01         0.00000E+00
    0.45475E+00         0.43241E-01         0.00000E+00
    0.43662E+00         0.40955E-01         0.00000E+00
    0.41851E+00         0.38711E-01         0.00000E+00
    0.40043E+00         0.36508E-01         0.00000E+00
    0.38239E+00         0.34343E-01         0.00000E+00
    0.36441E+00         0.32217E-01         0.00000E+00
    0.34651E+00         0.30129E-01         0.00000E+00
    0.32870E+00         0.28080E-01         0.00000E+00
    0.31099E+00         0.26074E-01         0.00000E+00
    0.29339E+00         0.24111E-01         0.00000E+00
    0.27592E+00         0.22196E-01         0.00000E+00
    0.25860E+00         0.20332E-01         0.00000E+00
    0.24142E+00         0.18523E-01         0.00000E+00
    0.22442E+00         0.16773E-01         0.00000E+00
    0.20759E+00         0.15087E-01         0.00000E+00
    0.19096E+00         0.13470E-01         0.00000E+00
    0.17455E+00         0.11926E-01         0.00000E+00
    0.15836E+00         0.10459E-01         0.00000E+00
    0.14241E+00         0.90736E-02         0.00000E+00
    0.12672E+00         0.77731E-02         0.00000E+00
    0.11131E+00         0.65600E-02         0.00000E+00
    0.96190E-01         0.54364E-02         0.00000E+00
    0.81381E-01         0.44033E-02         0.00000E+00
    0.66901E-01         0.34603E-02         0.00000E+00
    0.52765E-01         0.26063E-02         0.00000E+00
    0.38991E-01         0.18383E-02         0.00000E+00
    0.25595E-01         0.11521E-02         0.00000E+00
    0.12593E-01         0.54187E-03         0.00000E+00
    0.00000E+00         0.00000E+00         0.00000E+00
    0.70702E+00         0.75882E-01         0.00000E+00
    0.69975E+00         0.71636E-01         0.00000E+00
    0.69160E+00         0.67516E-01         0.00000E+00
    0.68262E+00         0.63528E-01         0.00000E+00
    0.67288E+00         0.59677E-01         0.00000E+00
    0.66242E+00         0.55966E-01         0.00000E+00
    0.65130E+00         0.52397E-01         0.00000E+00
    0.63956E+00         0.48971E-01         0.00000E+00
    0.62726E+00         0.45688E-01         0.00000E+00
    0.61445E+00         0.42547E-01         0.00000E+00
    0.60116E+00         0.39545E-01         0.00000E+00
    0.58745E+00         0.36679E-01         0.00000E+00
    0.57334E+00         0.33947E-01         0.00000E+00
    0.55889E+00         0.31343E-01         0.00000E+00
    0.54412E+00         0.28865E-01         0.00000E+00
    0.52908E+00         0.26508E-01         0.00000E+00
    0.51379E+00         0.24266E-01         0.00000E+00
    0.49829E+00         0.22136E-01         0.00000E+00
    0.48261E+00         0.20113E-01         0.00000E+00
    0.46676E+00         0.18192E-01         0.00000E+00
    0.45079E+00         0.16370E-01         0.00000E+00
    0.43471E+00         0.14643E-01         0.00000E+00
    0.41855E+00         0.13006E-01         0.00000E+00
    0.40233E+00         0.11458E-01         0.00000E+00
    0.38607E+00         0.99951E-02         0.00000E+00
    0.36978E+00         0.86150E-02         0.00000E+00
    0.35350E+00         0.73161E-02         0.00000E+00
    0.33722E+00         0.60969E-02         0.00000E+00
    0.32098E+00         0.49562E-02         0.00000E+00
    0.30478E+00         0.38937E-02         0.00000E+00
    0.28865E+00         0.29089E-02         0.00000E+00
    0.27259E+00         0.20021E-02         0.00000E+00
    0.25663E+00         0.11736E-02         0.00000E+00
    0.24077E+00         0.42405E-03         0.00000E+00
    0.22503E+00        -0.24578E-03         0.00000E+00
    0.20943E+00        -0.83496E-03         0.00000E+00
    0.19397E+00        -0.13426E-02         0.00000E+00
    0.17867E+00        -0.17677E-02         0.00000E+00
    0.16355E+00        -0.21096E-02         0.00000E+00
    0.14861E+00        -0.23678E-02         0.00000E+00
    0.13387E+00        -0.25419E-02         0.00000E+00
    0.11935E+00        -0.26323E-02         0.00000E+00
    0.10505E+00        -0.26394E-02         0.00000E+00
    0.90980E-01        -0.25646E-02         0.00000E+00
    0.77161E-01        -0.24097E-02         0.00000E+00
    0.63601E-01        -0.21772E-02         0.00000E+00
    0.50309E-01        -0.18705E-02         0.00000E+00
    0.37295E-01        -0.14938E-02         0.00000E+00
    0.24568E-01        -0.10523E-02         0.00000E+00
    0.12134E-01        -0.55204E-03         0.00000E+00
    0.00000E+00         0.00000E+00         0.00000E+00
    0.62597E+00         0.47160E-01         0.00000E+00
    0.62077E+00         0.43400E-01         0.00000E+00
    0.61475E+00         0.39739E-01         0.00000E+00
    0.60796E+00         0.36185E-01         0.00000E+00
    0.60044E+00         0.32745E-01         0.00000E+00
    0.59224E+00         0.29425E-01         0.00000E+00
    0.58340E+00         0.26229E-01         0.00000E+00
    0.57395E+00         0.23162E-01         0.00000E+00
    0.56394E+00         0.20226E-01         0.00000E+00
    0.55342E+00         0.17422E-01         0.00000E+00
    0.54241E+00         0.14753E-01         0.00000E+00
    0.53096E+00         0.12218E-01         0.00000E+00
    0.51909E+00         0.98175E-02         0.00000E+00
    0.50685E+00         0.75500E-02         0.00000E+00
    0.49427E+00         0.54145E-02         0.00000E+00
    0.48138E+00         0.34095E-02         0.00000E+00
    0.46820E+00         0.15330E-02         0.00000E+00
    0.45478E+00        -0.21718E-03         0.00000E+00
    0.44113E+00        -0.18433E-02         0.00000E+00
    0.42728E+00        -0.33477E-02         0.00000E+00
    0.41326E+00        -0.47328E-02         0.00000E+00
    0.39909E+00        -0.60011E-02         0.00000E+00
    0.38479E+00        -0.71550E-02         0.00000E+00
    0.37039E+00        -0.81968E-02         0.00000E+00
    0.35591E+00        -0.91286E-02         0.00000E+00
    0.34136E+00        -0.99525E-02         0.00000E+00
    0.32676E+00        -0.10670E-01         0.00000E+00
    0.31214E+00        -0.11284E-01         0.00000E+00
    0.29751E+00        -0.11795E-01         0.00000E+00
    0.28288E+00        -0.12206E-01         0.00000E+00
    0.26828E+00        -0.12516E-01         0.00000E+00
    0.25371E+00        -0.12728E-01         0.00000E+00
    0.23920E+00        -0.12842E-01         0.00000E+00
    0.22475E+00        -0.12860E-01         0.00000E+00
    0.21038E+00        -0.12783E-01         0.00000E+00
    0.19610E+00        -0.12612E-01         0.00000E+00
    0.18192E+00        -0.12347E-01         0.00000E+00
    0.16786E+00        -0.11991E-01         0.00000E+00
    0.15393E+00        -0.11544E-01         0.00000E+00
    0.14014E+00        -0.11008E-01         0.00000E+00
    0.12650E+00        -0.10385E-01         0.00000E+00
    0.11301E+00        -0.96770E-02         0.00000E+00
    0.99693E-01        -0.88861E-02         0.00000E+00
    0.86550E-01        -0.80151E-02         0.00000E+00
    0.73591E-01        -0.70672E-02         0.00000E+00
    0.60823E-01        -0.60460E-02         0.00000E+00
    0.48250E-01        -0.49556E-02         0.00000E+00
    0.35878E-01        -0.38004E-02         0.00000E+00
    0.23712E-01        -0.25857E-02         0.00000E+00
    0.11752E-01        -0.13168E-02         0.00000E+00
    0.00000E+00         0.00000E+00         0.00000E+00
    0.55450E+00         0.27285E-01         0.00000E+00
    0.55086E+00         0.23972E-01         0.00000E+00
    0.54648E+00         0.20735E-01         0.00000E+00
    0.54138E+00         0.17583E-01         0.00000E+00
    0.53561E+00         0.14526E-01         0.00000E+00
    0.52921E+00         0.11570E-01         0.00000E+00
    0.52219E+00         0.87213E-02         0.00000E+00
    0.51461E+00         0.59859E-02         0.00000E+00
    0.50649E+00         0.33683E-02         0.00000E+00
    0.49787E+00         0.87220E-03         0.00000E+00
    0.48877E+00        -0.14994E-02         0.00000E+00
    0.47923E+00        -0.37440E-02         0.00000E+00
    0.46929E+00        -0.58599E-02         0.00000E+00
    0.45896E+00        -0.78459E-02         0.00000E+00
    0.44828E+00        -0.97013E-02         0.00000E+00
    0.43727E+00        -0.11426E-01         0.00000E+00
    0.42597E+00        -0.13019E-01         0.00000E+00
    0.41440E+00        -0.14483E-01         0.00000E+00
    0.40257E+00        -0.15817E-01         0.00000E+00
    0.39053E+00        -0.17022E-01         0.00000E+00
    0.37828E+00        -0.18099E-01         0.00000E+00
    0.36586E+00        -0.19050E-01         0.00000E+00
    0.35328E+00        -0.19877E-01         0.00000E+00
    0.34057E+00        -0.20580E-01         0.00000E+00
    0.32774E+00        -0.21161E-01         0.00000E+00
    0.31481E+00        -0.21623E-01         0.00000E+00
    0.30180E+00        -0.21966E-01         0.00000E+00
    0.28872E+00        -0.22193E-01         0.00000E+00
    0.27561E+00        -0.22305E-01         0.00000E+00
    0.26246E+00        -0.22304E-01         0.00000E+00
    0.24929E+00        -0.22191E-01         0.00000E+00
    0.23613E+00        -0.21969E-01         0.00000E+00
    0.22298E+00        -0.21640E-01         0.00000E+00
    0.20985E+00        -0.21204E-01         0.00000E+00
    0.19676E+00        -0.20665E-01         0.00000E+00
    0.18372E+00        -0.20024E-01         0.00000E+00
    0.17075E+00        -0.19284E-01         0.00000E+00
    0.15784E+00        -0.18445E-01         0.00000E+00
    0.14502E+00        -0.17512E-01         0.00000E+00
    0.13228E+00        -0.16486E-01         0.00000E+00
    0.11965E+00        -0.15370E-01         0.00000E+00
    0.10712E+00        -0.14166E-01         0.00000E+00
    0.94704E-01        -0.12879E-01         0.00000E+00
    0.82408E-01        -0.11511E-01         0.00000E+00
    0.70237E-01        -0.10066E-01         0.00000E+00
    0.58195E-01        -0.85466E-02         0.00000E+00
    0.46286E-01        -0.69583E-02         0.00000E+00
    0.34511E-01        -0.53048E-02         0.00000E+00
    0.22872E-01        -0.35907E-02         0.00000E+00
    0.11369E-01        -0.18207E-02         0.00000E+00
    0.00000E+00         0.00000E+00         0.00000E+00
    0.49171E+00         0.13957E-01         0.00000E+00
    0.48923E+00         0.11046E-01         0.00000E+00
    0.48608E+00         0.81930E-02         0.00000E+00
    0.48228E+00         0.54080E-02         0.00000E+00
    0.47788E+00         0.26999E-02         0.00000E+00
    0.47288E+00         0.76604E-04         0.00000E+00
    0.46733E+00        -0.24548E-02         0.00000E+00
    0.46125E+00        -0.48880E-02         0.00000E+00
    0.45467E+00        -0.72173E-02         0.00000E+00
    0.44761E+00        -0.94380E-02         0.00000E+00
    0.44011E+00        -0.11546E-01         0.00000E+00
    0.43218E+00        -0.13537E-01         0.00000E+00
    0.42385E+00        -0.15409E-01         0.00000E+00
    0.41515E+00        -0.17159E-01         0.00000E+00
    0.40610E+00        -0.18785E-01         0.00000E+00
    0.39672E+00        -0.20285E-01         0.00000E+00
    0.38705E+00        -0.21659E-01         0.00000E+00
    0.37710E+00        -0.22906E-01         0.00000E+00
    0.36689E+00        -0.24025E-01         0.00000E+00
    0.35644E+00        -0.25016E-01         0.00000E+00
    0.34578E+00        -0.25880E-01         0.00000E+00
    0.33492E+00        -0.26616E-01         0.00000E+00
    0.32389E+00        -0.27226E-01         0.00000E+00
    0.31270E+00        -0.27711E-01         0.00000E+00
    0.30137E+00        -0.28071E-01         0.00000E+00
    0.28992E+00        -0.28308E-01         0.00000E+00
    0.27836E+00        -0.28423E-01         0.00000E+00
    0.26671E+00        -0.28417E-01         0.00000E+00
    0.25498E+00        -0.28292E-01         0.00000E+00
    0.24320E+00        -0.28050E-01         0.00000E+00
    0.23136E+00        -0.27693E-01         0.00000E+00
    0.21950E+00        -0.27222E-01         0.00000E+00
    0.20761E+00        -0.26639E-01         0.00000E+00
    0.19571E+00        -0.25947E-01         0.00000E+00
    0.18381E+00        -0.25148E-01         0.00000E+00
    0.17193E+00        -0.24244E-01         0.00000E+00
    0.16006E+00        -0.23237E-01         0.00000E+00
    0.14823E+00        -0.22130E-01         0.00000E+00
    0.13643E+00        -0.20925E-01         0.00000E+00
    0.12469E+00        -0.19626E-01         0.00000E+00
    0.11299E+00        -0.18235E-01         0.00000E+00
    0.10136E+00        -0.16755E-01         0.00000E+00
    0.89794E-01        -0.15190E-01         0.00000E+00
    0.78298E-01        -0.13542E-01         0.00000E+00
    0.66876E-01        -0.11815E-01         0.00000E+00
    0.55531E-01        -0.10013E-01         0.00000E+00
    0.44265E-01        -0.81388E-02         0.00000E+00
    0.33080E-01        -0.61965E-02         0.00000E+00
    0.21974E-01        -0.41900E-02         0.00000E+00
    0.10949E-01        -0.21232E-02         0.00000E+00
    0.00000E+00         0.00000E+00         0.00000E+00
    0.43668E+00         0.53794E-02         0.00000E+00
    0.43504E+00         0.28260E-02         0.00000E+00
    0.43280E+00         0.31662E-03         0.00000E+00
    0.42999E+00        -0.21392E-02         0.00000E+00
    0.42664E+00        -0.45329E-02         0.00000E+00
    0.42275E+00        -0.68562E-02         0.00000E+00
    0.41835E+00        -0.91020E-02         0.00000E+00
    0.41347E+00        -0.11264E-01         0.00000E+00
    0.40813E+00        -0.13335E-01         0.00000E+00
    0.40235E+00        -0.15311E-01         0.00000E+00
    0.39615E+00        -0.17186E-01         0.00000E+00
    0.38955E+00        -0.18957E-01         0.00000E+00
    0.38258E+00        -0.20619E-01         0.00000E+00
    0.37525E+00        -0.22170E-01         0.00000E+00
    0.36759E+00        -0.23607E-01         0.00000E+00
    0.35960E+00        -0.24928E-01         0.00000E+00
    0.35133E+00        -0.26130E-01         0.00000E+00
    0.34278E+00        -0.27212E-01         0.00000E+00
    0.33397E+00        -0.28173E-01         0.00000E+00
    0.32492E+00        -0.29012E-01         0.00000E+00
    0.31565E+00        -0.29729E-01         0.00000E+00
    0.30618E+00        -0.30324E-01         0.00000E+00
    0.29652E+00        -0.30796E-01         0.00000E+00
    0.28668E+00        -0.31146E-01         0.00000E+00
    0.27670E+00        -0.31374E-01         0.00000E+00
    0.26657E+00        -0.31481E-01         0.00000E+00
    0.25632E+00        -0.31468E-01         0.00000E+00
    0.24595E+00        -0.31336E-01         0.00000E+00
    0.23549E+00        -0.31087E-01         0.00000E+00
    0.22494E+00        -0.30722E-01         0.00000E+00
    0.21432E+00        -0.30241E-01         0.00000E+00
    0.20364E+00        -0.29648E-01         0.00000E+00
    0.19291E+00        -0.28944E-01         0.00000E+00
    0.18214E+00        -0.28130E-01         0.00000E+00
    0.17134E+00        -0.27210E-01         0.00000E+00
    0.16051E+00        -0.26184E-01         0.00000E+00
    0.14968E+00        -0.25056E-01         0.00000E+00
    0.13884E+00        -0.23828E-01         0.00000E+00
    0.12801E+00        -0.22502E-01         0.00000E+00
    0.11719E+00        -0.21081E-01         0.00000E+00
    0.10638E+00        -0.19568E-01         0.00000E+00
    0.95598E-01        -0.17965E-01         0.00000E+00
    0.84839E-01        -0.16276E-01         0.00000E+00
    0.74111E-01        -0.14502E-01         0.00000E+00
    0.63415E-01        -0.12648E-01         0.00000E+00
    0.52754E-01        -0.10717E-01         0.00000E+00
    0.42130E-01        -0.87102E-02         0.00000E+00
    0.31544E-01        -0.66322E-02         0.00000E+00
    0.20994E-01        -0.44858E-02         0.00000E+00
    0.10480E-01        -0.22740E-02         0.00000E+00
    0.00000E+00         0.00000E+00         0.00000E+00
    0.38850E+00         0.17300E-03         0.00000E+00
    0.38746E+00        -0.20652E-02         0.00000E+00
    0.38589E+00        -0.42706E-02         0.00000E+00
    0.38382E+00        -0.64343E-02         0.00000E+00
    0.38126E+00        -0.85479E-02         0.00000E+00
    0.37822E+00        -0.10604E-01         0.00000E+00
    0.37473E+00        -0.12595E-01         0.00000E+00
    0.37081E+00        -0.14514E-01         0.00000E+00
    0.36646E+00        -0.16356E-01         0.00000E+00
    0.36171E+00        -0.18116E-01         0.00000E+00
    0.35658E+00        -0.19787E-01         0.00000E+00
    0.35108E+00        -0.21366E-01         0.00000E+00
    0.34523E+00        -0.22849E-01         0.00000E+00
    0.33904E+00        -0.24231E-01         0.00000E+00
    0.33254E+00        -0.25511E-01         0.00000E+00
    0.32574E+00        -0.26685E-01         0.00000E+00
    0.31866E+00        -0.27751E-01         0.00000E+00
    0.31130E+00        -0.28707E-01         0.00000E+00
    0.30370E+00        -0.29551E-01         0.00000E+00
    0.29586E+00        -0.30282E-01         0.00000E+00
    0.28780E+00        -0.30899E-01         0.00000E+00
    0.27953E+00        -0.31401E-01         0.00000E+00
    0.27107E+00        -0.31788E-01         0.00000E+00
    0.26244E+00        -0.32060E-01         0.00000E+00
    0.25364E+00        -0.32216E-01         0.00000E+00
    0.24469E+00        -0.32258E-01         0.00000E+00
    0.23560E+00        -0.32185E-01         0.00000E+00
    0.22638E+00        -0.31998E-01         0.00000E+00
    0.21705E+00        -0.31698E-01         0.00000E+00
    0.20762E+00        -0.31287E-01         0.00000E+00
    0.19810E+00        -0.30765E-01         0.00000E+00
    0.18849E+00        -0.30133E-01         0.00000E+00
    0.17881E+00        -0.29394E-01         0.00000E+00
    0.16907E+00        -0.28549E-01         0.00000E+00
    0.15927E+00        -0.27600E-01         0.00000E+00
    0.14943E+00        -0.26548E-01         0.00000E+00
    0.13955E+00        -0.25395E-01         0.00000E+00
    0.12964E+00        -0.24145E-01         0.00000E+00
    0.11970E+00        -0.22798E-01         0.00000E+00
    0.10975E+00        -0.21357E-01         0.00000E+00
    0.99777E-01        -0.19825E-01         0.00000E+00
    0.89798E-01        -0.18203E-01         0.00000E+00
    0.79814E-01        -0.16495E-01         0.00000E+00
    0.69827E-01        -0.14702E-01         0.00000E+00
    0.59842E-01        -0.12828E-01         0.00000E+00
    0.49858E-01        -0.10874E-01         0.00000E+00
    0.39879E-01        -0.88433E-02         0.00000E+00
    0.29904E-01        -0.67381E-02         0.00000E+00
    0.19933E-01        -0.45610E-02         0.00000E+00
    0.99655E-02        -0.23142E-02         0.00000E+00
    0.00000E+00         0.00000E+00         0.00000E+00
    0.34632E+00        -0.27043E-02         0.00000E+00
    0.34569E+00        -0.46670E-02         0.00000E+00
    0.34460E+00        -0.66056E-02         0.00000E+00
    0.34307E+00        -0.85118E-02         0.00000E+00
    0.34111E+00        -0.10378E-01         0.00000E+00
    0.33873E+00        -0.12197E-01         0.00000E+00
    0.33595E+00        -0.13962E-01         0.00000E+00
    0.33277E+00        -0.15668E-01         0.00000E+00
    0.32922E+00        -0.17307E-01         0.00000E+00
    0.32530E+00        -0.18875E-01         0.00000E+00
    0.32103E+00        -0.20368E-01         0.00000E+00
    0.31643E+00        -0.21779E-01         0.00000E+00
    0.31150E+00        -0.23107E-01         0.00000E+00
    0.30627E+00        -0.24346E-01         0.00000E+00
    0.30074E+00        -0.25493E-01         0.00000E+00
    0.29493E+00        -0.26546E-01         0.00000E+00
    0.28885E+00        -0.27502E-01         0.00000E+00
    0.28252E+00        -0.28359E-01         0.00000E+00
    0.27594E+00        -0.29115E-01         0.00000E+00
    0.26914E+00        -0.29767E-01         0.00000E+00
    0.26212E+00        -0.30316E-01         0.00000E+00
    0.25490E+00        -0.30759E-01         0.00000E+00
    0.24749E+00        -0.31096E-01         0.00000E+00
    0.23989E+00        -0.31326E-01         0.00000E+00
    0.23214E+00        -0.31450E-01         0.00000E+00
    0.22422E+00        -0.31467E-01         0.00000E+00
    0.21616E+00        -0.31376E-01         0.00000E+00
    0.20797E+00        -0.31179E-01         0.00000E+00
    0.19965E+00        -0.30876E-01         0.00000E+00
    0.19121E+00        -0.30468E-01         0.00000E+00
    0.18267E+00        -0.29955E-01         0.00000E+00
    0.17403E+00        -0.29339E-01         0.00000E+00
    0.16531E+00        -0.28620E-01         0.00000E+00
    0.15650E+00        -0.27800E-01         0.00000E+00
    0.14762E+00        -0.26880E-01         0.00000E+00
    0.13868E+00        -0.25861E-01         0.00000E+00
    0.12968E+00        -0.24746E-01         0.00000E+00
    0.12063E+00        -0.23536E-01         0.00000E+00
    0.11152E+00        -0.22233E-01         0.00000E+00
    0.10238E+00        -0.20838E-01         0.00000E+00
    0.93201E-01        -0.19353E-01         0.00000E+00
    0.83988E-01        -0.17781E-01         0.00000E+00
    0.74745E-01        -0.16123E-01         0.00000E+00
    0.65477E-01        -0.14381E-01         0.00000E+00
    0.56184E-01        -0.12557E-01         0.00000E+00
    0.46870E-01        -0.10654E-01         0.00000E+00
    0.37535E-01        -0.86719E-02         0.00000E+00
    0.28181E-01        -0.66138E-02         0.00000E+00
    0.18808E-01        -0.44814E-02         0.00000E+00
    0.94141E-02        -0.22762E-02         0.00000E+00
    0.00000E+00         0.00000E+00         0.00000E+00
    0.30935E+00        -0.40255E-02         0.00000E+00
    0.30900E+00        -0.57487E-02         0.00000E+00
    0.30825E+00        -0.74542E-02         0.00000E+00
    0.30712E+00        -0.91349E-02         0.00000E+00
    0.30560E+00        -0.10784E-01         0.00000E+00
    0.30372E+00        -0.12394E-01         0.00000E+00
    0.30148E+00        -0.13961E-01         0.00000E+00
    0.29890E+00        -0.15477E-01         0.00000E+00
    0.29597E+00        -0.16937E-01         0.00000E+00
    0.29272E+00        -0.18337E-01         0.00000E+00
    0.28915E+00        -0.19672E-01         0.00000E+00
    0.28528E+00        -0.20938E-01         0.00000E+00
    0.28111E+00        -0.22130E-01         0.00000E+00
    0.27666E+00        -0.23245E-01         0.00000E+00
    0.27194E+00        -0.24280E-01         0.00000E+00
    0.26695E+00        -0.25231E-01         0.00000E+00
    0.26172E+00        -0.26096E-01         0.00000E+00
    0.25625E+00        -0.26873E-01         0.00000E+00
    0.25055E+00        -0.27560E-01         0.00000E+00
    0.24463E+00        -0.28154E-01         0.00000E+00
    0.23851E+00        -0.28655E-01         0.00000E+00
    0.23218E+00        -0.29060E-01         0.00000E+00
    0.22568E+00        -0.29369E-01         0.00000E+00
    0.21899E+00        -0.29581E-01         0.00000E+00
    0.21214E+00        -0.29695E-01         0.00000E+00
    0.20514E+00        -0.29711E-01         0.00000E+00
    0.19798E+00        -0.29629E-01         0.00000E+00
    0.19069E+00        -0.29449E-01         0.00000E+00
    0.18326E+00        -0.29170E-01         0.00000E+00
    0.17572E+00        -0.28794E-01         0.00000E+00
    0.16806E+00        -0.28320E-01         0.00000E+00
    0.16029E+00        -0.27749E-01         0.00000E+00
    0.15243E+00        -0.27083E-01         0.00000E+00
    0.14447E+00        -0.26321E-01         0.00000E+00
    0.13643E+00        -0.25465E-01         0.00000E+00
    0.12831E+00        -0.24515E-01         0.00000E+00
    0.12011E+00        -0.23474E-01         0.00000E+00
    0.11185E+00        -0.22342E-01         0.00000E+00
    0.10352E+00        -0.21121E-01         0.00000E+00
    0.95141E-01        -0.19811E-01         0.00000E+00
    0.86705E-01        -0.18415E-01         0.00000E+00
    0.78219E-01        -0.16934E-01         0.00000E+00
    0.69686E-01        -0.15368E-01         0.00000E+00
    0.61109E-01        -0.13721E-01         0.00000E+00
    0.52491E-01        -0.11993E-01         0.00000E+00
    0.43834E-01        -0.10185E-01         0.00000E+00
    0.35139E-01        -0.82987E-02         0.00000E+00
    0.26408E-01        -0.63361E-02         0.00000E+00
    0.17641E-01        -0.42980E-02         0.00000E+00
    0.88385E-02        -0.21856E-02         0.00000E+00
    0.00000E+00         0.00000E+00         0.00000E+00
    0.27690E+00        -0.43523E-02         0.00000E+00
    0.27673E+00        -0.58678E-02         0.00000E+00
    0.27622E+00        -0.73706E-02         0.00000E+00
    0.27537E+00        -0.88544E-02         0.00000E+00
    0.27418E+00        -0.10313E-01         0.00000E+00
    0.27268E+00        -0.11741E-01         0.00000E+00
    0.27086E+00        -0.13132E-01         0.00000E+00
    0.26873E+00        -0.14481E-01         0.00000E+00
    0.26630E+00        -0.15784E-01         0.00000E+00
    0.26358E+00        -0.17036E-01         0.00000E+00
    0.26057E+00        -0.18232E-01         0.00000E+00
    0.25729E+00        -0.19369E-01         0.00000E+00
    0.25375E+00        -0.20443E-01         0.00000E+00
    0.24994E+00        -0.21449E-01         0.00000E+00
    0.24589E+00        -0.22386E-01         0.00000E+00
    0.24160E+00        -0.23250E-01         0.00000E+00
    0.23707E+00        -0.24039E-01         0.00000E+00
    0.23233E+00        -0.24750E-01         0.00000E+00
    0.22737E+00        -0.25381E-01         0.00000E+00
    0.22220E+00        -0.25929E-01         0.00000E+00
    0.21684E+00        -0.26394E-01         0.00000E+00
    0.21130E+00        -0.26774E-01         0.00000E+00
    0.20557E+00        -0.27068E-01         0.00000E+00
    0.19967E+00        -0.27274E-01         0.00000E+00
    0.19361E+00        -0.27392E-01         0.00000E+00
    0.18740E+00        -0.27422E-01         0.00000E+00
    0.18104E+00        -0.27361E-01         0.00000E+00
    0.17454E+00        -0.27211E-01         0.00000E+00
    0.16791E+00        -0.26972E-01         0.00000E+00
    0.16115E+00        -0.26642E-01         0.00000E+00
    0.15427E+00        -0.26222E-01         0.00000E+00
    0.14729E+00        -0.25713E-01         0.00000E+00
    0.14020E+00        -0.25115E-01         0.00000E+00
    0.13301E+00        -0.24429E-01         0.00000E+00
    0.12572E+00        -0.23654E-01         0.00000E+00
    0.11835E+00        -0.22792E-01         0.00000E+00
    0.11090E+00        -0.21844E-01         0.00000E+00
    0.10337E+00        -0.20809E-01         0.00000E+00
    0.95765E-01        -0.19690E-01         0.00000E+00
    0.88092E-01        -0.18487E-01         0.00000E+00
    0.80354E-01        -0.17201E-01         0.00000E+00
    0.72554E-01        -0.15833E-01         0.00000E+00
    0.64696E-01        -0.14385E-01         0.00000E+00
    0.56783E-01        -0.12856E-01         0.00000E+00
    0.48816E-01        -0.11249E-01         0.00000E+00
    0.40799E-01        -0.95634E-02         0.00000E+00
    0.32732E-01        -0.78011E-02         0.00000E+00
    0.24618E-01        -0.59629E-02         0.00000E+00
    0.16458E-01        -0.40494E-02         0.00000E+00
    0.82516E-02        -0.20616E-02         0.00000E+00
    0.00000E+00         0.00000E+00         0.00000E+00
    0.24835E+00        -0.40834E-02         0.00000E+00
    0.24830E+00        -0.54192E-02         0.00000E+00
    0.24794E+00        -0.67459E-02         0.00000E+00
    0.24729E+00        -0.80581E-02         0.00000E+00
    0.24635E+00        -0.93504E-02         0.00000E+00
    0.24513E+00        -0.10618E-01         0.00000E+00
    0.24363E+00        -0.11855E-01         0.00000E+00
    0.24186E+00        -0.13058E-01         0.00000E+00
    0.23982E+00        -0.14222E-01         0.00000E+00
    0.23752E+00        -0.15343E-01         0.00000E+00
    0.23497E+00        -0.16416E-01         0.00000E+00
    0.23217E+00        -0.17439E-01         0.00000E+00
    0.22913E+00        -0.18408E-01         0.00000E+00
    0.22586E+00        -0.19320E-01         0.00000E+00
    0.22236E+00        -0.20171E-01         0.00000E+00
    0.21865E+00        -0.20958E-01         0.00000E+00
    0.21472E+00        -0.21680E-01         0.00000E+00
    0.21058E+00        -0.22334E-01         0.00000E+00
    0.20625E+00        -0.22918E-01         0.00000E+00
    0.20173E+00        -0.23429E-01         0.00000E+00
    0.19702E+00        -0.23866E-01         0.00000E+00
    0.19213E+00        -0.24228E-01         0.00000E+00
    0.18708E+00        -0.24513E-01         0.00000E+00
    0.18186E+00        -0.24719E-01         0.00000E+00
    0.17649E+00        -0.24847E-01         0.00000E+00
    0.17097E+00        -0.24895E-01         0.00000E+00
    0.16530E+00        -0.24862E-01         0.00000E+00
    0.15950E+00        -0.24748E-01         0.00000E+00
    0.15357E+00        -0.24552E-01         0.00000E+00
    0.14751E+00        -0.24275E-01         0.00000E+00
    0.14134E+00        -0.23915E-01         0.00000E+00
    0.13505E+00        -0.23474E-01         0.00000E+00
    0.12866E+00        -0.22950E-01         0.00000E+00
    0.12216E+00        -0.22345E-01         0.00000E+00
    0.11556E+00        -0.21658E-01         0.00000E+00
    0.10888E+00        -0.20890E-01         0.00000E+00
    0.10210E+00        -0.20041E-01         0.00000E+00
    0.95243E-01        -0.19112E-01         0.00000E+00
    0.88306E-01        -0.18104E-01         0.00000E+00
    0.81292E-01        -0.17016E-01         0.00000E+00
    0.74207E-01        -0.15849E-01         0.00000E+00
    0.67054E-01        -0.14605E-01         0.00000E+00
    0.59834E-01        -0.13283E-01         0.00000E+00
    0.52552E-01        -0.11884E-01         0.00000E+00
    0.45210E-01        -0.10410E-01         0.00000E+00
    0.37810E-01        -0.88603E-02         0.00000E+00
    0.30353E-01        -0.72358E-02         0.00000E+00
    0.22843E-01        -0.55370E-02         0.00000E+00
    0.15280E-01        -0.37645E-02         0.00000E+00
    0.76652E-02        -0.19187E-02         0.00000E+00
    0.00000E+00         0.00000E+00         0.00000E+00
    0.22318E+00        -0.34943E-02         0.00000E+00
    0.22319E+00        -0.46745E-02         0.00000E+00
    0.22294E+00        -0.58483E-02         0.00000E+00
    0.22243E+00        -0.70110E-02         0.00000E+00
    0.22167E+00        -0.81579E-02         0.00000E+00
    0.22066E+00        -0.92846E-02         0.00000E+00
    0.21940E+00        -0.10387E-01         0.00000E+00
    0.21791E+00        -0.11460E-01         0.00000E+00
    0.21618E+00        -0.12502E-01         0.00000E+00
    0.21422E+00        -0.13506E-01         0.00000E+00
    0.21203E+00        -0.14472E-01         0.00000E+00
    0.20963E+00        -0.15394E-01         0.00000E+00
    0.20700E+00        -0.16269E-01         0.00000E+00
    0.20417E+00        -0.17096E-01         0.00000E+00
    0.20113E+00        -0.17870E-01         0.00000E+00
    0.19790E+00        -0.18590E-01         0.00000E+00
    0.19446E+00        -0.19253E-01         0.00000E+00
    0.19084E+00        -0.19856E-01         0.00000E+00
    0.18704E+00        -0.20398E-01         0.00000E+00
    0.18306E+00        -0.20876E-01         0.00000E+00
    0.17892E+00        -0.21290E-01         0.00000E+00
    0.17460E+00        -0.21636E-01         0.00000E+00
    0.17013E+00        -0.21915E-01         0.00000E+00
    0.16550E+00        -0.22124E-01         0.00000E+00
    0.16072E+00        -0.22263E-01         0.00000E+00
    0.15581E+00        -0.22330E-01         0.00000E+00
    0.15075E+00        -0.22326E-01         0.00000E+00
    0.14556E+00        -0.22248E-01         0.00000E+00
    0.14025E+00        -0.22096E-01         0.00000E+00
    0.13481E+00        -0.21870E-01         0.00000E+00
    0.12926E+00        -0.21570E-01         0.00000E+00
    0.12360E+00        -0.21195E-01         0.00000E+00
    0.11782E+00        -0.20746E-01         0.00000E+00
    0.11195E+00        -0.20221E-01         0.00000E+00
    0.10598E+00        -0.19621E-01         0.00000E+00
    0.99915E-01        -0.18946E-01         0.00000E+00
    0.93760E-01        -0.18197E-01         0.00000E+00
    0.87519E-01        -0.17372E-01         0.00000E+00
    0.81196E-01        -0.16474E-01         0.00000E+00
    0.74794E-01        -0.15501E-01         0.00000E+00
    0.68317E-01        -0.14454E-01         0.00000E+00
    0.61768E-01        -0.13334E-01         0.00000E+00
    0.55150E-01        -0.12141E-01         0.00000E+00
    0.48465E-01        -0.10875E-01         0.00000E+00
    0.41716E-01        -0.95365E-02         0.00000E+00
    0.34906E-01        -0.81259E-02         0.00000E+00
    0.28036E-01        -0.66434E-02         0.00000E+00
    0.21109E-01        -0.50893E-02         0.00000E+00
    0.14126E-01        -0.34639E-02         0.00000E+00
    0.70895E-02        -0.17675E-02         0.00000E+00
    0.00000E+00         0.00000E+00         0.00000E+00
    0.20093E+00        -0.27687E-02         0.00000E+00
    0.20097E+00        -0.38140E-02         0.00000E+00
    0.20078E+00        -0.48548E-02         0.00000E+00
    0.20037E+00        -0.58872E-02         0.00000E+00
    0.19974E+00        -0.69070E-02         0.00000E+00
    0.19889E+00        -0.79104E-02         0.00000E+00
    0.19783E+00        -0.88937E-02         0.00000E+00
    0.19655E+00        -0.98533E-02         0.00000E+00
    0.19507E+00        -0.10786E-01         0.00000E+00
    0.19338E+00        -0.11688E-01         0.00000E+00
    0.19149E+00        -0.12556E-01         0.00000E+00
    0.18940E+00        -0.13388E-01         0.00000E+00
    0.18712E+00        -0.14180E-01         0.00000E+00
    0.18464E+00        -0.14931E-01         0.00000E+00
    0.18199E+00        -0.15636E-01         0.00000E+00
    0.17915E+00        -0.16294E-01         0.00000E+00
    0.17614E+00        -0.16903E-01         0.00000E+00
    0.17296E+00        -0.17461E-01         0.00000E+00
    0.16960E+00        -0.17964E-01         0.00000E+00
    0.16609E+00        -0.18413E-01         0.00000E+00
    0.16242E+00        -0.18804E-01         0.00000E+00
    0.15859E+00        -0.19137E-01         0.00000E+00
    0.15462E+00        -0.19410E-01         0.00000E+00
    0.15050E+00        -0.19621E-01         0.00000E+00
    0.14625E+00        -0.19770E-01         0.00000E+00
    0.14185E+00        -0.19855E-01         0.00000E+00
    0.13733E+00        -0.19875E-01         0.00000E+00
    0.13269E+00        -0.19831E-01         0.00000E+00
    0.12792E+00        -0.19720E-01         0.00000E+00
    0.12303E+00        -0.19542E-01         0.00000E+00
    0.11803E+00        -0.19297E-01         0.00000E+00
    0.11293E+00        -0.18984E-01         0.00000E+00
    0.10772E+00        -0.18603E-01         0.00000E+00
    0.10241E+00        -0.18154E-01         0.00000E+00
    0.96998E-01        -0.17636E-01         0.00000E+00
    0.91497E-01        -0.17049E-01         0.00000E+00
    0.85908E-01        -0.16393E-01         0.00000E+00
    0.80232E-01        -0.15669E-01         0.00000E+00
    0.74475E-01        -0.14875E-01         0.00000E+00
    0.68638E-01        -0.14013E-01         0.00000E+00
    0.62725E-01        -0.13081E-01         0.00000E+00
    0.56739E-01        -0.12081E-01         0.00000E+00
    0.50683E-01        -0.11012E-01         0.00000E+00
    0.44559E-01        -0.98747E-02         0.00000E+00
    0.38371E-01        -0.86688E-02         0.00000E+00
    0.32120E-01        -0.73945E-02         0.00000E+00
    0.25808E-01        -0.60520E-02         0.00000E+00
    0.19438E-01        -0.46412E-02         0.00000E+00
    0.13013E-01        -0.31623E-02         0.00000E+00
    0.65326E-02        -0.16152E-02         0.00000E+00
    0.00000E+00         0.00000E+00         0.00000E+00
    0.18121E+00        -0.20238E-02         0.00000E+00
    0.18125E+00        -0.29518E-02         0.00000E+00
    0.18110E+00        -0.38769E-02         0.00000E+00
    0.18076E+00        -0.47953E-02         0.00000E+00
    0.18023E+00        -0.57037E-02         0.00000E+00
    0.17950E+00        -0.65987E-02         0.00000E+00
    0.17858E+00        -0.74772E-02         0.00000E+00
    0.17748E+00        -0.83360E-02         0.00000E+00
    0.17619E+00        -0.91721E-02         0.00000E+00
    0.17472E+00        -0.99826E-02         0.00000E+00
    0.17307E+00        -0.10765E-01         0.00000E+00
    0.17124E+00        -0.11516E-01         0.00000E+00
    0.16924E+00        -0.12233E-01         0.00000E+00
    0.16707E+00        -0.12914E-01         0.00000E+00
    0.16474E+00        -0.13557E-01         0.00000E+00
    0.16224E+00        -0.14159E-01         0.00000E+00
    0.15958E+00        -0.14719E-01         0.00000E+00
    0.15676E+00        -0.15234E-01         0.00000E+00
    0.15379E+00        -0.15702E-01         0.00000E+00
    0.15068E+00        -0.16122E-01         0.00000E+00
    0.14741E+00        -0.16492E-01         0.00000E+00
    0.14401E+00        -0.16810E-01         0.00000E+00
    0.14047E+00        -0.17076E-01         0.00000E+00
    0.13679E+00        -0.17287E-01         0.00000E+00
    0.13299E+00        -0.17443E-01         0.00000E+00
    0.12906E+00        -0.17543E-01         0.00000E+00
    0.12501E+00        -0.17585E-01         0.00000E+00
    0.12084E+00        -0.17569E-01         0.00000E+00
    0.11655E+00        -0.17493E-01         0.00000E+00
    0.11215E+00        -0.17358E-01         0.00000E+00
    0.10765E+00        -0.17162E-01         0.00000E+00
    0.10304E+00        -0.16904E-01         0.00000E+00
    0.98332E-01        -0.16585E-01         0.00000E+00
    0.93528E-01        -0.16204E-01         0.00000E+00
    0.88629E-01        -0.15761E-01         0.00000E+00
    0.83641E-01        -0.15254E-01         0.00000E+00
    0.78566E-01        -0.14685E-01         0.00000E+00
    0.73407E-01        -0.14051E-01         0.00000E+00
    0.68168E-01        -0.13355E-01         0.00000E+00
    0.62851E-01        -0.12595E-01         0.00000E+00
    0.57459E-01        -0.11770E-01         0.00000E+00
    0.51995E-01        -0.10882E-01         0.00000E+00
    0.46462E-01        -0.99303E-02         0.00000E+00
    0.40863E-01        -0.89141E-02         0.00000E+00
    0.35199E-01        -0.78337E-02         0.00000E+00
    0.29474E-01        -0.66891E-02         0.00000E+00
    0.23689E-01        -0.54803E-02         0.00000E+00
    0.17847E-01        -0.42070E-02         0.00000E+00
    0.11950E-01        -0.28693E-02         0.00000E+00
    0.60006E-02        -0.14670E-02         0.00000E+00
    0.00000E+00         0.00000E+00         0.00000E+00
    0.16368E+00        -0.13294E-02         0.00000E+00
    0.16372E+00        -0.21553E-02         0.00000E+00
    0.16360E+00        -0.29790E-02         0.00000E+00
    0.16330E+00        -0.37976E-02         0.00000E+00
    0.16284E+00        -0.46082E-02         0.00000E+00
    0.16220E+00        -0.54078E-02         0.00000E+00
    0.16140E+00        -0.61936E-02         0.00000E+00
    0.16043E+00        -0.69631E-02         0.00000E+00
    0.15930E+00        -0.77135E-02         0.00000E+00
    0.15801E+00        -0.84422E-02         0.00000E+00
    0.15655E+00        -0.91469E-02         0.00000E+00
    0.15494E+00        -0.98252E-02         0.00000E+00
    0.15318E+00        -0.10475E-01         0.00000E+00
    0.15126E+00        -0.11093E-01         0.00000E+00
    0.14919E+00        -0.11679E-01         0.00000E+00
    0.14698E+00        -0.12229E-01         0.00000E+00
    0.14462E+00        -0.12743E-01         0.00000E+00
    0.14212E+00        -0.13218E-01         0.00000E+00
    0.13948E+00        -0.13652E-01         0.00000E+00
    0.13670E+00        -0.14044E-01         0.00000E+00
    0.13379E+00        -0.14393E-01         0.00000E+00
    0.13075E+00        -0.14696E-01         0.00000E+00
    0.12758E+00        -0.14953E-01         0.00000E+00
    0.12430E+00        -0.15162E-01         0.00000E+00
    0.12089E+00        -0.15323E-01         0.00000E+00
    0.11736E+00        -0.15433E-01         0.00000E+00
    0.11372E+00        -0.15492E-01         0.00000E+00
    0.10997E+00        -0.15499E-01         0.00000E+00
    0.10611E+00        -0.15453E-01         0.00000E+00
    0.10215E+00        -0.15354E-01         0.00000E+00
    0.98082E-01        -0.15200E-01         0.00000E+00
    0.93920E-01        -0.14991E-01         0.00000E+00
    0.89663E-01        -0.14726E-01         0.00000E+00
    0.85313E-01        -0.14405E-01         0.00000E+00
    0.80875E-01        -0.14027E-01         0.00000E+00
    0.76350E-01        -0.13592E-01         0.00000E+00
    0.71743E-01        -0.13099E-01         0.00000E+00
    0.67055E-01        -0.12549E-01         0.00000E+00
    0.62289E-01        -0.11940E-01         0.00000E+00
    0.57449E-01        -0.11272E-01         0.00000E+00
    0.52537E-01        -0.10546E-01         0.00000E+00
    0.47555E-01        -0.97605E-02         0.00000E+00
    0.42507E-01        -0.89157E-02         0.00000E+00
    0.37394E-01        -0.80115E-02         0.00000E+00
    0.32219E-01        -0.70475E-02         0.00000E+00
    0.26985E-01        -0.60237E-02         0.00000E+00
    0.21693E-01        -0.49398E-02         0.00000E+00
    0.16347E-01        -0.37957E-02         0.00000E+00
    0.10947E-01        -0.25912E-02         0.00000E+00
    0.54979E-02        -0.13260E-02         0.00000E+00
    0.00000E+00         0.00000E+00         0.00000E+00
    0.14807E+00        -0.72271E-03         0.00000E+00
    0.14811E+00        -0.14592E-02         0.00000E+00
    0.14799E+00        -0.21941E-02         0.00000E+00
    0.14773E+00        -0.29250E-02         0.00000E+00
    0.14731E+00        -0.36492E-02         0.00000E+00
    0.14675E+00        -0.43644E-02         0.00000E+00
    0.14604E+00        -0.50682E-02         0.00000E+00
    0.14518E+00        -0.57582E-02         0.00000E+00
    0.14418E+00        -0.64321E-02         0.00000E+00
    0.14303E+00        -0.70877E-02         0.00000E+00
    0.14174E+00        -0.77228E-02         0.00000E+00
    0.14032E+00        -0.83354E-02         0.00000E+00
    0.13875E+00        -0.89234E-02         0.00000E+00
    0.13704E+00        -0.94848E-02         0.00000E+00
    0.13520E+00        -0.10018E-01         0.00000E+00
    0.13323E+00        -0.10521E-01         0.00000E+00
    0.13112E+00        -0.10991E-01         0.00000E+00
    0.12889E+00        -0.11429E-01         0.00000E+00
    0.12653E+00        -0.11830E-01         0.00000E+00
    0.12405E+00        -0.12196E-01         0.00000E+00
    0.12144E+00        -0.12523E-01         0.00000E+00
    0.11872E+00        -0.12810E-01         0.00000E+00
    0.11588E+00        -0.13056E-01         0.00000E+00
    0.11293E+00        -0.13261E-01         0.00000E+00
    0.10986E+00        -0.13422E-01         0.00000E+00
    0.10669E+00        -0.13539E-01         0.00000E+00
    0.10341E+00        -0.13611E-01         0.00000E+00
    0.10003E+00        -0.13636E-01         0.00000E+00
    0.96555E-01        -0.13614E-01         0.00000E+00
    0.92977E-01        -0.13544E-01         0.00000E+00
    0.89305E-01        -0.13425E-01         0.00000E+00
    0.85542E-01        -0.13257E-01         0.00000E+00
    0.81688E-01        -0.13039E-01         0.00000E+00
    0.77749E-01        -0.12769E-01         0.00000E+00
    0.73725E-01        -0.12449E-01         0.00000E+00
    0.69620E-01        -0.12076E-01         0.00000E+00
    0.65437E-01        -0.11651E-01         0.00000E+00
    0.61177E-01        -0.11174E-01         0.00000E+00
    0.56844E-01        -0.10643E-01         0.00000E+00
    0.52440E-01        -0.10058E-01         0.00000E+00
    0.47967E-01        -0.94194E-02         0.00000E+00
    0.43428E-01        -0.87265E-02         0.00000E+00
    0.38826E-01        -0.79790E-02         0.00000E+00
    0.34162E-01        -0.71766E-02         0.00000E+00
    0.29440E-01        -0.63190E-02         0.00000E+00
    0.24661E-01        -0.54059E-02         0.00000E+00
    0.19828E-01        -0.44372E-02         0.00000E+00
    0.14944E-01        -0.34124E-02         0.00000E+00
    0.10009E-01        -0.23315E-02         0.00000E+00
    0.50272E-02        -0.11941E-02         0.00000E+00
    0.00000E+00         0.00000E+00         0.00000E+00
    0.13414E+00        -0.21913E-03         0.00000E+00
    0.13417E+00        -0.87696E-03         0.00000E+00
    0.13406E+00        -0.15336E-02         0.00000E+00
    0.13382E+00        -0.21870E-02         0.00000E+00
    0.13344E+00        -0.28350E-02         0.00000E+00
    0.13294E+00        -0.34753E-02         0.00000E+00
    0.13230E+00        -0.41061E-02         0.00000E+00
    0.13153E+00        -0.47252E-02         0.00000E+00
    0.13064E+00        -0.53307E-02         0.00000E+00
    0.12961E+00        -0.59206E-02         0.00000E+00
    0.12846E+00        -0.64930E-02         0.00000E+00
    0.12718E+00        -0.70461E-02         0.00000E+00
    0.12578E+00        -0.75781E-02         0.00000E+00
    0.12425E+00        -0.80873E-02         0.00000E+00
    0.12261E+00        -0.85719E-02         0.00000E+00
    0.12084E+00        -0.90303E-02         0.00000E+00
    0.11895E+00        -0.94610E-02         0.00000E+00
    0.11695E+00        -0.98625E-02         0.00000E+00
    0.11483E+00        -0.10233E-01         0.00000E+00
    0.11260E+00        -0.10572E-01         0.00000E+00
    0.11027E+00        -0.10877E-01         0.00000E+00
    0.10782E+00        -0.11148E-01         0.00000E+00
    0.10526E+00        -0.11382E-01         0.00000E+00
    0.10261E+00        -0.11580E-01         0.00000E+00
    0.99847E-01        -0.11739E-01         0.00000E+00
    0.96989E-01        -0.11859E-01         0.00000E+00
    0.94032E-01        -0.11939E-01         0.00000E+00
    0.90981E-01        -0.11978E-01         0.00000E+00
    0.87837E-01        -0.11974E-01         0.00000E+00
    0.84604E-01        -0.11928E-01         0.00000E+00
    0.81282E-01        -0.11838E-01         0.00000E+00
    0.77874E-01        -0.11704E-01         0.00000E+00
    0.74384E-01        -0.11524E-01         0.00000E+00
    0.70812E-01        -0.11299E-01         0.00000E+00
    0.67163E-01        -0.11027E-01         0.00000E+00
    0.63437E-01        -0.10709E-01         0.00000E+00
    0.59637E-01        -0.10343E-01         0.00000E+00
    0.55766E-01        -0.99289E-02         0.00000E+00
    0.51826E-01        -0.94665E-02         0.00000E+00
    0.47820E-01        -0.89552E-02         0.00000E+00
    0.43749E-01        -0.83946E-02         0.00000E+00
    0.39616E-01        -0.77842E-02         0.00000E+00
    0.35423E-01        -0.71239E-02         0.00000E+00
    0.31173E-01        -0.64131E-02         0.00000E+00
    0.26867E-01        -0.56515E-02         0.00000E+00
    0.22509E-01        -0.48390E-02         0.00000E+00
    0.18099E-01        -0.39750E-02         0.00000E+00
    0.13642E-01        -0.30595E-02         0.00000E+00
    0.91378E-02        -0.20920E-02         0.00000E+00
    0.45898E-02        -0.10722E-02         0.00000E+00
    0.00000E+00         0.00000E+00         0.00000E+00
    0.12170E+00         0.17991E-03         0.00000E+00
    0.12171E+00        -0.40841E-03         0.00000E+00
    0.12160E+00        -0.99586E-03         0.00000E+00
    0.12138E+00        -0.15806E-02         0.00000E+00
    0.12103E+00        -0.21607E-02         0.00000E+00
    0.12057E+00        -0.27345E-02         0.00000E+00
    0.12000E+00        -0.33001E-02         0.00000E+00
    0.11931E+00        -0.38559E-02         0.00000E+00
    0.11850E+00        -0.43999E-02         0.00000E+00
    0.11758E+00        -0.49307E-02         0.00000E+00
    0.11654E+00        -0.54464E-02         0.00000E+00
    0.11539E+00        -0.59456E-02         0.00000E+00
    0.11413E+00        -0.64265E-02         0.00000E+00
    0.11276E+00        -0.68877E-02         0.00000E+00
    0.11128E+00        -0.73277E-02         0.00000E+00
    0.10969E+00        -0.77449E-02         0.00000E+00
    0.10799E+00        -0.81381E-02         0.00000E+00
    0.10619E+00        -0.85057E-02         0.00000E+00
    0.10428E+00        -0.88466E-02         0.00000E+00
    0.10228E+00        -0.91594E-02         0.00000E+00
    0.10017E+00        -0.94429E-02         0.00000E+00
    0.97962E-01        -0.96959E-02         0.00000E+00
    0.95658E-01        -0.99173E-02         0.00000E+00
    0.93260E-01        -0.10106E-01         0.00000E+00
    0.90768E-01        -0.10261E-01         0.00000E+00
    0.88185E-01        -0.10381E-01         0.00000E+00
    0.85513E-01        -0.10466E-01         0.00000E+00
    0.82753E-01        -0.10514E-01         0.00000E+00
    0.79908E-01        -0.10524E-01         0.00000E+00
    0.76980E-01        -0.10496E-01         0.00000E+00
    0.73971E-01        -0.10429E-01         0.00000E+00
    0.70883E-01        -0.10323E-01         0.00000E+00
    0.67717E-01        -0.10176E-01         0.00000E+00
    0.64477E-01        -0.99875E-02         0.00000E+00
    0.61164E-01        -0.97575E-02         0.00000E+00
    0.57780E-01        -0.94851E-02         0.00000E+00
    0.54328E-01        -0.91698E-02         0.00000E+00
    0.50809E-01        -0.88111E-02         0.00000E+00
    0.47226E-01        -0.84085E-02         0.00000E+00
    0.43581E-01        -0.79614E-02         0.00000E+00
    0.39876E-01        -0.74695E-02         0.00000E+00
    0.36113E-01        -0.69323E-02         0.00000E+00
    0.32294E-01        -0.63494E-02         0.00000E+00
    0.28422E-01        -0.57204E-02         0.00000E+00
    0.24499E-01        -0.50451E-02         0.00000E+00
    0.20526E-01        -0.43230E-02         0.00000E+00
    0.16506E-01        -0.35538E-02         0.00000E+00
    0.12442E-01        -0.27372E-02         0.00000E+00
    0.83342E-02        -0.18729E-02         0.00000E+00
    0.41863E-02        -0.96057E-03         0.00000E+00
    0.00000E+00         0.00000E+00         0.00000E+00
    0.11056E+00         0.48127E-03         0.00000E+00
    0.11056E+00        -0.45339E-04         0.00000E+00
    0.11045E+00        -0.57123E-03         0.00000E+00
    0.11024E+00        -0.10948E-02         0.00000E+00
    0.10993E+00        -0.16145E-02         0.00000E+00
    0.10951E+00        -0.21288E-02         0.00000E+00
    0.10898E+00        -0.26361E-02         0.00000E+00
    0.10835E+00        -0.31349E-02         0.00000E+00
    0.10762E+00        -0.36238E-02         0.00000E+00
    0.10679E+00        -0.41011E-02         0.00000E+00
    0.10585E+00        -0.45655E-02         0.00000E+00
    0.10481E+00        -0.50156E-02         0.00000E+00
    0.10367E+00        -0.54499E-02         0.00000E+00
    0.10243E+00        -0.58671E-02         0.00000E+00
    0.10109E+00        -0.62658E-02         0.00000E+00
    0.99658E-01        -0.66448E-02         0.00000E+00
    0.98126E-01        -0.70028E-02         0.00000E+00
    0.96499E-01        -0.73385E-02         0.00000E+00
    0.94778E-01        -0.76507E-02         0.00000E+00
    0.92964E-01        -0.79384E-02         0.00000E+00
    0.91058E-01        -0.82004E-02         0.00000E+00
    0.89063E-01        -0.84355E-02         0.00000E+00
    0.86980E-01        -0.86428E-02         0.00000E+00
    0.84810E-01        -0.88212E-02         0.00000E+00
    0.82555E-01        -0.89698E-02         0.00000E+00
    0.80216E-01        -0.90877E-02         0.00000E+00
    0.77796E-01        -0.91739E-02         0.00000E+00
    0.75295E-01        -0.92275E-02         0.00000E+00
    0.72716E-01        -0.92479E-02         0.00000E+00
    0.70061E-01        -0.92341E-02         0.00000E+00
    0.67331E-01        -0.91855E-02         0.00000E+00
    0.64528E-01        -0.91012E-02         0.00000E+00
    0.61654E-01        -0.89807E-02         0.00000E+00
    0.58711E-01        -0.88233E-02         0.00000E+00
    0.55701E-01        -0.86283E-02         0.00000E+00
    0.52625E-01        -0.83952E-02         0.00000E+00
    0.49486E-01        -0.81233E-02         0.00000E+00
    0.46286E-01        -0.78123E-02         0.00000E+00
    0.43026E-01        -0.74615E-02         0.00000E+00
    0.39709E-01        -0.70705E-02         0.00000E+00
    0.36336E-01        -0.66389E-02         0.00000E+00
    0.32910E-01        -0.61661E-02         0.00000E+00
    0.29432E-01        -0.56518E-02         0.00000E+00
    0.25905E-01        -0.50956E-02         0.00000E+00
    0.22330E-01        -0.44971E-02         0.00000E+00
    0.18710E-01        -0.38560E-02         0.00000E+00
    0.15046E-01        -0.31720E-02         0.00000E+00
    0.11341E-01        -0.24446E-02         0.00000E+00
    0.75974E-02        -0.16737E-02         0.00000E+00
    0.38162E-02        -0.85894E-03         0.00000E+00
    0.00000E+00         0.00000E+00         0.00000E+00
    0.10059E+00         0.69620E-03         0.00000E+00
    0.10058E+00         0.22466E-03         0.00000E+00
    0.10047E+00        -0.24625E-03         0.00000E+00
    0.10027E+00        -0.71519E-03         0.00000E+00
    0.99979E-01        -0.11808E-02         0.00000E+00
    0.99592E-01        -0.16417E-02         0.00000E+00
    0.99112E-01        -0.20966E-02         0.00000E+00
    0.98538E-01        -0.25442E-02         0.00000E+00
    0.97871E-01        -0.29831E-02         0.00000E+00
    0.97112E-01        -0.34121E-02         0.00000E+00
    0.96261E-01        -0.38299E-02         0.00000E+00
    0.95318E-01        -0.42353E-02         0.00000E+00
    0.94284E-01        -0.46269E-02         0.00000E+00
    0.93161E-01        -0.50037E-02         0.00000E+00
    0.91948E-01        -0.53643E-02         0.00000E+00
    0.90647E-01        -0.57078E-02         0.00000E+00
    0.89259E-01        -0.60328E-02         0.00000E+00
    0.87784E-01        -0.63384E-02         0.00000E+00
    0.86224E-01        -0.66235E-02         0.00000E+00
    0.84580E-01        -0.68869E-02         0.00000E+00
    0.82853E-01        -0.71277E-02         0.00000E+00
    0.81044E-01        -0.73450E-02         0.00000E+00
    0.79155E-01        -0.75376E-02         0.00000E+00
    0.77187E-01        -0.77048E-02         0.00000E+00
    0.75141E-01        -0.78456E-02         0.00000E+00
    0.73019E-01        -0.79591E-02         0.00000E+00
    0.70822E-01        -0.80446E-02         0.00000E+00
    0.68552E-01        -0.81012E-02         0.00000E+00
    0.66211E-01        -0.81281E-02         0.00000E+00
    0.63799E-01        -0.81246E-02         0.00000E+00
    0.61318E-01        -0.80900E-02         0.00000E+00
    0.58771E-01        -0.80236E-02         0.00000E+00
    0.56158E-01        -0.79247E-02         0.00000E+00
    0.53482E-01        -0.77928E-02         0.00000E+00
    0.50744E-01        -0.76271E-02         0.00000E+00
    0.47946E-01        -0.74272E-02         0.00000E+00
    0.45089E-01        -0.71925E-02         0.00000E+00
    0.42176E-01        -0.69225E-02         0.00000E+00
    0.39208E-01        -0.66166E-02         0.00000E+00
    0.36187E-01        -0.62744E-02         0.00000E+00
    0.33115E-01        -0.58955E-02         0.00000E+00
    0.29994E-01        -0.54793E-02         0.00000E+00
    0.26826E-01        -0.50256E-02         0.00000E+00
    0.23612E-01        -0.45339E-02         0.00000E+00
    0.20354E-01        -0.40039E-02         0.00000E+00
    0.17054E-01        -0.34351E-02         0.00000E+00
    0.13715E-01        -0.28273E-02         0.00000E+00
    0.10338E-01        -0.21802E-02         0.00000E+00
    0.69253E-02        -0.14935E-02         0.00000E+00
    0.34786E-02        -0.76683E-03         0.00000E+00
    0.00000E+00         0.00000E+00         0.00000E+00
    0.91661E-01         0.83774E-03         0.00000E+00
    0.91641E-01         0.41559E-03         0.00000E+00
    0.91536E-01        -0.59971E-05         0.00000E+00
    0.91347E-01        -0.42585E-03         0.00000E+00
    0.91074E-01        -0.84280E-03         0.00000E+00
    0.90716E-01        -0.12557E-02         0.00000E+00
    0.90274E-01        -0.16633E-02         0.00000E+00
    0.89748E-01        -0.20646E-02         0.00000E+00
    0.89138E-01        -0.24584E-02         0.00000E+00
    0.88445E-01        -0.28435E-02         0.00000E+00
    0.87668E-01        -0.32189E-02         0.00000E+00
    0.86809E-01        -0.35834E-02         0.00000E+00
    0.85868E-01        -0.39360E-02         0.00000E+00
    0.84846E-01        -0.42756E-02         0.00000E+00
    0.83743E-01        -0.46011E-02         0.00000E+00
    0.82560E-01        -0.49116E-02         0.00000E+00
    0.81298E-01        -0.52059E-02         0.00000E+00
    0.79957E-01        -0.54832E-02         0.00000E+00
    0.78539E-01        -0.57424E-02         0.00000E+00
    0.77045E-01        -0.59826E-02         0.00000E+00
    0.75475E-01        -0.62029E-02         0.00000E+00
    0.73831E-01        -0.64024E-02         0.00000E+00
    0.72114E-01        -0.65802E-02         0.00000E+00
    0.70325E-01        -0.67355E-02         0.00000E+00
    0.68464E-01        -0.68674E-02         0.00000E+00
    0.66535E-01        -0.69753E-02         0.00000E+00
    0.64537E-01        -0.70581E-02         0.00000E+00
    0.62472E-01        -0.71154E-02         0.00000E+00
    0.60341E-01        -0.71463E-02         0.00000E+00
    0.58146E-01        -0.71501E-02         0.00000E+00
    0.55889E-01        -0.71261E-02         0.00000E+00
    0.53570E-01        -0.70738E-02         0.00000E+00
    0.51191E-01        -0.69924E-02         0.00000E+00
    0.48754E-01        -0.68815E-02         0.00000E+00
    0.46261E-01        -0.67404E-02         0.00000E+00
    0.43712E-01        -0.65686E-02         0.00000E+00
    0.41109E-01        -0.63655E-02         0.00000E+00
    0.38455E-01        -0.61307E-02         0.00000E+00
    0.35750E-01        -0.58637E-02         0.00000E+00
    0.32997E-01        -0.55640E-02         0.00000E+00
    0.30197E-01        -0.52311E-02         0.00000E+00
    0.27351E-01        -0.48648E-02         0.00000E+00
    0.24462E-01        -0.44645E-02         0.00000E+00
    0.21532E-01        -0.40299E-02         0.00000E+00
    0.18561E-01        -0.35606E-02         0.00000E+00
    0.15552E-01        -0.30564E-02         0.00000E+00
    0.12507E-01        -0.25169E-02         0.00000E+00
    0.94274E-02        -0.19417E-02         0.00000E+00
    0.63151E-02        -0.13307E-02         0.00000E+00
    0.31720E-02        -0.68356E-03         0.00000E+00
    0.00000E+00         0.00000E+00         0.00000E+00
    0.83670E-01         0.91909E-03         0.00000E+00
    0.83643E-01         0.54144E-03         0.00000E+00
    0.83540E-01         0.16431E-03         0.00000E+00
    0.83361E-01        -0.21128E-03         0.00000E+00
    0.83105E-01        -0.58431E-03         0.00000E+00
    0.82774E-01        -0.95379E-03         0.00000E+00
    0.82366E-01        -0.13187E-02         0.00000E+00
    0.81882E-01        -0.16780E-02         0.00000E+00
    0.81322E-01        -0.20308E-02         0.00000E+00
    0.80686E-01        -0.23760E-02         0.00000E+00
    0.79976E-01        -0.27127E-02         0.00000E+00
    0.79191E-01        -0.30400E-02         0.00000E+00
    0.78331E-01        -0.33567E-02         0.00000E+00
    0.77398E-01        -0.36621E-02         0.00000E+00
    0.76391E-01        -0.39551E-02         0.00000E+00
    0.75312E-01        -0.42350E-02         0.00000E+00
    0.74161E-01        -0.45006E-02         0.00000E+00
    0.72939E-01        -0.47513E-02         0.00000E+00
    0.71647E-01        -0.49861E-02         0.00000E+00
    0.70285E-01        -0.52042E-02         0.00000E+00
    0.68854E-01        -0.54047E-02         0.00000E+00
    0.67356E-01        -0.55869E-02         0.00000E+00
    0.65791E-01        -0.57499E-02         0.00000E+00
    0.64160E-01        -0.58931E-02         0.00000E+00
    0.62465E-01        -0.60155E-02         0.00000E+00
    0.60706E-01        -0.61166E-02         0.00000E+00
    0.58885E-01        -0.61956E-02         0.00000E+00
    0.57003E-01        -0.62518E-02         0.00000E+00
    0.55060E-01        -0.62846E-02         0.00000E+00
    0.53059E-01        -0.62933E-02         0.00000E+00
    0.51001E-01        -0.62773E-02         0.00000E+00
    0.48886E-01        -0.62360E-02         0.00000E+00
    0.46717E-01        -0.61688E-02         0.00000E+00
    0.44494E-01        -0.60752E-02         0.00000E+00
    0.42220E-01        -0.59546E-02         0.00000E+00
    0.39894E-01        -0.58065E-02         0.00000E+00
    0.37520E-01        -0.56305E-02         0.00000E+00
    0.35098E-01        -0.54260E-02         0.00000E+00
    0.32630E-01        -0.51926E-02         0.00000E+00
    0.30117E-01        -0.49299E-02         0.00000E+00
    0.27562E-01        -0.46375E-02         0.00000E+00
    0.24965E-01        -0.43149E-02         0.00000E+00
    0.22328E-01        -0.39618E-02         0.00000E+00
    0.19653E-01        -0.35778E-02         0.00000E+00
    0.16941E-01        -0.31626E-02         0.00000E+00
    0.14195E-01        -0.27159E-02         0.00000E+00
    0.11415E-01        -0.22374E-02         0.00000E+00
    0.86043E-02        -0.17268E-02         0.00000E+00
    0.57635E-02        -0.11839E-02         0.00000E+00
    0.28949E-02        -0.60836E-03         0.00000E+00
    0.00000E+00         0.00000E+00         0.00000E+00
    0.76526E-01         0.95258E-03         0.00000E+00
    0.76494E-01         0.61520E-03         0.00000E+00
    0.76393E-01         0.27832E-03         0.00000E+00
    0.76223E-01        -0.57175E-04         0.00000E+00
    0.75984E-01        -0.39041E-03         0.00000E+00
    0.75676E-01        -0.72051E-03         0.00000E+00
    0.75298E-01        -0.10466E-02         0.00000E+00
    0.74851E-01        -0.13678E-02         0.00000E+00
    0.74336E-01        -0.16833E-02         0.00000E+00
    0.73752E-01        -0.19921E-02         0.00000E+00
    0.73100E-01        -0.22934E-02         0.00000E+00
    0.72380E-01        -0.25865E-02         0.00000E+00
    0.71592E-01        -0.28703E-02         0.00000E+00
    0.70738E-01        -0.31442E-02         0.00000E+00
    0.69816E-01        -0.34073E-02         0.00000E+00
    0.68829E-01        -0.36587E-02         0.00000E+00
    0.67777E-01        -0.38977E-02         0.00000E+00
    0.66659E-01        -0.41235E-02         0.00000E+00
    0.65478E-01        -0.43353E-02         0.00000E+00
    0.64233E-01        -0.45324E-02         0.00000E+00
    0.62926E-01        -0.47141E-02         0.00000E+00
    0.61557E-01        -0.48795E-02         0.00000E+00
    0.60127E-01        -0.50280E-02         0.00000E+00
    0.58637E-01        -0.51589E-02         0.00000E+00
    0.57088E-01        -0.52716E-02         0.00000E+00
    0.55481E-01        -0.53653E-02         0.00000E+00
    0.53817E-01        -0.54394E-02         0.00000E+00
    0.52098E-01        -0.54934E-02         0.00000E+00
    0.50323E-01        -0.55265E-02         0.00000E+00
    0.48495E-01        -0.55383E-02         0.00000E+00
    0.46614E-01        -0.55280E-02         0.00000E+00
    0.44682E-01        -0.54953E-02         0.00000E+00
    0.42699E-01        -0.54396E-02         0.00000E+00
    0.40668E-01        -0.53603E-02         0.00000E+00
    0.38589E-01        -0.52569E-02         0.00000E+00
    0.36464E-01        -0.51290E-02         0.00000E+00
    0.34294E-01        -0.49761E-02         0.00000E+00
    0.32080E-01        -0.47978E-02         0.00000E+00
    0.29825E-01        -0.45937E-02         0.00000E+00
    0.27528E-01        -0.43633E-02         0.00000E+00
    0.25192E-01        -0.41063E-02         0.00000E+00
    0.22818E-01        -0.38223E-02         0.00000E+00
    0.20408E-01        -0.35110E-02         0.00000E+00
    0.17962E-01        -0.31719E-02         0.00000E+00
    0.15484E-01        -0.28049E-02         0.00000E+00
    0.12973E-01        -0.24096E-02         0.00000E+00
    0.10433E-01        -0.19858E-02         0.00000E+00
    0.78634E-02        -0.15331E-02         0.00000E+00
    0.52671E-02        -0.10514E-02         0.00000E+00
    0.26454E-02        -0.54045E-03         0.00000E+00
    0.00000E+00         0.00000E+00         0.00000E+00
    0.70150E-01         0.94915E-03         0.00000E+00
    0.70114E-01         0.64839E-03         0.00000E+00
    0.70016E-01         0.34811E-03         0.00000E+00
    0.69855E-01         0.49081E-04         0.00000E+00
    0.69631E-01        -0.24794E-03         0.00000E+00
    0.69344E-01        -0.54219E-03         0.00000E+00
    0.68994E-01        -0.83291E-03         0.00000E+00
    0.68581E-01        -0.11193E-02         0.00000E+00
    0.68105E-01        -0.14007E-02         0.00000E+00
    0.67567E-01        -0.16762E-02         0.00000E+00
    0.66966E-01        -0.19452E-02         0.00000E+00
    0.66304E-01        -0.22069E-02         0.00000E+00
    0.65580E-01        -0.24605E-02         0.00000E+00
    0.64795E-01        -0.27053E-02         0.00000E+00
    0.63950E-01        -0.29407E-02         0.00000E+00
    0.63044E-01        -0.31658E-02         0.00000E+00
    0.62078E-01        -0.33800E-02         0.00000E+00
    0.61053E-01        -0.35825E-02         0.00000E+00
    0.59970E-01        -0.37728E-02         0.00000E+00
    0.58829E-01        -0.39501E-02         0.00000E+00
    0.57631E-01        -0.41137E-02         0.00000E+00
    0.56377E-01        -0.42631E-02         0.00000E+00
    0.55067E-01        -0.43975E-02         0.00000E+00
    0.53702E-01        -0.45164E-02         0.00000E+00
    0.52283E-01        -0.46192E-02         0.00000E+00
    0.50811E-01        -0.47052E-02         0.00000E+00
    0.49287E-01        -0.47739E-02         0.00000E+00
    0.47712E-01        -0.48247E-02         0.00000E+00
    0.46087E-01        -0.48570E-02         0.00000E+00
    0.44412E-01        -0.48704E-02         0.00000E+00
    0.42689E-01        -0.48644E-02         0.00000E+00
    0.40920E-01        -0.48383E-02         0.00000E+00
    0.39104E-01        -0.47918E-02         0.00000E+00
    0.37244E-01        -0.47243E-02         0.00000E+00
    0.35340E-01        -0.46355E-02         0.00000E+00
    0.33393E-01        -0.45248E-02         0.00000E+00
    0.31406E-01        -0.43919E-02         0.00000E+00
    0.29378E-01        -0.42363E-02         0.00000E+00
    0.27312E-01        -0.40577E-02         0.00000E+00
    0.25208E-01        -0.38557E-02         0.00000E+00
    0.23069E-01        -0.36299E-02         0.00000E+00
    0.20895E-01        -0.33801E-02         0.00000E+00
    0.18687E-01        -0.31058E-02         0.00000E+00
    0.16448E-01        -0.28068E-02         0.00000E+00
    0.14178E-01        -0.24828E-02         0.00000E+00
    0.11879E-01        -0.21336E-02         0.00000E+00
    0.95521E-02        -0.17588E-02         0.00000E+00
    0.71995E-02        -0.13583E-02         0.00000E+00
    0.48222E-02        -0.93174E-03         0.00000E+00
    0.24219E-02        -0.47905E-03         0.00000E+00
    0.00000E+00         0.00000E+00         0.00000E+00
    0.64473E-01         0.91814E-03         0.00000E+00
    0.64435E-01         0.65083E-03         0.00000E+00
    0.64341E-01         0.38398E-03         0.00000E+00
    0.64188E-01         0.11825E-03         0.00000E+00
    0.63978E-01        -0.14568E-03         0.00000E+00
    0.63710E-01        -0.40716E-03         0.00000E+00
    0.63385E-01        -0.66552E-03         0.00000E+00
    0.63002E-01        -0.92010E-03         0.00000E+00
    0.62561E-01        -0.11702E-02         0.00000E+00
    0.62064E-01        -0.14152E-02         0.00000E+00
    0.61510E-01        -0.16545E-02         0.00000E+00
    0.60899E-01        -0.18873E-02         0.00000E+00
    0.60232E-01        -0.21130E-02         0.00000E+00
    0.59508E-01        -0.23311E-02         0.00000E+00
    0.58730E-01        -0.25408E-02         0.00000E+00
    0.57896E-01        -0.27415E-02         0.00000E+00
    0.57007E-01        -0.29326E-02         0.00000E+00
    0.56065E-01        -0.31134E-02         0.00000E+00
    0.55069E-01        -0.32835E-02         0.00000E+00
    0.54020E-01        -0.34421E-02         0.00000E+00
    0.52918E-01        -0.35888E-02         0.00000E+00
    0.51765E-01        -0.37228E-02         0.00000E+00
    0.50562E-01        -0.38437E-02         0.00000E+00
    0.49307E-01        -0.39509E-02         0.00000E+00
    0.48004E-01        -0.40439E-02         0.00000E+00
    0.46652E-01        -0.41221E-02         0.00000E+00
    0.45252E-01        -0.41850E-02         0.00000E+00
    0.43805E-01        -0.42321E-02         0.00000E+00
    0.42312E-01        -0.42629E-02         0.00000E+00
    0.40774E-01        -0.42769E-02         0.00000E+00
    0.39192E-01        -0.42737E-02         0.00000E+00
    0.37566E-01        -0.42528E-02         0.00000E+00
    0.35899E-01        -0.42138E-02         0.00000E+00
    0.34191E-01        -0.41562E-02         0.00000E+00
    0.32442E-01        -0.40797E-02         0.00000E+00
    0.30655E-01        -0.39838E-02         0.00000E+00
    0.28830E-01        -0.38682E-02         0.00000E+00
    0.26968E-01        -0.37325E-02         0.00000E+00
    0.25071E-01        -0.35763E-02         0.00000E+00
    0.23139E-01        -0.33994E-02         0.00000E+00
    0.21175E-01        -0.32013E-02         0.00000E+00
    0.19179E-01        -0.29818E-02         0.00000E+00
    0.17152E-01        -0.27406E-02         0.00000E+00
    0.15096E-01        -0.24774E-02         0.00000E+00
    0.13012E-01        -0.21920E-02         0.00000E+00
    0.10902E-01        -0.18841E-02         0.00000E+00
    0.87664E-02        -0.15535E-02         0.00000E+00
    0.66071E-02        -0.12000E-02         0.00000E+00
    0.44252E-02        -0.82334E-03         0.00000E+00
    0.22224E-02        -0.42340E-03         0.00000E+00
    0.00000E+00         0.00000E+00         0.00000E+00
    0.59436E-01         0.86725E-03         0.00000E+00
    0.59398E-01         0.63063E-03         0.00000E+00
    0.59307E-01         0.39445E-03         0.00000E+00
    0.59163E-01         0.15928E-03         0.00000E+00
    0.58965E-01        -0.74300E-04         0.00000E+00
    0.58715E-01        -0.30570E-03         0.00000E+00
    0.58412E-01        -0.53436E-03         0.00000E+00
    0.58056E-01        -0.75967E-03         0.00000E+00
    0.57647E-01        -0.98108E-03         0.00000E+00
    0.57186E-01        -0.11980E-02         0.00000E+00
    0.56673E-01        -0.14099E-02         0.00000E+00
    0.56108E-01        -0.16161E-02         0.00000E+00
    0.55491E-01        -0.18161E-02         0.00000E+00
    0.54822E-01        -0.20093E-02         0.00000E+00
    0.54103E-01        -0.21953E-02         0.00000E+00
    0.53333E-01        -0.23733E-02         0.00000E+00
    0.52512E-01        -0.25429E-02         0.00000E+00
    0.51642E-01        -0.27036E-02         0.00000E+00
    0.50723E-01        -0.28547E-02         0.00000E+00
    0.49756E-01        -0.29959E-02         0.00000E+00
    0.48740E-01        -0.31265E-02         0.00000E+00
    0.47677E-01        -0.32460E-02         0.00000E+00
    0.46567E-01        -0.33540E-02         0.00000E+00
    0.45410E-01        -0.34499E-02         0.00000E+00
    0.44209E-01        -0.35333E-02         0.00000E+00
    0.42962E-01        -0.36037E-02         0.00000E+00
    0.41672E-01        -0.36607E-02         0.00000E+00
    0.40339E-01        -0.37037E-02         0.00000E+00
    0.38963E-01        -0.37324E-02         0.00000E+00
    0.37546E-01        -0.37463E-02         0.00000E+00
    0.36088E-01        -0.37450E-02         0.00000E+00
    0.34591E-01        -0.37282E-02         0.00000E+00
    0.33055E-01        -0.36953E-02         0.00000E+00
    0.31481E-01        -0.36461E-02         0.00000E+00
    0.29871E-01        -0.35801E-02         0.00000E+00
    0.28224E-01        -0.34971E-02         0.00000E+00
    0.26543E-01        -0.33966E-02         0.00000E+00
    0.24828E-01        -0.32783E-02         0.00000E+00
    0.23081E-01        -0.31420E-02         0.00000E+00
    0.21303E-01        -0.29873E-02         0.00000E+00
    0.19494E-01        -0.28139E-02         0.00000E+00
    0.17655E-01        -0.26216E-02         0.00000E+00
    0.15789E-01        -0.24101E-02         0.00000E+00
    0.13896E-01        -0.21791E-02         0.00000E+00
    0.11978E-01        -0.19284E-02         0.00000E+00
    0.10035E-01        -0.16579E-02         0.00000E+00
    0.80689E-02        -0.13672E-02         0.00000E+00
    0.60811E-02        -0.10563E-02         0.00000E+00
    0.40728E-02        -0.72486E-03         0.00000E+00
    0.20453E-02        -0.37281E-03         0.00000E+00
    0.00000E+00         0.00000E+00         0.00000E+00
    0.54989E-01         0.80266E-03         0.00000E+00
    0.54951E-01         0.59433E-03         0.00000E+00
    0.54863E-01         0.38641E-03         0.00000E+00
    0.54727E-01         0.17940E-03         0.00000E+00
    0.54542E-01        -0.26201E-04         0.00000E+00
    0.54307E-01        -0.22988E-03         0.00000E+00
    0.54024E-01        -0.43114E-03         0.00000E+00
    0.53692E-01        -0.62948E-03         0.00000E+00
    0.53312E-01        -0.82438E-03         0.00000E+00
    0.52883E-01        -0.10154E-02         0.00000E+00
    0.52406E-01        -0.12019E-02         0.00000E+00
    0.51881E-01        -0.13835E-02         0.00000E+00
    0.51308E-01        -0.15597E-02         0.00000E+00
    0.50688E-01        -0.17300E-02         0.00000E+00
    0.50021E-01        -0.18938E-02         0.00000E+00
    0.49307E-01        -0.20508E-02         0.00000E+00
    0.48547E-01        -0.22004E-02         0.00000E+00
    0.47741E-01        -0.23422E-02         0.00000E+00
    0.46890E-01        -0.24757E-02         0.00000E+00
    0.45994E-01        -0.26004E-02         0.00000E+00
    0.45053E-01        -0.27159E-02         0.00000E+00
    0.44069E-01        -0.28217E-02         0.00000E+00
    0.43042E-01        -0.29174E-02         0.00000E+00
    0.41972E-01        -0.30025E-02         0.00000E+00
    0.40860E-01        -0.30767E-02         0.00000E+00
    0.39707E-01        -0.31395E-02         0.00000E+00
    0.38514E-01        -0.31905E-02         0.00000E+00
    0.37280E-01        -0.32293E-02         0.00000E+00
    0.36008E-01        -0.32556E-02         0.00000E+00
    0.34697E-01        -0.32688E-02         0.00000E+00
    0.33349E-01        -0.32688E-02         0.00000E+00
    0.31965E-01        -0.32551E-02         0.00000E+00
    0.30545E-01        -0.32273E-02         0.00000E+00
    0.29089E-01        -0.31852E-02         0.00000E+00
    0.27601E-01        -0.31284E-02         0.00000E+00
    0.26079E-01        -0.30566E-02         0.00000E+00
    0.24525E-01        -0.29695E-02         0.00000E+00
    0.22940E-01        -0.28667E-02         0.00000E+00
    0.21325E-01        -0.27481E-02         0.00000E+00
    0.19681E-01        -0.26133E-02         0.00000E+00
    0.18009E-01        -0.24621E-02         0.00000E+00
    0.16310E-01        -0.22942E-02         0.00000E+00
    0.14586E-01        -0.21095E-02         0.00000E+00
    0.12837E-01        -0.19076E-02         0.00000E+00
    0.11064E-01        -0.16885E-02         0.00000E+00
    0.92692E-02        -0.14518E-02         0.00000E+00
    0.74530E-02        -0.11974E-02         0.00000E+00
    0.56168E-02        -0.92523E-03         0.00000E+00
    0.37617E-02        -0.63501E-03         0.00000E+00
    0.18890E-02        -0.32664E-03         0.00000E+00
    0.00000E+00         0.00000E+00         0.00000E+00
    0.51086E-01         0.72916E-03         0.00000E+00
    0.51048E-01         0.54703E-03         0.00000E+00
    0.50964E-01         0.36529E-03         0.00000E+00
    0.50835E-01         0.18435E-03         0.00000E+00
    0.50661E-01         0.46648E-05         0.00000E+00
    0.50441E-01        -0.17334E-03         0.00000E+00
    0.50176E-01        -0.34923E-03         0.00000E+00
    0.49866E-01        -0.52256E-03         0.00000E+00
    0.49510E-01        -0.69291E-03         0.00000E+00
    0.49110E-01        -0.85983E-03         0.00000E+00
    0.48665E-01        -0.10229E-02         0.00000E+00
    0.48175E-01        -0.11817E-02         0.00000E+00
    0.47642E-01        -0.13357E-02         0.00000E+00
    0.47064E-01        -0.14846E-02         0.00000E+00
    0.46443E-01        -0.16280E-02         0.00000E+00
    0.45778E-01        -0.17653E-02         0.00000E+00
    0.45071E-01        -0.18962E-02         0.00000E+00
    0.44321E-01        -0.20204E-02         0.00000E+00
    0.43530E-01        -0.21373E-02         0.00000E+00
    0.42696E-01        -0.22466E-02         0.00000E+00
    0.41822E-01        -0.23478E-02         0.00000E+00
    0.40907E-01        -0.24407E-02         0.00000E+00
    0.39952E-01        -0.25247E-02         0.00000E+00
    0.38958E-01        -0.25996E-02         0.00000E+00
    0.37924E-01        -0.26649E-02         0.00000E+00
    0.36853E-01        -0.27204E-02         0.00000E+00
    0.35744E-01        -0.27655E-02         0.00000E+00
    0.34599E-01        -0.28001E-02         0.00000E+00
    0.33417E-01        -0.28237E-02         0.00000E+00
    0.32200E-01        -0.28360E-02         0.00000E+00
    0.30948E-01        -0.28367E-02         0.00000E+00
    0.29662E-01        -0.28255E-02         0.00000E+00
    0.28343E-01        -0.28020E-02         0.00000E+00
    0.26992E-01        -0.27661E-02         0.00000E+00
    0.25610E-01        -0.27173E-02         0.00000E+00
    0.24197E-01        -0.26554E-02         0.00000E+00
    0.22755E-01        -0.25802E-02         0.00000E+00
    0.21284E-01        -0.24913E-02         0.00000E+00
    0.19785E-01        -0.23886E-02         0.00000E+00
    0.18259E-01        -0.22718E-02         0.00000E+00
    0.16707E-01        -0.21407E-02         0.00000E+00
    0.15131E-01        -0.19950E-02         0.00000E+00
    0.13531E-01        -0.18346E-02         0.00000E+00
    0.11908E-01        -0.16593E-02         0.00000E+00
    0.10263E-01        -0.14688E-02         0.00000E+00
    0.85980E-02        -0.12631E-02         0.00000E+00
    0.69131E-02        -0.10419E-02         0.00000E+00
    0.52097E-02        -0.80513E-03         0.00000E+00
    0.34890E-02        -0.55263E-03         0.00000E+00
    0.17520E-02        -0.28429E-03         0.00000E+00
    0.00000E+00         0.00000E+00         0.00000E+00
    0.47689E-01         0.65035E-03         0.00000E+00
    0.47651E-01         0.49264E-03         0.00000E+00
    0.47572E-01         0.33526E-03         0.00000E+00
    0.47450E-01         0.17860E-03         0.00000E+00
    0.47285E-01         0.23029E-04         0.00000E+00
    0.47078E-01        -0.13108E-03         0.00000E+00
    0.46829E-01        -0.28335E-03         0.00000E+00
    0.46537E-01        -0.43341E-03         0.00000E+00
    0.46204E-01        -0.58088E-03         0.00000E+00
    0.45828E-01        -0.72539E-03         0.00000E+00
    0.45411E-01        -0.86657E-03         0.00000E+00
    0.44953E-01        -0.10040E-02         0.00000E+00
    0.44453E-01        -0.11374E-02         0.00000E+00
    0.43913E-01        -0.12664E-02         0.00000E+00
    0.43332E-01        -0.13906E-02         0.00000E+00
    0.42710E-01        -0.15096E-02         0.00000E+00
    0.42049E-01        -0.16230E-02         0.00000E+00
    0.41348E-01        -0.17306E-02         0.00000E+00
    0.40608E-01        -0.18320E-02         0.00000E+00
    0.39829E-01        -0.19268E-02         0.00000E+00
    0.39012E-01        -0.20147E-02         0.00000E+00
    0.38157E-01        -0.20953E-02         0.00000E+00
    0.37266E-01        -0.21683E-02         0.00000E+00
    0.36337E-01        -0.22334E-02         0.00000E+00
    0.35372E-01        -0.22903E-02         0.00000E+00
    0.34372E-01        -0.23386E-02         0.00000E+00
    0.33337E-01        -0.23781E-02         0.00000E+00
    0.32267E-01        -0.24084E-02         0.00000E+00
    0.31164E-01        -0.24293E-02         0.00000E+00
    0.30028E-01        -0.24404E-02         0.00000E+00
    0.28860E-01        -0.24415E-02         0.00000E+00
    0.27660E-01        -0.24323E-02         0.00000E+00
    0.26430E-01        -0.24126E-02         0.00000E+00
    0.25169E-01        -0.23820E-02         0.00000E+00
    0.23880E-01        -0.23404E-02         0.00000E+00
    0.22562E-01        -0.22874E-02         0.00000E+00
    0.21216E-01        -0.22229E-02         0.00000E+00
    0.19844E-01        -0.21467E-02         0.00000E+00
    0.18446E-01        -0.20584E-02         0.00000E+00
    0.17023E-01        -0.19580E-02         0.00000E+00
    0.15576E-01        -0.18452E-02         0.00000E+00
    0.14106E-01        -0.17198E-02         0.00000E+00
    0.12614E-01        -0.15817E-02         0.00000E+00
    0.11101E-01        -0.14307E-02         0.00000E+00
    0.95671E-02        -0.12666E-02         0.00000E+00
    0.80145E-02        -0.10893E-02         0.00000E+00
    0.64438E-02        -0.89858E-03         0.00000E+00
    0.48559E-02        -0.69443E-03         0.00000E+00
    0.32519E-02        -0.47668E-03         0.00000E+00
    0.16329E-02        -0.24524E-03         0.00000E+00
    0.00000E+00         0.00000E+00         0.00000E+00
    0.44764E-01         0.56886E-03         0.00000E+00
    0.44728E-01         0.43400E-03         0.00000E+00
    0.44651E-01         0.29945E-03         0.00000E+00
    0.44535E-01         0.16551E-03         0.00000E+00
    0.44379E-01         0.32518E-04         0.00000E+00
    0.44184E-01        -0.99219E-04         0.00000E+00
    0.43948E-01        -0.22938E-03         0.00000E+00
    0.43673E-01        -0.35765E-03         0.00000E+00
    0.43359E-01        -0.48371E-03         0.00000E+00
    0.43005E-01        -0.60724E-03         0.00000E+00
    0.42612E-01        -0.72792E-03         0.00000E+00
    0.42181E-01        -0.84544E-03         0.00000E+00
    0.41711E-01        -0.95949E-03         0.00000E+00
    0.41202E-01        -0.10698E-02         0.00000E+00
    0.40656E-01        -0.11759E-02         0.00000E+00
    0.40071E-01        -0.12777E-02         0.00000E+00
    0.39449E-01        -0.13747E-02         0.00000E+00
    0.38791E-01        -0.14668E-02         0.00000E+00
    0.38095E-01        -0.15535E-02         0.00000E+00
    0.37363E-01        -0.16347E-02         0.00000E+00
    0.36596E-01        -0.17099E-02         0.00000E+00
    0.35793E-01        -0.17790E-02         0.00000E+00
    0.34955E-01        -0.18416E-02         0.00000E+00
    0.34083E-01        -0.18974E-02         0.00000E+00
    0.33177E-01        -0.19462E-02         0.00000E+00
    0.32238E-01        -0.19878E-02         0.00000E+00
    0.31266E-01        -0.20217E-02         0.00000E+00
    0.30263E-01        -0.20479E-02         0.00000E+00
    0.29227E-01        -0.20660E-02         0.00000E+00
    0.28161E-01        -0.20759E-02         0.00000E+00
    0.27065E-01        -0.20771E-02         0.00000E+00
    0.25939E-01        -0.20696E-02         0.00000E+00
    0.24784E-01        -0.20531E-02         0.00000E+00
    0.23601E-01        -0.20273E-02         0.00000E+00
    0.22392E-01        -0.19921E-02         0.00000E+00
    0.21155E-01        -0.19473E-02         0.00000E+00
    0.19893E-01        -0.18926E-02         0.00000E+00
    0.18606E-01        -0.18278E-02         0.00000E+00
    0.17294E-01        -0.17529E-02         0.00000E+00
    0.15960E-01        -0.16675E-02         0.00000E+00
    0.14603E-01        -0.15716E-02         0.00000E+00
    0.13224E-01        -0.14649E-02         0.00000E+00
    0.11825E-01        -0.13473E-02         0.00000E+00
    0.10406E-01        -0.12188E-02         0.00000E+00
    0.89686E-02        -0.10791E-02         0.00000E+00
    0.75130E-02        -0.92805E-03         0.00000E+00
    0.60404E-02        -0.76564E-03         0.00000E+00
    0.45518E-02        -0.59172E-03         0.00000E+00
    0.30482E-02        -0.40620E-03         0.00000E+00
    0.15306E-02        -0.20899E-03         0.00000E+00
    0.00000E+00         0.00000E+00         0.00000E+00
    0.42283E-01         0.48648E-03         0.00000E+00
    0.42247E-01         0.37316E-03         0.00000E+00
    0.42174E-01         0.26011E-03         0.00000E+00
    0.42064E-01         0.14759E-03         0.00000E+00
    0.41915E-01         0.35860E-04         0.00000E+00
    0.41729E-01        -0.74806E-04         0.00000E+00
    0.41506E-01        -0.18414E-03         0.00000E+00
    0.41245E-01        -0.29189E-03         0.00000E+00
    0.40947E-01        -0.39778E-03         0.00000E+00
    0.40612E-01        -0.50154E-03         0.00000E+00
    0.40240E-01        -0.60292E-03         0.00000E+00
    0.39831E-01        -0.70164E-03         0.00000E+00
    0.39386E-01        -0.79745E-03         0.00000E+00
    0.38905E-01        -0.89009E-03         0.00000E+00
    0.38388E-01        -0.97929E-03         0.00000E+00
    0.37835E-01        -0.10648E-02         0.00000E+00
    0.37247E-01        -0.11464E-02         0.00000E+00
    0.36624E-01        -0.12237E-02         0.00000E+00
    0.35966E-01        -0.12966E-02         0.00000E+00
    0.35274E-01        -0.13649E-02         0.00000E+00
    0.34549E-01        -0.14281E-02         0.00000E+00
    0.33790E-01        -0.14862E-02         0.00000E+00
    0.32998E-01        -0.15389E-02         0.00000E+00
    0.32174E-01        -0.15859E-02         0.00000E+00
    0.31318E-01        -0.16271E-02         0.00000E+00
    0.30430E-01        -0.16621E-02         0.00000E+00
    0.29512E-01        -0.16908E-02         0.00000E+00
    0.28564E-01        -0.17130E-02         0.00000E+00
    0.27586E-01        -0.17284E-02         0.00000E+00
    0.26579E-01        -0.17368E-02         0.00000E+00
    0.25544E-01        -0.17381E-02         0.00000E+00
    0.24480E-01        -0.17320E-02         0.00000E+00
    0.23390E-01        -0.17183E-02         0.00000E+00
    0.22273E-01        -0.16969E-02         0.00000E+00
    0.21131E-01        -0.16676E-02         0.00000E+00
    0.19964E-01        -0.16302E-02         0.00000E+00
    0.18772E-01        -0.15845E-02         0.00000E+00
    0.17557E-01        -0.15305E-02         0.00000E+00
    0.16319E-01        -0.14678E-02         0.00000E+00
    0.15060E-01        -0.13964E-02         0.00000E+00
    0.13779E-01        -0.13162E-02         0.00000E+00
    0.12478E-01        -0.12269E-02         0.00000E+00
    0.11157E-01        -0.11285E-02         0.00000E+00
    0.98184E-02        -0.10209E-02         0.00000E+00
    0.84617E-02        -0.90390E-03         0.00000E+00
    0.70882E-02        -0.77744E-03         0.00000E+00
    0.56987E-02        -0.64142E-03         0.00000E+00
    0.42942E-02        -0.49574E-03         0.00000E+00
    0.28757E-02        -0.34032E-03         0.00000E+00
    0.14439E-02        -0.17510E-03         0.00000E+00
    0.00000E+00         0.00000E+00         0.00000E+00
    0.40221E-01         0.40435E-03         0.00000E+00
    0.40187E-01         0.31147E-03         0.00000E+00
    0.40117E-01         0.21882E-03         0.00000E+00
    0.40011E-01         0.12661E-03         0.00000E+00
    0.39869E-01         0.35059E-04         0.00000E+00
    0.39691E-01        -0.55623E-04         0.00000E+00
    0.39478E-01        -0.14522E-03         0.00000E+00
    0.39229E-01        -0.23350E-03         0.00000E+00
    0.38944E-01        -0.32026E-03         0.00000E+00
    0.38625E-01        -0.40528E-03         0.00000E+00
    0.38270E-01        -0.48835E-03         0.00000E+00
    0.37880E-01        -0.56924E-03         0.00000E+00
    0.37456E-01        -0.64775E-03         0.00000E+00
    0.36998E-01        -0.72367E-03         0.00000E+00
    0.36505E-01        -0.79677E-03         0.00000E+00
    0.35978E-01        -0.86685E-03         0.00000E+00
    0.35418E-01        -0.93370E-03         0.00000E+00
    0.34825E-01        -0.99712E-03         0.00000E+00
    0.34198E-01        -0.10569E-02         0.00000E+00
    0.33540E-01        -0.11128E-02         0.00000E+00
    0.32849E-01        -0.11647E-02         0.00000E+00
    0.32127E-01        -0.12124E-02         0.00000E+00
    0.31373E-01        -0.12556E-02         0.00000E+00
    0.30589E-01        -0.12942E-02         0.00000E+00
    0.29774E-01        -0.13280E-02         0.00000E+00
    0.28930E-01        -0.13568E-02         0.00000E+00
    0.28057E-01        -0.13804E-02         0.00000E+00
    0.27154E-01        -0.13987E-02         0.00000E+00
    0.26224E-01        -0.14114E-02         0.00000E+00
    0.25266E-01        -0.14185E-02         0.00000E+00
    0.24281E-01        -0.14197E-02         0.00000E+00
    0.23270E-01        -0.14148E-02         0.00000E+00
    0.22233E-01        -0.14038E-02         0.00000E+00
    0.21171E-01        -0.13864E-02         0.00000E+00
    0.20085E-01        -0.13626E-02         0.00000E+00
    0.18975E-01        -0.13321E-02         0.00000E+00
    0.17842E-01        -0.12949E-02         0.00000E+00
    0.16687E-01        -0.12507E-02         0.00000E+00
    0.15510E-01        -0.11996E-02         0.00000E+00
    0.14313E-01        -0.11413E-02         0.00000E+00
    0.13095E-01        -0.10758E-02         0.00000E+00
    0.11858E-01        -0.10029E-02         0.00000E+00
    0.10603E-01        -0.92251E-03         0.00000E+00
    0.93306E-02        -0.83456E-03         0.00000E+00
    0.80411E-02        -0.73895E-03         0.00000E+00
    0.67357E-02        -0.63559E-03         0.00000E+00
    0.54153E-02        -0.52441E-03         0.00000E+00
    0.40806E-02        -0.40532E-03         0.00000E+00
    0.27325E-02        -0.27826E-03         0.00000E+00
    0.13720E-02        -0.14317E-03         0.00000E+00
    0.00000E+00         0.00000E+00         0.00000E+00
    0.38560E-01         0.32310E-03         0.00000E+00
    0.38526E-01         0.24977E-03         0.00000E+00
    0.38458E-01         0.17662E-03         0.00000E+00
    0.38356E-01         0.10383E-03         0.00000E+00
    0.38219E-01         0.31549E-04         0.00000E+00
    0.38048E-01        -0.40037E-04         0.00000E+00
    0.37843E-01        -0.11076E-03         0.00000E+00
    0.37604E-01        -0.18045E-03         0.00000E+00
    0.37331E-01        -0.24894E-03         0.00000E+00
    0.37024E-01        -0.31606E-03         0.00000E+00
    0.36683E-01        -0.38164E-03         0.00000E+00
    0.36309E-01        -0.44550E-03         0.00000E+00
    0.35901E-01        -0.50748E-03         0.00000E+00
    0.35461E-01        -0.56741E-03         0.00000E+00
    0.34988E-01        -0.62513E-03         0.00000E+00
    0.34483E-01        -0.68047E-03         0.00000E+00
    0.33945E-01        -0.73326E-03         0.00000E+00
    0.33376E-01        -0.78335E-03         0.00000E+00
    0.32775E-01        -0.83057E-03         0.00000E+00
    0.32143E-01        -0.87476E-03         0.00000E+00
    0.31480E-01        -0.91577E-03         0.00000E+00
    0.30787E-01        -0.95344E-03         0.00000E+00
    0.30065E-01        -0.98761E-03         0.00000E+00
    0.29312E-01        -0.10181E-02         0.00000E+00
    0.28531E-01        -0.10449E-02         0.00000E+00
    0.27722E-01        -0.10677E-02         0.00000E+00
    0.26884E-01        -0.10864E-02         0.00000E+00
    0.26019E-01        -0.11009E-02         0.00000E+00
    0.25127E-01        -0.11110E-02         0.00000E+00
    0.24209E-01        -0.11167E-02         0.00000E+00
    0.23264E-01        -0.11177E-02         0.00000E+00
    0.22295E-01        -0.11140E-02         0.00000E+00
    0.21301E-01        -0.11054E-02         0.00000E+00
    0.20283E-01        -0.10918E-02         0.00000E+00
    0.19242E-01        -0.10731E-02         0.00000E+00
    0.18179E-01        -0.10492E-02         0.00000E+00
    0.17093E-01        -0.10199E-02         0.00000E+00
    0.15986E-01        -0.98521E-03         0.00000E+00
    0.14858E-01        -0.94498E-03         0.00000E+00
    0.13711E-01        -0.89911E-03         0.00000E+00
    0.12544E-01        -0.84753E-03         0.00000E+00
    0.11359E-01        -0.79013E-03         0.00000E+00
    0.10157E-01        -0.72683E-03         0.00000E+00
    0.89377E-02        -0.65757E-03         0.00000E+00
    0.77024E-02        -0.58226E-03         0.00000E+00
    0.64519E-02        -0.50083E-03         0.00000E+00
    0.51870E-02        -0.41324E-03         0.00000E+00
    0.39085E-02        -0.31940E-03         0.00000E+00
    0.26173E-02        -0.21928E-03         0.00000E+00
    0.13142E-02        -0.11283E-03         0.00000E+00
    0.00000E+00         0.00000E+00         0.00000E+00
    0.37282E-01         0.24296E-03         0.00000E+00
    0.37249E-01         0.18847E-03         0.00000E+00
    0.37183E-01         0.13412E-03         0.00000E+00
    0.37084E-01         0.80031E-04         0.00000E+00
    0.36951E-01         0.26328E-04         0.00000E+00
    0.36785E-01        -0.26862E-04         0.00000E+00
    0.36586E-01        -0.79412E-04         0.00000E+00
    0.36355E-01        -0.13120E-03         0.00000E+00
    0.36090E-01        -0.18209E-03         0.00000E+00
    0.35793E-01        -0.23196E-03         0.00000E+00
    0.35463E-01        -0.28069E-03         0.00000E+00
    0.35100E-01        -0.32815E-03         0.00000E+00
    0.34706E-01        -0.37422E-03         0.00000E+00
    0.34280E-01        -0.41876E-03         0.00000E+00
    0.33822E-01        -0.46167E-03         0.00000E+00
    0.33333E-01        -0.50280E-03         0.00000E+00
    0.32813E-01        -0.54206E-03         0.00000E+00
    0.32262E-01        -0.57930E-03         0.00000E+00
    0.31680E-01        -0.61442E-03         0.00000E+00
    0.31069E-01        -0.64729E-03         0.00000E+00
    0.30428E-01        -0.67781E-03         0.00000E+00
    0.29758E-01        -0.70584E-03         0.00000E+00
    0.29059E-01        -0.73128E-03         0.00000E+00
    0.28331E-01        -0.75402E-03         0.00000E+00
    0.27576E-01        -0.77395E-03         0.00000E+00
    0.26793E-01        -0.79095E-03         0.00000E+00
    0.25983E-01        -0.80493E-03         0.00000E+00
    0.25146E-01        -0.81577E-03         0.00000E+00
    0.24284E-01        -0.82338E-03         0.00000E+00
    0.23396E-01        -0.82765E-03         0.00000E+00
    0.22483E-01        -0.82850E-03         0.00000E+00
    0.21546E-01        -0.82581E-03         0.00000E+00
    0.20585E-01        -0.81951E-03         0.00000E+00
    0.19601E-01        -0.80950E-03         0.00000E+00
    0.18595E-01        -0.79570E-03         0.00000E+00
    0.17566E-01        -0.77801E-03         0.00000E+00
    0.16517E-01        -0.75637E-03         0.00000E+00
    0.15447E-01        -0.73069E-03         0.00000E+00
    0.14357E-01        -0.70090E-03         0.00000E+00
    0.13248E-01        -0.66692E-03         0.00000E+00
    0.12121E-01        -0.62869E-03         0.00000E+00
    0.10976E-01        -0.58615E-03         0.00000E+00
    0.98140E-02        -0.53922E-03         0.00000E+00
    0.86358E-02        -0.48786E-03         0.00000E+00
    0.74421E-02        -0.43201E-03         0.00000E+00
    0.62338E-02        -0.37161E-03         0.00000E+00
    0.50116E-02        -0.30663E-03         0.00000E+00
    0.37763E-02        -0.23701E-03         0.00000E+00
    0.25287E-02        -0.16272E-03         0.00000E+00
    0.12697E-02        -0.83731E-04         0.00000E+00
    0.00000E+00         0.00000E+00         0.00000E+00
    0.36375E-01         0.16386E-03         0.00000E+00
    0.36343E-01         0.12769E-03         0.00000E+00
    0.36278E-01         0.91613E-04         0.00000E+00
    0.36181E-01         0.55707E-04         0.00000E+00
    0.36052E-01         0.20056E-04         0.00000E+00
    0.35890E-01        -0.15255E-04         0.00000E+00
    0.35695E-01        -0.50144E-04         0.00000E+00
    0.35469E-01        -0.84527E-04         0.00000E+00
    0.35210E-01        -0.11832E-03         0.00000E+00
    0.34919E-01        -0.15144E-03         0.00000E+00
    0.34597E-01        -0.18381E-03         0.00000E+00
    0.34243E-01        -0.21533E-03         0.00000E+00
    0.33858E-01        -0.24593E-03         0.00000E+00
    0.33442E-01        -0.27553E-03         0.00000E+00
    0.32995E-01        -0.30405E-03         0.00000E+00
    0.32517E-01        -0.33139E-03         0.00000E+00
    0.32009E-01        -0.35749E-03         0.00000E+00
    0.31471E-01        -0.38226E-03         0.00000E+00
    0.30904E-01        -0.40562E-03         0.00000E+00
    0.30307E-01        -0.42750E-03         0.00000E+00
    0.29681E-01        -0.44781E-03         0.00000E+00
    0.29027E-01        -0.46648E-03         0.00000E+00
    0.28345E-01        -0.48344E-03         0.00000E+00
    0.27635E-01        -0.49860E-03         0.00000E+00
    0.26898E-01        -0.51190E-03         0.00000E+00
    0.26133E-01        -0.52327E-03         0.00000E+00
    0.25343E-01        -0.53262E-03         0.00000E+00
    0.24527E-01        -0.53990E-03         0.00000E+00
    0.23685E-01        -0.54504E-03         0.00000E+00
    0.22819E-01        -0.54796E-03         0.00000E+00
    0.21928E-01        -0.54860E-03         0.00000E+00
    0.21014E-01        -0.54691E-03         0.00000E+00
    0.20077E-01        -0.54281E-03         0.00000E+00
    0.19117E-01        -0.53626E-03         0.00000E+00
    0.18135E-01        -0.52718E-03         0.00000E+00
    0.17132E-01        -0.51553E-03         0.00000E+00
    0.16108E-01        -0.50125E-03         0.00000E+00
    0.15065E-01        -0.48428E-03         0.00000E+00
    0.14002E-01        -0.46459E-03         0.00000E+00
    0.12920E-01        -0.44211E-03         0.00000E+00
    0.11821E-01        -0.41681E-03         0.00000E+00
    0.10704E-01        -0.38864E-03         0.00000E+00
    0.95705E-02        -0.35756E-03         0.00000E+00
    0.84215E-02        -0.32353E-03         0.00000E+00
    0.72574E-02        -0.28651E-03         0.00000E+00
    0.60790E-02        -0.24648E-03         0.00000E+00
    0.48871E-02        -0.20339E-03         0.00000E+00
    0.36824E-02        -0.15723E-03         0.00000E+00
    0.24658E-02        -0.10795E-03         0.00000E+00
    0.12381E-02        -0.55552E-04         0.00000E+00
    0.00000E+00         0.00000E+00         0.00000E+00
    0.35832E-01         0.85507E-04         0.00000E+00
    0.35800E-01         0.67312E-04         0.00000E+00
    0.35736E-01         0.49160E-04         0.00000E+00
    0.35640E-01         0.31092E-04         0.00000E+00
    0.35512E-01         0.13150E-04         0.00000E+00
    0.35352E-01        -0.46248E-05         0.00000E+00
    0.35161E-01        -0.22192E-04         0.00000E+00
    0.34937E-01        -0.39509E-04         0.00000E+00
    0.34682E-01        -0.56535E-04         0.00000E+00
    0.34396E-01        -0.73228E-04         0.00000E+00
    0.34078E-01        -0.89546E-04         0.00000E+00
    0.33729E-01        -0.10545E-03         0.00000E+00
    0.33350E-01        -0.12089E-03         0.00000E+00
    0.32939E-01        -0.13584E-03         0.00000E+00
    0.32499E-01        -0.15024E-03         0.00000E+00
    0.32028E-01        -0.16407E-03         0.00000E+00
    0.31527E-01        -0.17727E-03         0.00000E+00
    0.30997E-01        -0.18981E-03         0.00000E+00
    0.30438E-01        -0.20165E-03         0.00000E+00
    0.29850E-01        -0.21274E-03         0.00000E+00
    0.29233E-01        -0.22306E-03         0.00000E+00
    0.28589E-01        -0.23255E-03         0.00000E+00
    0.27916E-01        -0.24118E-03         0.00000E+00
    0.27217E-01        -0.24892E-03         0.00000E+00
    0.26490E-01        -0.25572E-03         0.00000E+00
    0.25737E-01        -0.26155E-03         0.00000E+00
    0.24959E-01        -0.26637E-03         0.00000E+00
    0.24155E-01        -0.27015E-03         0.00000E+00
    0.23326E-01        -0.27285E-03         0.00000E+00
    0.22472E-01        -0.27443E-03         0.00000E+00
    0.21595E-01        -0.27488E-03         0.00000E+00
    0.20694E-01        -0.27414E-03         0.00000E+00
    0.19771E-01        -0.27219E-03         0.00000E+00
    0.18826E-01        -0.26900E-03         0.00000E+00
    0.17859E-01        -0.26454E-03         0.00000E+00
    0.16871E-01        -0.25878E-03         0.00000E+00
    0.15863E-01        -0.25169E-03         0.00000E+00
    0.14835E-01        -0.24325E-03         0.00000E+00
    0.13788E-01        -0.23343E-03         0.00000E+00
    0.12723E-01        -0.22220E-03         0.00000E+00
    0.11640E-01        -0.20954E-03         0.00000E+00
    0.10540E-01        -0.19543E-03         0.00000E+00
    0.94240E-02        -0.17985E-03         0.00000E+00
    0.82925E-02        -0.16277E-03         0.00000E+00
    0.71462E-02        -0.14419E-03         0.00000E+00
    0.59858E-02        -0.12407E-03         0.00000E+00
    0.48121E-02        -0.10240E-03         0.00000E+00
    0.36259E-02        -0.79176E-04         0.00000E+00
    0.24280E-02        -0.54375E-04         0.00000E+00
    0.12191E-02        -0.27987E-04         0.00000E+00
    0.00000E+00         0.00000E+00         0.00000E+00
    0.35646E-01         0.74394E-05         0.00000E+00
    0.35614E-01         0.70477E-05         0.00000E+00
    0.35551E-01         0.66525E-05         0.00000E+00
    0.35455E-01         0.62530E-05         0.00000E+00
    0.35328E-01         0.58490E-05         0.00000E+00
    0.35168E-01         0.54401E-05         0.00000E+00
    0.34978E-01         0.50262E-05         0.00000E+00
    0.34755E-01         0.46074E-05         0.00000E+00
    0.34501E-01         0.41838E-05         0.00000E+00
    0.34216E-01         0.37559E-05         0.00000E+00
    0.33900E-01         0.33240E-05         0.00000E+00
    0.33553E-01         0.28888E-05         0.00000E+00
    0.33175E-01         0.24512E-05         0.00000E+00
    0.32766E-01         0.20119E-05         0.00000E+00
    0.32328E-01         0.15720E-05         0.00000E+00
    0.31859E-01         0.11326E-05         0.00000E+00
    0.31361E-01         0.69500E-06         0.00000E+00
    0.30834E-01         0.26056E-06         0.00000E+00
    0.30277E-01        -0.16926E-06         0.00000E+00
    0.29692E-01        -0.59293E-06         0.00000E+00
    0.29079E-01        -0.10088E-05         0.00000E+00
    0.28437E-01        -0.14151E-05         0.00000E+00
    0.27768E-01        -0.18101E-05         0.00000E+00
    0.27072E-01        -0.21919E-05         0.00000E+00
    0.26349E-01        -0.25586E-05         0.00000E+00
    0.25600E-01        -0.29082E-05         0.00000E+00
    0.24826E-01        -0.32386E-05         0.00000E+00
    0.24026E-01        -0.35479E-05         0.00000E+00
    0.23201E-01        -0.38338E-05         0.00000E+00
    0.22352E-01        -0.40943E-05         0.00000E+00
    0.21479E-01        -0.43271E-05         0.00000E+00
    0.20583E-01        -0.45302E-05         0.00000E+00
    0.19665E-01        -0.47014E-05         0.00000E+00
    0.18724E-01        -0.48385E-05         0.00000E+00
    0.17763E-01        -0.49393E-05         0.00000E+00
    0.16780E-01        -0.50017E-05         0.00000E+00
    0.15777E-01        -0.50235E-05         0.00000E+00
    0.14755E-01        -0.50027E-05         0.00000E+00
    0.13713E-01        -0.49373E-05         0.00000E+00
    0.12654E-01        -0.48251E-05         0.00000E+00
    0.11577E-01        -0.46642E-05         0.00000E+00
    0.10483E-01        -0.44528E-05         0.00000E+00
    0.93729E-02        -0.41890E-05         0.00000E+00
    0.82474E-02        -0.38710E-05         0.00000E+00
    0.71073E-02        -0.34972E-05         0.00000E+00
    0.59532E-02        -0.30660E-05         0.00000E+00
    0.47859E-02        -0.25758E-05         0.00000E+00
    0.36062E-02        -0.20253E-05         0.00000E+00
    0.24148E-02        -0.14133E-05         0.00000E+00
    0.12124E-02        -0.73849E-06         0.00000E+00
    0.00000E+00         0.00000E+00         0.00000E+00
    0.35816E-01        -0.70912E-04         0.00000E+00
    0.35784E-01        -0.53496E-04         0.00000E+00
    0.35720E-01        -0.36133E-04         0.00000E+00
    0.35624E-01        -0.18862E-04         0.00000E+00
    0.35496E-01        -0.17271E-05         0.00000E+00
    0.35336E-01         0.15231E-04         0.00000E+00
    0.35144E-01         0.31970E-04         0.00000E+00
    0.34921E-01         0.48449E-04         0.00000E+00
    0.34666E-01         0.64626E-04         0.00000E+00
    0.34379E-01         0.80462E-04         0.00000E+00
    0.34061E-01         0.95914E-04         0.00000E+00
    0.33712E-01         0.11094E-03         0.00000E+00
    0.33332E-01         0.12551E-03         0.00000E+00
    0.32922E-01         0.13957E-03         0.00000E+00
    0.32481E-01         0.15310E-03         0.00000E+00
    0.32010E-01         0.16604E-03         0.00000E+00
    0.31510E-01         0.17836E-03         0.00000E+00
    0.30980E-01         0.19003E-03         0.00000E+00
    0.30420E-01         0.20101E-03         0.00000E+00
    0.29832E-01         0.21125E-03         0.00000E+00
    0.29216E-01         0.22073E-03         0.00000E+00
    0.28571E-01         0.22941E-03         0.00000E+00
    0.27899E-01         0.23725E-03         0.00000E+00
    0.27200E-01         0.24422E-03         0.00000E+00
    0.26474E-01         0.25029E-03         0.00000E+00
    0.25721E-01         0.25542E-03         0.00000E+00
    0.24942E-01         0.25958E-03         0.00000E+00
    0.24139E-01         0.26274E-03         0.00000E+00
    0.23310E-01         0.26487E-03         0.00000E+00
    0.22457E-01         0.26594E-03         0.00000E+00
    0.21580E-01         0.26592E-03         0.00000E+00
    0.20680E-01         0.26478E-03         0.00000E+00
    0.19757E-01         0.26249E-03         0.00000E+00
    0.18812E-01         0.25903E-03         0.00000E+00
    0.17846E-01         0.25438E-03         0.00000E+00
    0.16858E-01         0.24850E-03         0.00000E+00
    0.15851E-01         0.24138E-03         0.00000E+00
    0.14823E-01         0.23299E-03         0.00000E+00
    0.13777E-01         0.22331E-03         0.00000E+00
    0.12713E-01         0.21232E-03         0.00000E+00
    0.11631E-01         0.20000E-03         0.00000E+00
    0.10532E-01         0.18632E-03         0.00000E+00
    0.94165E-02         0.17129E-03         0.00000E+00
    0.82858E-02         0.15486E-03         0.00000E+00
    0.71403E-02         0.13704E-03         0.00000E+00
    0.59809E-02         0.11781E-03         0.00000E+00
    0.48081E-02         0.97144E-04         0.00000E+00
    0.36229E-02         0.75043E-04         0.00000E+00
    0.24260E-02         0.51492E-04         0.00000E+00
    0.12181E-02         0.26480E-04         0.00000E+00
    0.00000E+00         0.00000E+00         0.00000E+00
    0.36344E-01        -0.15018E-03         0.00000E+00
    0.36312E-01        -0.11479E-03         0.00000E+00
    0.36247E-01        -0.79487E-04         0.00000E+00
    0.36149E-01        -0.44373E-04         0.00000E+00
    0.36019E-01        -0.95260E-05         0.00000E+00
    0.35857E-01         0.24969E-04         0.00000E+00
    0.35662E-01         0.59030E-04         0.00000E+00
    0.35436E-01         0.92572E-04         0.00000E+00
    0.35177E-01         0.12551E-03         0.00000E+00
    0.34886E-01         0.15777E-03         0.00000E+00
    0.34563E-01         0.18926E-03         0.00000E+00
    0.34209E-01         0.21991E-03         0.00000E+00
    0.33824E-01         0.24963E-03         0.00000E+00
    0.33407E-01         0.27834E-03         0.00000E+00
    0.32960E-01         0.30596E-03         0.00000E+00
    0.32482E-01         0.33242E-03         0.00000E+00
    0.31974E-01         0.35763E-03         0.00000E+00
    0.31436E-01         0.38152E-03         0.00000E+00
    0.30869E-01         0.40401E-03         0.00000E+00
    0.30272E-01         0.42503E-03         0.00000E+00
    0.29647E-01         0.44450E-03         0.00000E+00
    0.28993E-01         0.46235E-03         0.00000E+00
    0.28310E-01         0.47851E-03         0.00000E+00
    0.27601E-01         0.49291E-03         0.00000E+00
    0.26864E-01         0.50547E-03         0.00000E+00
    0.26100E-01         0.51614E-03         0.00000E+00
    0.25310E-01         0.52484E-03         0.00000E+00
    0.24494E-01         0.53150E-03         0.00000E+00
    0.23654E-01         0.53607E-03         0.00000E+00
    0.22788E-01         0.53848E-03         0.00000E+00
    0.21898E-01         0.53868E-03         0.00000E+00
    0.20985E-01         0.53660E-03         0.00000E+00
    0.20048E-01         0.53218E-03         0.00000E+00
    0.19089E-01         0.52538E-03         0.00000E+00
    0.18109E-01         0.51613E-03         0.00000E+00
    0.17107E-01         0.50438E-03         0.00000E+00
    0.16084E-01         0.49010E-03         0.00000E+00
    0.15042E-01         0.47322E-03         0.00000E+00
    0.13980E-01         0.45370E-03         0.00000E+00
    0.12900E-01         0.43150E-03         0.00000E+00
    0.11802E-01         0.40658E-03         0.00000E+00
    0.10687E-01         0.37890E-03         0.00000E+00
    0.95553E-02         0.34841E-03         0.00000E+00
    0.84079E-02         0.31509E-03         0.00000E+00
    0.72456E-02         0.27890E-03         0.00000E+00
    0.60690E-02         0.23982E-03         0.00000E+00
    0.48790E-02         0.19780E-03         0.00000E+00
    0.36763E-02         0.15284E-03         0.00000E+00
    0.24617E-02         0.10490E-03         0.00000E+00
    0.12360E-02         0.53956E-04         0.00000E+00
    0.00000E+00         0.00000E+00         0.00000E+00
    0.37235E-01        -0.23105E-03         0.00000E+00
    0.37202E-01        -0.17731E-03         0.00000E+00
    0.37136E-01        -0.12373E-03         0.00000E+00
    0.37036E-01        -0.70425E-04         0.00000E+00
    0.36903E-01        -0.17520E-04         0.00000E+00
    0.36737E-01         0.34856E-04         0.00000E+00
    0.36537E-01         0.86577E-04         0.00000E+00
    0.36305E-01         0.13752E-03         0.00000E+00
    0.36040E-01         0.18755E-03         0.00000E+00
    0.35742E-01         0.23655E-03         0.00000E+00
    0.35411E-01         0.28440E-03         0.00000E+00
    0.35049E-01         0.33097E-03         0.00000E+00
    0.34654E-01         0.37614E-03         0.00000E+00
    0.34227E-01         0.41978E-03         0.00000E+00
    0.33769E-01         0.46178E-03         0.00000E+00
    0.33280E-01         0.50202E-03         0.00000E+00
    0.32759E-01         0.54037E-03         0.00000E+00
    0.32208E-01         0.57673E-03         0.00000E+00
    0.31627E-01         0.61096E-03         0.00000E+00
    0.31016E-01         0.64297E-03         0.00000E+00
    0.30375E-01         0.67264E-03         0.00000E+00
    0.29705E-01         0.69984E-03         0.00000E+00
    0.29006E-01         0.72449E-03         0.00000E+00
    0.28279E-01         0.74646E-03         0.00000E+00
    0.27524E-01         0.76565E-03         0.00000E+00
    0.26742E-01         0.78197E-03         0.00000E+00
    0.25932E-01         0.79529E-03         0.00000E+00
    0.25097E-01         0.80554E-03         0.00000E+00
    0.24235E-01         0.81260E-03         0.00000E+00
    0.23348E-01         0.81639E-03         0.00000E+00
    0.22437E-01         0.81681E-03         0.00000E+00
    0.21501E-01         0.81377E-03         0.00000E+00
    0.20542E-01         0.80718E-03         0.00000E+00
    0.19559E-01         0.79696E-03         0.00000E+00
    0.18554E-01         0.78303E-03         0.00000E+00
    0.17528E-01         0.76531E-03         0.00000E+00
    0.16480E-01         0.74372E-03         0.00000E+00
    0.15412E-01         0.71819E-03         0.00000E+00
    0.14325E-01         0.68864E-03         0.00000E+00
    0.13218E-01         0.65502E-03         0.00000E+00
    0.12093E-01         0.61725E-03         0.00000E+00
    0.10950E-01         0.57528E-03         0.00000E+00
    0.97907E-02         0.52904E-03         0.00000E+00
    0.86151E-02         0.47849E-03         0.00000E+00
    0.74241E-02         0.42358E-03         0.00000E+00
    0.62186E-02         0.36425E-03         0.00000E+00
    0.49992E-02         0.30046E-03         0.00000E+00
    0.37669E-02         0.23218E-03         0.00000E+00
    0.25224E-02         0.15936E-03         0.00000E+00
    0.12665E-02         0.81977E-04         0.00000E+00
    0.00000E+00         0.00000E+00         0.00000E+00
    0.38499E-01        -0.31416E-03         0.00000E+00
    0.38464E-01        -0.24157E-03         0.00000E+00
    0.38396E-01        -0.16917E-03         0.00000E+00
    0.38293E-01        -0.97146E-04         0.00000E+00
    0.38155E-01        -0.25661E-04         0.00000E+00
    0.37983E-01         0.45113E-04         0.00000E+00
    0.37777E-01         0.11501E-03         0.00000E+00
    0.37537E-01         0.18385E-03         0.00000E+00
    0.37263E-01         0.25147E-03         0.00000E+00
    0.36955E-01         0.31771E-03         0.00000E+00
    0.36614E-01         0.38239E-03         0.00000E+00
    0.36239E-01         0.44535E-03         0.00000E+00
    0.35831E-01         0.50642E-03         0.00000E+00
    0.35390E-01         0.56544E-03         0.00000E+00
    0.34917E-01         0.62224E-03         0.00000E+00
    0.34411E-01         0.67666E-03         0.00000E+00
    0.33873E-01         0.72854E-03         0.00000E+00
    0.33303E-01         0.77773E-03         0.00000E+00
    0.32703E-01         0.82406E-03         0.00000E+00
    0.32071E-01         0.86738E-03         0.00000E+00
    0.31408E-01         0.90754E-03         0.00000E+00
    0.30716E-01         0.94438E-03         0.00000E+00
    0.29993E-01         0.97776E-03         0.00000E+00
    0.29242E-01         0.10075E-02         0.00000E+00
    0.28461E-01         0.10336E-02         0.00000E+00
    0.27652E-01         0.10557E-02         0.00000E+00
    0.26816E-01         0.10738E-02         0.00000E+00
    0.25952E-01         0.10877E-02         0.00000E+00
    0.25061E-01         0.10973E-02         0.00000E+00
    0.24144E-01         0.11026E-02         0.00000E+00
    0.23202E-01         0.11032E-02         0.00000E+00
    0.22234E-01         0.10992E-02         0.00000E+00
    0.21242E-01         0.10904E-02         0.00000E+00
    0.20226E-01         0.10766E-02         0.00000E+00
    0.19187E-01         0.10579E-02         0.00000E+00
    0.18126E-01         0.10340E-02         0.00000E+00
    0.17043E-01         0.10049E-02         0.00000E+00
    0.15938E-01         0.97046E-03         0.00000E+00
    0.14814E-01         0.93059E-03         0.00000E+00
    0.13669E-01         0.88520E-03         0.00000E+00
    0.12506E-01         0.83421E-03         0.00000E+00
    0.11324E-01         0.77752E-03         0.00000E+00
    0.10125E-01         0.71507E-03         0.00000E+00
    0.89093E-02         0.64678E-03         0.00000E+00
    0.76777E-02         0.57258E-03         0.00000E+00
    0.64310E-02         0.49240E-03         0.00000E+00
    0.51701E-02         0.40619E-03         0.00000E+00
    0.38956E-02         0.31389E-03         0.00000E+00
    0.26086E-02         0.21545E-03         0.00000E+00
    0.13098E-02         0.11084E-03         0.00000E+00
    0.00000E+00         0.00000E+00         0.00000E+00
    0.40146E-01        -0.40014E-03         0.00000E+00
    0.40111E-01        -0.30797E-03         0.00000E+00
    0.40039E-01        -0.21606E-03         0.00000E+00
    0.39932E-01        -0.12460E-03         0.00000E+00
    0.39789E-01        -0.33835E-04         0.00000E+00
    0.39610E-01         0.56036E-04         0.00000E+00
    0.39395E-01         0.14479E-03         0.00000E+00
    0.39145E-01         0.23222E-03         0.00000E+00
    0.38859E-01         0.31811E-03         0.00000E+00
    0.38538E-01         0.40224E-03         0.00000E+00
    0.38183E-01         0.48440E-03         0.00000E+00
    0.37792E-01         0.56437E-03         0.00000E+00
    0.37367E-01         0.64195E-03         0.00000E+00
    0.36908E-01         0.71693E-03         0.00000E+00
    0.36414E-01         0.78911E-03         0.00000E+00
    0.35887E-01         0.85826E-03         0.00000E+00
    0.35326E-01         0.92420E-03         0.00000E+00
    0.34733E-01         0.98671E-03         0.00000E+00
    0.34106E-01         0.10456E-02         0.00000E+00
    0.33448E-01         0.11007E-02         0.00000E+00
    0.32757E-01         0.11517E-02         0.00000E+00
    0.32035E-01         0.11986E-02         0.00000E+00
    0.31282E-01         0.12410E-02         0.00000E+00
    0.30498E-01         0.12789E-02         0.00000E+00
    0.29684E-01         0.13120E-02         0.00000E+00
    0.28841E-01         0.13402E-02         0.00000E+00
    0.27969E-01         0.13633E-02         0.00000E+00
    0.27068E-01         0.13810E-02         0.00000E+00
    0.26139E-01         0.13933E-02         0.00000E+00
    0.25183E-01         0.14000E-02         0.00000E+00
    0.24200E-01         0.14009E-02         0.00000E+00
    0.23191E-01         0.13959E-02         0.00000E+00
    0.22157E-01         0.13847E-02         0.00000E+00
    0.21097E-01         0.13674E-02         0.00000E+00
    0.20014E-01         0.13436E-02         0.00000E+00
    0.18907E-01         0.13133E-02         0.00000E+00
    0.17777E-01         0.12764E-02         0.00000E+00
    0.16625E-01         0.12327E-02         0.00000E+00
    0.15452E-01         0.11821E-02         0.00000E+00
    0.14259E-01         0.11245E-02         0.00000E+00
    0.13045E-01         0.10598E-02         0.00000E+00
    0.11813E-01         0.98778E-03         0.00000E+00
    0.10562E-01         0.90847E-03         0.00000E+00
    0.92938E-02         0.82173E-03         0.00000E+00
    0.80091E-02         0.72748E-03         0.00000E+00
    0.67087E-02         0.62563E-03         0.00000E+00
    0.53933E-02         0.51611E-03         0.00000E+00
    0.40639E-02         0.39885E-03         0.00000E+00
    0.27212E-02         0.27378E-03         0.00000E+00
    0.13663E-02         0.14084E-03         0.00000E+00
    0.00000E+00         0.00000E+00         0.00000E+00
    0.42194E-01        -0.48951E-03         0.00000E+00
    0.42157E-01        -0.37687E-03         0.00000E+00
    0.42082E-01        -0.26453E-03         0.00000E+00
    0.41969E-01        -0.15275E-03         0.00000E+00
    0.41819E-01        -0.41807E-04         0.00000E+00
    0.41631E-01         0.68047E-04         0.00000E+00
    0.41406E-01         0.17655E-03         0.00000E+00
    0.41144E-01         0.28342E-03         0.00000E+00
    0.40844E-01         0.38842E-03         0.00000E+00
    0.40507E-01         0.49128E-03         0.00000E+00
    0.40134E-01         0.59173E-03         0.00000E+00
    0.39724E-01         0.68952E-03         0.00000E+00
    0.39277E-01         0.78439E-03         0.00000E+00
    0.38795E-01         0.87609E-03         0.00000E+00
    0.38276E-01         0.96435E-03         0.00000E+00
    0.37723E-01         0.10489E-02         0.00000E+00
    0.37134E-01         0.11296E-02         0.00000E+00
    0.36510E-01         0.12061E-02         0.00000E+00
    0.35852E-01         0.12781E-02         0.00000E+00
    0.35160E-01         0.13455E-02         0.00000E+00
    0.34435E-01         0.14080E-02         0.00000E+00
    0.33676E-01         0.14653E-02         0.00000E+00
    0.32885E-01         0.15173E-02         0.00000E+00
    0.32062E-01         0.15636E-02         0.00000E+00
    0.31207E-01         0.16042E-02         0.00000E+00
    0.30320E-01         0.16387E-02         0.00000E+00
    0.29404E-01         0.16669E-02         0.00000E+00
    0.28457E-01         0.16887E-02         0.00000E+00
    0.27481E-01         0.17038E-02         0.00000E+00
    0.26476E-01         0.17120E-02         0.00000E+00
    0.25443E-01         0.17132E-02         0.00000E+00
    0.24383E-01         0.17071E-02         0.00000E+00
    0.23295E-01         0.16935E-02         0.00000E+00
    0.22182E-01         0.16723E-02         0.00000E+00
    0.21043E-01         0.16433E-02         0.00000E+00
    0.19879E-01         0.16063E-02         0.00000E+00
    0.18692E-01         0.15612E-02         0.00000E+00
    0.17481E-01         0.15078E-02         0.00000E+00
    0.16247E-01         0.14459E-02         0.00000E+00
    0.14992E-01         0.13755E-02         0.00000E+00
    0.13717E-01         0.12963E-02         0.00000E+00
    0.12421E-01         0.12083E-02         0.00000E+00
    0.11106E-01         0.11113E-02         0.00000E+00
    0.97726E-02         0.10052E-02         0.00000E+00
    0.84217E-02         0.88995E-03         0.00000E+00
    0.70543E-02         0.76537E-03         0.00000E+00
    0.56712E-02         0.63140E-03         0.00000E+00
    0.42733E-02         0.48795E-03         0.00000E+00
    0.28615E-02         0.33495E-03         0.00000E+00
    0.14368E-02         0.17232E-03         0.00000E+00
    0.00000E+00         0.00000E+00         0.00000E+00
    0.44662E-01        -0.58263E-03         0.00000E+00
    0.44623E-01        -0.44842E-03         0.00000E+00
    0.44544E-01        -0.31456E-03         0.00000E+00
    0.44426E-01        -0.18137E-03         0.00000E+00
    0.44267E-01        -0.49153E-04         0.00000E+00
    0.44069E-01         0.81764E-04         0.00000E+00
    0.43831E-01         0.21107E-03         0.00000E+00
    0.43553E-01         0.33846E-03         0.00000E+00
    0.43237E-01         0.46361E-03         0.00000E+00
    0.42881E-01         0.58621E-03         0.00000E+00
    0.42486E-01         0.70596E-03         0.00000E+00
    0.42052E-01         0.82254E-03         0.00000E+00
    0.41580E-01         0.93564E-03         0.00000E+00
    0.41070E-01         0.10450E-02         0.00000E+00
    0.40522E-01         0.11502E-02         0.00000E+00
    0.39937E-01         0.12511E-02         0.00000E+00
    0.39314E-01         0.13472E-02         0.00000E+00
    0.38654E-01         0.14384E-02         0.00000E+00
    0.37958E-01         0.15244E-02         0.00000E+00
    0.37226E-01         0.16047E-02         0.00000E+00
    0.36459E-01         0.16792E-02         0.00000E+00
    0.35656E-01         0.17476E-02         0.00000E+00
    0.34819E-01         0.18096E-02         0.00000E+00
    0.33948E-01         0.18649E-02         0.00000E+00
    0.33043E-01         0.19133E-02         0.00000E+00
    0.32105E-01         0.19545E-02         0.00000E+00
    0.31135E-01         0.19882E-02         0.00000E+00
    0.30133E-01         0.20142E-02         0.00000E+00
    0.29100E-01         0.20322E-02         0.00000E+00
    0.28036E-01         0.20421E-02         0.00000E+00
    0.26943E-01         0.20435E-02         0.00000E+00
    0.25820E-01         0.20362E-02         0.00000E+00
    0.24669E-01         0.20201E-02         0.00000E+00
    0.23490E-01         0.19948E-02         0.00000E+00
    0.22285E-01         0.19602E-02         0.00000E+00
    0.21053E-01         0.19161E-02         0.00000E+00
    0.19795E-01         0.18624E-02         0.00000E+00
    0.18513E-01         0.17987E-02         0.00000E+00
    0.17207E-01         0.17249E-02         0.00000E+00
    0.15878E-01         0.16409E-02         0.00000E+00
    0.14527E-01         0.15465E-02         0.00000E+00
    0.13155E-01         0.14415E-02         0.00000E+00
    0.11763E-01         0.13258E-02         0.00000E+00
    0.10351E-01         0.11993E-02         0.00000E+00
    0.89199E-02         0.10618E-02         0.00000E+00
    0.74717E-02         0.91315E-03         0.00000E+00
    0.60069E-02         0.75333E-03         0.00000E+00
    0.45263E-02         0.58219E-03         0.00000E+00
    0.30309E-02         0.39964E-03         0.00000E+00
    0.15219E-02         0.20560E-03         0.00000E+00
    0.00000E+00         0.00000E+00         0.00000E+00
    0.47575E-01        -0.67966E-03         0.00000E+00
    0.47534E-01        -0.52257E-03         0.00000E+00
    0.47451E-01        -0.36588E-03         0.00000E+00
    0.47325E-01        -0.20996E-03         0.00000E+00
    0.47156E-01        -0.55185E-04         0.00000E+00
    0.46946E-01         0.98085E-04         0.00000E+00
    0.46693E-01         0.24948E-03         0.00000E+00
    0.46398E-01         0.39863E-03         0.00000E+00
    0.46061E-01         0.54517E-03         0.00000E+00
    0.45683E-01         0.68874E-03         0.00000E+00
    0.45263E-01         0.82897E-03         0.00000E+00
    0.44802E-01         0.96549E-03         0.00000E+00
    0.44300E-01         0.10980E-02         0.00000E+00
    0.43757E-01         0.12260E-02         0.00000E+00
    0.43174E-01         0.13493E-02         0.00000E+00
    0.42551E-01         0.14674E-02         0.00000E+00
    0.41889E-01         0.15800E-02         0.00000E+00
    0.41187E-01         0.16869E-02         0.00000E+00
    0.40446E-01         0.17875E-02         0.00000E+00
    0.39667E-01         0.18817E-02         0.00000E+00
    0.38849E-01         0.19690E-02         0.00000E+00
    0.37995E-01         0.20491E-02         0.00000E+00
    0.37104E-01         0.21217E-02         0.00000E+00
    0.36176E-01         0.21865E-02         0.00000E+00
    0.35212E-01         0.22432E-02         0.00000E+00
    0.34214E-01         0.22915E-02         0.00000E+00
    0.33181E-01         0.23310E-02         0.00000E+00
    0.32113E-01         0.23614E-02         0.00000E+00
    0.31013E-01         0.23826E-02         0.00000E+00
    0.29880E-01         0.23941E-02         0.00000E+00
    0.28715E-01         0.23957E-02         0.00000E+00
    0.27519E-01         0.23872E-02         0.00000E+00
    0.26293E-01         0.23682E-02         0.00000E+00
    0.25037E-01         0.23386E-02         0.00000E+00
    0.23752E-01         0.22981E-02         0.00000E+00
    0.22439E-01         0.22464E-02         0.00000E+00
    0.21100E-01         0.21834E-02         0.00000E+00
    0.19733E-01         0.21087E-02         0.00000E+00
    0.18342E-01         0.20223E-02         0.00000E+00
    0.16925E-01         0.19238E-02         0.00000E+00
    0.15486E-01         0.18131E-02         0.00000E+00
    0.14023E-01         0.16900E-02         0.00000E+00
    0.12539E-01         0.15544E-02         0.00000E+00
    0.11034E-01         0.14061E-02         0.00000E+00
    0.95089E-02         0.12449E-02         0.00000E+00
    0.79652E-02         0.10706E-02         0.00000E+00
    0.64037E-02         0.88325E-03         0.00000E+00
    0.48253E-02         0.68260E-03         0.00000E+00
    0.32312E-02         0.46857E-03         0.00000E+00
    0.16224E-02         0.24107E-03         0.00000E+00
    0.00000E+00         0.00000E+00         0.00000E+00
    0.50961E-01        -0.78042E-03         0.00000E+00
    0.50917E-01        -0.59892E-03         0.00000E+00
    0.50829E-01        -0.41787E-03         0.00000E+00
    0.50695E-01        -0.23770E-03         0.00000E+00
    0.50515E-01        -0.58842E-04         0.00000E+00
    0.50291E-01         0.11829E-03         0.00000E+00
    0.50021E-01         0.29326E-03         0.00000E+00
    0.49706E-01         0.46565E-03         0.00000E+00
    0.49346E-01         0.63503E-03         0.00000E+00
    0.48942E-01         0.80099E-03         0.00000E+00
    0.48493E-01         0.96308E-03         0.00000E+00
    0.48000E-01         0.11209E-02         0.00000E+00
    0.47463E-01         0.12740E-02         0.00000E+00
    0.46883E-01         0.14221E-02         0.00000E+00
    0.46259E-01         0.15646E-02         0.00000E+00
    0.45593E-01         0.17012E-02         0.00000E+00
    0.44884E-01         0.18314E-02         0.00000E+00
    0.44132E-01         0.19549E-02         0.00000E+00
    0.43340E-01         0.20713E-02         0.00000E+00
    0.42506E-01         0.21801E-02         0.00000E+00
    0.41631E-01         0.22811E-02         0.00000E+00
    0.40716E-01         0.23737E-02         0.00000E+00
    0.39762E-01         0.24577E-02         0.00000E+00
    0.38769E-01         0.25326E-02         0.00000E+00
    0.37737E-01         0.25981E-02         0.00000E+00
    0.36668E-01         0.26539E-02         0.00000E+00
    0.35561E-01         0.26995E-02         0.00000E+00
    0.34418E-01         0.27347E-02         0.00000E+00
    0.33239E-01         0.27591E-02         0.00000E+00
    0.32026E-01         0.27723E-02         0.00000E+00
    0.30778E-01         0.27742E-02         0.00000E+00
    0.29497E-01         0.27642E-02         0.00000E+00
    0.28183E-01         0.27423E-02         0.00000E+00
    0.26837E-01         0.27079E-02         0.00000E+00
    0.25461E-01         0.26610E-02         0.00000E+00
    0.24054E-01         0.26011E-02         0.00000E+00
    0.22618E-01         0.25281E-02         0.00000E+00
    0.21154E-01         0.24416E-02         0.00000E+00
    0.19663E-01         0.23415E-02         0.00000E+00
    0.18145E-01         0.22274E-02         0.00000E+00
    0.16602E-01         0.20993E-02         0.00000E+00
    0.15034E-01         0.19568E-02         0.00000E+00
    0.13443E-01         0.17997E-02         0.00000E+00
    0.11830E-01         0.16280E-02         0.00000E+00
    0.10195E-01         0.14413E-02         0.00000E+00
    0.85399E-02         0.12396E-02         0.00000E+00
    0.68658E-02         0.10226E-02         0.00000E+00
    0.51737E-02         0.79033E-03         0.00000E+00
    0.34646E-02         0.54253E-03         0.00000E+00
    0.17396E-02         0.27912E-03         0.00000E+00
    0.00000E+00         0.00000E+00         0.00000E+00
    0.54852E-01        -0.88431E-03         0.00000E+00
    0.54806E-01        -0.67663E-03         0.00000E+00
    0.54712E-01        -0.46945E-03         0.00000E+00
    0.54569E-01        -0.26327E-03         0.00000E+00
    0.54377E-01        -0.58565E-04         0.00000E+00
    0.54136E-01         0.14417E-03         0.00000E+00
    0.53847E-01         0.34445E-03         0.00000E+00
    0.53510E-01         0.54178E-03         0.00000E+00
    0.53124E-01         0.73568E-03         0.00000E+00
    0.52690E-01         0.92566E-03         0.00000E+00
    0.52208E-01         0.11112E-02         0.00000E+00
    0.51679E-01         0.12919E-02         0.00000E+00
    0.51102E-01         0.14672E-02         0.00000E+00
    0.50478E-01         0.16367E-02         0.00000E+00
    0.49808E-01         0.17999E-02         0.00000E+00
    0.49092E-01         0.19562E-02         0.00000E+00
    0.48329E-01         0.21053E-02         0.00000E+00
    0.47522E-01         0.22467E-02         0.00000E+00
    0.46669E-01         0.23800E-02         0.00000E+00
    0.45773E-01         0.25046E-02         0.00000E+00
    0.44832E-01         0.26201E-02         0.00000E+00
    0.43848E-01         0.27261E-02         0.00000E+00
    0.42821E-01         0.28222E-02         0.00000E+00
    0.41753E-01         0.29080E-02         0.00000E+00
    0.40643E-01         0.29829E-02         0.00000E+00
    0.39492E-01         0.30467E-02         0.00000E+00
    0.38301E-01         0.30988E-02         0.00000E+00
    0.37071E-01         0.31390E-02         0.00000E+00
    0.35802E-01         0.31668E-02         0.00000E+00
    0.34496E-01         0.31818E-02         0.00000E+00
    0.33153E-01         0.31838E-02         0.00000E+00
    0.31774E-01         0.31722E-02         0.00000E+00
    0.30359E-01         0.31468E-02         0.00000E+00
    0.28910E-01         0.31073E-02         0.00000E+00
    0.27428E-01         0.30533E-02         0.00000E+00
    0.25913E-01         0.29845E-02         0.00000E+00
    0.24367E-01         0.29007E-02         0.00000E+00
    0.22790E-01         0.28014E-02         0.00000E+00
    0.21184E-01         0.26864E-02         0.00000E+00
    0.19549E-01         0.25555E-02         0.00000E+00
    0.17887E-01         0.24084E-02         0.00000E+00
    0.16198E-01         0.22449E-02         0.00000E+00
    0.14484E-01         0.20647E-02         0.00000E+00
    0.12746E-01         0.18677E-02         0.00000E+00
    0.10985E-01         0.16535E-02         0.00000E+00
    0.92019E-02         0.14220E-02         0.00000E+00
    0.73982E-02         0.11732E-02         0.00000E+00
    0.55750E-02         0.90664E-03         0.00000E+00
    0.37333E-02         0.62236E-03         0.00000E+00
    0.18746E-02         0.32019E-03         0.00000E+00
    0.00000E+00         0.00000E+00         0.00000E+00
    0.59286E-01        -0.99015E-03         0.00000E+00
    0.59239E-01        -0.75426E-03         0.00000E+00
    0.59138E-01        -0.51893E-03         0.00000E+00
    0.58985E-01        -0.28470E-03         0.00000E+00
    0.58780E-01        -0.52138E-04         0.00000E+00
    0.58521E-01         0.17820E-03         0.00000E+00
    0.58210E-01         0.40576E-03         0.00000E+00
    0.57847E-01         0.62999E-03         0.00000E+00
    0.57432E-01         0.85032E-03         0.00000E+00
    0.56964E-01         0.10662E-02         0.00000E+00
    0.56445E-01         0.12771E-02         0.00000E+00
    0.55874E-01         0.14824E-02         0.00000E+00
    0.55252E-01         0.16816E-02         0.00000E+00
    0.54580E-01         0.18742E-02         0.00000E+00
    0.53857E-01         0.20596E-02         0.00000E+00
    0.53084E-01         0.22373E-02         0.00000E+00
    0.52261E-01         0.24067E-02         0.00000E+00
    0.51389E-01         0.25674E-02         0.00000E+00
    0.50469E-01         0.27187E-02         0.00000E+00
    0.49500E-01         0.28603E-02         0.00000E+00
    0.48485E-01         0.29915E-02         0.00000E+00
    0.47422E-01         0.31119E-02         0.00000E+00
    0.46313E-01         0.32210E-02         0.00000E+00
    0.45158E-01         0.33182E-02         0.00000E+00
    0.43959E-01         0.34033E-02         0.00000E+00
    0.42716E-01         0.34755E-02         0.00000E+00
    0.41429E-01         0.35346E-02         0.00000E+00
    0.40099E-01         0.35800E-02         0.00000E+00
    0.38728E-01         0.36114E-02         0.00000E+00
    0.37316E-01         0.36282E-02         0.00000E+00
    0.35864E-01         0.36301E-02         0.00000E+00
    0.34373E-01         0.36166E-02         0.00000E+00
    0.32843E-01         0.35875E-02         0.00000E+00
    0.31277E-01         0.35422E-02         0.00000E+00
    0.29674E-01         0.34804E-02         0.00000E+00
    0.28036E-01         0.34018E-02         0.00000E+00
    0.26363E-01         0.33060E-02         0.00000E+00
    0.24658E-01         0.31927E-02         0.00000E+00
    0.22921E-01         0.30615E-02         0.00000E+00
    0.21152E-01         0.29122E-02         0.00000E+00
    0.19354E-01         0.27445E-02         0.00000E+00
    0.17527E-01         0.25581E-02         0.00000E+00
    0.15673E-01         0.23527E-02         0.00000E+00
    0.13793E-01         0.21280E-02         0.00000E+00
    0.11887E-01         0.18840E-02         0.00000E+00
    0.99581E-02         0.16202E-02         0.00000E+00
    0.80063E-02         0.13366E-02         0.00000E+00
    0.60333E-02         0.10329E-02         0.00000E+00
    0.40404E-02         0.70904E-03         0.00000E+00
    0.20289E-02         0.36478E-03         0.00000E+00
    0.00000E+00         0.00000E+00         0.00000E+00
    0.64308E-01        -0.10960E-02         0.00000E+00
    0.64258E-01        -0.82960E-03         0.00000E+00
    0.64152E-01        -0.56379E-03         0.00000E+00
    0.63988E-01        -0.29921E-03         0.00000E+00
    0.63767E-01        -0.36496E-04         0.00000E+00
    0.63489E-01         0.22373E-03         0.00000E+00
    0.63153E-01         0.48082E-03         0.00000E+00
    0.62761E-01         0.73416E-03         0.00000E+00
    0.62313E-01         0.98310E-03         0.00000E+00
    0.61808E-01         0.12270E-02         0.00000E+00
    0.61246E-01         0.14653E-02         0.00000E+00
    0.60629E-01         0.16973E-02         0.00000E+00
    0.59957E-01         0.19224E-02         0.00000E+00
    0.59229E-01         0.21400E-02         0.00000E+00
    0.58446E-01         0.23494E-02         0.00000E+00
    0.57609E-01         0.25501E-02         0.00000E+00
    0.56718E-01         0.27415E-02         0.00000E+00
    0.55774E-01         0.29229E-02         0.00000E+00
    0.54776E-01         0.30938E-02         0.00000E+00
    0.53727E-01         0.32536E-02         0.00000E+00
    0.52626E-01         0.34016E-02         0.00000E+00
    0.51474E-01         0.35375E-02         0.00000E+00
    0.50272E-01         0.36605E-02         0.00000E+00
    0.49020E-01         0.37701E-02         0.00000E+00
    0.47720E-01         0.38659E-02         0.00000E+00
    0.46371E-01         0.39472E-02         0.00000E+00
    0.44976E-01         0.40136E-02         0.00000E+00
    0.43534E-01         0.40645E-02         0.00000E+00
    0.42046E-01         0.40995E-02         0.00000E+00
    0.40514E-01         0.41180E-02         0.00000E+00
    0.38939E-01         0.41196E-02         0.00000E+00
    0.37321E-01         0.41039E-02         0.00000E+00
    0.35661E-01         0.40703E-02         0.00000E+00
    0.33961E-01         0.40185E-02         0.00000E+00
    0.32221E-01         0.39481E-02         0.00000E+00
    0.30444E-01         0.38585E-02         0.00000E+00
    0.28628E-01         0.37496E-02         0.00000E+00
    0.26777E-01         0.36207E-02         0.00000E+00
    0.24891E-01         0.34717E-02         0.00000E+00
    0.22971E-01         0.33022E-02         0.00000E+00
    0.21019E-01         0.31118E-02         0.00000E+00
    0.19036E-01         0.29003E-02         0.00000E+00
    0.17023E-01         0.26672E-02         0.00000E+00
    0.14981E-01         0.24124E-02         0.00000E+00
    0.12911E-01         0.21356E-02         0.00000E+00
    0.10816E-01         0.18366E-02         0.00000E+00
    0.86965E-02         0.15150E-02         0.00000E+00
    0.65536E-02         0.11708E-02         0.00000E+00
    0.43889E-02         0.80362E-03         0.00000E+00
    0.22039E-02         0.41342E-03         0.00000E+00
    0.00000E+00         0.00000E+00         0.00000E+00
    0.69966E-01        -0.11990E-02         0.00000E+00
    0.69915E-01        -0.89943E-03         0.00000E+00
    0.69801E-01        -0.60052E-03         0.00000E+00
    0.69626E-01        -0.30297E-03         0.00000E+00
    0.69388E-01        -0.74970E-05         0.00000E+00
    0.69088E-01         0.28519E-03         0.00000E+00
    0.68726E-01         0.57438E-03         0.00000E+00
    0.68302E-01         0.85934E-03         0.00000E+00
    0.67816E-01         0.11394E-02         0.00000E+00
    0.67269E-01         0.14137E-02         0.00000E+00
    0.66661E-01         0.16817E-02         0.00000E+00
    0.65992E-01         0.19427E-02         0.00000E+00
    0.65262E-01         0.21958E-02         0.00000E+00
    0.64472E-01         0.24405E-02         0.00000E+00
    0.63622E-01         0.26760E-02         0.00000E+00
    0.62713E-01         0.29016E-02         0.00000E+00
    0.61746E-01         0.31167E-02         0.00000E+00
    0.60720E-01         0.33206E-02         0.00000E+00
    0.59636E-01         0.35126E-02         0.00000E+00
    0.58496E-01         0.36920E-02         0.00000E+00
    0.57299E-01         0.38583E-02         0.00000E+00
    0.56046E-01         0.40107E-02         0.00000E+00
    0.54739E-01         0.41486E-02         0.00000E+00
    0.53378E-01         0.42715E-02         0.00000E+00
    0.51963E-01         0.43787E-02         0.00000E+00
    0.50496E-01         0.44696E-02         0.00000E+00
    0.48978E-01         0.45436E-02         0.00000E+00
    0.47409E-01         0.46002E-02         0.00000E+00
    0.45790E-01         0.46388E-02         0.00000E+00
    0.44123E-01         0.46589E-02         0.00000E+00
    0.42409E-01         0.46599E-02         0.00000E+00
    0.40648E-01         0.46413E-02         0.00000E+00
    0.38841E-01         0.46026E-02         0.00000E+00
    0.36991E-01         0.45434E-02         0.00000E+00
    0.35097E-01         0.44631E-02         0.00000E+00
    0.33161E-01         0.43613E-02         0.00000E+00
    0.31185E-01         0.42376E-02         0.00000E+00
    0.29169E-01         0.40916E-02         0.00000E+00
    0.27116E-01         0.39228E-02         0.00000E+00
    0.25025E-01         0.37308E-02         0.00000E+00
    0.22899E-01         0.35154E-02         0.00000E+00
    0.20739E-01         0.32761E-02         0.00000E+00
    0.18546E-01         0.30126E-02         0.00000E+00
    0.16322E-01         0.27246E-02         0.00000E+00
    0.14068E-01         0.24118E-02         0.00000E+00
    0.11785E-01         0.20739E-02         0.00000E+00
    0.94758E-02         0.17107E-02         0.00000E+00
    0.71411E-02         0.13219E-02         0.00000E+00
    0.47825E-02         0.90730E-03         0.00000E+00
    0.24016E-02         0.46673E-03         0.00000E+00
    0.00000E+00         0.00000E+00         0.00000E+00
    0.76315E-01        -0.12950E-02         0.00000E+00
    0.76263E-01        -0.95930E-03         0.00000E+00
    0.76143E-01        -0.62433E-03         0.00000E+00
    0.75955E-01        -0.29084E-03         0.00000E+00
    0.75699E-01         0.40350E-04         0.00000E+00
    0.75376E-01         0.36843E-03         0.00000E+00
    0.74984E-01         0.69259E-03         0.00000E+00
    0.74525E-01         0.10120E-02         0.00000E+00
    0.73998E-01         0.13259E-02         0.00000E+00
    0.73404E-01         0.16334E-02         0.00000E+00
    0.72744E-01         0.19338E-02         0.00000E+00
    0.72016E-01         0.22262E-02         0.00000E+00
    0.71223E-01         0.25099E-02         0.00000E+00
    0.70363E-01         0.27840E-02         0.00000E+00
    0.69439E-01         0.30478E-02         0.00000E+00
    0.68449E-01         0.33005E-02         0.00000E+00
    0.67395E-01         0.35413E-02         0.00000E+00
    0.66278E-01         0.37694E-02         0.00000E+00
    0.65097E-01         0.39842E-02         0.00000E+00
    0.63854E-01         0.41849E-02         0.00000E+00
    0.62550E-01         0.43707E-02         0.00000E+00
    0.61185E-01         0.45409E-02         0.00000E+00
    0.59759E-01         0.46948E-02         0.00000E+00
    0.58275E-01         0.48318E-02         0.00000E+00
    0.56732E-01         0.49511E-02         0.00000E+00
    0.55132E-01         0.50521E-02         0.00000E+00
    0.53476E-01         0.51341E-02         0.00000E+00
    0.51765E-01         0.51964E-02         0.00000E+00
    0.49999E-01         0.52386E-02         0.00000E+00
    0.48180E-01         0.52599E-02         0.00000E+00
    0.46309E-01         0.52597E-02         0.00000E+00
    0.44387E-01         0.52375E-02         0.00000E+00
    0.42416E-01         0.51928E-02         0.00000E+00
    0.40396E-01         0.51249E-02         0.00000E+00
    0.38329E-01         0.50334E-02         0.00000E+00
    0.36216E-01         0.49177E-02         0.00000E+00
    0.34059E-01         0.47774E-02         0.00000E+00
    0.31858E-01         0.46120E-02         0.00000E+00
    0.29616E-01         0.44211E-02         0.00000E+00
    0.27333E-01         0.42042E-02         0.00000E+00
    0.25012E-01         0.39608E-02         0.00000E+00
    0.22653E-01         0.36907E-02         0.00000E+00
    0.20258E-01         0.33935E-02         0.00000E+00
    0.17829E-01         0.30687E-02         0.00000E+00
    0.15367E-01         0.27161E-02         0.00000E+00
    0.12874E-01         0.23353E-02         0.00000E+00
    0.10352E-01         0.19261E-02         0.00000E+00
    0.78016E-02         0.14882E-02         0.00000E+00
    0.52250E-02         0.10214E-02         0.00000E+00
    0.26239E-02         0.52538E-03         0.00000E+00
    0.00000E+00         0.00000E+00         0.00000E+00
    0.83419E-01        -0.13784E-02         0.00000E+00
    0.83367E-01        -0.10032E-02         0.00000E+00
    0.83241E-01        -0.62884E-03         0.00000E+00
    0.83040E-01        -0.25606E-03         0.00000E+00
    0.82765E-01         0.11418E-03         0.00000E+00
    0.82415E-01         0.48095E-03         0.00000E+00
    0.81991E-01         0.84334E-03         0.00000E+00
    0.81493E-01         0.12004E-02         0.00000E+00
    0.80921E-01         0.15513E-02         0.00000E+00
    0.80275E-01         0.18950E-02         0.00000E+00
    0.79556E-01         0.22307E-02         0.00000E+00
    0.78764E-01         0.25575E-02         0.00000E+00
    0.77899E-01         0.28744E-02         0.00000E+00
    0.76963E-01         0.31805E-02         0.00000E+00
    0.75954E-01         0.34751E-02         0.00000E+00
    0.74874E-01         0.37571E-02         0.00000E+00
    0.73724E-01         0.40258E-02         0.00000E+00
    0.72504E-01         0.42803E-02         0.00000E+00
    0.71215E-01         0.45197E-02         0.00000E+00
    0.69858E-01         0.47432E-02         0.00000E+00
    0.68433E-01         0.49500E-02         0.00000E+00
    0.66941E-01         0.51393E-02         0.00000E+00
    0.65384E-01         0.53103E-02         0.00000E+00
    0.63761E-01         0.54622E-02         0.00000E+00
    0.62075E-01         0.55943E-02         0.00000E+00
    0.60326E-01         0.57057E-02         0.00000E+00
    0.58515E-01         0.57959E-02         0.00000E+00
    0.56644E-01         0.58640E-02         0.00000E+00
    0.54713E-01         0.59094E-02         0.00000E+00
    0.52724E-01         0.59314E-02         0.00000E+00
    0.50678E-01         0.59293E-02         0.00000E+00
    0.48576E-01         0.59026E-02         0.00000E+00
    0.46420E-01         0.58505E-02         0.00000E+00
    0.44210E-01         0.57725E-02         0.00000E+00
    0.41949E-01         0.56680E-02         0.00000E+00
    0.39638E-01         0.55364E-02         0.00000E+00
    0.37277E-01         0.53773E-02         0.00000E+00
    0.34870E-01         0.51900E-02         0.00000E+00
    0.32416E-01         0.49741E-02         0.00000E+00
    0.29919E-01         0.47292E-02         0.00000E+00
    0.27379E-01         0.44546E-02         0.00000E+00
    0.24797E-01         0.41501E-02         0.00000E+00
    0.22176E-01         0.38152E-02         0.00000E+00
    0.19518E-01         0.34495E-02         0.00000E+00
    0.16824E-01         0.30527E-02         0.00000E+00
    0.14095E-01         0.26244E-02         0.00000E+00
    0.11334E-01         0.21643E-02         0.00000E+00
    0.85417E-02         0.16720E-02         0.00000E+00
    0.57209E-02         0.11474E-02         0.00000E+00
    0.28730E-02         0.59012E-03         0.00000E+00
    0.00000E+00         0.00000E+00         0.00000E+00
    0.91350E-01        -0.14419E-02         0.00000E+00
    0.91299E-01        -0.10235E-02         0.00000E+00
    0.91167E-01        -0.60585E-03         0.00000E+00
    0.90952E-01        -0.18997E-03         0.00000E+00
    0.90656E-01         0.22309E-03         0.00000E+00
    0.90279E-01         0.63228E-03         0.00000E+00
    0.89819E-01         0.10366E-02         0.00000E+00
    0.89278E-01         0.14349E-02         0.00000E+00
    0.88656E-01         0.18263E-02         0.00000E+00
    0.87953E-01         0.22096E-02         0.00000E+00
    0.87169E-01         0.25840E-02         0.00000E+00
    0.86305E-01         0.29482E-02         0.00000E+00
    0.85361E-01         0.33014E-02         0.00000E+00
    0.84337E-01         0.36425E-02         0.00000E+00
    0.83235E-01         0.39705E-02         0.00000E+00
    0.82055E-01         0.42844E-02         0.00000E+00
    0.80797E-01         0.45833E-02         0.00000E+00
    0.79463E-01         0.48663E-02         0.00000E+00
    0.78052E-01         0.51323E-02         0.00000E+00
    0.76567E-01         0.53804E-02         0.00000E+00
    0.75007E-01         0.56097E-02         0.00000E+00
    0.73374E-01         0.58194E-02         0.00000E+00
    0.71668E-01         0.60084E-02         0.00000E+00
    0.69892E-01         0.61761E-02         0.00000E+00
    0.68045E-01         0.63214E-02         0.00000E+00
    0.66129E-01         0.64437E-02         0.00000E+00
    0.64146E-01         0.65420E-02         0.00000E+00
    0.62096E-01         0.66157E-02         0.00000E+00
    0.59980E-01         0.66638E-02         0.00000E+00
    0.57801E-01         0.66858E-02         0.00000E+00
    0.55559E-01         0.66808E-02         0.00000E+00
    0.53255E-01         0.66481E-02         0.00000E+00
    0.50892E-01         0.65871E-02         0.00000E+00
    0.48471E-01         0.64971E-02         0.00000E+00
    0.45993E-01         0.63774E-02         0.00000E+00
    0.43460E-01         0.62275E-02         0.00000E+00
    0.40873E-01         0.60468E-02         0.00000E+00
    0.38234E-01         0.58346E-02         0.00000E+00
    0.35545E-01         0.55904E-02         0.00000E+00
    0.32807E-01         0.53137E-02         0.00000E+00
    0.30022E-01         0.50041E-02         0.00000E+00
    0.27192E-01         0.46610E-02         0.00000E+00
    0.24319E-01         0.42839E-02         0.00000E+00
    0.21404E-01         0.38725E-02         0.00000E+00
    0.18450E-01         0.34263E-02         0.00000E+00
    0.15458E-01         0.29451E-02         0.00000E+00
    0.12430E-01         0.24283E-02         0.00000E+00
    0.93684E-02         0.18757E-02         0.00000E+00
    0.62748E-02         0.12869E-02         0.00000E+00
    0.31513E-02         0.66179E-03         0.00000E+00
    0.00000E+00         0.00000E+00         0.00000E+00
    0.10019E+00        -0.14762E-02         0.00000E+00
    0.10014E+00        -0.10102E-02         0.00000E+00
    0.10000E+00        -0.54495E-03         0.00000E+00
    0.99774E-01        -0.81678E-04         0.00000E+00
    0.99456E-01         0.37847E-03         0.00000E+00
    0.99048E-01         0.83430E-03         0.00000E+00
    0.98549E-01         0.12846E-02         0.00000E+00
    0.97961E-01         0.17283E-02         0.00000E+00
    0.97284E-01         0.21641E-02         0.00000E+00
    0.96517E-01         0.25909E-02         0.00000E+00
    0.95661E-01         0.30075E-02         0.00000E+00
    0.94716E-01         0.34128E-02         0.00000E+00
    0.93684E-01         0.38056E-02         0.00000E+00
    0.92564E-01         0.41847E-02         0.00000E+00
    0.91357E-01         0.45492E-02         0.00000E+00
    0.90065E-01         0.48978E-02         0.00000E+00
    0.88687E-01         0.52295E-02         0.00000E+00
    0.87224E-01         0.55431E-02         0.00000E+00
    0.85678E-01         0.58378E-02         0.00000E+00
    0.84049E-01         0.61123E-02         0.00000E+00
    0.82338E-01         0.63657E-02         0.00000E+00
    0.80547E-01         0.65969E-02         0.00000E+00
    0.78676E-01         0.68051E-02         0.00000E+00
    0.76727E-01         0.69892E-02         0.00000E+00
    0.74701E-01         0.71483E-02         0.00000E+00
    0.72599E-01         0.72814E-02         0.00000E+00
    0.70422E-01         0.73878E-02         0.00000E+00
    0.68172E-01         0.74665E-02         0.00000E+00
    0.65851E-01         0.75166E-02         0.00000E+00
    0.63459E-01         0.75374E-02         0.00000E+00
    0.60998E-01         0.75280E-02         0.00000E+00
    0.58470E-01         0.74877E-02         0.00000E+00
    0.55876E-01         0.74157E-02         0.00000E+00
    0.53218E-01         0.73113E-02         0.00000E+00
    0.50498E-01         0.71737E-02         0.00000E+00
    0.47718E-01         0.70025E-02         0.00000E+00
    0.44878E-01         0.67967E-02         0.00000E+00
    0.41981E-01         0.65560E-02         0.00000E+00
    0.39029E-01         0.62795E-02         0.00000E+00
    0.36023E-01         0.59669E-02         0.00000E+00
    0.32966E-01         0.56175E-02         0.00000E+00
    0.29860E-01         0.52308E-02         0.00000E+00
    0.26705E-01         0.48063E-02         0.00000E+00
    0.23505E-01         0.43436E-02         0.00000E+00
    0.20262E-01         0.38422E-02         0.00000E+00
    0.16976E-01         0.33017E-02         0.00000E+00
    0.13651E-01         0.27217E-02         0.00000E+00
    0.10289E-01         0.21019E-02         0.00000E+00
    0.68919E-02         0.14418E-02         0.00000E+00
    0.34614E-02         0.74131E-03         0.00000E+00
    0.00000E+00         0.00000E+00         0.00000E+00
    0.11003E+00        -0.14696E-02         0.00000E+00
    0.10998E+00        -0.95107E-03         0.00000E+00
    0.10984E+00        -0.43336E-03         0.00000E+00
    0.10960E+00         0.82214E-04         0.00000E+00
    0.10926E+00         0.59429E-03         0.00000E+00
    0.10881E+00         0.11015E-02         0.00000E+00
    0.10827E+00         0.16026E-02         0.00000E+00
    0.10763E+00         0.20961E-02         0.00000E+00
    0.10689E+00         0.25808E-02         0.00000E+00
    0.10606E+00         0.30553E-02         0.00000E+00
    0.10512E+00         0.35183E-02         0.00000E+00
    0.10409E+00         0.39685E-02         0.00000E+00
    0.10296E+00         0.44046E-02         0.00000E+00
    0.10173E+00         0.48253E-02         0.00000E+00
    0.10040E+00         0.52294E-02         0.00000E+00
    0.98986E-01         0.56157E-02         0.00000E+00
    0.97473E-01         0.59828E-02         0.00000E+00
    0.95867E-01         0.63297E-02         0.00000E+00
    0.94169E-01         0.66550E-02         0.00000E+00
    0.92380E-01         0.69578E-02         0.00000E+00
    0.90501E-01         0.72367E-02         0.00000E+00
    0.88533E-01         0.74908E-02         0.00000E+00
    0.86477E-01         0.77190E-02         0.00000E+00
    0.84335E-01         0.79200E-02         0.00000E+00
    0.82108E-01         0.80931E-02         0.00000E+00
    0.79798E-01         0.82370E-02         0.00000E+00
    0.77405E-01         0.83509E-02         0.00000E+00
    0.74933E-01         0.84337E-02         0.00000E+00
    0.72381E-01         0.84846E-02         0.00000E+00
    0.69752E-01         0.85027E-02         0.00000E+00
    0.67047E-01         0.84870E-02         0.00000E+00
    0.64268E-01         0.84368E-02         0.00000E+00
    0.61417E-01         0.83512E-02         0.00000E+00
    0.58496E-01         0.82294E-02         0.00000E+00
    0.55507E-01         0.80707E-02         0.00000E+00
    0.52450E-01         0.78744E-02         0.00000E+00
    0.49329E-01         0.76396E-02         0.00000E+00
    0.46146E-01         0.73659E-02         0.00000E+00
    0.42901E-01         0.70525E-02         0.00000E+00
    0.39598E-01         0.66988E-02         0.00000E+00
    0.36238E-01         0.63042E-02         0.00000E+00
    0.32823E-01         0.58681E-02         0.00000E+00
    0.29356E-01         0.53901E-02         0.00000E+00
    0.25839E-01         0.48696E-02         0.00000E+00
    0.22274E-01         0.43061E-02         0.00000E+00
    0.18663E-01         0.36993E-02         0.00000E+00
    0.15008E-01         0.30486E-02         0.00000E+00
    0.11312E-01         0.23536E-02         0.00000E+00
    0.75773E-02         0.16141E-02         0.00000E+00
    0.38058E-02         0.82968E-03         0.00000E+00
    0.00000E+00         0.00000E+00         0.00000E+00
    0.12097E+00        -0.14081E-02         0.00000E+00
    0.12093E+00        -0.83144E-03         0.00000E+00
    0.12079E+00        -0.25564E-03         0.00000E+00
    0.12053E+00         0.31780E-03         0.00000E+00
    0.12016E+00         0.88732E-03         0.00000E+00
    0.11968E+00         0.14514E-02         0.00000E+00
    0.11910E+00         0.20085E-02         0.00000E+00
    0.11840E+00         0.25570E-02         0.00000E+00
    0.11759E+00         0.30955E-02         0.00000E+00
    0.11667E+00         0.36225E-02         0.00000E+00
    0.11565E+00         0.41365E-02         0.00000E+00
    0.11451E+00         0.46359E-02         0.00000E+00
    0.11327E+00         0.51194E-02         0.00000E+00
    0.11192E+00         0.55855E-02         0.00000E+00
    0.11047E+00         0.60327E-02         0.00000E+00
    0.10891E+00         0.64598E-02         0.00000E+00
    0.10725E+00         0.68653E-02         0.00000E+00
    0.10548E+00         0.72478E-02         0.00000E+00
    0.10361E+00         0.76062E-02         0.00000E+00
    0.10164E+00         0.79390E-02         0.00000E+00
    0.99575E-01         0.82450E-02         0.00000E+00
    0.97409E-01         0.85230E-02         0.00000E+00
    0.95146E-01         0.87717E-02         0.00000E+00
    0.92789E-01         0.89901E-02         0.00000E+00
    0.90338E-01         0.91770E-02         0.00000E+00
    0.87794E-01         0.93312E-02         0.00000E+00
    0.85161E-01         0.94517E-02         0.00000E+00
    0.82439E-01         0.95375E-02         0.00000E+00
    0.79631E-01         0.95874E-02         0.00000E+00
    0.76737E-01         0.96007E-02         0.00000E+00
    0.73760E-01         0.95763E-02         0.00000E+00
    0.70703E-01         0.95132E-02         0.00000E+00
    0.67565E-01         0.94107E-02         0.00000E+00
    0.64351E-01         0.92679E-02         0.00000E+00
    0.61062E-01         0.90839E-02         0.00000E+00
    0.57699E-01         0.88580E-02         0.00000E+00
    0.54265E-01         0.85894E-02         0.00000E+00
    0.50763E-01         0.82774E-02         0.00000E+00
    0.47193E-01         0.79213E-02         0.00000E+00
    0.43559E-01         0.75205E-02         0.00000E+00
    0.39863E-01         0.70743E-02         0.00000E+00
    0.36108E-01         0.65822E-02         0.00000E+00
    0.32294E-01         0.60435E-02         0.00000E+00
    0.28425E-01         0.54577E-02         0.00000E+00
    0.24504E-01         0.48244E-02         0.00000E+00
    0.20531E-01         0.41430E-02         0.00000E+00
    0.16511E-01         0.34130E-02         0.00000E+00
    0.12445E-01         0.26341E-02         0.00000E+00
    0.83367E-02         0.18059E-02         0.00000E+00
    0.41873E-02         0.92798E-03         0.00000E+00
    0.00000E+00         0.00000E+00         0.00000E+00
    0.13314E+00        -0.12753E-02         0.00000E+00
    0.13311E+00        -0.63413E-03         0.00000E+00
    0.13296E+00         0.62020E-05         0.00000E+00
    0.13269E+00         0.64387E-03         0.00000E+00
    0.13229E+00         0.12771E-02         0.00000E+00
    0.13178E+00         0.19042E-02         0.00000E+00
    0.13114E+00         0.25233E-02         0.00000E+00
    0.13037E+00         0.31327E-02         0.00000E+00
    0.12949E+00         0.37306E-02         0.00000E+00
    0.12848E+00         0.43154E-02         0.00000E+00
    0.12736E+00         0.48854E-02         0.00000E+00
    0.12611E+00         0.54389E-02         0.00000E+00
    0.12474E+00         0.59743E-02         0.00000E+00
    0.12326E+00         0.64899E-02         0.00000E+00
    0.12166E+00         0.69841E-02         0.00000E+00
    0.11994E+00         0.74554E-02         0.00000E+00
    0.11811E+00         0.79022E-02         0.00000E+00
    0.11616E+00         0.83231E-02         0.00000E+00
    0.11410E+00         0.87166E-02         0.00000E+00
    0.11193E+00         0.90812E-02         0.00000E+00
    0.10965E+00         0.94156E-02         0.00000E+00
    0.10726E+00         0.97184E-02         0.00000E+00
    0.10477E+00         0.99883E-02         0.00000E+00
    0.10217E+00         0.10224E-01         0.00000E+00
    0.99467E-01         0.10424E-01         0.00000E+00
    0.96663E-01         0.10588E-01         0.00000E+00
    0.93761E-01         0.10713E-01         0.00000E+00
    0.90761E-01         0.10800E-01         0.00000E+00
    0.87665E-01         0.10847E-01         0.00000E+00
    0.84477E-01         0.10853E-01         0.00000E+00
    0.81197E-01         0.10816E-01         0.00000E+00
    0.77828E-01         0.10737E-01         0.00000E+00
    0.74372E-01         0.10613E-01         0.00000E+00
    0.70832E-01         0.10445E-01         0.00000E+00
    0.67209E-01         0.10230E-01         0.00000E+00
    0.63506E-01         0.99696E-02         0.00000E+00
    0.59725E-01         0.96613E-02         0.00000E+00
    0.55869E-01         0.93048E-02         0.00000E+00
    0.51940E-01         0.88995E-02         0.00000E+00
    0.47940E-01         0.84445E-02         0.00000E+00
    0.43872E-01         0.79393E-02         0.00000E+00
    0.39738E-01         0.73832E-02         0.00000E+00
    0.35541E-01         0.67756E-02         0.00000E+00
    0.31283E-01         0.61160E-02         0.00000E+00
    0.26967E-01         0.54038E-02         0.00000E+00
    0.22596E-01         0.46385E-02         0.00000E+00
    0.18172E-01         0.38196E-02         0.00000E+00
    0.13697E-01         0.29468E-02         0.00000E+00
    0.91754E-02         0.20195E-02         0.00000E+00
    0.46088E-02         0.10373E-02         0.00000E+00
    0.00000E+00         0.00000E+00         0.00000E+00
    0.14667E+00        -0.10530E-02         0.00000E+00
    0.14665E+00        -0.33980E-03         0.00000E+00
    0.14650E+00         0.37245E-03         0.00000E+00
    0.14621E+00         0.10817E-02         0.00000E+00
    0.14579E+00         0.17858E-02         0.00000E+00
    0.14523E+00         0.24829E-02         0.00000E+00
    0.14453E+00         0.31708E-02         0.00000E+00
    0.14369E+00         0.38477E-02         0.00000E+00
    0.14272E+00         0.45114E-02         0.00000E+00
    0.14162E+00         0.51601E-02         0.00000E+00
    0.14038E+00         0.57918E-02         0.00000E+00
    0.13900E+00         0.64047E-02         0.00000E+00
    0.13750E+00         0.69968E-02         0.00000E+00
    0.13586E+00         0.75664E-02         0.00000E+00
    0.13409E+00         0.81117E-02         0.00000E+00
    0.13219E+00         0.86308E-02         0.00000E+00
    0.13017E+00         0.91222E-02         0.00000E+00
    0.12802E+00         0.95841E-02         0.00000E+00
    0.12574E+00         0.10015E-01         0.00000E+00
    0.12334E+00         0.10413E-01         0.00000E+00
    0.12083E+00         0.10777E-01         0.00000E+00
    0.11819E+00         0.11105E-01         0.00000E+00
    0.11543E+00         0.11396E-01         0.00000E+00
    0.11256E+00         0.11649E-01         0.00000E+00
    0.10958E+00         0.11862E-01         0.00000E+00
    0.10648E+00         0.12033E-01         0.00000E+00
    0.10328E+00         0.12162E-01         0.00000E+00
    0.99969E-01         0.12247E-01         0.00000E+00
    0.96554E-01         0.12288E-01         0.00000E+00
    0.93036E-01         0.12282E-01         0.00000E+00
    0.89418E-01         0.12230E-01         0.00000E+00
    0.85703E-01         0.12129E-01         0.00000E+00
    0.81893E-01         0.11980E-01         0.00000E+00
    0.77990E-01         0.11780E-01         0.00000E+00
    0.73997E-01         0.11529E-01         0.00000E+00
    0.69916E-01         0.11227E-01         0.00000E+00
    0.65751E-01         0.10872E-01         0.00000E+00
    0.61503E-01         0.10464E-01         0.00000E+00
    0.57175E-01         0.10001E-01         0.00000E+00
    0.52770E-01         0.94838E-02         0.00000E+00
    0.48290E-01         0.89109E-02         0.00000E+00
    0.43739E-01         0.82818E-02         0.00000E+00
    0.39118E-01         0.75959E-02         0.00000E+00
    0.34431E-01         0.68526E-02         0.00000E+00
    0.29681E-01         0.60514E-02         0.00000E+00
    0.24870E-01         0.51917E-02         0.00000E+00
    0.20000E-01         0.42731E-02         0.00000E+00
    0.15076E-01         0.32950E-02         0.00000E+00
    0.10099E-01         0.22571E-02         0.00000E+00
    0.50728E-02         0.11589E-02         0.00000E+00
    0.00000E+00         0.00000E+00         0.00000E+00
    0.16172E+00        -0.72162E-03         0.00000E+00
    0.16172E+00         0.72203E-04         0.00000E+00
    0.16157E+00         0.86492E-03         0.00000E+00
    0.16126E+00         0.16541E-02         0.00000E+00
    0.16080E+00         0.24375E-02         0.00000E+00
    0.16019E+00         0.32126E-02         0.00000E+00
    0.15943E+00         0.39772E-02         0.00000E+00
    0.15851E+00         0.47289E-02         0.00000E+00
    0.15744E+00         0.54656E-02         0.00000E+00
    0.15622E+00         0.61849E-02         0.00000E+00
    0.15485E+00         0.68847E-02         0.00000E+00
    0.15333E+00         0.75629E-02         0.00000E+00
    0.15166E+00         0.82172E-02         0.00000E+00
    0.14985E+00         0.88458E-02         0.00000E+00
    0.14789E+00         0.94465E-02         0.00000E+00
    0.14579E+00         0.10017E-01         0.00000E+00
    0.14355E+00         0.10557E-01         0.00000E+00
    0.14117E+00         0.11062E-01         0.00000E+00
    0.13865E+00         0.11533E-01         0.00000E+00
    0.13600E+00         0.11966E-01         0.00000E+00
    0.13321E+00         0.12360E-01         0.00000E+00
    0.13029E+00         0.12714E-01         0.00000E+00
    0.12724E+00         0.13026E-01         0.00000E+00
    0.12406E+00         0.13295E-01         0.00000E+00
    0.12076E+00         0.13518E-01         0.00000E+00
    0.11734E+00         0.13695E-01         0.00000E+00
    0.11380E+00         0.13825E-01         0.00000E+00
    0.11014E+00         0.13905E-01         0.00000E+00
    0.10637E+00         0.13936E-01         0.00000E+00
    0.10248E+00         0.13915E-01         0.00000E+00
    0.98488E-01         0.13841E-01         0.00000E+00
    0.94388E-01         0.13714E-01         0.00000E+00
    0.90183E-01         0.13532E-01         0.00000E+00
    0.85878E-01         0.13294E-01         0.00000E+00
    0.81474E-01         0.13000E-01         0.00000E+00
    0.76975E-01         0.12649E-01         0.00000E+00
    0.72383E-01         0.12239E-01         0.00000E+00
    0.67701E-01         0.11770E-01         0.00000E+00
    0.62933E-01         0.11241E-01         0.00000E+00
    0.58080E-01         0.10652E-01         0.00000E+00
    0.53147E-01         0.10001E-01         0.00000E+00
    0.48135E-01         0.92888E-02         0.00000E+00
    0.43048E-01         0.85139E-02         0.00000E+00
    0.37889E-01         0.76759E-02         0.00000E+00
    0.32661E-01         0.67742E-02         0.00000E+00
    0.27366E-01         0.58084E-02         0.00000E+00
    0.22007E-01         0.47779E-02         0.00000E+00
    0.16589E-01         0.36823E-02         0.00000E+00
    0.11112E-01         0.25210E-02         0.00000E+00
    0.55818E-02         0.12937E-02         0.00000E+00
    0.00000E+00         0.00000E+00         0.00000E+00
    0.17848E+00        -0.26208E-03         0.00000E+00
    0.17850E+00         0.62238E-03         0.00000E+00
    0.17835E+00         0.15055E-02         0.00000E+00
    0.17802E+00         0.23845E-02         0.00000E+00
    0.17752E+00         0.32565E-02         0.00000E+00
    0.17685E+00         0.41190E-02         0.00000E+00
    0.17601E+00         0.49692E-02         0.00000E+00
    0.17499E+00         0.58044E-02         0.00000E+00
    0.17381E+00         0.66221E-02         0.00000E+00
    0.17246E+00         0.74197E-02         0.00000E+00
    0.17094E+00         0.81947E-02         0.00000E+00
    0.16925E+00         0.89447E-02         0.00000E+00
    0.16740E+00         0.96673E-02         0.00000E+00
    0.16539E+00         0.10360E-01         0.00000E+00
    0.16321E+00         0.11021E-01         0.00000E+00
    0.16088E+00         0.11648E-01         0.00000E+00
    0.15839E+00         0.12238E-01         0.00000E+00
    0.15575E+00         0.12790E-01         0.00000E+00
    0.15295E+00         0.13302E-01         0.00000E+00
    0.15000E+00         0.13772E-01         0.00000E+00
    0.14691E+00         0.14197E-01         0.00000E+00
    0.14367E+00         0.14577E-01         0.00000E+00
    0.14029E+00         0.14909E-01         0.00000E+00
    0.13677E+00         0.15192E-01         0.00000E+00
    0.13312E+00         0.15425E-01         0.00000E+00
    0.12933E+00         0.15605E-01         0.00000E+00
    0.12541E+00         0.15731E-01         0.00000E+00
    0.12136E+00         0.15803E-01         0.00000E+00
    0.11718E+00         0.15818E-01         0.00000E+00
    0.11289E+00         0.15775E-01         0.00000E+00
    0.10847E+00         0.15674E-01         0.00000E+00
    0.10394E+00         0.15514E-01         0.00000E+00
    0.99299E-01         0.15292E-01         0.00000E+00
    0.94546E-01         0.15009E-01         0.00000E+00
    0.89687E-01         0.14663E-01         0.00000E+00
    0.84724E-01         0.14253E-01         0.00000E+00
    0.79661E-01         0.13779E-01         0.00000E+00
    0.74500E-01         0.13239E-01         0.00000E+00
    0.69246E-01         0.12634E-01         0.00000E+00
    0.63900E-01         0.11962E-01         0.00000E+00
    0.58467E-01         0.11222E-01         0.00000E+00
    0.52949E-01         0.10415E-01         0.00000E+00
    0.47350E-01         0.95389E-02         0.00000E+00
    0.41673E-01         0.85938E-02         0.00000E+00
    0.35920E-01         0.75790E-02         0.00000E+00
    0.30095E-01         0.64940E-02         0.00000E+00
    0.24201E-01         0.53384E-02         0.00000E+00
    0.18242E-01         0.41116E-02         0.00000E+00
    0.12220E-01         0.28132E-02         0.00000E+00
    0.61380E-02         0.14428E-02         0.00000E+00
    0.00000E+00         0.00000E+00         0.00000E+00
    0.19718E+00         0.34177E-03         0.00000E+00
    0.19721E+00         0.13286E-02         0.00000E+00
    0.19706E+00         0.23137E-02         0.00000E+00
    0.19670E+00         0.32937E-02         0.00000E+00
    0.19615E+00         0.42656E-02         0.00000E+00
    0.19541E+00         0.52260E-02         0.00000E+00
    0.19448E+00         0.61720E-02         0.00000E+00
    0.19335E+00         0.71005E-02         0.00000E+00
    0.19203E+00         0.80084E-02         0.00000E+00
    0.19052E+00         0.88930E-02         0.00000E+00
    0.18883E+00         0.97512E-02         0.00000E+00
    0.18695E+00         0.10580E-01         0.00000E+00
    0.18488E+00         0.11378E-01         0.00000E+00
    0.18264E+00         0.12141E-01         0.00000E+00
    0.18022E+00         0.12867E-01         0.00000E+00
    0.17761E+00         0.13554E-01         0.00000E+00
    0.17484E+00         0.14200E-01         0.00000E+00
    0.17189E+00         0.14801E-01         0.00000E+00
    0.16878E+00         0.15356E-01         0.00000E+00
    0.16550E+00         0.15864E-01         0.00000E+00
    0.16206E+00         0.16321E-01         0.00000E+00
    0.15846E+00         0.16726E-01         0.00000E+00
    0.15470E+00         0.17077E-01         0.00000E+00
    0.15080E+00         0.17372E-01         0.00000E+00
    0.14674E+00         0.17610E-01         0.00000E+00
    0.14253E+00         0.17789E-01         0.00000E+00
    0.13818E+00         0.17908E-01         0.00000E+00
    0.13370E+00         0.17965E-01         0.00000E+00
    0.12908E+00         0.17959E-01         0.00000E+00
    0.12432E+00         0.17889E-01         0.00000E+00
    0.11944E+00         0.17754E-01         0.00000E+00
    0.11443E+00         0.17551E-01         0.00000E+00
    0.10930E+00         0.17281E-01         0.00000E+00
    0.10405E+00         0.16943E-01         0.00000E+00
    0.98682E-01         0.16535E-01         0.00000E+00
    0.93206E-01         0.16057E-01         0.00000E+00
    0.87621E-01         0.15507E-01         0.00000E+00
    0.81933E-01         0.14886E-01         0.00000E+00
    0.76143E-01         0.14192E-01         0.00000E+00
    0.70255E-01         0.13425E-01         0.00000E+00
    0.64273E-01         0.12584E-01         0.00000E+00
    0.58201E-01         0.11669E-01         0.00000E+00
    0.52040E-01         0.10679E-01         0.00000E+00
    0.45796E-01         0.96128E-02         0.00000E+00
    0.39470E-01         0.84710E-02         0.00000E+00
    0.33067E-01         0.72528E-02         0.00000E+00
    0.26589E-01         0.59577E-02         0.00000E+00
    0.20041E-01         0.45853E-02         0.00000E+00
    0.13424E-01         0.31352E-02         0.00000E+00
    0.67427E-02         0.16069E-02         0.00000E+00
    0.00000E+00         0.00000E+00         0.00000E+00
    0.21805E+00         0.10991E-02         0.00000E+00
    0.21811E+00         0.22021E-02         0.00000E+00
    0.21794E+00         0.33026E-02         0.00000E+00
    0.21755E+00         0.43970E-02         0.00000E+00
    0.21694E+00         0.54815E-02         0.00000E+00
    0.21611E+00         0.65523E-02         0.00000E+00
    0.21507E+00         0.76059E-02         0.00000E+00
    0.21380E+00         0.86389E-02         0.00000E+00
    0.21232E+00         0.96476E-02         0.00000E+00
    0.21063E+00         0.10629E-01         0.00000E+00
    0.20873E+00         0.11579E-01         0.00000E+00
    0.20662E+00         0.12496E-01         0.00000E+00
    0.20431E+00         0.13376E-01         0.00000E+00
    0.20179E+00         0.14216E-01         0.00000E+00
    0.19908E+00         0.15013E-01         0.00000E+00
    0.19617E+00         0.15765E-01         0.00000E+00
    0.19306E+00         0.16469E-01         0.00000E+00
    0.18977E+00         0.17123E-01         0.00000E+00
    0.18629E+00         0.17724E-01         0.00000E+00
    0.18263E+00         0.18269E-01         0.00000E+00
    0.17879E+00         0.18758E-01         0.00000E+00
    0.17478E+00         0.19187E-01         0.00000E+00
    0.17060E+00         0.19555E-01         0.00000E+00
    0.16624E+00         0.19860E-01         0.00000E+00
    0.16173E+00         0.20100E-01         0.00000E+00
    0.15706E+00         0.20274E-01         0.00000E+00
    0.15223E+00         0.20380E-01         0.00000E+00
    0.14725E+00         0.20417E-01         0.00000E+00
    0.14212E+00         0.20383E-01         0.00000E+00
    0.13685E+00         0.20277E-01         0.00000E+00
    0.13144E+00         0.20098E-01         0.00000E+00
    0.12590E+00         0.19845E-01         0.00000E+00
    0.12023E+00         0.19517E-01         0.00000E+00
    0.11442E+00         0.19113E-01         0.00000E+00
    0.10850E+00         0.18632E-01         0.00000E+00
    0.10246E+00         0.18074E-01         0.00000E+00
    0.96297E-01         0.17437E-01         0.00000E+00
    0.90026E-01         0.16721E-01         0.00000E+00
    0.83648E-01         0.15926E-01         0.00000E+00
    0.77165E-01         0.15051E-01         0.00000E+00
    0.70582E-01         0.14094E-01         0.00000E+00
    0.63902E-01         0.13057E-01         0.00000E+00
    0.57129E-01         0.11938E-01         0.00000E+00
    0.50267E-01         0.10737E-01         0.00000E+00
    0.43318E-01         0.94536E-02         0.00000E+00
    0.36286E-01         0.80873E-02         0.00000E+00
    0.29174E-01         0.66377E-02         0.00000E+00
    0.21987E-01         0.51046E-02         0.00000E+00
    0.14727E-01         0.34875E-02         0.00000E+00
    0.73965E-02         0.17861E-02         0.00000E+00
    0.00000E+00         0.00000E+00         0.00000E+00
    0.24141E+00         0.20065E-02         0.00000E+00
    0.24148E+00         0.32417E-02         0.00000E+00
    0.24129E+00         0.44736E-02         0.00000E+00
    0.24085E+00         0.56978E-02         0.00000E+00
    0.24017E+00         0.69097E-02         0.00000E+00
    0.23923E+00         0.81053E-02         0.00000E+00
    0.23804E+00         0.92802E-02         0.00000E+00
    0.23661E+00         0.10430E-01         0.00000E+00
    0.23494E+00         0.11552E-01         0.00000E+00
    0.23303E+00         0.12641E-01         0.00000E+00
    0.23088E+00         0.13694E-01         0.00000E+00
    0.22850E+00         0.14708E-01         0.00000E+00
    0.22589E+00         0.15678E-01         0.00000E+00
    0.22306E+00         0.16602E-01         0.00000E+00
    0.22000E+00         0.17477E-01         0.00000E+00
    0.21673E+00         0.18299E-01         0.00000E+00
    0.21324E+00         0.19066E-01         0.00000E+00
    0.20955E+00         0.19775E-01         0.00000E+00
    0.20565E+00         0.20423E-01         0.00000E+00
    0.20155E+00         0.21008E-01         0.00000E+00
    0.19725E+00         0.21528E-01         0.00000E+00
    0.19276E+00         0.21980E-01         0.00000E+00
    0.18809E+00         0.22363E-01         0.00000E+00
    0.18323E+00         0.22674E-01         0.00000E+00
    0.17820E+00         0.22912E-01         0.00000E+00
    0.17300E+00         0.23075E-01         0.00000E+00
    0.16762E+00         0.23162E-01         0.00000E+00
    0.16209E+00         0.23172E-01         0.00000E+00
    0.15640E+00         0.23102E-01         0.00000E+00
    0.15055E+00         0.22951E-01         0.00000E+00
    0.14455E+00         0.22720E-01         0.00000E+00
    0.13841E+00         0.22406E-01         0.00000E+00
    0.13213E+00         0.22009E-01         0.00000E+00
    0.12572E+00         0.21528E-01         0.00000E+00
    0.11918E+00         0.20962E-01         0.00000E+00
    0.11251E+00         0.20311E-01         0.00000E+00
    0.10571E+00         0.19574E-01         0.00000E+00
    0.98801E-01         0.18750E-01         0.00000E+00
    0.91777E-01         0.17839E-01         0.00000E+00
    0.84643E-01         0.16841E-01         0.00000E+00
    0.77403E-01         0.15755E-01         0.00000E+00
    0.70062E-01         0.14581E-01         0.00000E+00
    0.62622E-01         0.13318E-01         0.00000E+00
    0.55089E-01         0.11967E-01         0.00000E+00
    0.47464E-01         0.10526E-01         0.00000E+00
    0.39752E-01         0.89968E-02         0.00000E+00
    0.31956E-01         0.73776E-02         0.00000E+00
    0.24080E-01         0.56686E-02         0.00000E+00
    0.16126E-01         0.38695E-02         0.00000E+00
    0.80987E-02         0.19801E-02         0.00000E+00
    0.00000E+00         0.00000E+00         0.00000E+00
    0.26761E+00         0.30387E-02         0.00000E+00
    0.26768E+00         0.44254E-02         0.00000E+00
    0.26746E+00         0.58073E-02         0.00000E+00
    0.26695E+00         0.71792E-02         0.00000E+00
    0.26615E+00         0.85361E-02         0.00000E+00
    0.26508E+00         0.98729E-02         0.00000E+00
    0.26372E+00         0.11185E-01         0.00000E+00
    0.26208E+00         0.12467E-01         0.00000E+00
    0.26017E+00         0.13716E-01         0.00000E+00
    0.25799E+00         0.14926E-01         0.00000E+00
    0.25555E+00         0.16093E-01         0.00000E+00
    0.25284E+00         0.17214E-01         0.00000E+00
    0.24988E+00         0.18284E-01         0.00000E+00
    0.24667E+00         0.19301E-01         0.00000E+00
    0.24321E+00         0.20260E-01         0.00000E+00
    0.23951E+00         0.21158E-01         0.00000E+00
    0.23558E+00         0.21992E-01         0.00000E+00
    0.23141E+00         0.22759E-01         0.00000E+00
    0.22702E+00         0.23457E-01         0.00000E+00
    0.22241E+00         0.24082E-01         0.00000E+00
    0.21759E+00         0.24633E-01         0.00000E+00
    0.21255E+00         0.25107E-01         0.00000E+00
    0.20732E+00         0.25502E-01         0.00000E+00
    0.20188E+00         0.25816E-01         0.00000E+00
    0.19626E+00         0.26048E-01         0.00000E+00
    0.19045E+00         0.26195E-01         0.00000E+00
    0.18446E+00         0.26256E-01         0.00000E+00
    0.17830E+00         0.26230E-01         0.00000E+00
    0.17197E+00         0.26116E-01         0.00000E+00
    0.16547E+00         0.25912E-01         0.00000E+00
    0.15882E+00         0.25617E-01         0.00000E+00
    0.15201E+00         0.25232E-01         0.00000E+00
    0.14506E+00         0.24754E-01         0.00000E+00
    0.13797E+00         0.24184E-01         0.00000E+00
    0.13074E+00         0.23520E-01         0.00000E+00
    0.12337E+00         0.22763E-01         0.00000E+00
    0.11588E+00         0.21912E-01         0.00000E+00
    0.10827E+00         0.20966E-01         0.00000E+00
    0.10054E+00         0.19925E-01         0.00000E+00
    0.92691E-01         0.18790E-01         0.00000E+00
    0.84737E-01         0.17559E-01         0.00000E+00
    0.76677E-01         0.16234E-01         0.00000E+00
    0.68515E-01         0.14813E-01         0.00000E+00
    0.60256E-01         0.13296E-01         0.00000E+00
    0.51903E-01         0.11684E-01         0.00000E+00
    0.43459E-01         0.99762E-02         0.00000E+00
    0.34929E-01         0.81728E-02         0.00000E+00
    0.26315E-01         0.62736E-02         0.00000E+00
    0.17620E-01         0.42786E-02         0.00000E+00
    0.88472E-02         0.21874E-02         0.00000E+00
    0.00000E+00         0.00000E+00         0.00000E+00
    0.29707E+00         0.41377E-02         0.00000E+00
    0.29712E+00         0.56982E-02         0.00000E+00
    0.29684E+00         0.72519E-02         0.00000E+00
    0.29623E+00         0.87927E-02         0.00000E+00
    0.29529E+00         0.10315E-01         0.00000E+00
    0.29402E+00         0.11812E-01         0.00000E+00
    0.29244E+00         0.13279E-01         0.00000E+00
    0.29055E+00         0.14711E-01         0.00000E+00
    0.28835E+00         0.16102E-01         0.00000E+00
    0.28584E+00         0.17447E-01         0.00000E+00
    0.28303E+00         0.18743E-01         0.00000E+00
    0.27994E+00         0.19983E-01         0.00000E+00
    0.27655E+00         0.21164E-01         0.00000E+00
    0.27289E+00         0.22282E-01         0.00000E+00
    0.26895E+00         0.23334E-01         0.00000E+00
    0.26475E+00         0.24314E-01         0.00000E+00
    0.26028E+00         0.25221E-01         0.00000E+00
    0.25556E+00         0.26051E-01         0.00000E+00
    0.25060E+00         0.26801E-01         0.00000E+00
    0.24539E+00         0.27469E-01         0.00000E+00
    0.23995E+00         0.28051E-01         0.00000E+00
    0.23429E+00         0.28545E-01         0.00000E+00
    0.22841E+00         0.28950E-01         0.00000E+00
    0.22231E+00         0.29263E-01         0.00000E+00
    0.21601E+00         0.29483E-01         0.00000E+00
    0.20951E+00         0.29609E-01         0.00000E+00
    0.20283E+00         0.29637E-01         0.00000E+00
    0.19595E+00         0.29569E-01         0.00000E+00
    0.18890E+00         0.29401E-01         0.00000E+00
    0.18167E+00         0.29135E-01         0.00000E+00
    0.17428E+00         0.28768E-01         0.00000E+00
    0.16673E+00         0.28299E-01         0.00000E+00
    0.15903E+00         0.27730E-01         0.00000E+00
    0.15118E+00         0.27058E-01         0.00000E+00
    0.14319E+00         0.26285E-01         0.00000E+00
    0.13507E+00         0.25409E-01         0.00000E+00
    0.12681E+00         0.24430E-01         0.00000E+00
    0.11842E+00         0.23349E-01         0.00000E+00
    0.10992E+00         0.22165E-01         0.00000E+00
    0.10130E+00         0.20878E-01         0.00000E+00
    0.92570E-01         0.19489E-01         0.00000E+00
    0.83733E-01         0.17998E-01         0.00000E+00
    0.74792E-01         0.16405E-01         0.00000E+00
    0.65753E-01         0.14709E-01         0.00000E+00
    0.56619E-01         0.12912E-01         0.00000E+00
    0.47393E-01         0.11013E-01         0.00000E+00
    0.38079E-01         0.90132E-02         0.00000E+00
    0.28680E-01         0.69117E-02         0.00000E+00
    0.19199E-01         0.47090E-02         0.00000E+00
    0.96378E-02         0.24051E-02         0.00000E+00
    0.00000E+00         0.00000E+00         0.00000E+00
    0.33028E+00         0.51951E-02         0.00000E+00
    0.33028E+00         0.69559E-02         0.00000E+00
    0.32990E+00         0.87071E-02         0.00000E+00
    0.32914E+00         0.10441E-01         0.00000E+00
    0.32800E+00         0.12152E-01         0.00000E+00
    0.32650E+00         0.13832E-01         0.00000E+00
    0.32463E+00         0.15476E-01         0.00000E+00
    0.32241E+00         0.17077E-01         0.00000E+00
    0.31984E+00         0.18629E-01         0.00000E+00
    0.31692E+00         0.20126E-01         0.00000E+00
    0.31367E+00         0.21565E-01         0.00000E+00
    0.31010E+00         0.22938E-01         0.00000E+00
    0.30620E+00         0.24243E-01         0.00000E+00
    0.30199E+00         0.25474E-01         0.00000E+00
    0.29748E+00         0.26627E-01         0.00000E+00
    0.29267E+00         0.27699E-01         0.00000E+00
    0.28758E+00         0.28685E-01         0.00000E+00
    0.28221E+00         0.29583E-01         0.00000E+00
    0.27657E+00         0.30388E-01         0.00000E+00
    0.27067E+00         0.31100E-01         0.00000E+00
    0.26452E+00         0.31714E-01         0.00000E+00
    0.25813E+00         0.32229E-01         0.00000E+00
    0.25150E+00         0.32643E-01         0.00000E+00
    0.24464E+00         0.32953E-01         0.00000E+00
    0.23756E+00         0.33158E-01         0.00000E+00
    0.23028E+00         0.33256E-01         0.00000E+00
    0.22279E+00         0.33247E-01         0.00000E+00
    0.21511E+00         0.33129E-01         0.00000E+00
    0.20724E+00         0.32901E-01         0.00000E+00
    0.19920E+00         0.32564E-01         0.00000E+00
    0.19098E+00         0.32115E-01         0.00000E+00
    0.18260E+00         0.31555E-01         0.00000E+00
    0.17406E+00         0.30883E-01         0.00000E+00
    0.16538E+00         0.30100E-01         0.00000E+00
    0.15654E+00         0.29205E-01         0.00000E+00
    0.14758E+00         0.28199E-01         0.00000E+00
    0.13848E+00         0.27082E-01         0.00000E+00
    0.12925E+00         0.25854E-01         0.00000E+00
    0.11991E+00         0.24515E-01         0.00000E+00
    0.11045E+00         0.23066E-01         0.00000E+00
    0.10088E+00         0.21507E-01         0.00000E+00
    0.91201E-01         0.19839E-01         0.00000E+00
    0.81425E-01         0.18063E-01         0.00000E+00
    0.71552E-01         0.16178E-01         0.00000E+00
    0.61585E-01         0.14186E-01         0.00000E+00
    0.51529E-01         0.12087E-01         0.00000E+00
    0.41386E-01         0.98809E-02         0.00000E+00
    0.31159E-01         0.75690E-02         0.00000E+00
    0.20851E-01         0.51514E-02         0.00000E+00
    0.10464E-01         0.26283E-02         0.00000E+00
    0.00000E+00         0.00000E+00         0.00000E+00
    0.36783E+00         0.60312E-02         0.00000E+00
    0.36773E+00         0.80233E-02         0.00000E+00
    0.36719E+00         0.10002E-01         0.00000E+00
    0.36622E+00         0.11958E-01         0.00000E+00
    0.36481E+00         0.13885E-01         0.00000E+00
    0.36299E+00         0.15773E-01         0.00000E+00
    0.36075E+00         0.17618E-01         0.00000E+00
    0.35810E+00         0.19410E-01         0.00000E+00
    0.35507E+00         0.21144E-01         0.00000E+00
    0.35164E+00         0.22814E-01         0.00000E+00
    0.34784E+00         0.24413E-01         0.00000E+00
    0.34368E+00         0.25937E-01         0.00000E+00
    0.33916E+00         0.27379E-01         0.00000E+00
    0.33430E+00         0.28736E-01         0.00000E+00
    0.32910E+00         0.30002E-01         0.00000E+00
    0.32357E+00         0.31174E-01         0.00000E+00
    0.31773E+00         0.32248E-01         0.00000E+00
    0.31159E+00         0.33221E-01         0.00000E+00
    0.30516E+00         0.34088E-01         0.00000E+00
    0.29844E+00         0.34848E-01         0.00000E+00
    0.29146E+00         0.35498E-01         0.00000E+00
    0.28421E+00         0.36035E-01         0.00000E+00
    0.27672E+00         0.36457E-01         0.00000E+00
    0.26898E+00         0.36764E-01         0.00000E+00
    0.26101E+00         0.36952E-01         0.00000E+00
    0.25283E+00         0.37022E-01         0.00000E+00
    0.24443E+00         0.36971E-01         0.00000E+00
    0.23583E+00         0.36800E-01         0.00000E+00
    0.22704E+00         0.36507E-01         0.00000E+00
    0.21807E+00         0.36093E-01         0.00000E+00
    0.20893E+00         0.35557E-01         0.00000E+00
    0.19962E+00         0.34898E-01         0.00000E+00
    0.19015E+00         0.34118E-01         0.00000E+00
    0.18053E+00         0.33216E-01         0.00000E+00
    0.17077E+00         0.32194E-01         0.00000E+00
    0.16088E+00         0.31050E-01         0.00000E+00
    0.15086E+00         0.29787E-01         0.00000E+00
    0.14071E+00         0.28404E-01         0.00000E+00
    0.13046E+00         0.26903E-01         0.00000E+00
    0.12009E+00         0.25285E-01         0.00000E+00
    0.10961E+00         0.23550E-01         0.00000E+00
    0.99039E-01         0.21700E-01         0.00000E+00
    0.88370E-01         0.19734E-01         0.00000E+00
    0.77611E-01         0.17656E-01         0.00000E+00
    0.66763E-01         0.15464E-01         0.00000E+00
    0.55832E-01         0.13161E-01         0.00000E+00
    0.44819E-01         0.10747E-01         0.00000E+00
    0.33727E-01         0.82236E-02         0.00000E+00
    0.22559E-01         0.55906E-02         0.00000E+00
    0.11316E-01         0.28493E-02         0.00000E+00
    0.00000E+00         0.00000E+00         0.00000E+00
    0.41039E+00         0.63651E-02         0.00000E+00
    0.41012E+00         0.86245E-02         0.00000E+00
    0.40934E+00         0.10865E-01         0.00000E+00
    0.40806E+00         0.13076E-01         0.00000E+00
    0.40629E+00         0.15250E-01         0.00000E+00
    0.40404E+00         0.17377E-01         0.00000E+00
    0.40131E+00         0.19449E-01         0.00000E+00
    0.39813E+00         0.21459E-01         0.00000E+00
    0.39451E+00         0.23400E-01         0.00000E+00
    0.39045E+00         0.25264E-01         0.00000E+00
    0.38597E+00         0.27045E-01         0.00000E+00
    0.38108E+00         0.28737E-01         0.00000E+00
    0.37580E+00         0.30335E-01         0.00000E+00
    0.37014E+00         0.31833E-01         0.00000E+00
    0.36411E+00         0.33227E-01         0.00000E+00
    0.35772E+00         0.34512E-01         0.00000E+00
    0.35099E+00         0.35685E-01         0.00000E+00
    0.34394E+00         0.36742E-01         0.00000E+00
    0.33657E+00         0.37680E-01         0.00000E+00
    0.32890E+00         0.38496E-01         0.00000E+00
    0.32093E+00         0.39187E-01         0.00000E+00
    0.31270E+00         0.39751E-01         0.00000E+00
    0.30420E+00         0.40187E-01         0.00000E+00
    0.29544E+00         0.40493E-01         0.00000E+00
    0.28645E+00         0.40668E-01         0.00000E+00
    0.27723E+00         0.40710E-01         0.00000E+00
    0.26780E+00         0.40620E-01         0.00000E+00
    0.25816E+00         0.40396E-01         0.00000E+00
    0.24833E+00         0.40039E-01         0.00000E+00
    0.23831E+00         0.39548E-01         0.00000E+00
    0.22813E+00         0.38924E-01         0.00000E+00
    0.21778E+00         0.38167E-01         0.00000E+00
    0.20727E+00         0.37278E-01         0.00000E+00
    0.19663E+00         0.36257E-01         0.00000E+00
    0.18584E+00         0.35106E-01         0.00000E+00
    0.17493E+00         0.33825E-01         0.00000E+00
    0.16390E+00         0.32415E-01         0.00000E+00
    0.15276E+00         0.30879E-01         0.00000E+00
    0.14151E+00         0.29217E-01         0.00000E+00
    0.13016E+00         0.27430E-01         0.00000E+00
    0.11872E+00         0.25521E-01         0.00000E+00
    0.10718E+00         0.23490E-01         0.00000E+00
    0.95569E-01         0.21339E-01         0.00000E+00
    0.83873E-01         0.19070E-01         0.00000E+00
    0.72100E-01         0.16685E-01         0.00000E+00
    0.60254E-01         0.14184E-01         0.00000E+00
    0.48338E-01         0.11570E-01         0.00000E+00
    0.36353E-01         0.88427E-02         0.00000E+00
    0.24301E-01         0.60048E-02         0.00000E+00
    0.12183E-01         0.30568E-02         0.00000E+00
    0.00000E+00         0.00000E+00         0.00000E+00
    0.45877E+00         0.57774E-02         0.00000E+00
    0.45822E+00         0.83458E-02         0.00000E+00
    0.45709E+00         0.10887E-01         0.00000E+00
    0.45537E+00         0.13392E-01         0.00000E+00
    0.45310E+00         0.15848E-01         0.00000E+00
    0.45028E+00         0.18247E-01         0.00000E+00
    0.44692E+00         0.20580E-01         0.00000E+00
    0.44305E+00         0.22837E-01         0.00000E+00
    0.43868E+00         0.25012E-01         0.00000E+00
    0.43383E+00         0.27096E-01         0.00000E+00
    0.42850E+00         0.29083E-01         0.00000E+00
    0.42272E+00         0.30966E-01         0.00000E+00
    0.41651E+00         0.32740E-01         0.00000E+00
    0.40988E+00         0.34399E-01         0.00000E+00
    0.40285E+00         0.35938E-01         0.00000E+00
    0.39543E+00         0.37353E-01         0.00000E+00
    0.38764E+00         0.38640E-01         0.00000E+00
    0.37950E+00         0.39796E-01         0.00000E+00
    0.37102E+00         0.40817E-01         0.00000E+00
    0.36222E+00         0.41700E-01         0.00000E+00
    0.35312E+00         0.42445E-01         0.00000E+00
    0.34373E+00         0.43047E-01         0.00000E+00
    0.33406E+00         0.43507E-01         0.00000E+00
    0.32414E+00         0.43823E-01         0.00000E+00
    0.31396E+00         0.43993E-01         0.00000E+00
    0.30356E+00         0.44018E-01         0.00000E+00
    0.29295E+00         0.43897E-01         0.00000E+00
    0.28212E+00         0.43630E-01         0.00000E+00
    0.27111E+00         0.43217E-01         0.00000E+00
    0.25992E+00         0.42659E-01         0.00000E+00
    0.24857E+00         0.41956E-01         0.00000E+00
    0.23705E+00         0.41110E-01         0.00000E+00
    0.22540E+00         0.40122E-01         0.00000E+00
    0.21361E+00         0.38992E-01         0.00000E+00
    0.20170E+00         0.37722E-01         0.00000E+00
    0.18967E+00         0.36315E-01         0.00000E+00
    0.17754E+00         0.34771E-01         0.00000E+00
    0.16531E+00         0.33093E-01         0.00000E+00
    0.15299E+00         0.31283E-01         0.00000E+00
    0.14059E+00         0.29342E-01         0.00000E+00
    0.12811E+00         0.27273E-01         0.00000E+00
    0.11556E+00         0.25078E-01         0.00000E+00
    0.10295E+00         0.22758E-01         0.00000E+00
    0.90267E-01         0.20317E-01         0.00000E+00
    0.77530E-01         0.17757E-01         0.00000E+00
    0.64738E-01         0.15079E-01         0.00000E+00
    0.51892E-01         0.12286E-01         0.00000E+00
    0.38995E-01         0.93799E-02         0.00000E+00
    0.26047E-01         0.63622E-02         0.00000E+00
    0.13049E-01         0.32351E-02         0.00000E+00
    0.00000E+00         0.00000E+00         0.00000E+00
    0.51387E+00         0.36626E-02         0.00000E+00
    0.51290E+00         0.65874E-02         0.00000E+00
    0.51124E+00         0.94755E-02         0.00000E+00
    0.50893E+00         0.12315E-01         0.00000E+00
    0.50598E+00         0.15094E-01         0.00000E+00
    0.50241E+00         0.17803E-01         0.00000E+00
    0.49823E+00         0.20431E-01         0.00000E+00
    0.49348E+00         0.22970E-01         0.00000E+00
    0.48816E+00         0.25410E-01         0.00000E+00
    0.48231E+00         0.27744E-01         0.00000E+00
    0.47594E+00         0.29965E-01         0.00000E+00
    0.46906E+00         0.32065E-01         0.00000E+00
    0.46171E+00         0.34040E-01         0.00000E+00
    0.45391E+00         0.35884E-01         0.00000E+00
    0.44567E+00         0.37591E-01         0.00000E+00
    0.43701E+00         0.39158E-01         0.00000E+00
    0.42796E+00         0.40580E-01         0.00000E+00
    0.41853E+00         0.41855E-01         0.00000E+00
    0.40874E+00         0.42979E-01         0.00000E+00
    0.39862E+00         0.43951E-01         0.00000E+00
    0.38819E+00         0.44768E-01         0.00000E+00
    0.37745E+00         0.45429E-01         0.00000E+00
    0.36643E+00         0.45932E-01         0.00000E+00
    0.35515E+00         0.46277E-01         0.00000E+00
    0.34363E+00         0.46464E-01         0.00000E+00
    0.33187E+00         0.46492E-01         0.00000E+00
    0.31991E+00         0.46361E-01         0.00000E+00
    0.30774E+00         0.46073E-01         0.00000E+00
    0.29540E+00         0.45627E-01         0.00000E+00
    0.28289E+00         0.45025E-01         0.00000E+00
    0.27022E+00         0.44268E-01         0.00000E+00
    0.25741E+00         0.43358E-01         0.00000E+00
    0.24448E+00         0.42296E-01         0.00000E+00
    0.23143E+00         0.41084E-01         0.00000E+00
    0.21828E+00         0.39724E-01         0.00000E+00
    0.20503E+00         0.38219E-01         0.00000E+00
    0.19170E+00         0.36571E-01         0.00000E+00
    0.17829E+00         0.34782E-01         0.00000E+00
    0.16482E+00         0.32855E-01         0.00000E+00
    0.15129E+00         0.30793E-01         0.00000E+00
    0.13771E+00         0.28599E-01         0.00000E+00
    0.12408E+00         0.26275E-01         0.00000E+00
    0.11042E+00         0.23824E-01         0.00000E+00
    0.96713E-01         0.21249E-01         0.00000E+00
    0.82979E-01         0.18553E-01         0.00000E+00
    0.69215E-01         0.15740E-01         0.00000E+00
    0.55424E-01         0.12811E-01         0.00000E+00
    0.41608E-01         0.97702E-02         0.00000E+00
    0.27765E-01         0.66197E-02         0.00000E+00
    0.13896E-01         0.33621E-02         0.00000E+00
    0.00000E+00         0.00000E+00         0.00000E+00
    0.57673E+00        -0.83040E-03         0.00000E+00
    0.57513E+00         0.25042E-02         0.00000E+00
    0.57274E+00         0.57891E-02         0.00000E+00
    0.56961E+00         0.90112E-02         0.00000E+00
    0.56575E+00         0.12158E-01         0.00000E+00
    0.56119E+00         0.15219E-01         0.00000E+00
    0.55596E+00         0.18182E-01         0.00000E+00
    0.55008E+00         0.21039E-01         0.00000E+00
    0.54357E+00         0.23780E-01         0.00000E+00
    0.53647E+00         0.26398E-01         0.00000E+00
    0.52880E+00         0.28885E-01         0.00000E+00
    0.52058E+00         0.31234E-01         0.00000E+00
    0.51185E+00         0.33440E-01         0.00000E+00
    0.50262E+00         0.35498E-01         0.00000E+00
    0.49292E+00         0.37403E-01         0.00000E+00
    0.48279E+00         0.39150E-01         0.00000E+00
    0.47223E+00         0.40737E-01         0.00000E+00
    0.46128E+00         0.42160E-01         0.00000E+00
    0.44996E+00         0.43418E-01         0.00000E+00
    0.43829E+00         0.44508E-01         0.00000E+00
    0.42630E+00         0.45430E-01         0.00000E+00
    0.41400E+00         0.46181E-01         0.00000E+00
    0.40143E+00         0.46762E-01         0.00000E+00
    0.38859E+00         0.47171E-01         0.00000E+00
    0.37551E+00         0.47411E-01         0.00000E+00
    0.36222E+00         0.47480E-01         0.00000E+00
    0.34872E+00         0.47379E-01         0.00000E+00
    0.33504E+00         0.47110E-01         0.00000E+00
    0.32119E+00         0.46675E-01         0.00000E+00
    0.30719E+00         0.46073E-01         0.00000E+00
    0.29306E+00         0.45309E-01         0.00000E+00
    0.27881E+00         0.44382E-01         0.00000E+00
    0.26446E+00         0.43297E-01         0.00000E+00
    0.25002E+00         0.42054E-01         0.00000E+00
    0.23551E+00         0.40658E-01         0.00000E+00
    0.22093E+00         0.39110E-01         0.00000E+00
    0.20629E+00         0.37414E-01         0.00000E+00
    0.19161E+00         0.35572E-01         0.00000E+00
    0.17690E+00         0.33588E-01         0.00000E+00
    0.16217E+00         0.31466E-01         0.00000E+00
    0.14742E+00         0.29209E-01         0.00000E+00
    0.13266E+00         0.26820E-01         0.00000E+00
    0.11789E+00         0.24303E-01         0.00000E+00
    0.10313E+00         0.21661E-01         0.00000E+00
    0.88367E-01         0.18899E-01         0.00000E+00
    0.73615E-01         0.16020E-01         0.00000E+00
    0.58873E-01         0.13028E-01         0.00000E+00
    0.44141E-01         0.99262E-02         0.00000E+00
    0.29419E-01         0.67187E-02         0.00000E+00
    0.14706E-01         0.34088E-02         0.00000E+00
    0.00000E+00         0.00000E+00         0.00000E+00
    0.64851E+00        -0.88707E-02         0.00000E+00
    0.64600E+00        -0.50676E-02         0.00000E+00
    0.64260E+00        -0.13310E-02         0.00000E+00
    0.63836E+00         0.23253E-02         0.00000E+00
    0.63329E+00         0.58882E-02         0.00000E+00
    0.62745E+00         0.93459E-02         0.00000E+00
    0.62085E+00         0.12688E-01         0.00000E+00
    0.61354E+00         0.15904E-01         0.00000E+00
    0.60554E+00         0.18986E-01         0.00000E+00
    0.59689E+00         0.21925E-01         0.00000E+00
    0.58762E+00         0.24716E-01         0.00000E+00
    0.57776E+00         0.27351E-01         0.00000E+00
    0.56734E+00         0.29825E-01         0.00000E+00
    0.55640E+00         0.32133E-01         0.00000E+00
    0.54497E+00         0.34273E-01         0.00000E+00
    0.53307E+00         0.36240E-01         0.00000E+00
    0.52074E+00         0.38031E-01         0.00000E+00
    0.50800E+00         0.39645E-01         0.00000E+00
    0.49488E+00         0.41080E-01         0.00000E+00
    0.48141E+00         0.42334E-01         0.00000E+00
    0.46762E+00         0.43408E-01         0.00000E+00
    0.45352E+00         0.44301E-01         0.00000E+00
    0.43915E+00         0.45012E-01         0.00000E+00
    0.42454E+00         0.45544E-01         0.00000E+00
    0.40969E+00         0.45895E-01         0.00000E+00
    0.39465E+00         0.46068E-01         0.00000E+00
    0.37942E+00         0.46064E-01         0.00000E+00
    0.36403E+00         0.45884E-01         0.00000E+00
    0.34849E+00         0.45530E-01         0.00000E+00
    0.33284E+00         0.45006E-01         0.00000E+00
    0.31708E+00         0.44311E-01         0.00000E+00
    0.30124E+00         0.43451E-01         0.00000E+00
    0.28532E+00         0.42426E-01         0.00000E+00
    0.26935E+00         0.41240E-01         0.00000E+00
    0.25334E+00         0.39896E-01         0.00000E+00
    0.23731E+00         0.38398E-01         0.00000E+00
    0.22126E+00         0.36748E-01         0.00000E+00
    0.20521E+00         0.34950E-01         0.00000E+00
    0.18917E+00         0.33009E-01         0.00000E+00
    0.17315E+00         0.30927E-01         0.00000E+00
    0.15716E+00         0.28709E-01         0.00000E+00
    0.14121E+00         0.26359E-01         0.00000E+00
    0.12530E+00         0.23882E-01         0.00000E+00
    0.10943E+00         0.21280E-01         0.00000E+00
    0.93626E-01         0.18560E-01         0.00000E+00
    0.77875E-01         0.15726E-01         0.00000E+00
    0.62182E-01         0.12782E-01         0.00000E+00
    0.46550E-01         0.97324E-02         0.00000E+00
    0.30976E-01         0.65826E-02         0.00000E+00
    0.15461E-01         0.33369E-02         0.00000E+00
    0.00000E+00         0.00000E+00         0.00000E+00
    0.73047E+00        -0.22032E-01         0.00000E+00
    0.72668E+00        -0.17697E-01         0.00000E+00
    0.72190E+00        -0.13450E-01         0.00000E+00
    0.71617E+00        -0.93057E-02         0.00000E+00
    0.70953E+00        -0.52760E-02         0.00000E+00
    0.70203E+00        -0.13731E-02         0.00000E+00
    0.69369E+00         0.23927E-02         0.00000E+00
    0.68457E+00         0.60122E-02         0.00000E+00
    0.67471E+00         0.94772E-02         0.00000E+00
    0.66415E+00         0.12781E-01         0.00000E+00
    0.65292E+00         0.15917E-01         0.00000E+00
    0.64107E+00         0.18880E-01         0.00000E+00
    0.62863E+00         0.21666E-01         0.00000E+00
    0.61564E+00         0.24272E-01         0.00000E+00
    0.60214E+00         0.26694E-01         0.00000E+00
    0.58817E+00         0.28931E-01         0.00000E+00
    0.57374E+00         0.30982E-01         0.00000E+00
    0.55892E+00         0.32844E-01         0.00000E+00
    0.54371E+00         0.34518E-01         0.00000E+00
    0.52816E+00         0.36003E-01         0.00000E+00
    0.51229E+00         0.37301E-01         0.00000E+00
    0.49614E+00         0.38411E-01         0.00000E+00
    0.47973E+00         0.39336E-01         0.00000E+00
    0.46310E+00         0.40075E-01         0.00000E+00
    0.44626E+00         0.40631E-01         0.00000E+00
    0.42924E+00         0.41005E-01         0.00000E+00
    0.41207E+00         0.41200E-01         0.00000E+00
    0.39477E+00         0.41218E-01         0.00000E+00
    0.37736E+00         0.41061E-01         0.00000E+00
    0.35986E+00         0.40731E-01         0.00000E+00
    0.34231E+00         0.40231E-01         0.00000E+00
    0.32470E+00         0.39565E-01         0.00000E+00
    0.30707E+00         0.38734E-01         0.00000E+00
    0.28942E+00         0.37742E-01         0.00000E+00
    0.27179E+00         0.36592E-01         0.00000E+00
    0.25417E+00         0.35287E-01         0.00000E+00
    0.23660E+00         0.33832E-01         0.00000E+00
    0.21907E+00         0.32229E-01         0.00000E+00
    0.20161E+00         0.30482E-01         0.00000E+00
    0.18422E+00         0.28597E-01         0.00000E+00
    0.16691E+00         0.26576E-01         0.00000E+00
    0.14970E+00         0.24424E-01         0.00000E+00
    0.13260E+00         0.22146E-01         0.00000E+00
    0.11560E+00         0.19746E-01         0.00000E+00
    0.98718E-01         0.17231E-01         0.00000E+00
    0.81956E-01         0.14604E-01         0.00000E+00
    0.65317E-01         0.11872E-01         0.00000E+00
    0.48803E-01         0.90394E-02         0.00000E+00
    0.32413E-01         0.61127E-02         0.00000E+00
    0.16146E-01         0.30976E-02         0.00000E+00
    0.00000E+00         0.00000E+00         0.00000E+00
    0.82395E+00        -0.42393E-01         0.00000E+00
    0.81842E+00        -0.37462E-01         0.00000E+00
    0.81178E+00        -0.32645E-01         0.00000E+00
    0.80409E+00        -0.27957E-01         0.00000E+00
    0.79540E+00        -0.23409E-01         0.00000E+00
    0.78576E+00        -0.19013E-01         0.00000E+00
    0.77523E+00        -0.14777E-01         0.00000E+00
    0.76386E+00        -0.10709E-01         0.00000E+00
    0.75170E+00        -0.68160E-02         0.00000E+00
    0.73879E+00        -0.31032E-02         0.00000E+00
    0.72519E+00         0.42532E-03         0.00000E+00
    0.71094E+00         0.37661E-02         0.00000E+00
    0.69608E+00         0.69169E-02         0.00000E+00
    0.68066E+00         0.98760E-02         0.00000E+00
    0.66473E+00         0.12643E-01         0.00000E+00
    0.64832E+00         0.15217E-01         0.00000E+00
    0.63147E+00         0.17598E-01         0.00000E+00
    0.61423E+00         0.19788E-01         0.00000E+00
    0.59663E+00         0.21788E-01         0.00000E+00
    0.57870E+00         0.23599E-01         0.00000E+00
    0.56048E+00         0.25222E-01         0.00000E+00
    0.54200E+00         0.26661E-01         0.00000E+00
    0.52329E+00         0.27917E-01         0.00000E+00
    0.50439E+00         0.28992E-01         0.00000E+00
    0.48532E+00         0.29889E-01         0.00000E+00
    0.46611E+00         0.30611E-01         0.00000E+00
    0.44678E+00         0.31159E-01         0.00000E+00
    0.42737E+00         0.31536E-01         0.00000E+00
    0.40790E+00         0.31746E-01         0.00000E+00
    0.38838E+00         0.31790E-01         0.00000E+00
    0.36885E+00         0.31671E-01         0.00000E+00
    0.34932E+00         0.31392E-01         0.00000E+00
    0.32981E+00         0.30954E-01         0.00000E+00
    0.31035E+00         0.30362E-01         0.00000E+00
    0.29095E+00         0.29618E-01         0.00000E+00
    0.27163E+00         0.28724E-01         0.00000E+00
    0.25240E+00         0.27683E-01         0.00000E+00
    0.23328E+00         0.26499E-01         0.00000E+00
    0.21429E+00         0.25175E-01         0.00000E+00
    0.19544E+00         0.23715E-01         0.00000E+00
    0.17674E+00         0.22123E-01         0.00000E+00
    0.15820E+00         0.20402E-01         0.00000E+00
    0.13984E+00         0.18557E-01         0.00000E+00
    0.12166E+00         0.16594E-01         0.00000E+00
    0.10367E+00         0.14516E-01         0.00000E+00
    0.85878E-01         0.12330E-01         0.00000E+00
    0.68288E-01         0.10042E-01         0.00000E+00
    0.50904E-01         0.76580E-02         0.00000E+00
    0.33729E-01         0.51848E-02         0.00000E+00
    0.16761E-01         0.26297E-02         0.00000E+00
    0.00000E+00         0.00000E+00         0.00000E+00
    0.93031E+00        -0.72657E-01         0.00000E+00
    0.92242E+00        -0.67065E-01         0.00000E+00
    0.91332E+00        -0.61621E-01         0.00000E+00
    0.90308E+00        -0.56336E-01         0.00000E+00
    0.89176E+00        -0.51222E-01         0.00000E+00
    0.87943E+00        -0.46287E-01         0.00000E+00
    0.86615E+00        -0.41537E-01         0.00000E+00
    0.85199E+00        -0.36977E-01         0.00000E+00
    0.83700E+00        -0.32612E-01         0.00000E+00
    0.82125E+00        -0.28442E-01         0.00000E+00
    0.80479E+00        -0.24471E-01         0.00000E+00
    0.78768E+00        -0.20697E-01         0.00000E+00
    0.76996E+00        -0.17121E-01         0.00000E+00
    0.75170E+00        -0.13740E-01         0.00000E+00
    0.73294E+00        -0.10552E-01         0.00000E+00
    0.71372E+00        -0.75558E-02         0.00000E+00
    0.69409E+00        -0.47470E-02         0.00000E+00
    0.67409E+00        -0.21226E-02         0.00000E+00
    0.65377E+00         0.32087E-03         0.00000E+00
    0.63316E+00         0.25872E-02         0.00000E+00
    0.61231E+00         0.46800E-02         0.00000E+00
    0.59123E+00         0.66031E-02         0.00000E+00
    0.56998E+00         0.83599E-02         0.00000E+00
    0.54858E+00         0.99540E-02         0.00000E+00
    0.52706E+00         0.11388E-01         0.00000E+00
    0.50545E+00         0.12666E-01         0.00000E+00
    0.48377E+00         0.13790E-01         0.00000E+00
    0.46207E+00         0.14763E-01         0.00000E+00
    0.44035E+00         0.15587E-01         0.00000E+00
    0.41865E+00         0.16264E-01         0.00000E+00
    0.39698E+00         0.16796E-01         0.00000E+00
    0.37537E+00         0.17185E-01         0.00000E+00
    0.35385E+00         0.17432E-01         0.00000E+00
    0.33242E+00         0.17538E-01         0.00000E+00
    0.31112E+00         0.17505E-01         0.00000E+00
    0.28996E+00         0.17334E-01         0.00000E+00
    0.26896E+00         0.17027E-01         0.00000E+00
    0.24813E+00         0.16586E-01         0.00000E+00
    0.22750E+00         0.16011E-01         0.00000E+00
    0.20708E+00         0.15306E-01         0.00000E+00
    0.18688E+00         0.14472E-01         0.00000E+00
    0.16693E+00         0.13513E-01         0.00000E+00
    0.14722E+00         0.12432E-01         0.00000E+00
    0.12779E+00         0.11232E-01         0.00000E+00
    0.10863E+00         0.99192E-02         0.00000E+00
    0.89760E-01         0.84978E-02         0.00000E+00
    0.71188E-01         0.69739E-02         0.00000E+00
    0.52921E-01         0.53543E-02         0.00000E+00
    0.34965E-01         0.36464E-02         0.00000E+00
    0.17324E-01         0.18587E-02         0.00000E+00
    0.00000E+00         0.00000E+00         0.00000E+00
    0.10509E+01        -0.11628E+00         0.00000E+00
    0.10398E+01        -0.10997E+00         0.00000E+00
    0.10275E+01        -0.10385E+00         0.00000E+00
    0.10140E+01        -0.97925E-01         0.00000E+00
    0.99934E+00        -0.92204E-01         0.00000E+00
    0.98363E+00        -0.86691E-01         0.00000E+00
    0.96694E+00        -0.81390E-01         0.00000E+00
    0.94936E+00        -0.76300E-01         0.00000E+00
    0.93095E+00        -0.71420E-01         0.00000E+00
    0.91178E+00        -0.66749E-01         0.00000E+00
    0.89192E+00        -0.62282E-01         0.00000E+00
    0.87144E+00        -0.58015E-01         0.00000E+00
    0.85039E+00        -0.53942E-01         0.00000E+00
    0.82883E+00        -0.50057E-01         0.00000E+00
    0.80682E+00        -0.46354E-01         0.00000E+00
    0.78441E+00        -0.42825E-01         0.00000E+00
    0.76164E+00        -0.39464E-01         0.00000E+00
    0.73857E+00        -0.36264E-01         0.00000E+00
    0.71523E+00        -0.33217E-01         0.00000E+00
    0.69167E+00        -0.30317E-01         0.00000E+00
    0.66792E+00        -0.27558E-01         0.00000E+00
    0.64403E+00        -0.24935E-01         0.00000E+00
    0.62001E+00        -0.22441E-01         0.00000E+00
    0.59592E+00        -0.20073E-01         0.00000E+00
    0.57177E+00        -0.17826E-01         0.00000E+00
    0.54759E+00        -0.15697E-01         0.00000E+00
    0.52341E+00        -0.13683E-01         0.00000E+00
    0.49926E+00        -0.11783E-01         0.00000E+00
    0.47516E+00        -0.99957E-02         0.00000E+00
    0.45114E+00        -0.83196E-02         0.00000E+00
    0.42721E+00        -0.67549E-02         0.00000E+00
    0.40340E+00        -0.53022E-02         0.00000E+00
    0.37973E+00        -0.39623E-02         0.00000E+00
    0.35622E+00        -0.27365E-02         0.00000E+00
    0.33290E+00        -0.16262E-02         0.00000E+00
    0.30977E+00        -0.63324E-03         0.00000E+00
    0.28687E+00         0.24078E-03         0.00000E+00
    0.26420E+00         0.99418E-03         0.00000E+00
    0.24180E+00         0.16255E-02         0.00000E+00
    0.21968E+00         0.21337E-02         0.00000E+00
    0.19786E+00         0.25180E-02         0.00000E+00
    0.17636E+00         0.27785E-02         0.00000E+00
    0.15519E+00         0.29158E-02         0.00000E+00
    0.13438E+00         0.29315E-02         0.00000E+00
    0.11394E+00         0.28281E-02         0.00000E+00
    0.93895E-01         0.26093E-02         0.00000E+00
    0.74253E-01         0.22798E-02         0.00000E+00
    0.55030E-01         0.18459E-02         0.00000E+00
    0.36240E-01         0.13150E-02         0.00000E+00
    0.17893E-01         0.69626E-03         0.00000E+00
    0.00000E+00         0.00000E+00         0.00000E+00
    0.11868E+01        -0.17766E+00         0.00000E+00
    0.11716E+01        -0.17058E+00         0.00000E+00
    0.11552E+01        -0.16374E+00         0.00000E+00
    0.11375E+01        -0.15714E+00         0.00000E+00
    0.11186E+01        -0.15078E+00         0.00000E+00
    0.10987E+01        -0.14467E+00         0.00000E+00
    0.10778E+01        -0.13879E+00         0.00000E+00
    0.10561E+01        -0.13314E+00         0.00000E+00
    0.10335E+01        -0.12772E+00         0.00000E+00
    0.10103E+01        -0.12250E+00         0.00000E+00
    0.98647E+00        -0.11749E+00         0.00000E+00
    0.96207E+00        -0.11266E+00         0.00000E+00
    0.93719E+00        -0.10801E+00         0.00000E+00
    0.91189E+00        -0.10352E+00         0.00000E+00
    0.88623E+00        -0.99183E-01         0.00000E+00
    0.86026E+00        -0.94981E-01         0.00000E+00
    0.83404E+00        -0.90904E-01         0.00000E+00
    0.80761E+00        -0.86939E-01         0.00000E+00
    0.78101E+00        -0.83075E-01         0.00000E+00
    0.75428E+00        -0.79301E-01         0.00000E+00
    0.72746E+00        -0.75608E-01         0.00000E+00
    0.70059E+00        -0.71989E-01         0.00000E+00
    0.67368E+00        -0.68435E-01         0.00000E+00
    0.64678E+00        -0.64940E-01         0.00000E+00
    0.61990E+00        -0.61502E-01         0.00000E+00
    0.59307E+00        -0.58116E-01         0.00000E+00
    0.56632E+00        -0.54781E-01         0.00000E+00
    0.53966E+00        -0.51496E-01         0.00000E+00
    0.51311E+00        -0.48263E-01         0.00000E+00
    0.48670E+00        -0.45083E-01         0.00000E+00
    0.46045E+00        -0.41960E-01         0.00000E+00
    0.43436E+00        -0.38897E-01         0.00000E+00
    0.40847E+00        -0.35900E-01         0.00000E+00
    0.38278E+00        -0.32976E-01         0.00000E+00
    0.35733E+00        -0.30130E-01         0.00000E+00
    0.33213E+00        -0.27369E-01         0.00000E+00
    0.30720E+00        -0.24701E-01         0.00000E+00
    0.28256E+00        -0.22133E-01         0.00000E+00
    0.25824E+00        -0.19673E-01         0.00000E+00
    0.23426E+00        -0.17326E-01         0.00000E+00
    0.21064E+00        -0.15100E-01         0.00000E+00
    0.18740E+00        -0.13000E-01         0.00000E+00
    0.16458E+00        -0.11031E-01         0.00000E+00
    0.14220E+00        -0.91953E-02         0.00000E+00
    0.12028E+00        -0.74951E-02         0.00000E+00
    0.98855E-01        -0.59305E-02         0.00000E+00
    0.77947E-01        -0.44996E-02         0.00000E+00
    0.57583E-01        -0.31985E-02         0.00000E+00
    0.37788E-01        -0.20211E-02         0.00000E+00
    0.18586E-01        -0.95861E-03         0.00000E+00
    0.00000E+00         0.00000E+00         0.00000E+00
    0.13388E+01        -0.26228E+00         0.00000E+00
    0.13184E+01        -0.25440E+00         0.00000E+00
    0.12966E+01        -0.24683E+00         0.00000E+00
    0.12736E+01        -0.23954E+00         0.00000E+00
    0.12495E+01        -0.23255E+00         0.00000E+00
    0.12244E+01        -0.22583E+00         0.00000E+00
    0.11984E+01        -0.21936E+00         0.00000E+00
    0.11717E+01        -0.21314E+00         0.00000E+00
    0.11443E+01        -0.20715E+00         0.00000E+00
    0.11163E+01        -0.20135E+00         0.00000E+00
    0.10879E+01        -0.19573E+00         0.00000E+00
    0.10590E+01        -0.19027E+00         0.00000E+00
    0.10298E+01        -0.18494E+00         0.00000E+00
    0.10003E+01        -0.17972E+00         0.00000E+00
    0.97068E+00        -0.17459E+00         0.00000E+00
    0.94087E+00        -0.16953E+00         0.00000E+00
    0.91096E+00        -0.16452E+00         0.00000E+00
    0.88099E+00        -0.15953E+00         0.00000E+00
    0.85100E+00        -0.15456E+00         0.00000E+00
    0.82101E+00        -0.14959E+00         0.00000E+00
    0.79107E+00        -0.14459E+00         0.00000E+00
    0.76120E+00        -0.13957E+00         0.00000E+00
    0.73141E+00        -0.13452E+00         0.00000E+00
    0.70172E+00        -0.12942E+00         0.00000E+00
    0.67217E+00        -0.12428E+00         0.00000E+00
    0.64274E+00        -0.11908E+00         0.00000E+00
    0.61347E+00        -0.11384E+00         0.00000E+00
    0.58436E+00        -0.10855E+00         0.00000E+00
    0.55543E+00        -0.10322E+00         0.00000E+00
    0.52668E+00        -0.97856E-01         0.00000E+00
    0.49813E+00        -0.92466E-01         0.00000E+00
    0.46979E+00        -0.87060E-01         0.00000E+00
    0.44167E+00        -0.81651E-01         0.00000E+00
    0.41379E+00        -0.76251E-01         0.00000E+00
    0.38616E+00        -0.70875E-01         0.00000E+00
    0.35880E+00        -0.65539E-01         0.00000E+00
    0.33173E+00        -0.60258E-01         0.00000E+00
    0.30498E+00        -0.55049E-01         0.00000E+00
    0.27856E+00        -0.49929E-01         0.00000E+00
    0.25250E+00        -0.44914E-01         0.00000E+00
    0.22684E+00        -0.40019E-01         0.00000E+00
    0.20160E+00        -0.35260E-01         0.00000E+00
    0.17683E+00        -0.30649E-01         0.00000E+00
    0.15255E+00        -0.26198E-01         0.00000E+00
    0.12880E+00        -0.21918E-01         0.00000E+00
    0.10564E+00        -0.17815E-01         0.00000E+00
    0.83092E-01        -0.13894E-01         0.00000E+00
    0.61211E-01        -0.10156E-01         0.00000E+00
    0.40039E-01        -0.65993E-02         0.00000E+00
    0.19620E-01        -0.32173E-02         0.00000E+00
    0.00000E+00         0.00000E+00         0.00000E+00
    0.15073E+01        -0.37711E+00         0.00000E+00
    0.14801E+01        -0.36842E+00         0.00000E+00
    0.14515E+01        -0.36010E+00         0.00000E+00
    0.14219E+01        -0.35214E+00         0.00000E+00
    0.13913E+01        -0.34452E+00         0.00000E+00
    0.13598E+01        -0.33721E+00         0.00000E+00
    0.13277E+01        -0.33017E+00         0.00000E+00
    0.12950E+01        -0.32337E+00         0.00000E+00
    0.12619E+01        -0.31677E+00         0.00000E+00
    0.12285E+01        -0.31035E+00         0.00000E+00
    0.11948E+01        -0.30405E+00         0.00000E+00
    0.11610E+01        -0.29785E+00         0.00000E+00
    0.11270E+01        -0.29170E+00         0.00000E+00
    0.10931E+01        -0.28558E+00         0.00000E+00
    0.10592E+01        -0.27944E+00         0.00000E+00
    0.10254E+01        -0.27325E+00         0.00000E+00
    0.99177E+00        -0.26699E+00         0.00000E+00
    0.95826E+00        -0.26062E+00         0.00000E+00
    0.92494E+00        -0.25413E+00         0.00000E+00
    0.89182E+00        -0.24750E+00         0.00000E+00
    0.85892E+00        -0.24070E+00         0.00000E+00
    0.82624E+00        -0.23373E+00         0.00000E+00
    0.79380E+00        -0.22657E+00         0.00000E+00
    0.76159E+00        -0.21922E+00         0.00000E+00
    0.72961E+00        -0.21167E+00         0.00000E+00
    0.69787E+00        -0.20393E+00         0.00000E+00
    0.66635E+00        -0.19600E+00         0.00000E+00
    0.63505E+00        -0.18789E+00         0.00000E+00
    0.60397E+00        -0.17960E+00         0.00000E+00
    0.57311E+00        -0.17116E+00         0.00000E+00
    0.54246E+00        -0.16258E+00         0.00000E+00
    0.51202E+00        -0.15387E+00         0.00000E+00
    0.48180E+00        -0.14506E+00         0.00000E+00
    0.45179E+00        -0.13617E+00         0.00000E+00
    0.42202E+00        -0.12724E+00         0.00000E+00
    0.39247E+00        -0.11828E+00         0.00000E+00
    0.36318E+00        -0.10932E+00         0.00000E+00
    0.33417E+00        -0.10040E+00         0.00000E+00
    0.30545E+00        -0.91546E-01         0.00000E+00
    0.27705E+00        -0.82787E-01         0.00000E+00
    0.24902E+00        -0.74154E-01         0.00000E+00
    0.22139E+00        -0.65676E-01         0.00000E+00
    0.19420E+00        -0.57381E-01         0.00000E+00
    0.16752E+00        -0.49294E-01         0.00000E+00
    0.14139E+00        -0.41439E-01         0.00000E+00
    0.11587E+00        -0.33836E-01         0.00000E+00
    0.91043E-01        -0.26502E-01         0.00000E+00
    0.66964E-01        -0.19447E-01         0.00000E+00
    0.43712E-01        -0.12679E-01         0.00000E+00
    0.21364E-01        -0.61983E-02         0.00000E+00
    0.00000E+00         0.00000E+00         0.00000E+00
    0.16916E+01        -0.53103E+00         0.00000E+00
    0.16556E+01        -0.52150E+00         0.00000E+00
    0.16185E+01        -0.51245E+00         0.00000E+00
    0.15805E+01        -0.50383E+00         0.00000E+00
    0.15419E+01        -0.49560E+00         0.00000E+00
    0.15027E+01        -0.48770E+00         0.00000E+00
    0.14633E+01        -0.48008E+00         0.00000E+00
    0.14236E+01        -0.47267E+00         0.00000E+00
    0.13840E+01        -0.46542E+00         0.00000E+00
    0.13444E+01        -0.45827E+00         0.00000E+00
    0.13049E+01        -0.45115E+00         0.00000E+00
    0.12658E+01        -0.44401E+00         0.00000E+00
    0.12269E+01        -0.43680E+00         0.00000E+00
    0.11884E+01        -0.42946E+00         0.00000E+00
    0.11503E+01        -0.42195E+00         0.00000E+00
    0.11126E+01        -0.41422E+00         0.00000E+00
    0.10754E+01        -0.40623E+00         0.00000E+00
    0.10387E+01        -0.39795E+00         0.00000E+00
    0.10024E+01        -0.38934E+00         0.00000E+00
    0.96655E+00        -0.38039E+00         0.00000E+00
    0.93117E+00        -0.37107E+00         0.00000E+00
    0.89622E+00        -0.36137E+00         0.00000E+00
    0.86167E+00        -0.35129E+00         0.00000E+00
    0.82750E+00        -0.34081E+00         0.00000E+00
    0.79368E+00        -0.32993E+00         0.00000E+00
    0.76018E+00        -0.31867E+00         0.00000E+00
    0.72697E+00        -0.30703E+00         0.00000E+00
    0.69403E+00        -0.29503E+00         0.00000E+00
    0.66131E+00        -0.28269E+00         0.00000E+00
    0.62880E+00        -0.27002E+00         0.00000E+00
    0.59648E+00        -0.25706E+00         0.00000E+00
    0.56431E+00        -0.24384E+00         0.00000E+00
    0.53228E+00        -0.23040E+00         0.00000E+00
    0.50039E+00        -0.21676E+00         0.00000E+00
    0.46861E+00        -0.20297E+00         0.00000E+00
    0.43696E+00        -0.18908E+00         0.00000E+00
    0.40543E+00        -0.17513E+00         0.00000E+00
    0.37403E+00        -0.16116E+00         0.00000E+00
    0.34280E+00        -0.14723E+00         0.00000E+00
    0.31175E+00        -0.13338E+00         0.00000E+00
    0.28092E+00        -0.11968E+00         0.00000E+00
    0.25035E+00        -0.10616E+00         0.00000E+00
    0.22012E+00        -0.92870E-01         0.00000E+00
    0.19028E+00        -0.79869E-01         0.00000E+00
    0.16090E+00        -0.67196E-01         0.00000E+00
    0.13208E+00        -0.54892E-01         0.00000E+00
    0.10391E+00        -0.42996E-01         0.00000E+00
    0.76493E-01        -0.31538E-01         0.00000E+00
    0.49954E-01        -0.20543E-01         0.00000E+00
    0.24412E-01        -0.10028E-01         0.00000E+00
    0.00000E+00         0.00000E+00         0.00000E+00
    0.18894E+01        -0.73569E+00         0.00000E+00
    0.18420E+01        -0.72525E+00         0.00000E+00
    0.17940E+01        -0.71540E+00         0.00000E+00
    0.17456E+01        -0.70607E+00         0.00000E+00
    0.16971E+01        -0.69717E+00         0.00000E+00
    0.16488E+01        -0.68861E+00         0.00000E+00
    0.16007E+01        -0.68028E+00         0.00000E+00
    0.15532E+01        -0.67210E+00         0.00000E+00
    0.15062E+01        -0.66398E+00         0.00000E+00
    0.14599E+01        -0.65582E+00         0.00000E+00
    0.14144E+01        -0.64753E+00         0.00000E+00
    0.13698E+01        -0.63904E+00         0.00000E+00
    0.13260E+01        -0.63027E+00         0.00000E+00
    0.12832E+01        -0.62115E+00         0.00000E+00
    0.12413E+01        -0.61163E+00         0.00000E+00
    0.12002E+01        -0.60163E+00         0.00000E+00
    0.11601E+01        -0.59113E+00         0.00000E+00
    0.11209E+01        -0.58007E+00         0.00000E+00
    0.10825E+01        -0.56843E+00         0.00000E+00
    0.10448E+01        -0.55619E+00         0.00000E+00
    0.10079E+01        -0.54332E+00         0.00000E+00
    0.97157E+00        -0.52981E+00         0.00000E+00
    0.93588E+00        -0.51565E+00         0.00000E+00
    0.90073E+00        -0.50086E+00         0.00000E+00
    0.86603E+00        -0.48544E+00         0.00000E+00
    0.83173E+00        -0.46939E+00         0.00000E+00
    0.79776E+00        -0.45274E+00         0.00000E+00
    0.76406E+00        -0.43552E+00         0.00000E+00
    0.73055E+00        -0.41775E+00         0.00000E+00
    0.69718E+00        -0.39947E+00         0.00000E+00
    0.66389E+00        -0.38071E+00         0.00000E+00
    0.63063E+00        -0.36153E+00         0.00000E+00
    0.59735E+00        -0.34197E+00         0.00000E+00
    0.56402E+00        -0.32208E+00         0.00000E+00
    0.53060E+00        -0.30191E+00         0.00000E+00
    0.49706E+00        -0.28155E+00         0.00000E+00
    0.46340E+00        -0.26103E+00         0.00000E+00
    0.42960E+00        -0.24044E+00         0.00000E+00
    0.39567E+00        -0.21985E+00         0.00000E+00
    0.36163E+00        -0.19933E+00         0.00000E+00
    0.32751E+00        -0.17896E+00         0.00000E+00
    0.29335E+00        -0.15881E+00         0.00000E+00
    0.25922E+00        -0.13896E+00         0.00000E+00
    0.22519E+00        -0.11950E+00         0.00000E+00
    0.19136E+00        -0.10050E+00         0.00000E+00
    0.15783E+00        -0.82030E-01         0.00000E+00
    0.12474E+00        -0.64170E-01         0.00000E+00
    0.92234E-01        -0.46983E-01         0.00000E+00
    0.60482E-01        -0.30528E-01         0.00000E+00
    0.29669E-01        -0.14854E-01         0.00000E+00
    0.00000E+00         0.00000E+00         0.00000E+00
    0.20948E+01        -0.10067E+01         0.00000E+00
    0.20327E+01        -0.99504E+00         0.00000E+00
    0.19708E+01        -0.98409E+00         0.00000E+00
    0.19096E+01        -0.97374E+00         0.00000E+00
    0.18493E+01        -0.96382E+00         0.00000E+00
    0.17901E+01        -0.95419E+00         0.00000E+00
    0.17323E+01        -0.94470E+00         0.00000E+00
    0.16760E+01        -0.93520E+00         0.00000E+00
    0.16212E+01        -0.92556E+00         0.00000E+00
    0.15682E+01        -0.91565E+00         0.00000E+00
    0.15168E+01        -0.90536E+00         0.00000E+00
    0.14671E+01        -0.89459E+00         0.00000E+00
    0.14191E+01        -0.88324E+00         0.00000E+00
    0.13728E+01        -0.87123E+00         0.00000E+00
    0.13280E+01        -0.85850E+00         0.00000E+00
    0.12848E+01        -0.84499E+00         0.00000E+00
    0.12430E+01        -0.83065E+00         0.00000E+00
    0.12026E+01        -0.81544E+00         0.00000E+00
    0.11634E+01        -0.79933E+00         0.00000E+00
    0.11253E+01        -0.78232E+00         0.00000E+00
    0.10882E+01        -0.76439E+00         0.00000E+00
    0.10521E+01        -0.74554E+00         0.00000E+00
    0.10167E+01        -0.72577E+00         0.00000E+00
    0.98197E+00        -0.70510E+00         0.00000E+00
    0.94781E+00        -0.68354E+00         0.00000E+00
    0.91408E+00        -0.66113E+00         0.00000E+00
    0.88067E+00        -0.63788E+00         0.00000E+00
    0.84747E+00        -0.61384E+00         0.00000E+00
    0.81437E+00        -0.58904E+00         0.00000E+00
    0.78128E+00        -0.56354E+00         0.00000E+00
    0.74808E+00        -0.53738E+00         0.00000E+00
    0.71470E+00        -0.51061E+00         0.00000E+00
    0.68103E+00        -0.48330E+00         0.00000E+00
    0.64702E+00        -0.45552E+00         0.00000E+00
    0.61258E+00        -0.42733E+00         0.00000E+00
    0.57765E+00        -0.39882E+00         0.00000E+00
    0.54218E+00        -0.37006E+00         0.00000E+00
    0.50614E+00        -0.34114E+00         0.00000E+00
    0.46950E+00        -0.31216E+00         0.00000E+00
    0.43224E+00        -0.28322E+00         0.00000E+00
    0.39438E+00        -0.25441E+00         0.00000E+00
    0.35594E+00        -0.22586E+00         0.00000E+00
    0.31697E+00        -0.19768E+00         0.00000E+00
    0.27753E+00        -0.16999E+00         0.00000E+00
    0.23772E+00        -0.14290E+00         0.00000E+00
    0.19765E+00        -0.11655E+00         0.00000E+00
    0.15749E+00        -0.91048E-01         0.00000E+00
    0.11741E+00        -0.66530E-01         0.00000E+00
    0.77627E-01        -0.43110E-01         0.00000E+00
    0.38394E-01        -0.20900E-01         0.00000E+00
    0.00000E+00         0.00000E+00         0.00000E+00
    0.22949E+01        -0.13649E+01         0.00000E+00
    0.22138E+01        -0.13510E+01         0.00000E+00
    0.21347E+01        -0.13380E+01         0.00000E+00
    0.20579E+01        -0.13256E+01         0.00000E+00
    0.19839E+01        -0.13136E+01         0.00000E+00
    0.19127E+01        -0.13017E+01         0.00000E+00
    0.18444E+01        -0.12897E+01         0.00000E+00
    0.17792E+01        -0.12774E+01         0.00000E+00
    0.17171E+01        -0.12647E+01         0.00000E+00
    0.16579E+01        -0.12513E+01         0.00000E+00
    0.16017E+01        -0.12372E+01         0.00000E+00
    0.15483E+01        -0.12223E+01         0.00000E+00
    0.14976E+01        -0.12063E+01         0.00000E+00
    0.14494E+01        -0.11894E+01         0.00000E+00
    0.14037E+01        -0.11713E+01         0.00000E+00
    0.13601E+01        -0.11521E+01         0.00000E+00
    0.13186E+01        -0.11318E+01         0.00000E+00
    0.12789E+01        -0.11102E+01         0.00000E+00
    0.12409E+01        -0.10875E+01         0.00000E+00
    0.12044E+01        -0.10635E+01         0.00000E+00
    0.11691E+01        -0.10384E+01         0.00000E+00
    0.11350E+01        -0.10121E+01         0.00000E+00
    0.11018E+01        -0.98469E+00         0.00000E+00
    0.10694E+01        -0.95614E+00         0.00000E+00
    0.10375E+01        -0.92652E+00         0.00000E+00
    0.10061E+01        -0.89585E+00         0.00000E+00
    0.97486E+00        -0.86417E+00         0.00000E+00
    0.94376E+00        -0.83154E+00         0.00000E+00
    0.91260E+00        -0.79800E+00         0.00000E+00
    0.88123E+00        -0.76360E+00         0.00000E+00
    0.84951E+00        -0.72839E+00         0.00000E+00
    0.81730E+00        -0.69244E+00         0.00000E+00
    0.78446E+00        -0.65582E+00         0.00000E+00
    0.75086E+00        -0.61858E+00         0.00000E+00
    0.71640E+00        -0.58081E+00         0.00000E+00
    0.68094E+00        -0.54259E+00         0.00000E+00
    0.64439E+00        -0.50401E+00         0.00000E+00
    0.60666E+00        -0.46517E+00         0.00000E+00
    0.56765E+00        -0.42618E+00         0.00000E+00
    0.52731E+00        -0.38714E+00         0.00000E+00
    0.48558E+00        -0.34820E+00         0.00000E+00
    0.44243E+00        -0.30949E+00         0.00000E+00
    0.39785E+00        -0.27116E+00         0.00000E+00
    0.35187E+00        -0.23337E+00         0.00000E+00
    0.30453E+00        -0.19630E+00         0.00000E+00
    0.25592E+00        -0.16014E+00         0.00000E+00
    0.20617E+00        -0.12507E+00         0.00000E+00
    0.15544E+00        -0.91314E-01         0.00000E+00
    0.10398E+00        -0.59073E-01         0.00000E+00
    0.52047E-01        -0.28563E-01         0.00000E+00
    0.00000E+00         0.00000E+00         0.00000E+00
    0.24628E+01        -0.18356E+01         0.00000E+00
    0.23581E+01        -0.18172E+01         0.00000E+00
    0.22585E+01        -0.17998E+01         0.00000E+00
    0.21644E+01        -0.17828E+01         0.00000E+00
    0.20756E+01        -0.17660E+01         0.00000E+00
    0.19923E+01        -0.17490E+01         0.00000E+00
    0.19144E+01        -0.17316E+01         0.00000E+00
    0.18416E+01        -0.17134E+01         0.00000E+00
    0.17738E+01        -0.16943E+01         0.00000E+00
    0.17107E+01        -0.16741E+01         0.00000E+00
    0.16521E+01        -0.16527E+01         0.00000E+00
    0.15975E+01        -0.16300E+01         0.00000E+00
    0.15468E+01        -0.16060E+01         0.00000E+00
    0.14995E+01        -0.15805E+01         0.00000E+00
    0.14555E+01        -0.15537E+01         0.00000E+00
    0.14143E+01        -0.15254E+01         0.00000E+00
    0.13757E+01        -0.14956E+01         0.00000E+00
    0.13393E+01        -0.14645E+01         0.00000E+00
    0.13050E+01        -0.14320E+01         0.00000E+00
    0.12724E+01        -0.13982E+01         0.00000E+00
    0.12412E+01        -0.13631E+01         0.00000E+00
    0.12113E+01        -0.13267E+01         0.00000E+00
    0.11824E+01        -0.12891E+01         0.00000E+00
    0.11542E+01        -0.12503E+01         0.00000E+00
    0.11265E+01        -0.12104E+01         0.00000E+00
    0.10992E+01        -0.11695E+01         0.00000E+00
    0.10720E+01        -0.11275E+01         0.00000E+00
    0.10447E+01        -0.10846E+01         0.00000E+00
    0.10171E+01        -0.10407E+01         0.00000E+00
    0.98910E+00        -0.99593E+00         0.00000E+00
    0.96044E+00        -0.95032E+00         0.00000E+00
    0.93095E+00        -0.90393E+00         0.00000E+00
    0.90045E+00        -0.85680E+00         0.00000E+00
    0.86876E+00        -0.80899E+00         0.00000E+00
    0.83570E+00        -0.76056E+00         0.00000E+00
    0.80108E+00        -0.71157E+00         0.00000E+00
    0.76474E+00        -0.66212E+00         0.00000E+00
    0.72649E+00        -0.61227E+00         0.00000E+00
    0.68617E+00        -0.56213E+00         0.00000E+00
    0.64361E+00        -0.51182E+00         0.00000E+00
    0.59866E+00        -0.46146E+00         0.00000E+00
    0.55117E+00        -0.41120E+00         0.00000E+00
    0.50103E+00        -0.36122E+00         0.00000E+00
    0.44812E+00        -0.31170E+00         0.00000E+00
    0.39239E+00        -0.26286E+00         0.00000E+00
    0.33378E+00        -0.21495E+00         0.00000E+00
    0.27231E+00        -0.16825E+00         0.00000E+00
    0.20803E+00        -0.12306E+00         0.00000E+00
    0.14107E+00        -0.79705E-01         0.00000E+00
    0.71636E-01        -0.38560E-01         0.00000E+00
    0.00000E+00         0.00000E+00         0.00000E+00
    0.25476E+01        -0.24431E+01         0.00000E+00
    0.24165E+01        -0.24156E+01         0.00000E+00
    0.22957E+01        -0.23889E+01         0.00000E+00
    0.21847E+01        -0.23623E+01         0.00000E+00
    0.20831E+01        -0.23354E+01         0.00000E+00
    0.19905E+01        -0.23078E+01         0.00000E+00
    0.19062E+01        -0.22792E+01         0.00000E+00
    0.18297E+01        -0.22493E+01         0.00000E+00
    0.17603E+01        -0.22180E+01         0.00000E+00
    0.16975E+01        -0.21852E+01         0.00000E+00
    0.16406E+01        -0.21508E+01         0.00000E+00
    0.15890E+01        -0.21148E+01         0.00000E+00
    0.15422E+01        -0.20772E+01         0.00000E+00
    0.14997E+01        -0.20380E+01         0.00000E+00
    0.14608E+01        -0.19973E+01         0.00000E+00
    0.14253E+01        -0.19551E+01         0.00000E+00
    0.13926E+01        -0.19115E+01         0.00000E+00
    0.13623E+01        -0.18667E+01         0.00000E+00
    0.13342E+01        -0.18206E+01         0.00000E+00
    0.13078E+01        -0.17733E+01         0.00000E+00
    0.12829E+01        -0.17249E+01         0.00000E+00
    0.12591E+01        -0.16755E+01         0.00000E+00
    0.12362E+01        -0.16251E+01         0.00000E+00
    0.12139E+01        -0.15738E+01         0.00000E+00
    0.11920E+01        -0.15216E+01         0.00000E+00
    0.11704E+01        -0.14686E+01         0.00000E+00
    0.11486E+01        -0.14148E+01         0.00000E+00
    0.11266E+01        -0.13602E+01         0.00000E+00
    0.11041E+01        -0.13049E+01         0.00000E+00
    0.10810E+01        -0.12489E+01         0.00000E+00
    0.10569E+01        -0.11923E+01         0.00000E+00
    0.10318E+01        -0.11349E+01         0.00000E+00
    0.10053E+01        -0.10769E+01         0.00000E+00
    0.97723E+00        -0.10183E+01         0.00000E+00
    0.94742E+00        -0.95908E+00         0.00000E+00
    0.91557E+00        -0.89926E+00         0.00000E+00
    0.88144E+00        -0.83890E+00         0.00000E+00
    0.84476E+00        -0.77802E+00         0.00000E+00
    0.80524E+00        -0.71667E+00         0.00000E+00
    0.76259E+00        -0.65493E+00         0.00000E+00
    0.71650E+00        -0.59288E+00         0.00000E+00
    0.66665E+00        -0.53064E+00         0.00000E+00
    0.61273E+00        -0.46834E+00         0.00000E+00
    0.55440E+00        -0.40617E+00         0.00000E+00
    0.49136E+00        -0.34435E+00         0.00000E+00
    0.42331E+00        -0.28316E+00         0.00000E+00
    0.34999E+00        -0.22291E+00         0.00000E+00
    0.27115E+00        -0.16400E+00         0.00000E+00
    0.18660E+00        -0.10685E+00         0.00000E+00
    0.96204E-01        -0.51970E-01         0.00000E+00
    0.00000E+00         0.00000E+00         0.00000E+00
    0.24649E+01        -0.31938E+01         0.00000E+00
    0.23110E+01        -0.31495E+01         0.00000E+00
    0.21741E+01        -0.31053E+01         0.00000E+00
    0.20527E+01        -0.30606E+01         0.00000E+00
    0.19455E+01        -0.30150E+01         0.00000E+00
    0.18511E+01        -0.29680E+01         0.00000E+00
    0.17682E+01        -0.29194E+01         0.00000E+00
    0.16956E+01        -0.28690E+01         0.00000E+00
    0.16319E+01        -0.28169E+01         0.00000E+00
    0.15760E+01        -0.27631E+01         0.00000E+00
    0.15269E+01        -0.27078E+01         0.00000E+00
    0.14838E+01        -0.26509E+01         0.00000E+00
    0.14456E+01        -0.25927E+01         0.00000E+00
    0.14119E+01        -0.25333E+01         0.00000E+00
    0.13818E+01        -0.24729E+01         0.00000E+00
    0.13549E+01        -0.24115E+01         0.00000E+00
    0.13307E+01        -0.23493E+01         0.00000E+00
    0.13087E+01        -0.22864E+01         0.00000E+00
    0.12885E+01        -0.22229E+01         0.00000E+00
    0.12699E+01        -0.21589E+01         0.00000E+00
    0.12524E+01        -0.20945E+01         0.00000E+00
    0.12358E+01        -0.20297E+01         0.00000E+00
    0.12199E+01        -0.19645E+01         0.00000E+00
    0.12044E+01        -0.18991E+01         0.00000E+00
    0.11891E+01        -0.18333E+01         0.00000E+00
    0.11738E+01        -0.17674E+01         0.00000E+00
    0.11583E+01        -0.17012E+01         0.00000E+00
    0.11424E+01        -0.16347E+01         0.00000E+00
    0.11259E+01        -0.15680E+01         0.00000E+00
    0.11086E+01        -0.15010E+01         0.00000E+00
    0.10903E+01        -0.14337E+01         0.00000E+00
    0.10708E+01        -0.13660E+01         0.00000E+00
    0.10499E+01        -0.12981E+01         0.00000E+00
    0.10273E+01        -0.12297E+01         0.00000E+00
    0.10028E+01        -0.11608E+01         0.00000E+00
    0.97608E+00        -0.10915E+01         0.00000E+00
    0.94685E+00        -0.10217E+01         0.00000E+00
    0.91476E+00        -0.95124E+00         0.00000E+00
    0.87944E+00        -0.88019E+00         0.00000E+00
    0.84046E+00        -0.80848E+00         0.00000E+00
    0.79734E+00        -0.73611E+00         0.00000E+00
    0.74958E+00        -0.66307E+00         0.00000E+00
    0.69657E+00        -0.58939E+00         0.00000E+00
    0.63770E+00        -0.51513E+00         0.00000E+00
    0.57226E+00        -0.44042E+00         0.00000E+00
    0.49952E+00        -0.36546E+00         0.00000E+00
    0.41872E+00        -0.29050E+00         0.00000E+00
    0.32913E+00        -0.21595E+00         0.00000E+00
    0.23000E+00        -0.14230E+00         0.00000E+00
    0.12062E+00        -0.70121E-01         0.00000E+00
    0.00000E+00         0.00000E+00         0.00000E+00
    0.20967E+01        -0.40454E+01         0.00000E+00
    0.19364E+01        -0.39739E+01         0.00000E+00
    0.17998E+01        -0.39017E+01         0.00000E+00
    0.16847E+01        -0.38276E+01         0.00000E+00
    0.15882E+01        -0.37514E+01         0.00000E+00
    0.15073E+01        -0.36732E+01         0.00000E+00
    0.14394E+01        -0.35930E+01         0.00000E+00
    0.13822E+01        -0.35112E+01         0.00000E+00
    0.13339E+01        -0.34283E+01         0.00000E+00
    0.12931E+01        -0.33444E+01         0.00000E+00
    0.12583E+01        -0.32600E+01         0.00000E+00
    0.12286E+01        -0.31752E+01         0.00000E+00
    0.12031E+01        -0.30904E+01         0.00000E+00
    0.11811E+01        -0.30057E+01         0.00000E+00
    0.11620E+01        -0.29212E+01         0.00000E+00
    0.11452E+01        -0.28371E+01         0.00000E+00
    0.11304E+01        -0.27535E+01         0.00000E+00
    0.11172E+01        -0.26704E+01         0.00000E+00
    0.11053E+01        -0.25880E+01         0.00000E+00
    0.10943E+01        -0.25061E+01         0.00000E+00
    0.10842E+01        -0.24249E+01         0.00000E+00
    0.10745E+01        -0.23444E+01         0.00000E+00
    0.10652E+01        -0.22645E+01         0.00000E+00
    0.10562E+01        -0.21853E+01         0.00000E+00
    0.10471E+01        -0.21066E+01         0.00000E+00
    0.10379E+01        -0.20285E+01         0.00000E+00
    0.10284E+01        -0.19510E+01         0.00000E+00
    0.10186E+01        -0.18739E+01         0.00000E+00
    0.10081E+01        -0.17972E+01         0.00000E+00
    0.99695E+00        -0.17208E+01         0.00000E+00
    0.98493E+00        -0.16447E+01         0.00000E+00
    0.97187E+00        -0.15688E+01         0.00000E+00
    0.95759E+00        -0.14929E+01         0.00000E+00
    0.94189E+00        -0.14171E+01         0.00000E+00
    0.92454E+00        -0.13411E+01         0.00000E+00
    0.90529E+00        -0.12649E+01         0.00000E+00
    0.88385E+00        -0.11884E+01         0.00000E+00
    0.85989E+00        -0.11114E+01         0.00000E+00
    0.83301E+00        -0.10337E+01         0.00000E+00
    0.80277E+00        -0.95522E+00         0.00000E+00
    0.76862E+00        -0.87579E+00         0.00000E+00
    0.72995E+00        -0.79522E+00         0.00000E+00
    0.68599E+00        -0.71332E+00         0.00000E+00
    0.63588E+00        -0.62993E+00         0.00000E+00
    0.57854E+00        -0.54486E+00         0.00000E+00
    0.51272E+00        -0.45799E+00         0.00000E+00
    0.43694E+00        -0.36923E+00         0.00000E+00
    0.34951E+00        -0.27863E+00         0.00000E+00
    0.24858E+00        -0.18642E+00         0.00000E+00
    0.13239E+00        -0.93178E-01         0.00000E+00
    0.00000E+00         0.00000E+00         0.00000E+00
    0.13089E+01        -0.48657E+01         0.00000E+00
    0.11798E+01        -0.47568E+01         0.00000E+00
    0.10829E+01        -0.46423E+01         0.00000E+00
    0.10082E+01        -0.45243E+01         0.00000E+00
    0.94967E+00        -0.44042E+01         0.00000E+00
    0.90313E+00        -0.42833E+01         0.00000E+00
    0.86570E+00        -0.41627E+01         0.00000E+00
    0.83531E+00        -0.40428E+01         0.00000E+00
    0.81044E+00        -0.39244E+01         0.00000E+00
    0.78994E+00        -0.38075E+01         0.00000E+00
    0.77293E+00        -0.36926E+01         0.00000E+00
    0.75872E+00        -0.35798E+01         0.00000E+00
    0.74678E+00        -0.34690E+01         0.00000E+00
    0.73666E+00        -0.33604E+01         0.00000E+00
    0.72803E+00        -0.32540E+01         0.00000E+00
    0.72058E+00        -0.31497E+01         0.00000E+00
    0.71410E+00        -0.30475E+01         0.00000E+00
    0.70837E+00        -0.29474E+01         0.00000E+00
    0.70324E+00        -0.28491E+01         0.00000E+00
    0.69856E+00        -0.27528E+01         0.00000E+00
    0.69420E+00        -0.26583E+01         0.00000E+00
    0.69007E+00        -0.25654E+01         0.00000E+00
    0.68607E+00        -0.24742E+01         0.00000E+00
    0.68210E+00        -0.23845E+01         0.00000E+00
    0.67809E+00        -0.22963E+01         0.00000E+00
    0.67396E+00        -0.22093E+01         0.00000E+00
    0.66964E+00        -0.21236E+01         0.00000E+00
    0.66505E+00        -0.20390E+01         0.00000E+00
    0.66012E+00        -0.19554E+01         0.00000E+00
    0.65476E+00        -0.18728E+01         0.00000E+00
    0.64889E+00        -0.17909E+01         0.00000E+00
    0.64242E+00        -0.17097E+01         0.00000E+00
    0.63525E+00        -0.16290E+01         0.00000E+00
    0.62727E+00        -0.15487E+01         0.00000E+00
    0.61833E+00        -0.14687E+01         0.00000E+00
    0.60829E+00        -0.13888E+01         0.00000E+00
    0.59697E+00        -0.13088E+01         0.00000E+00
    0.58416E+00        -0.12286E+01         0.00000E+00
    0.56961E+00        -0.11478E+01         0.00000E+00
    0.55301E+00        -0.10664E+01         0.00000E+00
    0.53401E+00        -0.98394E+00         0.00000E+00
    0.51214E+00        -0.90019E+00         0.00000E+00
    0.48685E+00        -0.81475E+00         0.00000E+00
    0.45741E+00        -0.72721E+00         0.00000E+00
    0.42293E+00        -0.63704E+00         0.00000E+00
    0.38219E+00        -0.54367E+00         0.00000E+00
    0.33363E+00        -0.44639E+00         0.00000E+00
    0.27506E+00        -0.34436E+00         0.00000E+00
    0.20339E+00        -0.23666E+00         0.00000E+00
    0.11407E+00        -0.12221E+00         0.00000E+00
    0.00000E+00         0.00000E+00         0.00000E+00
    0.00000E+00        -0.53313E+01         0.00000E+00
    0.00000E+00        -0.51714E+01         0.00000E+00
    0.00000E+00        -0.50117E+01         0.00000E+00
    0.00000E+00        -0.48545E+01         0.00000E+00
    0.00000E+00        -0.47007E+01         0.00000E+00
    0.00000E+00        -0.45508E+01         0.00000E+00
    0.00000E+00        -0.44050E+01         0.00000E+00
    0.00000E+00        -0.42633E+01         0.00000E+00
    0.00000E+00        -0.41258E+01         0.00000E+00
    0.00000E+00        -0.39922E+01         0.00000E+00
    0.00000E+00        -0.38625E+01         0.00000E+00
    0.00000E+00        -0.37365E+01         0.00000E+00
    0.00000E+00        -0.36141E+01         0.00000E+00
    0.00000E+00        -0.34950E+01         0.00000E+00
    0.00000E+00        -0.33792E+01         0.00000E+00
    0.00000E+00        -0.32664E+01         0.00000E+00
    0.00000E+00        -0.31565E+01         0.00000E+00
    0.00000E+00        -0.30494E+01         0.00000E+00
    0.00000E+00        -0.29449E+01         0.00000E+00
    0.00000E+00        -0.28428E+01         0.00000E+00
    0.00000E+00        -0.27431E+01         0.00000E+00
    0.00000E+00        -0.26455E+01         0.00000E+00
    0.00000E+00        -0.25500E+01         0.00000E+00
    0.00000E+00        -0.24563E+01         0.00000E+00
    0.00000E+00        -0.23645E+01         0.00000E+00
    0.00000E+00        -0.22743E+01         0.00000E+00
    0.00000E+00        -0.21856E+01         0.00000E+00
    0.00000E+00        -0.20982E+01         0.00000E+00
    0.00000E+00        -0.20122E+01         0.00000E+00
    0.00000E+00        -0.19273E+01         0.00000E+00
    0.00000E+00        -0.18434E+01         0.00000E+00
    0.00000E+00        -0.17604E+01         0.00000E+00
    0.00000E+00        -0.16781E+01         0.00000E+00
    0.00000E+00        -0.15964E+01         0.00000E+00
    0.00000E+00        -0.15152E+01         0.00000E+00
    0.00000E+00        -0.14342E+01         0.00000E+00
    0.00000E+00        -0.13532E+01         0.00000E+00
    0.00000E+00        -0.12722E+01         0.00000E+00
    0.00000E+00        -0.11908E+01         0.00000E+00
    0.00000E+00        -0.11087E+01         0.00000E+00
    0.00000E+00        -0.10258E+01         0.00000E+00
    0.00000E+00        -0.94152E+00         0.00000E+00
    0.00000E+00        -0.85554E+00         0.00000E+00
    0.00000E+00        -0.76732E+00         0.00000E+00
    0.00000E+00        -0.67621E+00         0.00000E+00
    0.00000E+00        -0.58142E+00         0.00000E+00
    0.00000E+00        -0.48190E+00         0.00000E+00
    0.00000E+00        -0.37630E+00         0.00000E+00
    0.00000E+00        -0.26275E+00         0.00000E+00
    0.00000E+00        -0.13862E+00         0.00000E+00
    0.00000E+00         0.00000E+00         0.00000E+00
CELL_DATA       5000
VECTORS vDarcy double 
    0.61769E-06         0.00000E+00         0.00000E+00
    0.61769E-06        -0.23283E-20         0.00000E+00
    0.61769E-06         0.00000E+00         0.00000E+00
    0.61769E-06        -0.13970E-20         0.00000E+00
    0.61769E-06         0.55879E-20         0.00000E+00
    0.61769E-06        -0.46566E-21         0.00000E+00
    0.61769E-06         0.46566E-21         0.00000E+00
    0.61769E-06        -0.23283E-20         0.00000E+00
    0.61769E-06        -0.51223E-20         0.00000E+00
    0.61769E-06         0.00000E+00         0.00000E+00
    0.61769E-06        -0.23283E-20         0.00000E+00
    0.61769E-06        -0.25611E-20         0.00000E+00
    0.61769E-06        -0.88476E-20         0.00000E+00
    0.61769E-06         0.93132E-21         0.00000E+00
    0.61769E-06         0.00000E+00         0.00000E+00
    0.61769E-06        -0.23283E-20         0.00000E+00
    0.61769E-06        -0.41910E-20         0.00000E+00
    0.61769E-06         0.27940E-20         0.00000E+00
    0.61769E-06         0.46566E-20         0.00000E+00
    0.61769E-06        -0.46566E-20         0.00000E+00
    0.61769E-06         0.00000E+00         0.00000E+00
    0.61769E-06         0.69849E-20         0.00000E+00
    0.61769E-06         0.46566E-20         0.00000E+00
    0.61769E-06         0.18626E-20         0.00000E+00
    0.61769E-06         0.16298E-20         0.00000E+00
    0.61769E-06         0.00000E+00         0.00000E+00
    0.61769E-06         0.27940E-20         0.00000E+00
    0.61769E-06        -0.23283E-20         0.00000E+00
    0.61769E-06         0.00000E+00         0.00000E+00
    0.61769E-06         0.00000E+00         0.00000E+00
    0.61769E-06         0.41910E-20         0.00000E+00
    0.61769E-06         0.69849E-20         0.00000E+00
    0.61769E-06         0.46566E-20         0.00000E+00
    0.61769E-06         0.69849E-20         0.00000E+00
    0.61769E-06         0.23283E-20         0.00000E+00
    0.61769E-06        -0.46566E-20         0.00000E+00
    0.61769E-06        -0.46566E-20         0.00000E+00
    0.61769E-06         0.00000E+00         0.00000E+00
    0.61769E-06         0.46566E-20         0.00000E+00
    0.61769E-06         0.46566E-20         0.00000E+00
    0.61769E-06        -0.48894E-20         0.00000E+00
    0.61769E-06        -0.39581E-20         0.00000E+00
    0.61769E-06         0.46566E-20         0.00000E+00
    0.61769E-06         0.18626E-20         0.00000E+00
    0.61769E-06        -0.46566E-20         0.00000E+00
    0.61769E-06         0.00000E+00         0.00000E+00
    0.61769E-06         0.46566E-21         0.00000E+00
    0.61769E-06        -0.46566E-21         0.00000E+00
    0.61769E-06        -0.46566E-20         0.00000E+00
    0.61769E-06         0.41910E-20         0.00000E+00
    0.52569E-06         0.69849E-20         0.00000E+00
    0.52569E-06         0.55879E-20         0.00000E+00
    0.52569E-06        -0.93132E-20         0.00000E+00
    0.52569E-06        -0.76834E-20         0.00000E+00
    0.52569E-06         0.00000E+00         0.00000E+00
    0.52569E-06        -0.13970E-20         0.00000E+00
    0.52569E-06        -0.76834E-20         0.00000E+00
    0.52569E-06        -0.13504E-19         0.00000E+00
    0.52569E-06        -0.93132E-21         0.00000E+00
    0.52569E-06        -0.69849E-20         0.00000E+00
    0.52569E-06        -0.23283E-20         0.00000E+00
    0.52569E-06         0.11642E-20         0.00000E+00
    0.52569E-06         0.20955E-20         0.00000E+00
    0.52569E-06         0.46566E-20         0.00000E+00
    0.52569E-06         0.60536E-20         0.00000E+00
    0.52569E-06        -0.18626E-20         0.00000E+00
    0.52569E-06        -0.13970E-20         0.00000E+00
    0.52569E-06         0.13970E-20         0.00000E+00
    0.52569E-06         0.10245E-19         0.00000E+00
    0.52569E-06         0.13970E-20         0.00000E+00
    0.52569E-06         0.46566E-20         0.00000E+00
    0.52569E-06        -0.65193E-20         0.00000E+00
    0.52569E-06        -0.74506E-20         0.00000E+00
    0.52569E-06        -0.86147E-20         0.00000E+00
    0.52569E-06        -0.13970E-20         0.00000E+00
    0.52569E-06        -0.65193E-20         0.00000E+00
    0.52569E-06        -0.65193E-20         0.00000E+00
    0.52569E-06        -0.60536E-20         0.00000E+00
    0.52569E-06        -0.23283E-20         0.00000E+00
    0.52569E-06         0.16298E-19         0.00000E+00
    0.52569E-06         0.13504E-19         0.00000E+00
    0.52569E-06         0.23749E-19         0.00000E+00
    0.52569E-06         0.13504E-19         0.00000E+00
    0.52569E-06         0.55879E-20         0.00000E+00
    0.52569E-06         0.13970E-20         0.00000E+00
    0.52569E-06        -0.10710E-19         0.00000E+00
    0.52569E-06        -0.46566E-21         0.00000E+00
    0.52569E-06         0.23283E-20         0.00000E+00
    0.52569E-06         0.60536E-20         0.00000E+00
    0.52569E-06         0.60536E-20         0.00000E+00
    0.52569E-06        -0.69849E-21         0.00000E+00
    0.52569E-06        -0.39581E-20         0.00000E+00
    0.52569E-06        -0.60536E-20         0.00000E+00
    0.52569E-06        -0.72177E-20         0.00000E+00
    0.52569E-06        -0.13737E-19         0.00000E+00
    0.52569E-06        -0.46566E-20         0.00000E+00
    0.52569E-06        -0.20955E-20         0.00000E+00
    0.52569E-06        -0.93132E-20         0.00000E+00
    0.52569E-06        -0.55879E-20         0.00000E+00
    0.52569E-06        -0.93132E-21         0.00000E+00
    0.38232E-06        -0.37253E-20         0.00000E+00
    0.38232E-06        -0.27940E-20         0.00000E+00
    0.38232E-06        -0.90804E-20         0.00000E+00
    0.38232E-06        -0.74506E-20         0.00000E+00
    0.38232E-06        -0.12107E-19         0.00000E+00
    0.38232E-06        -0.51223E-20         0.00000E+00
    0.38232E-06        -0.24214E-19         0.00000E+00
    0.38232E-06        -0.25611E-20         0.00000E+00
    0.38232E-06         0.13039E-19         0.00000E+00
    0.38232E-06         0.18161E-19         0.00000E+00
    0.38232E-06         0.16764E-19         0.00000E+00
    0.38232E-06         0.60536E-20         0.00000E+00
    0.38232E-06         0.60536E-20         0.00000E+00
    0.38232E-06         0.93132E-21         0.00000E+00
    0.38232E-06         0.10710E-19         0.00000E+00
    0.38232E-06         0.46566E-21         0.00000E+00
    0.38232E-06         0.23283E-20         0.00000E+00
    0.38232E-06         0.69849E-20         0.00000E+00
    0.38232E-06         0.13504E-19         0.00000E+00
    0.38232E-06         0.11642E-19         0.00000E+00
    0.38232E-06        -0.16298E-20         0.00000E+00
    0.38232E-06        -0.17229E-19         0.00000E+00
    0.38232E-06        -0.13039E-19         0.00000E+00
    0.38232E-06        -0.18161E-19         0.00000E+00
    0.38232E-06        -0.13271E-19         0.00000E+00
    0.38232E-06         0.69849E-21         0.00000E+00
    0.38232E-06        -0.69849E-21         0.00000E+00
    0.38232E-06         0.72177E-20         0.00000E+00
    0.38232E-06         0.13970E-19         0.00000E+00
    0.38232E-06         0.24214E-19         0.00000E+00
    0.38232E-06         0.69849E-20         0.00000E+00
    0.38232E-06         0.24214E-19         0.00000E+00
    0.38232E-06         0.95461E-20         0.00000E+00
    0.38232E-06         0.46566E-20         0.00000E+00
    0.38232E-06         0.46566E-21         0.00000E+00
    0.38232E-06        -0.15367E-19         0.00000E+00
    0.38232E-06        -0.15600E-19         0.00000E+00
    0.38232E-06        -0.79162E-20         0.00000E+00
    0.38232E-06        -0.12340E-19         0.00000E+00
    0.38232E-06        -0.79162E-20         0.00000E+00
    0.38232E-06        -0.93132E-21         0.00000E+00
    0.38232E-06        -0.39581E-20         0.00000E+00
    0.38232E-06        -0.10710E-19         0.00000E+00
    0.38232E-06        -0.15600E-19         0.00000E+00
    0.38232E-06        -0.69849E-20         0.00000E+00
    0.38232E-06         0.62864E-20         0.00000E+00
    0.38232E-06         0.25611E-20         0.00000E+00
    0.38232E-06        -0.27940E-20         0.00000E+00
    0.38232E-06        -0.74506E-20         0.00000E+00
    0.38232E-06        -0.55879E-20         0.00000E+00
    0.23938E-06        -0.46566E-20         0.00000E+00
    0.23938E-06        -0.97789E-20         0.00000E+00
    0.23938E-06         0.00000E+00         0.00000E+00
    0.23938E-06         0.13970E-20         0.00000E+00
    0.23938E-06        -0.88476E-20         0.00000E+00
    0.23938E-06         0.32596E-20         0.00000E+00
    0.23938E-06         0.76834E-20         0.00000E+00
    0.23938E-06         0.11642E-19         0.00000E+00
    0.23938E-06         0.74506E-20         0.00000E+00
    0.23938E-06         0.18626E-19         0.00000E+00
    0.23938E-06         0.23283E-19         0.00000E+00
    0.23938E-06         0.12107E-19         0.00000E+00
    0.23938E-06         0.10012E-19         0.00000E+00
    0.23938E-06         0.23283E-20         0.00000E+00
    0.23938E-06         0.16764E-19         0.00000E+00
    0.23938E-06         0.41910E-20         0.00000E+00
    0.23938E-06         0.93132E-20         0.00000E+00
    0.23938E-06         0.16065E-19         0.00000E+00
    0.23938E-06         0.11176E-19         0.00000E+00
    0.23938E-06        -0.74506E-20         0.00000E+00
    0.23938E-06        -0.79162E-20         0.00000E+00
    0.23938E-06        -0.65193E-20         0.00000E+00
    0.23938E-06         0.00000E+00         0.00000E+00
    0.23938E-06        -0.86147E-20         0.00000E+00
    0.23938E-06         0.11176E-19         0.00000E+00
    0.23938E-06         0.13970E-19         0.00000E+00
    0.23938E-06         0.13737E-19         0.00000E+00
    0.23938E-06         0.46566E-20         0.00000E+00
    0.23938E-06         0.10245E-19         0.00000E+00
    0.23938E-06         0.46566E-21         0.00000E+00
    0.23938E-06         0.55879E-20         0.00000E+00
    0.23938E-06         0.14435E-19         0.00000E+00
    0.23938E-06         0.00000E+00         0.00000E+00
    0.23938E-06        -0.83819E-20         0.00000E+00
    0.23938E-06        -0.27940E-20         0.00000E+00
    0.23938E-06        -0.16298E-19         0.00000E+00
    0.23938E-06        -0.18626E-19         0.00000E+00
    0.23938E-06        -0.88476E-20         0.00000E+00
    0.23938E-06        -0.37253E-20         0.00000E+00
    0.23938E-06        -0.11642E-19         0.00000E+00
    0.23938E-06        -0.16764E-19         0.00000E+00
    0.23938E-06        -0.51223E-20         0.00000E+00
    0.23938E-06        -0.55879E-20         0.00000E+00
    0.23938E-06        -0.60536E-20         0.00000E+00
    0.23938E-06        -0.25611E-20         0.00000E+00
    0.23938E-06        -0.23283E-20         0.00000E+00
    0.23938E-06        -0.37253E-20         0.00000E+00
    0.23938E-06         0.27940E-20         0.00000E+00
    0.23938E-06         0.32596E-20         0.00000E+00
    0.23938E-06        -0.18626E-20         0.00000E+00
    0.13035E-06        -0.93132E-21         0.00000E+00
    0.13035E-06        -0.41910E-20         0.00000E+00
    0.13035E-06         0.88476E-20         0.00000E+00
    0.13035E-06         0.44238E-20         0.00000E+00
    0.13035E-06         0.90804E-20         0.00000E+00
    0.13035E-06         0.97789E-20         0.00000E+00
    0.13035E-06         0.20955E-19         0.00000E+00
    0.13035E-06        -0.46566E-21         0.00000E+00
    0.13035E-06        -0.11642E-19         0.00000E+00
    0.13035E-06         0.23283E-20         0.00000E+00
    0.13035E-06         0.13039E-19         0.00000E+00
    0.13035E-06         0.30268E-20         0.00000E+00
    0.13035E-06         0.22585E-19         0.00000E+00
    0.13035E-06         0.14901E-19         0.00000E+00
    0.13035E-06         0.22585E-19         0.00000E+00
    0.13035E-06         0.13504E-19         0.00000E+00
    0.13035E-06         0.16764E-19         0.00000E+00
    0.13035E-06         0.23283E-20         0.00000E+00
    0.13035E-06         0.88476E-20         0.00000E+00
    0.13035E-06        -0.69849E-20         0.00000E+00
    0.13035E-06         0.27940E-20         0.00000E+00
    0.13035E-06         0.13970E-20         0.00000E+00
    0.13035E-06         0.74506E-20         0.00000E+00
    0.13035E-06         0.88476E-20         0.00000E+00
    0.13035E-06         0.15832E-19         0.00000E+00
    0.13035E-06         0.83819E-20         0.00000E+00
    0.13035E-06         0.41910E-20         0.00000E+00
    0.13035E-06        -0.65193E-20         0.00000E+00
    0.13035E-06        -0.65193E-20         0.00000E+00
    0.13035E-06         0.46566E-20         0.00000E+00
    0.13035E-06         0.12107E-19         0.00000E+00
    0.13035E-06        -0.23283E-20         0.00000E+00
    0.13035E-06        -0.18626E-20         0.00000E+00
    0.13035E-06        -0.11176E-19         0.00000E+00
    0.13035E-06        -0.14901E-19         0.00000E+00
    0.13035E-06        -0.16764E-19         0.00000E+00
    0.13035E-06         0.18626E-20         0.00000E+00
    0.13035E-06         0.83819E-20         0.00000E+00
    0.13035E-06         0.48894E-20         0.00000E+00
    0.13035E-06        -0.93132E-21         0.00000E+00
    0.13035E-06        -0.93132E-20         0.00000E+00
    0.13035E-06        -0.25146E-19         0.00000E+00
    0.13035E-06        -0.26543E-19         0.00000E+00
    0.13035E-06        -0.88476E-20         0.00000E+00
    0.13035E-06        -0.15134E-19         0.00000E+00
    0.13035E-06        -0.20489E-19         0.00000E+00
    0.13035E-06        -0.15832E-19         0.00000E+00
    0.13035E-06        -0.14901E-19         0.00000E+00
    0.13035E-06         0.51223E-20         0.00000E+00
    0.13035E-06         0.51223E-20         0.00000E+00
    0.62442E-07        -0.32596E-20         0.00000E+00
    0.62442E-07         0.18626E-20         0.00000E+00
    0.62442E-07         0.95461E-20         0.00000E+00
    0.62442E-07         0.15832E-19         0.00000E+00
    0.62442E-07         0.11176E-19         0.00000E+00
    0.62442E-07        -0.79162E-20         0.00000E+00
    0.62442E-07        -0.69849E-20         0.00000E+00
    0.62442E-07        -0.23283E-20         0.00000E+00
    0.62442E-07        -0.13504E-19         0.00000E+00
    0.62442E-07         0.11642E-19         0.00000E+00
    0.62442E-07         0.10012E-19         0.00000E+00
    0.62442E-07        -0.11642E-20         0.00000E+00
    0.62442E-07         0.93132E-20         0.00000E+00
    0.62442E-07         0.19092E-19         0.00000E+00
    0.62442E-07         0.15367E-19         0.00000E+00
    0.62442E-07         0.18626E-19         0.00000E+00
    0.62442E-07         0.23749E-19         0.00000E+00
    0.62442E-07         0.11176E-19         0.00000E+00
    0.62442E-07         0.32596E-20         0.00000E+00
    0.62442E-07         0.41910E-20         0.00000E+00
    0.62442E-07         0.41910E-20         0.00000E+00
    0.62442E-07         0.51223E-20         0.00000E+00
    0.62442E-07        -0.23283E-20         0.00000E+00
    0.62442E-07         0.69849E-20         0.00000E+00
    0.62442E-07         0.51223E-20         0.00000E+00
    0.62442E-07         0.93132E-20         0.00000E+00
    0.62442E-07         0.00000E+00         0.00000E+00
    0.62442E-07         0.83819E-20         0.00000E+00
    0.62442E-07         0.13970E-20         0.00000E+00
    0.62442E-07         0.93132E-20         0.00000E+00
    0.62442E-07         0.13970E-20         0.00000E+00
    0.62442E-07        -0.13504E-19         0.00000E+00
    0.62442E-07         0.74506E-20         0.00000E+00
    0.62442E-07         0.41910E-20         0.00000E+00
    0.62442E-07        -0.10245E-19         0.00000E+00
    0.62442E-07        -0.16298E-19         0.00000E+00
    0.62442E-07        -0.20955E-20         0.00000E+00
    0.62442E-07        -0.65193E-20         0.00000E+00
    0.62442E-07        -0.62864E-20         0.00000E+00
    0.62442E-07        -0.27940E-20         0.00000E+00
    0.62442E-07        -0.12107E-19         0.00000E+00
    0.62442E-07        -0.22352E-19         0.00000E+00
    0.62442E-07        -0.28405E-19         0.00000E+00
    0.62442E-07        -0.23749E-19         0.00000E+00
    0.62442E-07        -0.20023E-19         0.00000E+00
    0.62442E-07        -0.10245E-19         0.00000E+00
    0.62442E-07        -0.81491E-20         0.00000E+00
    0.62442E-07        -0.15367E-19         0.00000E+00
    0.62442E-07        -0.41910E-20         0.00000E+00
    0.62442E-07         0.48894E-20         0.00000E+00
    0.26640E-07         0.30268E-20         0.00000E+00
    0.26640E-07        -0.37253E-20         0.00000E+00
    0.26640E-07         0.18626E-20         0.00000E+00
    0.26640E-07         0.27940E-20         0.00000E+00
    0.26640E-07         0.30268E-20         0.00000E+00
    0.26640E-07        -0.16298E-19         0.00000E+00
    0.26640E-07        -0.10245E-19         0.00000E+00
    0.26640E-07        -0.15367E-19         0.00000E+00
    0.26640E-07        -0.18161E-19         0.00000E+00
    0.26640E-07        -0.27940E-20         0.00000E+00
    0.26640E-07        -0.46566E-20         0.00000E+00
    0.26640E-07         0.74506E-20         0.00000E+00
    0.26640E-07         0.97789E-20         0.00000E+00
    0.26640E-07         0.21886E-19         0.00000E+00
    0.26640E-07         0.18626E-19         0.00000E+00
    0.26640E-07         0.12573E-19         0.00000E+00
    0.26640E-07         0.21886E-19         0.00000E+00
    0.26640E-07         0.10245E-19         0.00000E+00
    0.26640E-07        -0.46566E-21         0.00000E+00
    0.26640E-07        -0.79162E-20         0.00000E+00
    0.26640E-07        -0.11176E-19         0.00000E+00
    0.26640E-07         0.00000E+00         0.00000E+00
    0.26640E-07         0.27940E-20         0.00000E+00
    0.26640E-07        -0.32596E-20         0.00000E+00
    0.26640E-07         0.60536E-20         0.00000E+00
    0.26640E-07         0.16764E-19         0.00000E+00
    0.26640E-07         0.29337E-19         0.00000E+00
    0.26640E-07         0.32131E-19         0.00000E+00
    0.26640E-07         0.10245E-19         0.00000E+00
    0.26640E-07        -0.37253E-20         0.00000E+00
    0.26640E-07         0.93132E-21         0.00000E+00
    0.26640E-07        -0.25146E-19         0.00000E+00
    0.26640E-07        -0.93132E-20         0.00000E+00
    0.26640E-07        -0.10710E-19         0.00000E+00
    0.26640E-07        -0.65193E-20         0.00000E+00
    0.26640E-07        -0.51223E-20         0.00000E+00
    0.26640E-07        -0.37253E-20         0.00000E+00
    0.26640E-07        -0.14435E-19         0.00000E+00
    0.26640E-07         0.93132E-21         0.00000E+00
    0.26640E-07         0.18626E-20         0.00000E+00
    0.26640E-07        -0.97789E-20         0.00000E+00
    0.26640E-07        -0.46566E-20         0.00000E+00
    0.26640E-07        -0.24680E-19         0.00000E+00
    0.26640E-07        -0.27008E-19         0.00000E+00
    0.26640E-07        -0.23283E-19         0.00000E+00
    0.26640E-07        -0.93132E-20         0.00000E+00
    0.26640E-07        -0.37253E-20         0.00000E+00
    0.26640E-07        -0.19092E-19         0.00000E+00
    0.26640E-07        -0.37253E-20         0.00000E+00
    0.26640E-07         0.18626E-20         0.00000E+00
    0.10247E-07         0.16298E-20         0.00000E+00
    0.10247E-07        -0.48894E-20         0.00000E+00
    0.10247E-07         0.27940E-20         0.00000E+00
    0.10247E-07        -0.16298E-20         0.00000E+00
    0.10247E-07        -0.37253E-20         0.00000E+00
    0.10247E-07        -0.16065E-19         0.00000E+00
    0.10247E-07        -0.19791E-19         0.00000E+00
    0.10247E-07        -0.15832E-19         0.00000E+00
    0.10247E-07        -0.14901E-19         0.00000E+00
    0.10247E-07        -0.12573E-19         0.00000E+00
    0.10247E-07        -0.11642E-19         0.00000E+00
    0.10247E-07        -0.83819E-20         0.00000E+00
    0.10247E-07        -0.13970E-20         0.00000E+00
    0.10247E-07         0.10477E-19         0.00000E+00
    0.10247E-07         0.11642E-20         0.00000E+00
    0.10247E-07         0.83819E-20         0.00000E+00
    0.10247E-07         0.14901E-19         0.00000E+00
    0.10247E-07         0.41910E-20         0.00000E+00
    0.10247E-07        -0.51223E-20         0.00000E+00
    0.10247E-07        -0.93132E-20         0.00000E+00
    0.10247E-07        -0.11642E-19         0.00000E+00
    0.10247E-07        -0.46566E-21         0.00000E+00
    0.10247E-07         0.65193E-20         0.00000E+00
    0.10247E-07         0.55879E-20         0.00000E+00
    0.10247E-07         0.11409E-19         0.00000E+00
    0.10247E-07         0.20955E-19         0.00000E+00
    0.10247E-07         0.30734E-19         0.00000E+00
    0.10247E-07         0.34459E-19         0.00000E+00
    0.10247E-07         0.46566E-20         0.00000E+00
    0.10247E-07         0.51223E-20         0.00000E+00
    0.10247E-07        -0.12573E-19         0.00000E+00
    0.10247E-07        -0.25146E-19         0.00000E+00
    0.10247E-07        -0.21420E-19         0.00000E+00
    0.10247E-07        -0.65193E-20         0.00000E+00
    0.10247E-07        -0.65193E-20         0.00000E+00
    0.10247E-07         0.18626E-20         0.00000E+00
    0.10247E-07         0.74506E-20         0.00000E+00
    0.10247E-07         0.51223E-20         0.00000E+00
    0.10247E-07         0.27940E-20         0.00000E+00
    0.10247E-07         0.62864E-20         0.00000E+00
    0.10247E-07        -0.17229E-19         0.00000E+00
    0.10247E-07        -0.15600E-19         0.00000E+00
    0.10247E-07        -0.21886E-19         0.00000E+00
    0.10247E-07        -0.27241E-19         0.00000E+00
    0.10247E-07        -0.20955E-19         0.00000E+00
    0.10247E-07        -0.21420E-19         0.00000E+00
    0.10247E-07        -0.97789E-20         0.00000E+00
    0.10247E-07        -0.13970E-19         0.00000E+00
    0.10247E-07        -0.79162E-20         0.00000E+00
    0.10247E-07        -0.46566E-21         0.00000E+00
    0.35950E-08        -0.32596E-20         0.00000E+00
    0.35950E-08         0.51223E-20         0.00000E+00
    0.35950E-08         0.95461E-20         0.00000E+00
    0.35950E-08         0.00000E+00         0.00000E+00
    0.35950E-08        -0.65193E-20         0.00000E+00
    0.35950E-08        -0.22119E-19         0.00000E+00
    0.35950E-08        -0.16997E-19         0.00000E+00
    0.35950E-08        -0.22352E-19         0.00000E+00
    0.35950E-08        -0.14435E-19         0.00000E+00
    0.35950E-08        -0.97789E-20         0.00000E+00
    0.35950E-08        -0.18161E-19         0.00000E+00
    0.35950E-08        -0.15600E-19         0.00000E+00
    0.35950E-08        -0.15367E-19         0.00000E+00
    0.35950E-08        -0.90804E-20         0.00000E+00
    0.35950E-08        -0.83819E-20         0.00000E+00
    0.35950E-08        -0.32596E-20         0.00000E+00
    0.35950E-08         0.69849E-20         0.00000E+00
    0.35950E-08        -0.27940E-20         0.00000E+00
    0.35950E-08        -0.69849E-20         0.00000E+00
    0.35950E-08        -0.23283E-20         0.00000E+00
    0.35950E-08        -0.13504E-19         0.00000E+00
    0.35950E-08        -0.69849E-20         0.00000E+00
    0.35950E-08         0.27940E-20         0.00000E+00
    0.35950E-08         0.55879E-20         0.00000E+00
    0.35950E-08         0.26776E-19         0.00000E+00
    0.35950E-08         0.23982E-19         0.00000E+00
    0.35950E-08         0.44238E-20         0.00000E+00
    0.35950E-08         0.22352E-19         0.00000E+00
    0.35950E-08         0.14901E-19         0.00000E+00
    0.35950E-08         0.13970E-19         0.00000E+00
    0.35950E-08        -0.10245E-19         0.00000E+00
    0.35950E-08        -0.74506E-20         0.00000E+00
    0.35950E-08        -0.72177E-20         0.00000E+00
    0.35950E-08        -0.37253E-20         0.00000E+00
    0.35950E-08        -0.37253E-20         0.00000E+00
    0.35950E-08        -0.46566E-21         0.00000E+00
    0.35950E-08         0.00000E+00         0.00000E+00
    0.35950E-08         0.12107E-19         0.00000E+00
    0.35950E-08         0.93132E-21         0.00000E+00
    0.35950E-08        -0.20955E-20         0.00000E+00
    0.35950E-08        -0.16531E-19         0.00000E+00
    0.35950E-08        -0.11874E-19         0.00000E+00
    0.35950E-08        -0.15832E-19         0.00000E+00
    0.35950E-08        -0.27008E-19         0.00000E+00
    0.35950E-08        -0.26543E-19         0.00000E+00
    0.35950E-08        -0.21420E-19         0.00000E+00
    0.35950E-08        -0.46566E-21         0.00000E+00
    0.35950E-08        -0.23283E-20         0.00000E+00
    0.35950E-08        -0.41910E-20         0.00000E+00
    0.35950E-08        -0.44238E-20         0.00000E+00
    0.11630E-08         0.93132E-21         0.00000E+00
    0.11630E-08         0.67521E-20         0.00000E+00
    0.11630E-08         0.74506E-20         0.00000E+00
    0.11630E-08         0.12573E-19         0.00000E+00
    0.11630E-08        -0.90804E-20         0.00000E+00
    0.11630E-08        -0.23749E-19         0.00000E+00
    0.11630E-08        -0.16298E-19         0.00000E+00
    0.11630E-08        -0.33062E-19         0.00000E+00
    0.11630E-08        -0.31665E-19         0.00000E+00
    0.11630E-08        -0.26077E-19         0.00000E+00
    0.11630E-08        -0.21886E-19         0.00000E+00
    0.11630E-08        -0.62864E-20         0.00000E+00
    0.11630E-08        -0.17229E-19         0.00000E+00
    0.11630E-08        -0.14435E-19         0.00000E+00
    0.11630E-08        -0.11642E-19         0.00000E+00
    0.11630E-08        -0.97789E-20         0.00000E+00
    0.11630E-08        -0.55879E-20         0.00000E+00
    0.11630E-08         0.46566E-20         0.00000E+00
    0.11630E-08         0.65193E-20         0.00000E+00
    0.11630E-08        -0.88476E-20         0.00000E+00
    0.11630E-08        -0.27474E-19         0.00000E+00
    0.11630E-08        -0.13039E-19         0.00000E+00
    0.11630E-08        -0.93132E-20         0.00000E+00
    0.11630E-08        -0.27940E-20         0.00000E+00
    0.11630E-08         0.21420E-19         0.00000E+00
    0.11630E-08         0.20955E-19         0.00000E+00
    0.11630E-08         0.10710E-19         0.00000E+00
    0.11630E-08         0.20955E-19         0.00000E+00
    0.11630E-08         0.93132E-20         0.00000E+00
    0.11630E-08         0.69849E-20         0.00000E+00
    0.11630E-08        -0.60536E-20         0.00000E+00
    0.11630E-08        -0.51223E-20         0.00000E+00
    0.11630E-08        -0.95461E-20         0.00000E+00
    0.11630E-08        -0.13504E-19         0.00000E+00
    0.11630E-08        -0.93132E-20         0.00000E+00
    0.11630E-08         0.93132E-21         0.00000E+00
    0.11630E-08        -0.72177E-20         0.00000E+00
    0.11630E-08        -0.93132E-21         0.00000E+00
    0.11630E-08        -0.18626E-20         0.00000E+00
    0.11630E-08        -0.62864E-20         0.00000E+00
    0.11630E-08        -0.12573E-19         0.00000E+00
    0.11630E-08        -0.53551E-20         0.00000E+00
    0.11630E-08        -0.14203E-19         0.00000E+00
    0.11630E-08        -0.22352E-19         0.00000E+00
    0.11630E-08        -0.19558E-19         0.00000E+00
    0.11630E-08        -0.13039E-19         0.00000E+00
    0.11630E-08         0.76834E-20         0.00000E+00
    0.11630E-08        -0.88476E-20         0.00000E+00
    0.11630E-08        -0.83819E-20         0.00000E+00
    0.11630E-08        -0.37253E-20         0.00000E+00
    0.35028E-09         0.55879E-20         0.00000E+00
    0.35028E-09         0.88476E-20         0.00000E+00
    0.35028E-09         0.55879E-20         0.00000E+00
    0.35028E-09         0.17462E-19         0.00000E+00
    0.35028E-09        -0.41910E-20         0.00000E+00
    0.35028E-09        -0.16065E-19         0.00000E+00
    0.35028E-09        -0.35390E-19         0.00000E+00
    0.35028E-09        -0.25844E-19         0.00000E+00
    0.35028E-09        -0.44703E-19         0.00000E+00
    0.35028E-09        -0.36554E-19         0.00000E+00
    0.35028E-09        -0.20955E-19         0.00000E+00
    0.35028E-09        -0.10710E-19         0.00000E+00
    0.35028E-09        -0.20955E-19         0.00000E+00
    0.35028E-09        -0.27940E-20         0.00000E+00
    0.35028E-09        -0.20489E-19         0.00000E+00
    0.35028E-09        -0.18626E-20         0.00000E+00
    0.35028E-09        -0.34925E-20         0.00000E+00
    0.35028E-09         0.93132E-20         0.00000E+00
    0.35028E-09         0.48894E-20         0.00000E+00
    0.35028E-09        -0.13737E-19         0.00000E+00
    0.35028E-09        -0.17229E-19         0.00000E+00
    0.35028E-09        -0.97789E-20         0.00000E+00
    0.35028E-09        -0.19092E-19         0.00000E+00
    0.35028E-09        -0.46566E-20         0.00000E+00
    0.35028E-09         0.83819E-20         0.00000E+00
    0.35028E-09         0.74506E-20         0.00000E+00
    0.35028E-09         0.83819E-20         0.00000E+00
    0.35028E-09         0.13970E-19         0.00000E+00
    0.35028E-09         0.46566E-20         0.00000E+00
    0.35028E-09        -0.32596E-20         0.00000E+00
    0.35028E-09        -0.10943E-19         0.00000E+00
    0.35028E-09        -0.93132E-21         0.00000E+00
    0.35028E-09        -0.12573E-19         0.00000E+00
    0.35028E-09        -0.10245E-19         0.00000E+00
    0.35028E-09        -0.93132E-20         0.00000E+00
    0.35028E-09        -0.37253E-20         0.00000E+00
    0.35028E-09         0.00000E+00         0.00000E+00
    0.35028E-09        -0.11176E-19         0.00000E+00
    0.35028E-09        -0.81491E-20         0.00000E+00
    0.35028E-09        -0.14435E-19         0.00000E+00
    0.35028E-09        -0.28405E-19         0.00000E+00
    0.35028E-09        -0.79162E-20         0.00000E+00
    0.35028E-09        -0.15367E-19         0.00000E+00
    0.35028E-09        -0.18626E-19         0.00000E+00
    0.35028E-09        -0.15367E-19         0.00000E+00
    0.35028E-09        -0.16298E-19         0.00000E+00
    0.35028E-09        -0.16298E-20         0.00000E+00
    0.35028E-09        -0.74506E-20         0.00000E+00
    0.35028E-09        -0.83819E-20         0.00000E+00
    0.35028E-09         0.37253E-20         0.00000E+00
    0.99067E-10         0.88476E-20         0.00000E+00
    0.99067E-10         0.00000E+00         0.00000E+00
    0.99067E-10         0.62864E-20         0.00000E+00
    0.99067E-10         0.51223E-20         0.00000E+00
    0.99067E-10        -0.11642E-19         0.00000E+00
    0.99067E-10        -0.20023E-19         0.00000E+00
    0.99067E-10        -0.36554E-19         0.00000E+00
    0.99067E-10        -0.24214E-19         0.00000E+00
    0.99067E-10        -0.41211E-19         0.00000E+00
    0.99067E-10        -0.28405E-19         0.00000E+00
    0.99067E-10        -0.25146E-19         0.00000E+00
    0.99067E-10        -0.11642E-19         0.00000E+00
    0.99067E-10        -0.21653E-19         0.00000E+00
    0.99067E-10         0.00000E+00         0.00000E+00
    0.99067E-10        -0.10710E-19         0.00000E+00
    0.99067E-10        -0.41910E-20         0.00000E+00
    0.99067E-10        -0.27940E-20         0.00000E+00
    0.99067E-10         0.60536E-20         0.00000E+00
    0.99067E-10        -0.93132E-21         0.00000E+00
    0.99067E-10        -0.10710E-19         0.00000E+00
    0.99067E-10        -0.97789E-20         0.00000E+00
    0.99067E-10        -0.65193E-20         0.00000E+00
    0.99067E-10        -0.19325E-19         0.00000E+00
    0.99067E-10        -0.17695E-19         0.00000E+00
    0.99067E-10        -0.41910E-20         0.00000E+00
    0.99067E-10        -0.27940E-20         0.00000E+00
    0.99067E-10        -0.18626E-20         0.00000E+00
    0.99067E-10         0.13504E-19         0.00000E+00
    0.99067E-10         0.69849E-20         0.00000E+00
    0.99067E-10        -0.58208E-20         0.00000E+00
    0.99067E-10        -0.27940E-20         0.00000E+00
    0.99067E-10        -0.34925E-20         0.00000E+00
    0.99067E-10         0.13970E-20         0.00000E+00
    0.99067E-10        -0.55879E-20         0.00000E+00
    0.99067E-10        -0.23283E-20         0.00000E+00
    0.99067E-10        -0.18626E-19         0.00000E+00
    0.99067E-10        -0.13039E-19         0.00000E+00
    0.99067E-10        -0.11642E-19         0.00000E+00
    0.99067E-10        -0.83819E-20         0.00000E+00
    0.99067E-10        -0.21420E-19         0.00000E+00
    0.99067E-10        -0.25611E-19         0.00000E+00
    0.99067E-10        -0.13039E-19         0.00000E+00
    0.99067E-10        -0.20955E-19         0.00000E+00
    0.99067E-10        -0.28405E-19         0.00000E+00
    0.99067E-10        -0.24680E-19         0.00000E+00
    0.99067E-10        -0.62864E-20         0.00000E+00
    0.99067E-10        -0.41910E-20         0.00000E+00
    0.99067E-10        -0.93132E-21         0.00000E+00
    0.99067E-10         0.37253E-20         0.00000E+00
    0.99067E-10        -0.16298E-20         0.00000E+00
    0.26506E-10         0.74506E-20         0.00000E+00
    0.26506E-10         0.93132E-21         0.00000E+00
    0.26506E-10         0.83819E-20         0.00000E+00
    0.26506E-10        -0.18626E-20         0.00000E+00
    0.26506E-10        -0.15367E-19         0.00000E+00
    0.26506E-10        -0.22352E-19         0.00000E+00
    0.26506E-10        -0.35390E-19         0.00000E+00
    0.26506E-10        -0.30734E-19         0.00000E+00
    0.26506E-10        -0.31665E-19         0.00000E+00
    0.26506E-10        -0.26543E-19         0.00000E+00
    0.26506E-10        -0.16298E-19         0.00000E+00
    0.26506E-10        -0.46566E-20         0.00000E+00
    0.26506E-10        -0.20023E-19         0.00000E+00
    0.26506E-10        -0.65193E-20         0.00000E+00
    0.26506E-10        -0.12573E-19         0.00000E+00
    0.26506E-10        -0.18626E-20         0.00000E+00
    0.26506E-10         0.00000E+00         0.00000E+00
    0.26506E-10         0.65193E-20         0.00000E+00
    0.26506E-10         0.76834E-20         0.00000E+00
    0.26506E-10        -0.10012E-19         0.00000E+00
    0.26506E-10        -0.17229E-19         0.00000E+00
    0.26506E-10        -0.11176E-19         0.00000E+00
    0.26506E-10        -0.20955E-19         0.00000E+00
    0.26506E-10        -0.21886E-19         0.00000E+00
    0.26506E-10        -0.27940E-20         0.00000E+00
    0.26506E-10        -0.12107E-19         0.00000E+00
    0.26506E-10         0.18626E-20         0.00000E+00
    0.26506E-10         0.16764E-19         0.00000E+00
    0.26506E-10         0.32596E-20         0.00000E+00
    0.26506E-10        -0.10245E-19         0.00000E+00
    0.26506E-10        -0.11642E-19         0.00000E+00
    0.26506E-10        -0.18626E-20         0.00000E+00
    0.26506E-10         0.46566E-20         0.00000E+00
    0.26506E-10         0.27940E-20         0.00000E+00
    0.26506E-10        -0.18626E-20         0.00000E+00
    0.26506E-10        -0.93132E-20         0.00000E+00
    0.26506E-10        -0.22352E-19         0.00000E+00
    0.26506E-10        -0.13039E-19         0.00000E+00
    0.26506E-10        -0.14435E-19         0.00000E+00
    0.26506E-10        -0.22352E-19         0.00000E+00
    0.26506E-10        -0.33528E-19         0.00000E+00
    0.26506E-10        -0.23749E-19         0.00000E+00
    0.26506E-10        -0.25146E-19         0.00000E+00
    0.26506E-10        -0.28871E-19         0.00000E+00
    0.26506E-10        -0.11176E-19         0.00000E+00
    0.26506E-10        -0.69849E-20         0.00000E+00
    0.26506E-10        -0.32596E-20         0.00000E+00
    0.26506E-10        -0.46566E-20         0.00000E+00
    0.26506E-10         0.32596E-20         0.00000E+00
    0.26506E-10        -0.55879E-20         0.00000E+00
    0.67524E-11         0.23283E-20         0.00000E+00
    0.67524E-11         0.72177E-20         0.00000E+00
    0.67524E-11         0.74506E-20         0.00000E+00
    0.67524E-11        -0.46566E-20         0.00000E+00
    0.67524E-11        -0.53551E-20         0.00000E+00
    0.67524E-11        -0.20955E-19         0.00000E+00
    0.67524E-11        -0.35390E-19         0.00000E+00
    0.67524E-11        -0.28871E-19         0.00000E+00
    0.67524E-11        -0.33528E-19         0.00000E+00
    0.67524E-11        -0.23283E-19         0.00000E+00
    0.67524E-11        -0.19092E-19         0.00000E+00
    0.67524E-11        -0.93132E-21         0.00000E+00
    0.67524E-11        -0.15367E-19         0.00000E+00
    0.67524E-11         0.00000E+00         0.00000E+00
    0.67524E-11        -0.93132E-20         0.00000E+00
    0.67524E-11         0.46566E-20         0.00000E+00
    0.67524E-11         0.00000E+00         0.00000E+00
    0.67524E-11         0.97789E-20         0.00000E+00
    0.67524E-11         0.44238E-20         0.00000E+00
    0.67524E-11        -0.13737E-19         0.00000E+00
    0.67524E-11        -0.20955E-19         0.00000E+00
    0.67524E-11        -0.21420E-19         0.00000E+00
    0.67524E-11        -0.27474E-19         0.00000E+00
    0.67524E-11        -0.23749E-19         0.00000E+00
    0.67524E-11         0.93132E-21         0.00000E+00
    0.67524E-11        -0.93132E-20         0.00000E+00
    0.67524E-11         0.27940E-20         0.00000E+00
    0.67524E-11         0.14435E-19         0.00000E+00
    0.67524E-11        -0.60536E-20         0.00000E+00
    0.67524E-11        -0.12573E-19         0.00000E+00
    0.67524E-11        -0.20955E-19         0.00000E+00
    0.67524E-11        -0.69849E-20         0.00000E+00
    0.67524E-11        -0.13970E-20         0.00000E+00
    0.67524E-11         0.93132E-21         0.00000E+00
    0.67524E-11         0.00000E+00         0.00000E+00
    0.67524E-11        -0.88476E-20         0.00000E+00
    0.67524E-11        -0.74506E-20         0.00000E+00
    0.67524E-11        -0.16298E-19         0.00000E+00
    0.67524E-11        -0.13737E-19         0.00000E+00
    0.67524E-11        -0.22817E-19         0.00000E+00
    0.67524E-11        -0.30501E-19         0.00000E+00
    0.67524E-11        -0.26543E-19         0.00000E+00
    0.67524E-11        -0.25146E-19         0.00000E+00
    0.67524E-11        -0.28871E-19         0.00000E+00
    0.67524E-11        -0.93132E-20         0.00000E+00
    0.67524E-11        -0.11642E-19         0.00000E+00
    0.67524E-11        -0.58208E-20         0.00000E+00
    0.67524E-11        -0.65193E-20         0.00000E+00
    0.67524E-11        -0.37253E-20         0.00000E+00
    0.67524E-11         0.00000E+00         0.00000E+00
    0.16469E-11         0.60536E-20         0.00000E+00
    0.16469E-11         0.32596E-20         0.00000E+00
    0.16469E-11        -0.46566E-21         0.00000E+00
    0.16469E-11        -0.55879E-20         0.00000E+00
    0.16469E-11        -0.12573E-19         0.00000E+00
    0.16469E-11        -0.27474E-19         0.00000E+00
    0.16469E-11        -0.35390E-19         0.00000E+00
    0.16469E-11        -0.33528E-19         0.00000E+00
    0.16469E-11        -0.36089E-19         0.00000E+00
    0.16469E-11        -0.25146E-19         0.00000E+00
    0.16469E-11        -0.16764E-19         0.00000E+00
    0.16469E-11        -0.23283E-20         0.00000E+00
    0.16469E-11        -0.13504E-19         0.00000E+00
    0.16469E-11         0.20955E-20         0.00000E+00
    0.16469E-11        -0.46566E-20         0.00000E+00
    0.16469E-11         0.76834E-20         0.00000E+00
    0.16469E-11         0.69849E-20         0.00000E+00
    0.16469E-11         0.22817E-19         0.00000E+00
    0.16469E-11         0.37253E-20         0.00000E+00
    0.16469E-11        -0.60536E-20         0.00000E+00
    0.16469E-11        -0.14901E-19         0.00000E+00
    0.16469E-11        -0.16298E-19         0.00000E+00
    0.16469E-11        -0.33993E-19         0.00000E+00
    0.16469E-11        -0.21886E-19         0.00000E+00
    0.16469E-11        -0.83819E-20         0.00000E+00
    0.16469E-11        -0.23283E-20         0.00000E+00
    0.16469E-11         0.37253E-20         0.00000E+00
    0.16469E-11         0.74506E-20         0.00000E+00
    0.16469E-11        -0.74506E-20         0.00000E+00
    0.16469E-11        -0.13504E-19         0.00000E+00
    0.16469E-11        -0.19092E-19         0.00000E+00
    0.16469E-11        -0.55879E-20         0.00000E+00
    0.16469E-11         0.51223E-20         0.00000E+00
    0.16469E-11        -0.83819E-20         0.00000E+00
    0.16469E-11         0.00000E+00         0.00000E+00
    0.16469E-11        -0.93132E-20         0.00000E+00
    0.16469E-11        -0.27940E-20         0.00000E+00
    0.16469E-11        -0.10245E-19         0.00000E+00
    0.16469E-11        -0.11176E-19         0.00000E+00
    0.16469E-11        -0.28638E-19         0.00000E+00
    0.16469E-11        -0.32596E-19         0.00000E+00
    0.16469E-11        -0.27474E-19         0.00000E+00
    0.16469E-11        -0.31432E-19         0.00000E+00
    0.16469E-11        -0.29337E-19         0.00000E+00
    0.16469E-11        -0.25611E-19         0.00000E+00
    0.16469E-11        -0.93132E-20         0.00000E+00
    0.16469E-11         0.20955E-20         0.00000E+00
    0.16469E-11        -0.79162E-20         0.00000E+00
    0.16469E-11         0.00000E+00         0.00000E+00
    0.16469E-11         0.27940E-20         0.00000E+00
    0.38642E-12         0.18626E-20         0.00000E+00
    0.38642E-12         0.46566E-20         0.00000E+00
    0.38642E-12        -0.25611E-20         0.00000E+00
    0.38642E-12        -0.32596E-20         0.00000E+00
    0.38642E-12        -0.17695E-19         0.00000E+00
    0.38642E-12        -0.32131E-19         0.00000E+00
    0.38642E-12        -0.32131E-19         0.00000E+00
    0.38642E-12        -0.28405E-19         0.00000E+00
    0.38642E-12        -0.40280E-19         0.00000E+00
    0.38642E-12        -0.24680E-19         0.00000E+00
    0.38642E-12        -0.18626E-19         0.00000E+00
    0.38642E-12        -0.79162E-20         0.00000E+00
    0.38642E-12        -0.20489E-19         0.00000E+00
    0.38642E-12        -0.23283E-21         0.00000E+00
    0.38642E-12        -0.25611E-20         0.00000E+00
    0.38642E-12         0.62864E-20         0.00000E+00
    0.38642E-12         0.20955E-19         0.00000E+00
    0.38642E-12         0.26543E-19         0.00000E+00
    0.38642E-12         0.16298E-19         0.00000E+00
    0.38642E-12        -0.18626E-20         0.00000E+00
    0.38642E-12        -0.12573E-19         0.00000E+00
    0.38642E-12        -0.17229E-19         0.00000E+00
    0.38642E-12        -0.26077E-19         0.00000E+00
    0.38642E-12        -0.22352E-19         0.00000E+00
    0.38642E-12        -0.74506E-20         0.00000E+00
    0.38642E-12        -0.17229E-19         0.00000E+00
    0.38642E-12        -0.16298E-20         0.00000E+00
    0.38642E-12         0.27940E-20         0.00000E+00
    0.38642E-12        -0.65193E-20         0.00000E+00
    0.38642E-12        -0.10477E-19         0.00000E+00
    0.38642E-12        -0.93132E-20         0.00000E+00
    0.38642E-12         0.46566E-21         0.00000E+00
    0.38642E-12        -0.58208E-20         0.00000E+00
    0.38642E-12        -0.51223E-20         0.00000E+00
    0.38642E-12         0.00000E+00         0.00000E+00
    0.38642E-12        -0.88476E-20         0.00000E+00
    0.38642E-12        -0.11176E-19         0.00000E+00
    0.38642E-12        -0.13970E-19         0.00000E+00
    0.38642E-12        -0.16764E-19         0.00000E+00
    0.38642E-12        -0.27008E-19         0.00000E+00
    0.38642E-12        -0.33062E-19         0.00000E+00
    0.38642E-12        -0.32131E-19         0.00000E+00
    0.38642E-12        -0.33993E-19         0.00000E+00
    0.38642E-12        -0.35856E-19         0.00000E+00
    0.38642E-12        -0.20722E-19         0.00000E+00
    0.38642E-12        -0.17229E-19         0.00000E+00
    0.38642E-12         0.23283E-21         0.00000E+00
    0.38642E-12        -0.83819E-20         0.00000E+00
    0.38642E-12         0.00000E+00         0.00000E+00
    0.38642E-12         0.46566E-20         0.00000E+00
    0.87580E-13         0.65193E-20         0.00000E+00
    0.87580E-13         0.58208E-20         0.00000E+00
    0.87580E-13        -0.79162E-20         0.00000E+00
    0.87580E-13        -0.23283E-20         0.00000E+00
    0.87580E-13        -0.19558E-19         0.00000E+00
    0.87580E-13        -0.28871E-19         0.00000E+00
    0.87580E-13        -0.34459E-19         0.00000E+00
    0.87580E-13        -0.25146E-19         0.00000E+00
    0.87580E-13        -0.27940E-19         0.00000E+00
    0.87580E-13        -0.20722E-19         0.00000E+00
    0.87580E-13        -0.22817E-19         0.00000E+00
    0.87580E-13        -0.13970E-20         0.00000E+00
    0.87580E-13        -0.22817E-19         0.00000E+00
    0.87580E-13        -0.25611E-20         0.00000E+00
    0.87580E-13        -0.74506E-20         0.00000E+00
    0.87580E-13         0.67521E-20         0.00000E+00
    0.87580E-13         0.15367E-19         0.00000E+00
    0.87580E-13         0.28173E-19         0.00000E+00
    0.87580E-13         0.12573E-19         0.00000E+00
    0.87580E-13        -0.55879E-20         0.00000E+00
    0.87580E-13        -0.16997E-19         0.00000E+00
    0.87580E-13        -0.16764E-19         0.00000E+00
    0.87580E-13        -0.27940E-19         0.00000E+00
    0.87580E-13        -0.31199E-19         0.00000E+00
    0.87580E-13        -0.74506E-20         0.00000E+00
    0.87580E-13        -0.81491E-20         0.00000E+00
    0.87580E-13        -0.69849E-21         0.00000E+00
    0.87580E-13         0.10245E-19         0.00000E+00
    0.87580E-13        -0.37253E-20         0.00000E+00
    0.87580E-13        -0.86147E-20         0.00000E+00
    0.87580E-13        -0.12573E-19         0.00000E+00
    0.87580E-13         0.18626E-20         0.00000E+00
    0.87580E-13        -0.11642E-19         0.00000E+00
    0.87580E-13        -0.32596E-20         0.00000E+00
    0.87580E-13        -0.93132E-21         0.00000E+00
    0.87580E-13        -0.11176E-19         0.00000E+00
    0.87580E-13        -0.16764E-19         0.00000E+00
    0.87580E-13        -0.13970E-19         0.00000E+00
    0.87580E-13        -0.20023E-19         0.00000E+00
    0.87580E-13        -0.32596E-19         0.00000E+00
    0.87580E-13        -0.36089E-19         0.00000E+00
    0.87580E-13        -0.37020E-19         0.00000E+00
    0.87580E-13        -0.36322E-19         0.00000E+00
    0.87580E-13        -0.40280E-19         0.00000E+00
    0.87580E-13        -0.23050E-19         0.00000E+00
    0.87580E-13        -0.18626E-19         0.00000E+00
    0.87580E-13        -0.97789E-20         0.00000E+00
    0.87580E-13        -0.90804E-20         0.00000E+00
    0.87580E-13        -0.41910E-20         0.00000E+00
    0.87580E-13         0.23283E-21         0.00000E+00
    0.19241E-13         0.55879E-20         0.00000E+00
    0.19241E-13         0.93132E-21         0.00000E+00
    0.19241E-13        -0.37253E-20         0.00000E+00
    0.19241E-13        -0.74506E-20         0.00000E+00
    0.19241E-13        -0.26077E-19         0.00000E+00
    0.19241E-13        -0.32596E-19         0.00000E+00
    0.19241E-13        -0.33528E-19         0.00000E+00
    0.19241E-13        -0.26543E-19         0.00000E+00
    0.19241E-13        -0.23516E-19         0.00000E+00
    0.19241E-13        -0.11176E-19         0.00000E+00
    0.19241E-13        -0.11176E-19         0.00000E+00
    0.19241E-13         0.00000E+00         0.00000E+00
    0.19241E-13        -0.21886E-19         0.00000E+00
    0.19241E-13         0.55879E-20         0.00000E+00
    0.19241E-13        -0.97789E-20         0.00000E+00
    0.19241E-13         0.14901E-19         0.00000E+00
    0.19241E-13         0.13970E-20         0.00000E+00
    0.19241E-13         0.15367E-19         0.00000E+00
    0.19241E-13         0.55879E-20         0.00000E+00
    0.19241E-13        -0.55879E-20         0.00000E+00
    0.19241E-13        -0.16764E-19         0.00000E+00
    0.19241E-13        -0.12573E-19         0.00000E+00
    0.19241E-13        -0.35856E-19         0.00000E+00
    0.19241E-13        -0.23749E-19         0.00000E+00
    0.19241E-13        -0.88476E-20         0.00000E+00
    0.19241E-13        -0.69849E-20         0.00000E+00
    0.19241E-13         0.97789E-20         0.00000E+00
    0.19241E-13         0.97789E-20         0.00000E+00
    0.19241E-13         0.00000E+00         0.00000E+00
    0.19241E-13        -0.30268E-20         0.00000E+00
    0.19241E-13        -0.16764E-19         0.00000E+00
    0.19241E-13         0.55879E-20         0.00000E+00
    0.19241E-13        -0.53551E-20         0.00000E+00
    0.19241E-13        -0.76834E-20         0.00000E+00
    0.19241E-13        -0.13970E-20         0.00000E+00
    0.19241E-13        -0.16764E-19         0.00000E+00
    0.19241E-13        -0.17695E-19         0.00000E+00
    0.19241E-13        -0.24680E-19         0.00000E+00
    0.19241E-13        -0.17229E-19         0.00000E+00
    0.19241E-13        -0.39581E-19         0.00000E+00
    0.19241E-13        -0.37719E-19         0.00000E+00
    0.19241E-13        -0.30734E-19         0.00000E+00
    0.19241E-13        -0.38184E-19         0.00000E+00
    0.19241E-13        -0.39581E-19         0.00000E+00
    0.19241E-13        -0.34925E-19         0.00000E+00
    0.19241E-13        -0.27940E-19         0.00000E+00
    0.19241E-13        -0.16764E-19         0.00000E+00
    0.19241E-13        -0.13271E-19         0.00000E+00
    0.19241E-13        -0.86147E-20         0.00000E+00
    0.19241E-13         0.46566E-21         0.00000E+00
    0.41103E-14         0.83819E-20         0.00000E+00
    0.41103E-14         0.46566E-20         0.00000E+00
    0.41103E-14         0.55879E-20         0.00000E+00
    0.41103E-14        -0.60536E-20         0.00000E+00
    0.41103E-14        -0.26776E-19         0.00000E+00
    0.41103E-14        -0.32131E-19         0.00000E+00
    0.41103E-14        -0.23749E-19         0.00000E+00
    0.41103E-14        -0.30268E-19         0.00000E+00
    0.41103E-14        -0.34459E-19         0.00000E+00
    0.41103E-14        -0.27008E-19         0.00000E+00
    0.41103E-14        -0.13504E-19         0.00000E+00
    0.41103E-14        -0.23283E-21         0.00000E+00
    0.41103E-14        -0.55879E-20         0.00000E+00
    0.41103E-14         0.22352E-19         0.00000E+00
    0.41103E-14         0.37253E-20         0.00000E+00
    0.41103E-14         0.22817E-19         0.00000E+00
    0.41103E-14         0.55879E-20         0.00000E+00
    0.41103E-14         0.10710E-19         0.00000E+00
    0.41103E-14         0.27940E-20         0.00000E+00
    0.41103E-14        -0.12573E-19         0.00000E+00
    0.41103E-14        -0.19092E-19         0.00000E+00
    0.41103E-14        -0.14901E-19         0.00000E+00
    0.41103E-14        -0.27474E-19         0.00000E+00
    0.41103E-14        -0.21886E-19         0.00000E+00
    0.41103E-14        -0.15367E-19         0.00000E+00
    0.41103E-14        -0.19092E-19         0.00000E+00
    0.41103E-14        -0.46566E-21         0.00000E+00
    0.41103E-14         0.13970E-20         0.00000E+00
    0.41103E-14        -0.23283E-20         0.00000E+00
    0.41103E-14        -0.60536E-20         0.00000E+00
    0.41103E-14        -0.14435E-19         0.00000E+00
    0.41103E-14         0.23283E-20         0.00000E+00
    0.41103E-14        -0.65193E-20         0.00000E+00
    0.41103E-14        -0.72177E-20         0.00000E+00
    0.41103E-14        -0.93132E-20         0.00000E+00
    0.41103E-14        -0.15832E-19         0.00000E+00
    0.41103E-14        -0.13039E-19         0.00000E+00
    0.41103E-14        -0.28405E-19         0.00000E+00
    0.41103E-14        -0.19092E-19         0.00000E+00
    0.41103E-14        -0.26543E-19         0.00000E+00
    0.41103E-14        -0.28871E-19         0.00000E+00
    0.41103E-14        -0.21420E-19         0.00000E+00
    0.41103E-14        -0.36787E-19         0.00000E+00
    0.41103E-14        -0.39116E-19         0.00000E+00
    0.41103E-14        -0.37719E-19         0.00000E+00
    0.41103E-14        -0.32596E-19         0.00000E+00
    0.41103E-14        -0.12573E-19         0.00000E+00
    0.41103E-14        -0.11176E-19         0.00000E+00
    0.41103E-14        -0.65193E-20         0.00000E+00
    0.41103E-14         0.55879E-20         0.00000E+00
    0.85604E-15         0.18626E-20         0.00000E+00
    0.85605E-15         0.93132E-20         0.00000E+00
    0.85605E-15         0.93132E-20         0.00000E+00
    0.85604E-15         0.11642E-19         0.00000E+00
    0.85604E-15        -0.60536E-20         0.00000E+00
    0.85604E-15        -0.27008E-19         0.00000E+00
    0.85604E-15        -0.23749E-19         0.00000E+00
    0.85604E-15        -0.30268E-19         0.00000E+00
    0.85603E-15        -0.40513E-19         0.00000E+00
    0.85603E-15        -0.27940E-19         0.00000E+00
    0.85603E-15        -0.25379E-19         0.00000E+00
    0.85603E-15        -0.62864E-20         0.00000E+00
    0.85603E-15        -0.46566E-20         0.00000E+00
    0.85603E-15         0.20955E-19         0.00000E+00
    0.85604E-15         0.53551E-20         0.00000E+00
    0.85604E-15         0.13504E-19         0.00000E+00
    0.85604E-15         0.11874E-19         0.00000E+00
    0.85604E-15         0.17229E-19         0.00000E+00
    0.85604E-15         0.60536E-20         0.00000E+00
    0.85604E-15        -0.14901E-19         0.00000E+00
    0.85604E-15        -0.25611E-19         0.00000E+00
    0.85604E-15        -0.25611E-19         0.00000E+00
    0.85605E-15        -0.33062E-19         0.00000E+00
    0.85605E-15        -0.23749E-19         0.00000E+00
    0.85604E-15        -0.18626E-19         0.00000E+00
    0.85604E-15        -0.16298E-19         0.00000E+00
    0.85604E-15        -0.79162E-20         0.00000E+00
    0.85604E-15         0.32596E-20         0.00000E+00
    0.85604E-15        -0.41910E-20         0.00000E+00
    0.85604E-15        -0.93132E-20         0.00000E+00
    0.85604E-15        -0.21886E-19         0.00000E+00
    0.85604E-15        -0.13970E-20         0.00000E+00
    0.85604E-15        -0.10245E-19         0.00000E+00
    0.85604E-15        -0.19092E-19         0.00000E+00
    0.85604E-15        -0.11642E-19         0.00000E+00
    0.85604E-15        -0.11642E-19         0.00000E+00
    0.85604E-15        -0.55879E-20         0.00000E+00
    0.85604E-15        -0.14435E-19         0.00000E+00
    0.85604E-15        -0.19092E-19         0.00000E+00
    0.85604E-15        -0.19092E-19         0.00000E+00
    0.85604E-15        -0.27474E-19         0.00000E+00
    0.85604E-15        -0.13970E-19         0.00000E+00
    0.85604E-15        -0.41910E-19         0.00000E+00
    0.85604E-15        -0.35856E-19         0.00000E+00
    0.85604E-15        -0.37020E-19         0.00000E+00
    0.85604E-15        -0.24214E-19         0.00000E+00
    0.85604E-15        -0.16764E-19         0.00000E+00
    0.85604E-15        -0.13504E-19         0.00000E+00
    0.85605E-15        -0.60536E-20         0.00000E+00
    0.85605E-15         0.18626E-20         0.00000E+00
    0.17422E-15         0.18626E-20         0.00000E+00
    0.17422E-15         0.30268E-20         0.00000E+00
    0.17422E-15         0.60536E-20         0.00000E+00
    0.17422E-15         0.14435E-19         0.00000E+00
    0.17422E-15        -0.69849E-21         0.00000E+00
    0.17422E-15        -0.18161E-19         0.00000E+00
    0.17422E-15        -0.17695E-19         0.00000E+00
    0.17422E-15        -0.18161E-19         0.00000E+00
    0.17422E-15        -0.26077E-19         0.00000E+00
    0.17421E-15        -0.17462E-19         0.00000E+00
    0.17421E-15        -0.22817E-19         0.00000E+00
    0.17421E-15        -0.10012E-19         0.00000E+00
    0.17422E-15        -0.17229E-19         0.00000E+00
    0.17422E-15         0.30268E-20         0.00000E+00
    0.17422E-15        -0.18626E-20         0.00000E+00
    0.17422E-15         0.10477E-19         0.00000E+00
    0.17422E-15         0.46566E-20         0.00000E+00
    0.17422E-15         0.15367E-19         0.00000E+00
    0.17422E-15         0.86147E-20         0.00000E+00
    0.17422E-15        -0.95461E-20         0.00000E+00
    0.17422E-15        -0.19558E-19         0.00000E+00
    0.17421E-15        -0.26543E-19         0.00000E+00
    0.17421E-15        -0.35157E-19         0.00000E+00
    0.17422E-15        -0.24214E-19         0.00000E+00
    0.17422E-15        -0.12573E-19         0.00000E+00
    0.17422E-15        -0.74506E-20         0.00000E+00
    0.17421E-15        -0.69849E-20         0.00000E+00
    0.17422E-15         0.74506E-20         0.00000E+00
    0.17422E-15        -0.18626E-20         0.00000E+00
    0.17422E-15        -0.10477E-19         0.00000E+00
    0.17421E-15        -0.26543E-19         0.00000E+00
    0.17421E-15        -0.32596E-20         0.00000E+00
    0.17421E-15        -0.55879E-20         0.00000E+00
    0.17421E-15        -0.18626E-19         0.00000E+00
    0.17421E-15        -0.69849E-20         0.00000E+00
    0.17421E-15        -0.83819E-20         0.00000E+00
    0.17421E-15        -0.11176E-19         0.00000E+00
    0.17421E-15        -0.15367E-19         0.00000E+00
    0.17421E-15        -0.17462E-19         0.00000E+00
    0.17421E-15        -0.27008E-19         0.00000E+00
    0.17421E-15        -0.37719E-19         0.00000E+00
    0.17422E-15        -0.17462E-19         0.00000E+00
    0.17422E-15        -0.39116E-19         0.00000E+00
    0.17422E-15        -0.35390E-19         0.00000E+00
    0.17421E-15        -0.32131E-19         0.00000E+00
    0.17421E-15        -0.19092E-19         0.00000E+00
    0.17421E-15        -0.15832E-19         0.00000E+00
    0.17421E-15        -0.20955E-19         0.00000E+00
    0.17421E-15        -0.12573E-19         0.00000E+00
    0.17421E-15        -0.51223E-20         0.00000E+00
    0.34720E-16         0.18626E-20         0.00000E+00
    0.34719E-16         0.51223E-20         0.00000E+00
    0.34720E-16        -0.93132E-21         0.00000E+00
    0.34721E-16         0.51223E-20         0.00000E+00
    0.34722E-16        -0.83819E-20         0.00000E+00
    0.34722E-16        -0.16298E-19         0.00000E+00
    0.34725E-16        -0.18161E-19         0.00000E+00
    0.34728E-16        -0.20722E-19         0.00000E+00
    0.34728E-16        -0.16298E-19         0.00000E+00
    0.34727E-16        -0.17229E-19         0.00000E+00
    0.34727E-16        -0.21188E-19         0.00000E+00
    0.34725E-16        -0.74506E-20         0.00000E+00
    0.34725E-16        -0.25611E-19         0.00000E+00
    0.34725E-16         0.13970E-20         0.00000E+00
    0.34726E-16        -0.11409E-19         0.00000E+00
    0.34728E-16         0.58208E-20         0.00000E+00
    0.34727E-16         0.79162E-20         0.00000E+00
    0.34725E-16         0.16298E-19         0.00000E+00
    0.34723E-16         0.11642E-19         0.00000E+00
    0.34721E-16         0.13970E-20         0.00000E+00
    0.34720E-16        -0.83819E-20         0.00000E+00
    0.34719E-16        -0.16764E-19         0.00000E+00
    0.34716E-16        -0.26077E-19         0.00000E+00
    0.34712E-16        -0.21420E-19         0.00000E+00
    0.34711E-16        -0.86147E-20         0.00000E+00
    0.34712E-16        -0.86147E-20         0.00000E+00
    0.34711E-16        -0.55879E-20         0.00000E+00
    0.34710E-16         0.41910E-20         0.00000E+00
    0.34710E-16        -0.46566E-20         0.00000E+00
    0.34711E-16        -0.97789E-20         0.00000E+00
    0.34712E-16        -0.19791E-19         0.00000E+00
    0.34712E-16        -0.11642E-19         0.00000E+00
    0.34712E-16        -0.65193E-20         0.00000E+00
    0.34712E-16        -0.88476E-20         0.00000E+00
    0.34709E-16        -0.88476E-20         0.00000E+00
    0.34709E-16        -0.15367E-19         0.00000E+00
    0.34712E-16        -0.13504E-19         0.00000E+00
    0.34713E-16        -0.12107E-19         0.00000E+00
    0.34712E-16        -0.18626E-19         0.00000E+00
    0.34711E-16        -0.26543E-19         0.00000E+00
    0.34710E-16        -0.36322E-19         0.00000E+00
    0.34708E-16        -0.26543E-19         0.00000E+00
    0.34709E-16        -0.35390E-19         0.00000E+00
    0.34710E-16        -0.41910E-19         0.00000E+00
    0.34713E-16        -0.33062E-19         0.00000E+00
    0.34715E-16        -0.20955E-19         0.00000E+00
    0.34716E-16        -0.14901E-19         0.00000E+00
    0.34715E-16        -0.18161E-19         0.00000E+00
    0.34713E-16        -0.12107E-19         0.00000E+00
    0.34714E-16         0.16298E-20         0.00000E+00
    0.67831E-17         0.32596E-20         0.00000E+00
    0.67849E-17         0.93132E-21         0.00000E+00
    0.67851E-17        -0.44238E-20         0.00000E+00
    0.67853E-17         0.44238E-20         0.00000E+00
    0.67847E-17        -0.83819E-20         0.00000E+00
    0.67841E-17        -0.18626E-19         0.00000E+00
    0.67836E-17        -0.25146E-19         0.00000E+00
    0.67835E-17        -0.22585E-19         0.00000E+00
    0.67861E-17        -0.26543E-19         0.00000E+00
    0.67896E-17        -0.23283E-19         0.00000E+00
    0.67900E-17        -0.20955E-19         0.00000E+00
    0.67900E-17        -0.23283E-20         0.00000E+00
    0.67884E-17        -0.21420E-19         0.00000E+00
    0.67874E-17        -0.37253E-20         0.00000E+00
    0.67872E-17        -0.10012E-19         0.00000E+00
    0.67840E-17         0.10943E-19         0.00000E+00
    0.67832E-17         0.10477E-19         0.00000E+00
    0.67849E-17         0.26077E-19         0.00000E+00
    0.67854E-17         0.13970E-19         0.00000E+00
    0.67868E-17         0.41910E-20         0.00000E+00
    0.67879E-17        -0.10477E-19         0.00000E+00
    0.67884E-17        -0.13504E-19         0.00000E+00
    0.67879E-17        -0.17462E-19         0.00000E+00
    0.67897E-17        -0.19558E-19         0.00000E+00
    0.67898E-17        -0.58208E-20         0.00000E+00
    0.67880E-17        -0.83819E-20         0.00000E+00
    0.67871E-17        -0.93132E-21         0.00000E+00
    0.67871E-17         0.10012E-19         0.00000E+00
    0.67869E-17        -0.53551E-20         0.00000E+00
    0.67858E-17        -0.12107E-19         0.00000E+00
    0.67843E-17        -0.15367E-19         0.00000E+00
    0.67814E-17         0.27940E-20         0.00000E+00
    0.67771E-17        -0.32596E-20         0.00000E+00
    0.67772E-17        -0.41910E-20         0.00000E+00
    0.67774E-17        -0.20955E-20         0.00000E+00
    0.67760E-17        -0.17462E-19         0.00000E+00
    0.67751E-17        -0.20955E-19         0.00000E+00
    0.67762E-17        -0.12573E-19         0.00000E+00
    0.67777E-17        -0.18626E-19         0.00000E+00
    0.67775E-17        -0.19791E-19         0.00000E+00
    0.67765E-17        -0.33993E-19         0.00000E+00
    0.67786E-17        -0.28405E-19         0.00000E+00
    0.67791E-17        -0.36322E-19         0.00000E+00
    0.67780E-17        -0.41910E-19         0.00000E+00
    0.67772E-17        -0.43074E-19         0.00000E+00
    0.67776E-17        -0.23283E-19         0.00000E+00
    0.67780E-17        -0.17229E-19         0.00000E+00
    0.67792E-17        -0.19092E-19         0.00000E+00
    0.67790E-17        -0.37253E-20         0.00000E+00
    0.67778E-17        -0.37253E-20         0.00000E+00
    0.12897E-17         0.46566E-20         0.00000E+00
    0.12886E-17        -0.23283E-21         0.00000E+00
    0.12887E-17        -0.74506E-20         0.00000E+00
    0.12908E-17        -0.13970E-20         0.00000E+00
    0.12915E-17        -0.74506E-20         0.00000E+00
    0.12942E-17        -0.26077E-19         0.00000E+00
    0.12954E-17        -0.24913E-19         0.00000E+00
    0.12969E-17        -0.26077E-19         0.00000E+00
    0.12969E-17        -0.38650E-19         0.00000E+00
    0.12980E-17        -0.30734E-19         0.00000E+00
    0.13013E-17        -0.27940E-19         0.00000E+00
    0.13025E-17        -0.93132E-21         0.00000E+00
    0.13034E-17        -0.18161E-19         0.00000E+00
    0.13039E-17         0.69849E-21         0.00000E+00
    0.13029E-17         0.93132E-21         0.00000E+00
    0.13029E-17         0.14203E-19         0.00000E+00
    0.13030E-17         0.41910E-20         0.00000E+00
    0.13043E-17         0.13039E-19         0.00000E+00
    0.13055E-17         0.16764E-19         0.00000E+00
    0.13062E-17        -0.46566E-20         0.00000E+00
    0.13080E-17        -0.17695E-19         0.00000E+00
    0.13090E-17        -0.10710E-19         0.00000E+00
    0.13090E-17        -0.17229E-19         0.00000E+00
    0.13064E-17        -0.13039E-19         0.00000E+00
    0.13048E-17        -0.18626E-20         0.00000E+00
    0.13059E-17        -0.62864E-20         0.00000E+00
    0.13082E-17        -0.39581E-20         0.00000E+00
    0.13056E-17         0.16764E-19         0.00000E+00
    0.13023E-17         0.74506E-20         0.00000E+00
    0.13020E-17        -0.93132E-20         0.00000E+00
    0.13016E-17        -0.97789E-20         0.00000E+00
    0.13018E-17         0.12573E-19         0.00000E+00
    0.13019E-17         0.93132E-20         0.00000E+00
    0.13002E-17        -0.55879E-20         0.00000E+00
    0.12994E-17        -0.46566E-21         0.00000E+00
    0.13006E-17        -0.12806E-19         0.00000E+00
    0.12979E-17        -0.10012E-19         0.00000E+00
    0.12956E-17        -0.16298E-19         0.00000E+00
    0.12967E-17        -0.21653E-19         0.00000E+00
    0.12957E-17        -0.97789E-20         0.00000E+00
    0.12954E-17        -0.41677E-19         0.00000E+00
    0.12959E-17        -0.31665E-19         0.00000E+00
    0.12968E-17        -0.39581E-19         0.00000E+00
    0.12994E-17        -0.44238E-19         0.00000E+00
    0.12991E-17        -0.37951E-19         0.00000E+00
    0.12969E-17        -0.20955E-19         0.00000E+00
    0.12954E-17        -0.13504E-19         0.00000E+00
    0.12920E-17        -0.10245E-19         0.00000E+00
    0.12909E-17        -0.13970E-20         0.00000E+00
    0.12903E-17        -0.46566E-21         0.00000E+00
    0.23836E-18         0.18626E-20         0.00000E+00
    0.23912E-18         0.46566E-20         0.00000E+00
    0.23731E-18        -0.60536E-20         0.00000E+00
    0.23562E-18        -0.37253E-20         0.00000E+00
    0.23685E-18        -0.20256E-19         0.00000E+00
    0.23795E-18        -0.31665E-19         0.00000E+00
    0.23923E-18        -0.33528E-19         0.00000E+00
    0.24139E-18        -0.38184E-19         0.00000E+00
    0.24354E-18        -0.41910E-19         0.00000E+00
    0.24331E-18        -0.33062E-19         0.00000E+00
    0.24145E-18        -0.33062E-19         0.00000E+00
    0.24156E-18        -0.51223E-20         0.00000E+00
    0.24354E-18        -0.20489E-19         0.00000E+00
    0.24313E-18         0.00000E+00         0.00000E+00
    0.24529E-18        -0.32596E-20         0.00000E+00
    0.24663E-18         0.10245E-19         0.00000E+00
    0.24616E-18         0.65193E-20         0.00000E+00
    0.24482E-18         0.10245E-19         0.00000E+00
    0.24575E-18         0.13039E-19         0.00000E+00
    0.24517E-18        -0.65193E-20         0.00000E+00
    0.24540E-18        -0.18161E-19         0.00000E+00
    0.24331E-18        -0.12573E-19         0.00000E+00
    0.24308E-18        -0.19092E-19         0.00000E+00
    0.24465E-18        -0.10245E-19         0.00000E+00
    0.24505E-18        -0.37253E-20         0.00000E+00
    0.24459E-18        -0.74506E-20         0.00000E+00
    0.24209E-18        -0.13970E-20         0.00000E+00
    0.24104E-18         0.23283E-19         0.00000E+00
    0.24174E-18         0.81491E-20         0.00000E+00
    0.24331E-18        -0.13970E-19         0.00000E+00
    0.24424E-18        -0.10245E-19         0.00000E+00
    0.24401E-18         0.11176E-19         0.00000E+00
    0.24377E-18         0.60536E-20         0.00000E+00
    0.24552E-18         0.18626E-20         0.00000E+00
    0.24552E-18        -0.30268E-20         0.00000E+00
    0.24354E-18        -0.37253E-20         0.00000E+00
    0.24360E-18        -0.69849E-20         0.00000E+00
    0.24500E-18        -0.19092E-19         0.00000E+00
    0.24494E-18        -0.19092E-19         0.00000E+00
    0.24866E-18        -0.25379E-19         0.00000E+00
    0.25012E-18        -0.37020E-19         0.00000E+00
    0.24866E-18        -0.26543E-19         0.00000E+00
    0.24587E-18        -0.34925E-19         0.00000E+00
    0.24209E-18        -0.40513E-19         0.00000E+00
    0.23941E-18        -0.28871E-19         0.00000E+00
    0.24011E-18        -0.17462E-19         0.00000E+00
    0.24081E-18        -0.11642E-19         0.00000E+00
    0.24471E-18        -0.15832E-19         0.00000E+00
    0.24750E-18         0.00000E+00         0.00000E+00
    0.24715E-18         0.30268E-20         0.00000E+00
    0.40221E-19         0.00000E+00         0.00000E+00
    0.40862E-19         0.13970E-20         0.00000E+00
    0.42375E-19        -0.41910E-20         0.00000E+00
    0.46333E-19        -0.69849E-20         0.00000E+00
    0.46566E-19        -0.18626E-19         0.00000E+00
    0.45518E-19        -0.31199E-19         0.00000E+00
    0.45518E-19        -0.38184E-19         0.00000E+00
    0.44412E-19        -0.39116E-19         0.00000E+00
    0.41444E-19        -0.38650E-19         0.00000E+00
    0.40978E-19        -0.27474E-19         0.00000E+00
    0.41910E-19        -0.33528E-19         0.00000E+00
    0.42724E-19        -0.10710E-19         0.00000E+00
    0.43598E-19        -0.23283E-19         0.00000E+00
    0.44995E-19        -0.41910E-20         0.00000E+00
    0.44878E-19        -0.10245E-19         0.00000E+00
    0.44995E-19         0.93132E-20         0.00000E+00
    0.48196E-19         0.18626E-20         0.00000E+00
    0.49535E-19         0.10710E-19         0.00000E+00
    0.49302E-19         0.12573E-19         0.00000E+00
    0.49709E-19        -0.11642E-19         0.00000E+00
    0.51339E-19        -0.17229E-19         0.00000E+00
    0.52503E-19        -0.69849E-20         0.00000E+00
    0.51805E-19        -0.20489E-19         0.00000E+00
    0.52503E-19        -0.11176E-19         0.00000E+00
    0.52969E-19        -0.83819E-20         0.00000E+00
    0.52911E-19         0.00000E+00         0.00000E+00
    0.55879E-19        -0.51223E-20         0.00000E+00
    0.58266E-19         0.18626E-19         0.00000E+00
    0.59779E-19        -0.13970E-20         0.00000E+00
    0.59954E-19        -0.13039E-19         0.00000E+00
    0.60070E-19        -0.10245E-19         0.00000E+00
    0.60478E-19         0.11642E-19         0.00000E+00
    0.58615E-19         0.97789E-20         0.00000E+00
    0.55705E-19         0.41910E-20         0.00000E+00
    0.54017E-19         0.20955E-20         0.00000E+00
    0.54715E-19        -0.23283E-20         0.00000E+00
    0.54424E-19        -0.12573E-19         0.00000E+00
    0.53842E-19        -0.16298E-19         0.00000E+00
    0.51921E-19        -0.13039E-19         0.00000E+00
    0.47265E-19        -0.26077E-19         0.00000E+00
    0.46508E-19        -0.37719E-19         0.00000E+00
    0.47730E-19        -0.22817E-19         0.00000E+00
    0.48371E-19        -0.34459E-19         0.00000E+00
    0.50815E-19        -0.33993E-19         0.00000E+00
    0.50815E-19        -0.28871E-19         0.00000E+00
    0.49768E-19        -0.12573E-19         0.00000E+00
    0.47788E-19        -0.17229E-19         0.00000E+00
    0.45693E-19        -0.26077E-19         0.00000E+00
    0.44820E-19         0.00000E+00         0.00000E+00
    0.46450E-19        -0.69849E-21         0.00000E+00
    0.90804E-20         0.32596E-20         0.00000E+00
    0.90804E-20         0.00000E+00         0.00000E+00
    0.80327E-20        -0.10245E-19         0.00000E+00
    0.76834E-20        -0.14901E-19         0.00000E+00
    0.87894E-20        -0.21420E-19         0.00000E+00
    0.11001E-19        -0.37719E-19         0.00000E+00
    0.10827E-19        -0.35390E-19         0.00000E+00
    0.11059E-19        -0.38883E-19         0.00000E+00
    0.13039E-19        -0.36089E-19         0.00000E+00
    0.13446E-19        -0.31199E-19         0.00000E+00
    0.13155E-19        -0.33062E-19         0.00000E+00
    0.11292E-19        -0.93132E-20         0.00000E+00
    0.97789E-20        -0.24680E-19         0.00000E+00
    0.97207E-20        -0.60536E-20         0.00000E+00
    0.10419E-19        -0.13039E-19         0.00000E+00
    0.12165E-19        -0.23283E-20         0.00000E+00
    0.10768E-19         0.16298E-20         0.00000E+00
    0.95461E-20         0.60536E-20         0.00000E+00
    0.13446E-19         0.27940E-20         0.00000E+00
    0.14086E-19        -0.10710E-19         0.00000E+00
    0.13679E-19        -0.20955E-19         0.00000E+00
    0.14203E-19        -0.11176E-19         0.00000E+00
    0.16531E-19        -0.19092E-19         0.00000E+00
    0.15891E-19        -0.13970E-19         0.00000E+00
    0.15425E-19        -0.46566E-20         0.00000E+00
    0.15832E-19        -0.65193E-20         0.00000E+00
    0.14086E-19        -0.27940E-20         0.00000E+00
    0.10943E-19         0.17229E-19         0.00000E+00
    0.92550E-20         0.46566E-20         0.00000E+00
    0.89640E-20        -0.14901E-19         0.00000E+00
    0.96043E-20        -0.12573E-19         0.00000E+00
    0.10128E-19         0.83819E-20         0.00000E+00
    0.10652E-19         0.18626E-19         0.00000E+00
    0.11234E-19         0.83819E-20         0.00000E+00
    0.10361E-19         0.83819E-20         0.00000E+00
    0.91968E-20         0.00000E+00         0.00000E+00
    0.81491E-20        -0.14901E-19         0.00000E+00
    0.96625E-20        -0.14901E-19         0.00000E+00
    0.11991E-19        -0.17229E-19         0.00000E+00
    0.15367E-19        -0.27241E-19         0.00000E+00
    0.16706E-19        -0.40745E-19         0.00000E+00
    0.15192E-19        -0.20955E-19         0.00000E+00
    0.14610E-19        -0.35390E-19         0.00000E+00
    0.15076E-19        -0.43306E-19         0.00000E+00
    0.15949E-19        -0.29802E-19         0.00000E+00
    0.17462E-19        -0.12107E-19         0.00000E+00
    0.18394E-19        -0.60536E-20         0.00000E+00
    0.15076E-19        -0.93132E-20         0.00000E+00
    0.13970E-19        -0.62864E-20         0.00000E+00
    0.13621E-19         0.46566E-21         0.00000E+00
    0.65193E-20         0.37253E-20         0.00000E+00
    0.66357E-20         0.27940E-20         0.00000E+00
    0.52387E-20        -0.55879E-20         0.00000E+00
    0.40163E-20        -0.13970E-19         0.00000E+00
    0.36089E-20        -0.25146E-19         0.00000E+00
    0.27940E-20        -0.39581E-19         0.00000E+00
    0.35507E-20        -0.37951E-19         0.00000E+00
    0.60536E-20        -0.48196E-19         0.00000E+00
    0.62864E-20        -0.36322E-19         0.00000E+00
    0.35507E-20        -0.21886E-19         0.00000E+00
    0.13388E-20        -0.26543E-19         0.00000E+00
    0.25029E-20        -0.13504E-19         0.00000E+00
    0.41910E-20        -0.19092E-19         0.00000E+00
    0.36671E-20        -0.18626E-20         0.00000E+00
    0.21537E-20        -0.11642E-19         0.00000E+00
    0.29104E-21         0.11642E-20         0.00000E+00
   -0.75670E-21         0.55879E-20         0.00000E+00
   -0.93132E-21         0.46566E-20         0.00000E+00
   -0.29104E-20         0.93132E-21         0.00000E+00
   -0.39581E-20        -0.10710E-19         0.00000E+00
   -0.12806E-20        -0.28405E-19         0.00000E+00
   -0.34925E-21        -0.18161E-19         0.00000E+00
    0.17462E-21        -0.23283E-19         0.00000E+00
    0.00000E+00        -0.12107E-19         0.00000E+00
    0.11059E-20        -0.17229E-19         0.00000E+00
    0.26193E-20        -0.79162E-20         0.00000E+00
    0.47148E-20        -0.46566E-21         0.00000E+00
    0.55297E-20         0.20955E-19         0.00000E+00
    0.47730E-20         0.11176E-19         0.00000E+00
    0.18044E-20        -0.69849E-20         0.00000E+00
   -0.19791E-20        -0.51223E-20         0.00000E+00
   -0.40163E-20         0.13737E-19         0.00000E+00
   -0.41910E-20         0.12573E-19         0.00000E+00
   -0.41327E-20         0.79162E-20         0.00000E+00
   -0.27940E-20         0.37253E-20         0.00000E+00
    0.46566E-21        -0.74506E-20         0.00000E+00
    0.32014E-20        -0.16764E-19         0.00000E+00
    0.38999E-20        -0.18626E-19         0.00000E+00
    0.45402E-20        -0.23283E-19         0.00000E+00
    0.38417E-20        -0.31432E-19         0.00000E+00
    0.32014E-20        -0.36554E-19         0.00000E+00
    0.62282E-20        -0.26077E-19         0.00000E+00
    0.71595E-20        -0.37253E-19         0.00000E+00
    0.71595E-20        -0.43306E-19         0.00000E+00
    0.64611E-20        -0.28405E-19         0.00000E+00
    0.40163E-20        -0.93132E-20         0.00000E+00
    0.31432E-20        -0.81491E-20         0.00000E+00
    0.61118E-20        -0.10012E-19         0.00000E+00
    0.72177E-20        -0.55879E-20         0.00000E+00
    0.70431E-20         0.18626E-20         0.00000E+00
    0.18859E-19         0.46566E-20         0.00000E+00
    0.17812E-19         0.72177E-20         0.00000E+00
    0.17346E-19         0.23283E-20         0.00000E+00
    0.14203E-19         0.39581E-20         0.00000E+00
    0.95461E-20        -0.16298E-19         0.00000E+00
    0.71013E-20        -0.35390E-19         0.00000E+00
    0.54715E-20        -0.37719E-19         0.00000E+00
    0.19209E-20        -0.39581E-19         0.00000E+00
   -0.46566E-21        -0.31199E-19         0.00000E+00
    0.81491E-21        -0.20955E-19         0.00000E+00
    0.36089E-20        -0.27008E-19         0.00000E+00
    0.11642E-21        -0.48894E-20         0.00000E+00
   -0.41327E-20        -0.13970E-19         0.00000E+00
   -0.54133E-20         0.13970E-20         0.00000E+00
   -0.45402E-20        -0.93132E-20         0.00000E+00
   -0.43074E-20         0.41910E-20         0.00000E+00
   -0.33178E-20         0.13970E-20         0.00000E+00
   -0.17462E-20         0.60536E-20         0.00000E+00
   -0.11642E-20         0.41910E-20         0.00000E+00
   -0.27940E-20        -0.58208E-20         0.00000E+00
   -0.59954E-20        -0.30268E-19         0.00000E+00
   -0.64028E-20        -0.17229E-19         0.00000E+00
   -0.58208E-20        -0.29337E-19         0.00000E+00
   -0.48894E-20        -0.15367E-19         0.00000E+00
   -0.72177E-20        -0.60536E-20         0.00000E+00
   -0.10768E-19        -0.41910E-20         0.00000E+00
   -0.97207E-20        -0.74506E-20         0.00000E+00
   -0.75088E-20         0.13970E-19         0.00000E+00
   -0.51223E-20         0.95461E-20         0.00000E+00
   -0.21537E-20        -0.46566E-20         0.00000E+00
   -0.23283E-21        -0.46566E-21         0.00000E+00
    0.75670E-21         0.16298E-19         0.00000E+00
   -0.11642E-21         0.13039E-19         0.00000E+00
    0.64028E-21         0.18626E-20         0.00000E+00
    0.26193E-20        -0.44238E-20         0.00000E+00
    0.17462E-20        -0.13970E-19         0.00000E+00
   -0.17462E-21        -0.15134E-19         0.00000E+00
    0.52387E-21        -0.19092E-19         0.00000E+00
    0.11642E-21        -0.23749E-19         0.00000E+00
   -0.98953E-21        -0.26077E-19         0.00000E+00
   -0.44820E-20        -0.36322E-19         0.00000E+00
   -0.58208E-20        -0.31898E-19         0.00000E+00
   -0.68103E-20        -0.33295E-19         0.00000E+00
   -0.77998E-20        -0.37253E-19         0.00000E+00
   -0.81491E-20        -0.32596E-19         0.00000E+00
   -0.32014E-20        -0.16764E-19         0.00000E+00
    0.46566E-21        -0.19791E-19         0.00000E+00
    0.20373E-20        -0.17229E-19         0.00000E+00
    0.22701E-20        -0.32596E-20         0.00000E+00
    0.18626E-20         0.00000E+00         0.00000E+00
   -0.30268E-20         0.76834E-20         0.00000E+00
   -0.27940E-20         0.44238E-20         0.00000E+00
   -0.31432E-20         0.81491E-20         0.00000E+00
   -0.19791E-20         0.97789E-20         0.00000E+00
    0.98953E-21        -0.12573E-19         0.00000E+00
    0.11059E-20        -0.29337E-19         0.00000E+00
   -0.13970E-20        -0.25844E-19         0.00000E+00
   -0.18626E-20        -0.27474E-19         0.00000E+00
   -0.11642E-20        -0.36787E-19         0.00000E+00
   -0.69849E-21        -0.30035E-19         0.00000E+00
    0.58208E-21        -0.32363E-19         0.00000E+00
    0.26193E-20         0.30268E-20         0.00000E+00
    0.54133E-20        -0.14435E-19         0.00000E+00
    0.59954E-20         0.37253E-20         0.00000E+00
    0.40163E-20        -0.60536E-20         0.00000E+00
    0.30268E-20         0.51223E-20         0.00000E+00
    0.31432E-20        -0.18626E-20         0.00000E+00
    0.30268E-20         0.41910E-20         0.00000E+00
    0.36089E-20        -0.46566E-21         0.00000E+00
    0.60536E-20        -0.34925E-20         0.00000E+00
    0.69267E-20        -0.20023E-19         0.00000E+00
    0.48894E-20        -0.16298E-19         0.00000E+00
    0.36089E-20        -0.26543E-19         0.00000E+00
    0.15134E-20        -0.97789E-20         0.00000E+00
    0.64028E-21         0.30268E-20         0.00000E+00
    0.29104E-20        -0.27940E-20         0.00000E+00
    0.11642E-20        -0.93132E-20         0.00000E+00
   -0.22119E-20         0.13504E-19         0.00000E+00
   -0.27358E-20        -0.39581E-20         0.00000E+00
   -0.16880E-20        -0.11874E-19         0.00000E+00
    0.17462E-21        -0.10943E-19         0.00000E+00
    0.26193E-20         0.12107E-19         0.00000E+00
    0.35507E-20         0.11874E-19         0.00000E+00
    0.45984E-20         0.00000E+00         0.00000E+00
    0.27940E-20         0.46566E-21         0.00000E+00
    0.69849E-21        -0.41910E-20         0.00000E+00
   -0.29104E-21        -0.15134E-19         0.00000E+00
   -0.13388E-20        -0.20256E-19         0.00000E+00
   -0.22119E-20        -0.18626E-19         0.00000E+00
   -0.16880E-20        -0.16298E-19         0.00000E+00
   -0.17462E-20        -0.28871E-19         0.00000E+00
   -0.38417E-20        -0.20489E-19         0.00000E+00
   -0.54133E-20        -0.34226E-19         0.00000E+00
   -0.29686E-20        -0.45169E-19         0.00000E+00
   -0.12224E-20        -0.36089E-19         0.00000E+00
   -0.19209E-20        -0.28871E-19         0.00000E+00
   -0.36671E-20        -0.20955E-19         0.00000E+00
   -0.36089E-20        -0.18394E-19         0.00000E+00
   -0.40745E-20        -0.41910E-20         0.00000E+00
   -0.34925E-20        -0.46566E-21         0.00000E+00
   -0.66357E-20         0.37253E-20         0.00000E+00
   -0.53551E-20         0.32596E-20         0.00000E+00
   -0.24447E-20        -0.13970E-20         0.00000E+00
   -0.34925E-21        -0.74506E-20         0.00000E+00
    0.10477E-20        -0.16298E-19         0.00000E+00
    0.11642E-20        -0.24680E-19         0.00000E+00
    0.40745E-20        -0.31432E-19         0.00000E+00
    0.69849E-20        -0.33760E-19         0.00000E+00
    0.76252E-20        -0.39814E-19         0.00000E+00
    0.69849E-20        -0.27008E-19         0.00000E+00
    0.41327E-20        -0.28405E-19         0.00000E+00
    0.19209E-20        -0.18626E-20         0.00000E+00
   -0.69849E-21        -0.93132E-20         0.00000E+00
   -0.32014E-20         0.93132E-20         0.00000E+00
   -0.30850E-20        -0.79162E-20         0.00000E+00
   -0.29686E-20         0.65193E-20         0.00000E+00
   -0.32014E-20         0.18626E-20         0.00000E+00
   -0.41327E-20         0.44238E-20         0.00000E+00
   -0.64611E-20         0.48894E-20         0.00000E+00
   -0.77998E-20        -0.10943E-19         0.00000E+00
   -0.64028E-20        -0.19092E-19         0.00000E+00
   -0.43074E-20        -0.21886E-19         0.00000E+00
   -0.22119E-20        -0.25146E-19         0.00000E+00
   -0.58208E-22        -0.81491E-20         0.00000E+00
    0.58208E-22        -0.65193E-20         0.00000E+00
    0.34925E-21         0.18626E-20         0.00000E+00
   -0.23283E-21         0.00000E+00         0.00000E+00
   -0.34925E-21         0.22817E-19         0.00000E+00
   -0.98953E-21        -0.93132E-21         0.00000E+00
   -0.37835E-20        -0.11642E-19         0.00000E+00
   -0.53551E-20        -0.11642E-19         0.00000E+00
   -0.65775E-20         0.97789E-20         0.00000E+00
   -0.68685E-20         0.37253E-20         0.00000E+00
   -0.50641E-20        -0.23283E-20         0.00000E+00
   -0.44820E-20        -0.46566E-21         0.00000E+00
   -0.19791E-20        -0.46566E-20         0.00000E+00
   -0.18044E-20        -0.14901E-19         0.00000E+00
    0.34925E-21        -0.22352E-19         0.00000E+00
    0.34925E-20        -0.24214E-19         0.00000E+00
    0.58208E-20        -0.23283E-19         0.00000E+00
    0.65775E-20        -0.27008E-19         0.00000E+00
    0.69849E-20        -0.13039E-19         0.00000E+00
    0.65775E-20        -0.27940E-19         0.00000E+00
    0.25611E-20        -0.43306E-19         0.00000E+00
   -0.29104E-21        -0.33062E-19         0.00000E+00
   -0.22119E-20        -0.18161E-19         0.00000E+00
   -0.38417E-20        -0.17462E-19         0.00000E+00
   -0.47148E-20        -0.12806E-19         0.00000E+00
   -0.71595E-20         0.46566E-21         0.00000E+00
   -0.84983E-20         0.23283E-20         0.00000E+00
   -0.71013E-20        -0.46566E-21         0.00000E+00
   -0.68685E-20        -0.46566E-20         0.00000E+00
   -0.55297E-20        -0.60536E-20         0.00000E+00
   -0.69267E-20        -0.10477E-19         0.00000E+00
   -0.61700E-20        -0.23982E-19         0.00000E+00
   -0.41910E-20        -0.28871E-19         0.00000E+00
   -0.38417E-20        -0.33993E-19         0.00000E+00
   -0.54133E-20        -0.33528E-19         0.00000E+00
   -0.69849E-20        -0.31898E-19         0.00000E+00
   -0.83237E-20        -0.23050E-19         0.00000E+00
   -0.74506E-20        -0.20955E-19         0.00000E+00
   -0.65193E-20        -0.25611E-20         0.00000E+00
   -0.47148E-20        -0.53551E-20         0.00000E+00
   -0.32014E-20         0.74506E-20         0.00000E+00
   -0.29104E-20        -0.18626E-20         0.00000E+00
   -0.40163E-20         0.37616E-36         0.00000E+00
   -0.15134E-20        -0.46566E-20         0.00000E+00
    0.23510E-37         0.69849E-20         0.00000E+00
    0.29686E-20         0.81491E-20         0.00000E+00
    0.41910E-20        -0.11409E-19         0.00000E+00
    0.36089E-20        -0.22352E-19         0.00000E+00
    0.93132E-21        -0.19092E-19         0.00000E+00
   -0.28522E-20        -0.15832E-19         0.00000E+00
   -0.37835E-20        -0.17695E-19         0.00000E+00
   -0.27358E-20        -0.88476E-20         0.00000E+00
   -0.15716E-20        -0.32596E-20         0.00000E+00
   -0.34925E-21        -0.13970E-20         0.00000E+00
   -0.93132E-21         0.26077E-19         0.00000E+00
   -0.11642E-20         0.65193E-20         0.00000E+00
   -0.21537E-20        -0.60536E-20         0.00000E+00
   -0.35507E-20        -0.13970E-20         0.00000E+00
   -0.55879E-20         0.17695E-19         0.00000E+00
   -0.77998E-20         0.11409E-19         0.00000E+00
   -0.10885E-19        -0.18626E-20         0.00000E+00
   -0.12107E-19         0.27940E-20         0.00000E+00
   -0.13853E-19        -0.10245E-19         0.00000E+00
   -0.13446E-19        -0.18161E-19         0.00000E+00
   -0.14959E-19        -0.20023E-19         0.00000E+00
   -0.17695E-19        -0.26077E-19         0.00000E+00
   -0.19150E-19        -0.25146E-19         0.00000E+00
   -0.19092E-19        -0.31898E-19         0.00000E+00
   -0.17113E-19        -0.19092E-19         0.00000E+00
   -0.15774E-19        -0.25611E-19         0.00000E+00
   -0.13446E-19        -0.36554E-19         0.00000E+00
   -0.10245E-19        -0.36322E-19         0.00000E+00
   -0.66939E-20        -0.26543E-19         0.00000E+00
   -0.32014E-20        -0.20955E-19         0.00000E+00
    0.11642E-21        -0.13039E-19         0.00000E+00
    0.37835E-20        -0.32596E-20         0.00000E+00
    0.65193E-20        -0.23283E-21         0.00000E+00
   -0.48894E-20         0.37253E-20         0.00000E+00
   -0.58208E-20        -0.55879E-20         0.00000E+00
   -0.44238E-20        -0.13504E-19         0.00000E+00
   -0.16298E-20        -0.83819E-20         0.00000E+00
   -0.19791E-20        -0.26543E-19         0.00000E+00
   -0.45402E-20        -0.32131E-19         0.00000E+00
   -0.48894E-20        -0.35390E-19         0.00000E+00
   -0.33760E-20        -0.33993E-19         0.00000E+00
   -0.93132E-21        -0.33993E-19         0.00000E+00
    0.00000E+00        -0.28871E-19         0.00000E+00
    0.87311E-21        -0.25146E-19         0.00000E+00
    0.11059E-20        -0.46566E-20         0.00000E+00
    0.13970E-20        -0.12107E-19         0.00000E+00
    0.20373E-20         0.46566E-21         0.00000E+00
    0.58208E-20        -0.95461E-20         0.00000E+00
    0.79744E-20         0.27940E-20         0.00000E+00
    0.35507E-20         0.37253E-20         0.00000E+00
   -0.81491E-21         0.51223E-20         0.00000E+00
   -0.25611E-20         0.27940E-20         0.00000E+00
   -0.52387E-20        -0.51223E-20         0.00000E+00
   -0.62282E-20        -0.16764E-19         0.00000E+00
   -0.55879E-20        -0.14435E-19         0.00000E+00
   -0.33178E-20        -0.17229E-19         0.00000E+00
   -0.44238E-20        -0.12107E-19         0.00000E+00
   -0.64028E-20        -0.41910E-20         0.00000E+00
   -0.87894E-20        -0.60536E-20         0.00000E+00
   -0.80909E-20        -0.72177E-20         0.00000E+00
   -0.56461E-20         0.22352E-19         0.00000E+00
   -0.39581E-20         0.37253E-20         0.00000E+00
   -0.28522E-20        -0.18626E-20         0.00000E+00
   -0.21537E-20         0.00000E+00         0.00000E+00
   -0.34925E-21         0.18394E-19         0.00000E+00
    0.15716E-20         0.14668E-19         0.00000E+00
    0.25611E-20         0.23283E-20         0.00000E+00
    0.16880E-20         0.10245E-19         0.00000E+00
   -0.34925E-21        -0.18808E-36         0.00000E+00
   -0.24447E-20        -0.11176E-19         0.00000E+00
   -0.37835E-20        -0.13970E-19         0.00000E+00
   -0.38999E-20        -0.19092E-19         0.00000E+00
   -0.40745E-20        -0.25611E-19         0.00000E+00
   -0.37835E-20        -0.41444E-19         0.00000E+00
   -0.31432E-20        -0.20023E-19         0.00000E+00
   -0.14552E-20        -0.35856E-19         0.00000E+00
   -0.13388E-20        -0.41444E-19         0.00000E+00
   -0.31432E-20        -0.40280E-19         0.00000E+00
   -0.59954E-20        -0.30268E-19         0.00000E+00
   -0.80909E-20        -0.27008E-19         0.00000E+00
   -0.82655E-20        -0.25146E-19         0.00000E+00
   -0.85565E-20        -0.12573E-19         0.00000E+00
   -0.93132E-20        -0.23283E-20         0.00000E+00
    0.14901E-19         0.60536E-20         0.00000E+00
    0.13504E-19         0.48894E-20         0.00000E+00
    0.80909E-20        -0.51223E-20         0.00000E+00
    0.25611E-20        -0.93132E-20         0.00000E+00
    0.93132E-21        -0.16298E-19         0.00000E+00
    0.11642E-20        -0.29337E-19         0.00000E+00
    0.12806E-20        -0.32363E-19         0.00000E+00
   -0.19209E-20        -0.33993E-19         0.00000E+00
   -0.43074E-20        -0.33062E-19         0.00000E+00
   -0.52387E-20        -0.24680E-19         0.00000E+00
   -0.51805E-20        -0.34226E-19         0.00000E+00
   -0.39581E-20        -0.41910E-20         0.00000E+00
   -0.40163E-20        -0.14668E-19         0.00000E+00
   -0.38999E-20        -0.27940E-20         0.00000E+00
   -0.33178E-20        -0.23749E-19         0.00000E+00
   -0.48894E-20         0.83819E-20         0.00000E+00
   -0.29686E-20         0.69849E-20         0.00000E+00
   -0.87311E-21         0.17928E-19         0.00000E+00
   -0.15134E-20         0.41910E-20         0.00000E+00
   -0.93132E-21         0.93132E-21         0.00000E+00
   -0.58208E-21        -0.16531E-19         0.00000E+00
   -0.81491E-21        -0.14203E-19         0.00000E+00
   -0.19209E-20        -0.21886E-19         0.00000E+00
   -0.15716E-20        -0.41910E-20         0.00000E+00
   -0.11642E-20         0.58208E-20         0.00000E+00
   -0.10477E-20        -0.58208E-20         0.00000E+00
   -0.16880E-20        -0.65193E-20         0.00000E+00
   -0.30850E-20         0.16298E-19         0.00000E+00
   -0.36671E-20         0.46566E-20         0.00000E+00
   -0.38999E-20        -0.95461E-20         0.00000E+00
   -0.16298E-20        -0.81491E-20         0.00000E+00
   -0.23283E-21         0.12806E-19         0.00000E+00
   -0.58208E-22         0.69849E-20         0.00000E+00
    0.13970E-20         0.34925E-20         0.00000E+00
    0.32596E-20         0.46566E-21         0.00000E+00
    0.50059E-20         0.34925E-20         0.00000E+00
    0.54715E-20        -0.41910E-20         0.00000E+00
    0.35507E-20        -0.10245E-19         0.00000E+00
    0.44820E-20        -0.20955E-19         0.00000E+00
    0.47730E-20        -0.19325E-19         0.00000E+00
    0.23865E-20        -0.40047E-19         0.00000E+00
    0.11642E-20        -0.20722E-19         0.00000E+00
    0.52387E-21        -0.41444E-19         0.00000E+00
    0.15134E-20        -0.41211E-19         0.00000E+00
    0.32596E-20        -0.35856E-19         0.00000E+00
    0.36089E-20        -0.20489E-19         0.00000E+00
    0.32014E-20        -0.23283E-19         0.00000E+00
    0.15134E-20        -0.20023E-19         0.00000E+00
    0.46566E-21        -0.10012E-19         0.00000E+00
    0.87311E-21        -0.27940E-20         0.00000E+00
    0.27358E-20         0.13970E-20         0.00000E+00
    0.50059E-20         0.44238E-20         0.00000E+00
    0.74506E-20         0.83819E-20         0.00000E+00
    0.93714E-20        -0.46566E-21         0.00000E+00
    0.96043E-20        -0.15600E-19         0.00000E+00
    0.80909E-20        -0.22352E-19         0.00000E+00
    0.64028E-20        -0.27940E-19         0.00000E+00
    0.68103E-20        -0.29802E-19         0.00000E+00
    0.89058E-20        -0.32596E-19         0.00000E+00
    0.88476E-20        -0.21420E-19         0.00000E+00
    0.55297E-20        -0.25844E-19         0.00000E+00
    0.32596E-20        -0.55879E-20         0.00000E+00
    0.19791E-20        -0.10477E-19         0.00000E+00
    0.16880E-20        -0.51223E-20         0.00000E+00
    0.10477E-20        -0.13970E-19         0.00000E+00
   -0.69849E-21         0.11409E-19         0.00000E+00
   -0.12224E-20         0.11642E-20         0.00000E+00
   -0.14552E-20         0.19092E-19         0.00000E+00
   -0.20955E-20         0.69849E-20         0.00000E+00
   -0.19791E-20        -0.55879E-20         0.00000E+00
   -0.29104E-21        -0.20023E-19         0.00000E+00
    0.81491E-21        -0.15134E-19         0.00000E+00
    0.22119E-20        -0.25146E-19         0.00000E+00
    0.29104E-20        -0.81491E-20         0.00000E+00
    0.42492E-20         0.20955E-20         0.00000E+00
    0.55297E-20        -0.74506E-20         0.00000E+00
    0.54715E-20         0.27940E-20         0.00000E+00
    0.25029E-20         0.21420E-19         0.00000E+00
    0.98953E-21         0.10710E-19         0.00000E+00
   -0.75670E-21        -0.88476E-20         0.00000E+00
   -0.14552E-20        -0.93132E-20         0.00000E+00
   -0.20373E-20         0.67521E-20         0.00000E+00
   -0.21537E-20         0.12573E-19         0.00000E+00
   -0.46566E-20         0.30268E-20         0.00000E+00
   -0.66939E-20        -0.93132E-21         0.00000E+00
   -0.64028E-20        -0.27940E-20         0.00000E+00
   -0.57044E-20        -0.46566E-20         0.00000E+00
   -0.36089E-20        -0.10710E-19         0.00000E+00
   -0.34343E-20        -0.18161E-19         0.00000E+00
   -0.38999E-20        -0.20023E-19         0.00000E+00
   -0.36089E-20        -0.36089E-19         0.00000E+00
   -0.18044E-20        -0.24447E-19         0.00000E+00
   -0.11059E-20        -0.39348E-19         0.00000E+00
   -0.14552E-20        -0.47963E-19         0.00000E+00
   -0.28522E-20        -0.36554E-19         0.00000E+00
   -0.13388E-20        -0.23749E-19         0.00000E+00
   -0.58208E-22        -0.22817E-19         0.00000E+00
   -0.58208E-22        -0.14668E-19         0.00000E+00
    0.40745E-21        -0.69849E-20         0.00000E+00
   -0.17462E-21        -0.74506E-20         0.00000E+00
    0.15018E-19         0.46566E-21         0.00000E+00
    0.13621E-19         0.13970E-20         0.00000E+00
    0.14086E-19        -0.13970E-20         0.00000E+00
    0.13504E-19         0.46566E-21         0.00000E+00
    0.11350E-19        -0.10710E-19         0.00000E+00
    0.10477E-19        -0.17928E-19         0.00000E+00
    0.10710E-19        -0.24447E-19         0.00000E+00
    0.75670E-20        -0.23283E-19         0.00000E+00
    0.37835E-20        -0.28871E-19         0.00000E+00
    0.27940E-20        -0.20023E-19         0.00000E+00
    0.24447E-20        -0.10245E-19         0.00000E+00
    0.12806E-20         0.93132E-21         0.00000E+00
    0.11059E-20        -0.10710E-19         0.00000E+00
   -0.11059E-20         0.37253E-20         0.00000E+00
   -0.29686E-20        -0.97789E-20         0.00000E+00
   -0.29104E-20         0.10245E-19         0.00000E+00
   -0.18626E-20         0.27940E-20         0.00000E+00
   -0.33760E-20         0.19092E-19         0.00000E+00
   -0.34343E-20         0.14435E-19         0.00000E+00
   -0.30268E-20        -0.13039E-19         0.00000E+00
   -0.30850E-20        -0.22817E-19         0.00000E+00
   -0.40745E-20        -0.13970E-19         0.00000E+00
   -0.59372E-20        -0.23749E-19         0.00000E+00
   -0.61118E-20        -0.11176E-19         0.00000E+00
   -0.48894E-20        -0.88476E-20         0.00000E+00
   -0.29104E-20        -0.76834E-20         0.00000E+00
   -0.13388E-20        -0.18626E-20         0.00000E+00
    0.20373E-20         0.17229E-19         0.00000E+00
    0.49477E-20         0.10245E-19         0.00000E+00
    0.53551E-20        -0.37253E-20         0.00000E+00
    0.39581E-20        -0.37253E-20         0.00000E+00
    0.23865E-20         0.90804E-20         0.00000E+00
    0.25029E-20         0.11874E-19         0.00000E+00
    0.37835E-20         0.46566E-20         0.00000E+00
    0.36671E-20         0.72177E-20         0.00000E+00
    0.20955E-20        -0.41910E-20         0.00000E+00
    0.19791E-20        -0.97789E-20         0.00000E+00
    0.20373E-20        -0.14901E-19         0.00000E+00
    0.32596E-20        -0.21420E-19         0.00000E+00
    0.45402E-20        -0.22817E-19         0.00000E+00
    0.38999E-20        -0.36554E-19         0.00000E+00
    0.40163E-20        -0.31199E-19         0.00000E+00
    0.43656E-20        -0.36554E-19         0.00000E+00
    0.35507E-20        -0.43074E-19         0.00000E+00
    0.23865E-20        -0.34226E-19         0.00000E+00
    0.10477E-20        -0.24214E-19         0.00000E+00
   -0.87311E-21        -0.17229E-19         0.00000E+00
   -0.14552E-20        -0.17229E-19         0.00000E+00
   -0.98953E-21        -0.60536E-20         0.00000E+00
   -0.27940E-20        -0.13970E-20         0.00000E+00
    0.10827E-19         0.41910E-20         0.00000E+00
    0.95461E-20         0.67521E-20         0.00000E+00
    0.74506E-20         0.62864E-20         0.00000E+00
    0.43074E-20         0.86147E-20         0.00000E+00
    0.30850E-20        -0.51223E-20         0.00000E+00
    0.31432E-20        -0.16764E-19         0.00000E+00
    0.30850E-20        -0.20722E-19         0.00000E+00
    0.56461E-20        -0.21886E-19         0.00000E+00
    0.76252E-20        -0.20955E-19         0.00000E+00
    0.59372E-20        -0.15832E-19         0.00000E+00
    0.59372E-20        -0.17695E-19         0.00000E+00
    0.77998E-20         0.83819E-20         0.00000E+00
    0.67521E-20        -0.12107E-19         0.00000E+00
    0.65775E-20         0.12107E-19         0.00000E+00
    0.65775E-20        -0.13970E-20         0.00000E+00
    0.36671E-20         0.13039E-19         0.00000E+00
    0.28522E-20         0.65193E-20         0.00000E+00
    0.32596E-20         0.16298E-19         0.00000E+00
    0.43074E-20         0.10245E-19         0.00000E+00
    0.43074E-20        -0.10245E-19         0.00000E+00
    0.29104E-20        -0.18161E-19         0.00000E+00
    0.19791E-20        -0.83819E-20         0.00000E+00
    0.13970E-20        -0.14435E-19         0.00000E+00
    0.11642E-21        -0.12806E-19         0.00000E+00
   -0.14552E-20        -0.11874E-19         0.00000E+00
   -0.29686E-20        -0.60536E-20         0.00000E+00
   -0.36671E-20        -0.93132E-20         0.00000E+00
   -0.45984E-20         0.11642E-19         0.00000E+00
   -0.57626E-20         0.79162E-20         0.00000E+00
   -0.50059E-20        -0.41910E-20         0.00000E+00
   -0.33178E-20        -0.27940E-20         0.00000E+00
   -0.16880E-20         0.10477E-19         0.00000E+00
   -0.20955E-20         0.12340E-19         0.00000E+00
   -0.35507E-20         0.18626E-20         0.00000E+00
   -0.27358E-20         0.74506E-20         0.00000E+00
   -0.12806E-20         0.46566E-21         0.00000E+00
   -0.10477E-20        -0.14901E-19         0.00000E+00
    0.34925E-21        -0.17229E-19         0.00000E+00
   -0.93132E-21        -0.19325E-19         0.00000E+00
   -0.52387E-21        -0.27008E-19         0.00000E+00
    0.58208E-21        -0.42375E-19         0.00000E+00
    0.18044E-20        -0.27940E-19         0.00000E+00
    0.87311E-21        -0.35390E-19         0.00000E+00
    0.16880E-20        -0.43772E-19         0.00000E+00
    0.20955E-20        -0.31665E-19         0.00000E+00
    0.25611E-20        -0.20955E-19         0.00000E+00
    0.20955E-20        -0.12107E-19         0.00000E+00
    0.12224E-20        -0.17462E-19         0.00000E+00
    0.40745E-21        -0.18626E-20         0.00000E+00
    0.11642E-21         0.27940E-20         0.00000E+00
   -0.15192E-19         0.65193E-20         0.00000E+00
   -0.15716E-19         0.11176E-19         0.00000E+00
   -0.13621E-19         0.72177E-20         0.00000E+00
   -0.10477E-19         0.74506E-20         0.00000E+00
   -0.73342E-20        -0.14901E-19         0.00000E+00
   -0.41327E-20        -0.23749E-19         0.00000E+00
   -0.30268E-20        -0.20955E-19         0.00000E+00
   -0.43074E-20        -0.26543E-19         0.00000E+00
   -0.50059E-20        -0.22817E-19         0.00000E+00
   -0.48312E-20        -0.79162E-20         0.00000E+00
   -0.59372E-20        -0.23516E-19         0.00000E+00
   -0.47730E-20         0.30268E-20         0.00000E+00
   -0.23283E-20        -0.12573E-19         0.00000E+00
   -0.20373E-20         0.65193E-20         0.00000E+00
   -0.12806E-20         0.93132E-21         0.00000E+00
   -0.29104E-21         0.16764E-19         0.00000E+00
    0.29104E-21         0.88476E-20         0.00000E+00
   -0.93132E-21         0.14435E-19         0.00000E+00
   -0.26776E-20         0.15367E-19         0.00000E+00
   -0.45984E-20        -0.65193E-20         0.00000E+00
   -0.47148E-20        -0.14435E-19         0.00000E+00
   -0.32596E-20        -0.15367E-19         0.00000E+00
    0.11642E-21        -0.21886E-19         0.00000E+00
    0.34343E-20        -0.15134E-19         0.00000E+00
    0.35507E-20        -0.51223E-20         0.00000E+00
    0.28522E-20         0.46566E-21         0.00000E+00
    0.18626E-20        -0.86147E-20         0.00000E+00
    0.75670E-21         0.18161E-19         0.00000E+00
    0.22701E-20         0.18626E-20         0.00000E+00
    0.22701E-20        -0.18626E-20         0.00000E+00
    0.16298E-20        -0.65193E-20         0.00000E+00
    0.17462E-21         0.14901E-19         0.00000E+00
    0.17462E-21         0.74506E-20         0.00000E+00
    0.20373E-20         0.18626E-20         0.00000E+00
    0.13970E-20         0.51223E-20         0.00000E+00
    0.98953E-21        -0.13970E-20         0.00000E+00
   -0.34925E-21        -0.90804E-20         0.00000E+00
   -0.40745E-20        -0.12107E-19         0.00000E+00
   -0.27940E-20        -0.22817E-19         0.00000E+00
   -0.98953E-21        -0.33528E-19         0.00000E+00
   -0.19791E-20        -0.41910E-19         0.00000E+00
   -0.38999E-20        -0.23283E-19         0.00000E+00
   -0.42492E-20        -0.35390E-19         0.00000E+00
   -0.43656E-20        -0.45169E-19         0.00000E+00
   -0.44238E-20        -0.32596E-19         0.00000E+00
   -0.42492E-20        -0.23283E-19         0.00000E+00
   -0.20955E-20        -0.17695E-19         0.00000E+00
   -0.40745E-21        -0.13271E-19         0.00000E+00
   -0.40745E-21        -0.46566E-21         0.00000E+00
    0.00000E+00         0.67521E-20         0.00000E+00
   -0.82073E-20         0.37253E-20         0.00000E+00
   -0.82655E-20         0.88476E-20         0.00000E+00
   -0.10186E-19         0.51223E-20         0.00000E+00
   -0.11874E-19         0.23283E-20         0.00000E+00
   -0.13271E-19        -0.14668E-19         0.00000E+00
   -0.14319E-19        -0.32829E-19         0.00000E+00
   -0.11525E-19        -0.30268E-19         0.00000E+00
   -0.88476E-20        -0.30268E-19         0.00000E+00
   -0.64028E-20        -0.27474E-19         0.00000E+00
   -0.31432E-20        -0.17229E-19         0.00000E+00
    0.23283E-21        -0.22817E-19         0.00000E+00
   -0.11642E-20         0.34925E-20         0.00000E+00
   -0.32596E-20        -0.16531E-19         0.00000E+00
   -0.16880E-20        -0.13970E-20         0.00000E+00
    0.18044E-20        -0.74506E-20         0.00000E+00
    0.29686E-20         0.12107E-19         0.00000E+00
    0.29686E-20         0.16298E-19         0.00000E+00
    0.17462E-20         0.18394E-19         0.00000E+00
    0.12224E-20         0.22817E-19         0.00000E+00
    0.81491E-21         0.46566E-21         0.00000E+00
   -0.75670E-21        -0.13970E-19         0.00000E+00
   -0.41910E-20        -0.11176E-19         0.00000E+00
   -0.62282E-20        -0.25146E-19         0.00000E+00
   -0.79162E-20        -0.15832E-19         0.00000E+00
   -0.83237E-20        -0.46566E-20         0.00000E+00
   -0.62282E-20        -0.74506E-20         0.00000E+00
   -0.38999E-20        -0.46566E-20         0.00000E+00
   -0.28522E-20         0.14901E-19         0.00000E+00
   -0.35507E-20         0.27940E-20         0.00000E+00
   -0.33178E-20        -0.69849E-20         0.00000E+00
   -0.25029E-20        -0.18626E-20         0.00000E+00
   -0.26776E-20         0.16298E-19         0.00000E+00
   -0.43074E-20         0.11642E-19         0.00000E+00
   -0.69267E-20         0.58208E-20         0.00000E+00
   -0.75088E-20         0.76834E-20         0.00000E+00
   -0.62282E-20        -0.37253E-20         0.00000E+00
   -0.32596E-20        -0.13504E-19         0.00000E+00
    0.11642E-20        -0.16531E-19         0.00000E+00
    0.26776E-20        -0.25146E-19         0.00000E+00
    0.27358E-20        -0.33528E-19         0.00000E+00
    0.98953E-21        -0.32596E-19         0.00000E+00
    0.12224E-20        -0.21188E-19         0.00000E+00
    0.75670E-21        -0.37020E-19         0.00000E+00
    0.34925E-21        -0.39581E-19         0.00000E+00
    0.58208E-21        -0.31199E-19         0.00000E+00
   -0.17462E-20        -0.15832E-19         0.00000E+00
   -0.55879E-20        -0.17229E-19         0.00000E+00
   -0.83819E-20        -0.90804E-20         0.00000E+00
   -0.95461E-20         0.13970E-20         0.00000E+00
   -0.83237E-20        -0.18626E-20         0.00000E+00
   -0.10128E-19        -0.23283E-20         0.00000E+00
   -0.87311E-20         0.51223E-20         0.00000E+00
   -0.38417E-20         0.25611E-20         0.00000E+00
   -0.58208E-22        -0.46566E-20         0.00000E+00
    0.12224E-20        -0.90804E-20         0.00000E+00
   -0.40745E-21        -0.26543E-19         0.00000E+00
   -0.15134E-20        -0.37253E-19         0.00000E+00
   -0.23283E-20        -0.34925E-19         0.00000E+00
   -0.12224E-20        -0.36554E-19         0.00000E+00
   -0.13388E-20        -0.27940E-19         0.00000E+00
   -0.40745E-21        -0.30501E-19         0.00000E+00
    0.22119E-20         0.46566E-20         0.00000E+00
    0.45402E-20        -0.16764E-19         0.00000E+00
    0.33178E-20        -0.25611E-20         0.00000E+00
    0.20955E-20        -0.10710E-19         0.00000E+00
   -0.58208E-22         0.14901E-19         0.00000E+00
    0.10477E-20         0.11642E-19         0.00000E+00
    0.28522E-20         0.16997E-19         0.00000E+00
    0.37835E-20         0.20489E-19         0.00000E+00
    0.45402E-20         0.18626E-20         0.00000E+00
    0.54715E-20        -0.15832E-19         0.00000E+00
    0.81491E-20        -0.69849E-20         0.00000E+00
    0.90804E-20        -0.20489E-19         0.00000E+00
    0.83237E-20        -0.13271E-19         0.00000E+00
    0.73342E-20        -0.34925E-20         0.00000E+00
    0.50641E-20        -0.11874E-19         0.00000E+00
    0.33760E-20        -0.16298E-20         0.00000E+00
    0.52387E-21         0.23749E-19         0.00000E+00
   -0.18626E-20         0.11874E-19         0.00000E+00
   -0.40745E-20        -0.74506E-20         0.00000E+00
   -0.57044E-20         0.93132E-21         0.00000E+00
   -0.62864E-20         0.19325E-19         0.00000E+00
   -0.60536E-20         0.14901E-19         0.00000E+00
   -0.26776E-20         0.27940E-20         0.00000E+00
    0.16880E-20        -0.53551E-20         0.00000E+00
    0.38999E-20        -0.12573E-19         0.00000E+00
    0.32596E-20        -0.21886E-19         0.00000E+00
    0.23283E-20        -0.25611E-19         0.00000E+00
    0.33178E-20        -0.26543E-19         0.00000E+00
    0.27358E-20        -0.26543E-19         0.00000E+00
    0.26776E-20        -0.36322E-19         0.00000E+00
    0.30268E-20        -0.17229E-19         0.00000E+00
    0.25611E-20        -0.33295E-19         0.00000E+00
    0.20373E-20        -0.39116E-19         0.00000E+00
    0.29104E-21        -0.20955E-19         0.00000E+00
   -0.29104E-21        -0.13970E-19         0.00000E+00
    0.58208E-22        -0.37253E-20         0.00000E+00
    0.87311E-21        -0.11642E-19         0.00000E+00
    0.25029E-20         0.18626E-20         0.00000E+00
    0.18626E-20        -0.18626E-20         0.00000E+00
    0.36671E-20         0.93132E-21         0.00000E+00
    0.29104E-21         0.62864E-20         0.00000E+00
   -0.18044E-20        -0.88476E-20         0.00000E+00
   -0.39581E-20        -0.60536E-20         0.00000E+00
   -0.24447E-20        -0.17695E-19         0.00000E+00
    0.18044E-20        -0.32829E-19         0.00000E+00
    0.43074E-20        -0.39814E-19         0.00000E+00
    0.41327E-20        -0.33295E-19         0.00000E+00
    0.25611E-20        -0.32131E-19         0.00000E+00
    0.81491E-21        -0.20955E-19         0.00000E+00
   -0.64028E-21        -0.26077E-19         0.00000E+00
   -0.38417E-20         0.93132E-21         0.00000E+00
   -0.70431E-20        -0.93132E-20         0.00000E+00
   -0.84983E-20         0.18626E-20         0.00000E+00
   -0.93132E-20        -0.27940E-20         0.00000E+00
   -0.93132E-20         0.16298E-19         0.00000E+00
   -0.94878E-20         0.11176E-19         0.00000E+00
   -0.10419E-19         0.12107E-19         0.00000E+00
   -0.80327E-20         0.46566E-20         0.00000E+00
   -0.38417E-20        -0.69849E-20         0.00000E+00
   -0.23283E-20        -0.18626E-19         0.00000E+00
   -0.28522E-20        -0.14435E-19         0.00000E+00
   -0.27358E-20        -0.19092E-19         0.00000E+00
   -0.16298E-20        -0.16065E-19         0.00000E+00
    0.93132E-21        -0.34925E-20         0.00000E+00
    0.16880E-20         0.23283E-21         0.00000E+00
    0.46566E-21         0.69849E-21         0.00000E+00
    0.75670E-21         0.35390E-19         0.00000E+00
    0.58208E-21         0.11642E-19         0.00000E+00
    0.26776E-20        -0.51223E-20         0.00000E+00
    0.35507E-20         0.11642E-20         0.00000E+00
    0.46566E-20         0.13504E-19         0.00000E+00
    0.57626E-20         0.93132E-20         0.00000E+00
    0.53551E-20        -0.37253E-20         0.00000E+00
    0.15716E-20        -0.60536E-20         0.00000E+00
   -0.20955E-20        -0.48894E-20         0.00000E+00
   -0.51223E-20        -0.12107E-19         0.00000E+00
   -0.66357E-20        -0.24680E-19         0.00000E+00
   -0.96625E-20        -0.16764E-19         0.00000E+00
   -0.11176E-19        -0.27241E-19         0.00000E+00
   -0.11409E-19        -0.37486E-19         0.00000E+00
   -0.10827E-19        -0.19092E-19         0.00000E+00
   -0.10012E-19        -0.34226E-19         0.00000E+00
   -0.84401E-20        -0.43306E-19         0.00000E+00
   -0.50059E-20        -0.29104E-19         0.00000E+00
   -0.29104E-21        -0.25146E-19         0.00000E+00
    0.37253E-20        -0.14435E-19         0.00000E+00
    0.66939E-20        -0.18626E-19         0.00000E+00
    0.66357E-20        -0.46566E-20         0.00000E+00
    0.79162E-20        -0.13970E-20         0.00000E+00
   -0.58208E-21         0.37253E-20         0.00000E+00
    0.16298E-20         0.83819E-20         0.00000E+00
    0.30268E-20        -0.46566E-21         0.00000E+00
    0.22701E-20        -0.46566E-20         0.00000E+00
    0.11642E-20        -0.19558E-19         0.00000E+00
   -0.10477E-20        -0.34925E-19         0.00000E+00
   -0.55879E-20        -0.31199E-19         0.00000E+00
   -0.71013E-20        -0.34226E-19         0.00000E+00
   -0.55879E-20        -0.30966E-19         0.00000E+00
   -0.32596E-20        -0.25146E-19         0.00000E+00
   -0.19791E-20        -0.23283E-19         0.00000E+00
   -0.13388E-20         0.79162E-20         0.00000E+00
    0.11642E-21        -0.69849E-20         0.00000E+00
    0.75670E-21         0.25611E-20         0.00000E+00
    0.13970E-20        -0.69849E-20         0.00000E+00
    0.27940E-20         0.12107E-19         0.00000E+00
    0.36671E-20         0.16997E-19         0.00000E+00
    0.24447E-20         0.14901E-19         0.00000E+00
   -0.18626E-20         0.74506E-20         0.00000E+00
   -0.65193E-20        -0.30268E-20         0.00000E+00
   -0.80909E-20        -0.17695E-19         0.00000E+00
   -0.74506E-20        -0.13039E-19         0.00000E+00
   -0.43074E-20        -0.30734E-19         0.00000E+00
   -0.38417E-20        -0.15832E-19         0.00000E+00
   -0.45402E-20        -0.13970E-19         0.00000E+00
   -0.36089E-20         0.18626E-20         0.00000E+00
   -0.36671E-20         0.23283E-20         0.00000E+00
   -0.15134E-20         0.27474E-19         0.00000E+00
    0.58208E-22         0.83819E-20         0.00000E+00
   -0.12224E-20        -0.55879E-20         0.00000E+00
   -0.13970E-20        -0.23283E-20         0.00000E+00
   -0.13388E-20         0.13504E-19         0.00000E+00
   -0.31432E-20         0.10245E-19         0.00000E+00
   -0.38417E-20         0.46566E-20         0.00000E+00
   -0.39581E-20         0.60536E-20         0.00000E+00
   -0.25611E-20        -0.13970E-20         0.00000E+00
    0.69849E-21        -0.14901E-19         0.00000E+00
   -0.46566E-21        -0.13039E-19         0.00000E+00
   -0.11059E-20        -0.14668E-19         0.00000E+00
   -0.58208E-22        -0.24680E-19         0.00000E+00
   -0.13388E-20        -0.36787E-19         0.00000E+00
   -0.75670E-21        -0.23283E-19         0.00000E+00
    0.64028E-21        -0.43772E-19         0.00000E+00
    0.26776E-20        -0.48429E-19         0.00000E+00
    0.31432E-20        -0.44471E-19         0.00000E+00
    0.26776E-20        -0.23982E-19         0.00000E+00
    0.11642E-21        -0.22352E-19         0.00000E+00
   -0.93132E-21        -0.16298E-19         0.00000E+00
   -0.13970E-20        -0.46566E-20         0.00000E+00
   -0.33178E-20         0.00000E+00         0.00000E+00
   -0.26776E-20         0.23283E-20         0.00000E+00
   -0.36089E-20         0.30268E-20         0.00000E+00
   -0.40745E-20        -0.93132E-21         0.00000E+00
   -0.46566E-20        -0.13970E-20         0.00000E+00
   -0.59372E-20        -0.12107E-19         0.00000E+00
   -0.69849E-20        -0.23749E-19         0.00000E+00
   -0.66357E-20        -0.29337E-19         0.00000E+00
   -0.61700E-20        -0.31665E-19         0.00000E+00
   -0.82655E-20        -0.30035E-19         0.00000E+00
   -0.11409E-19        -0.20489E-19         0.00000E+00
   -0.12340E-19        -0.24214E-19         0.00000E+00
   -0.11642E-19        -0.16298E-20         0.00000E+00
   -0.10128E-19        -0.12573E-19         0.00000E+00
   -0.85565E-20        -0.13970E-20         0.00000E+00
   -0.80909E-20        -0.72177E-20         0.00000E+00
   -0.10885E-19         0.15367E-19         0.00000E+00
   -0.91968E-20         0.72177E-20         0.00000E+00
   -0.64611E-20         0.13737E-19         0.00000E+00
   -0.52969E-20         0.19558E-19         0.00000E+00
   -0.47730E-20        -0.46566E-21         0.00000E+00
   -0.23865E-20        -0.19325E-19         0.00000E+00
   -0.25611E-20        -0.18626E-19         0.00000E+00
   -0.47730E-20        -0.29104E-19         0.00000E+00
   -0.62282E-20        -0.13271E-19         0.00000E+00
   -0.71595E-20        -0.81491E-20         0.00000E+00
   -0.69267E-20        -0.60536E-20         0.00000E+00
   -0.51805E-20         0.27940E-20         0.00000E+00
   -0.65775E-20         0.23749E-19         0.00000E+00
   -0.71595E-20         0.74506E-20         0.00000E+00
   -0.61118E-20        -0.93132E-21         0.00000E+00
   -0.71595E-20        -0.60536E-20         0.00000E+00
   -0.57044E-20         0.10245E-19         0.00000E+00
   -0.32014E-20         0.12340E-19         0.00000E+00
   -0.23283E-20         0.46566E-20         0.00000E+00
   -0.12224E-20         0.18626E-20         0.00000E+00
   -0.18626E-20         0.93132E-21         0.00000E+00
   -0.52387E-20        -0.93132E-20         0.00000E+00
   -0.57044E-20        -0.13504E-19         0.00000E+00
   -0.37253E-20        -0.19791E-19         0.00000E+00
   -0.40163E-20        -0.18626E-19         0.00000E+00
   -0.47148E-20        -0.35390E-19         0.00000E+00
   -0.50059E-20        -0.26077E-19         0.00000E+00
   -0.71595E-20        -0.42375E-19         0.00000E+00
   -0.87894E-20        -0.49360E-19         0.00000E+00
   -0.10885E-19        -0.40513E-19         0.00000E+00
   -0.12864E-19        -0.16298E-19         0.00000E+00
   -0.13446E-19        -0.14435E-19         0.00000E+00
   -0.13853E-19        -0.12573E-19         0.00000E+00
   -0.15250E-19        -0.46566E-21         0.00000E+00
   -0.15192E-19         0.25611E-20         0.00000E+00
   -0.15134E-20         0.41910E-20         0.00000E+00
   -0.17462E-20         0.79162E-20         0.00000E+00
   -0.14552E-20         0.23283E-21         0.00000E+00
   -0.13388E-20        -0.46566E-21         0.00000E+00
   -0.13388E-20        -0.13504E-19         0.00000E+00
   -0.52387E-21        -0.20955E-19         0.00000E+00
   -0.12806E-20        -0.22352E-19         0.00000E+00
   -0.47148E-20        -0.24913E-19         0.00000E+00
   -0.52387E-20        -0.23749E-19         0.00000E+00
   -0.43074E-20        -0.16764E-19         0.00000E+00
   -0.33178E-20        -0.27940E-19         0.00000E+00
   -0.49477E-20         0.13970E-20         0.00000E+00
   -0.61118E-20        -0.13737E-19         0.00000E+00
   -0.67521E-20        -0.32596E-20         0.00000E+00
   -0.60536E-20        -0.88476E-20         0.00000E+00
   -0.33178E-20         0.11642E-19         0.00000E+00
   -0.29686E-20         0.37253E-20         0.00000E+00
   -0.50059E-20         0.11176E-19         0.00000E+00
   -0.44820E-20         0.15134E-19         0.00000E+00
   -0.44238E-20         0.00000E+00         0.00000E+00
   -0.52387E-20        -0.22817E-19         0.00000E+00
   -0.44238E-20        -0.19558E-19         0.00000E+00
   -0.29104E-20        -0.25611E-19         0.00000E+00
   -0.25611E-20        -0.12107E-19         0.00000E+00
   -0.20955E-20        -0.37253E-20         0.00000E+00
   -0.43074E-20        -0.27940E-20         0.00000E+00
   -0.62864E-20         0.93132E-21         0.00000E+00
   -0.48894E-20         0.23283E-19         0.00000E+00
   -0.35507E-20         0.72177E-20         0.00000E+00
   -0.33178E-20        -0.23283E-21         0.00000E+00
   -0.20955E-20        -0.74506E-20         0.00000E+00
   -0.23865E-20         0.55879E-20         0.00000E+00
   -0.38999E-20         0.83819E-20         0.00000E+00
   -0.39581E-20        -0.37253E-20         0.00000E+00
   -0.27940E-20        -0.25611E-20         0.00000E+00
   -0.10477E-20        -0.11642E-20         0.00000E+00
    0.30850E-20        -0.72177E-20         0.00000E+00
    0.36671E-20        -0.13504E-19         0.00000E+00
    0.20955E-20        -0.21188E-19         0.00000E+00
    0.42492E-20        -0.27241E-19         0.00000E+00
    0.54715E-20        -0.33295E-19         0.00000E+00
    0.57044E-20        -0.27474E-19         0.00000E+00
    0.69849E-20        -0.37951E-19         0.00000E+00
    0.57626E-20        -0.41211E-19         0.00000E+00
    0.33760E-20        -0.29802E-19         0.00000E+00
    0.38417E-20        -0.13737E-19         0.00000E+00
    0.36089E-20        -0.16298E-19         0.00000E+00
    0.26776E-20        -0.79162E-20         0.00000E+00
    0.20955E-20         0.48894E-20         0.00000E+00
    0.17462E-20         0.93132E-21         0.00000E+00
    0.11642E-21         0.60536E-20         0.00000E+00
   -0.40745E-21         0.79162E-20         0.00000E+00
   -0.12806E-20         0.81491E-20         0.00000E+00
   -0.48312E-20         0.69849E-20         0.00000E+00
   -0.81491E-20        -0.46566E-20         0.00000E+00
   -0.97789E-20        -0.23050E-19         0.00000E+00
   -0.83819E-20        -0.26543E-19         0.00000E+00
   -0.44820E-20        -0.21653E-19         0.00000E+00
   -0.28522E-20        -0.32363E-19         0.00000E+00
   -0.32014E-20        -0.16531E-19         0.00000E+00
   -0.34343E-20        -0.24447E-19         0.00000E+00
   -0.25611E-20        -0.23283E-20         0.00000E+00
   -0.27940E-20        -0.11642E-19         0.00000E+00
   -0.48312E-20         0.97789E-20         0.00000E+00
   -0.83237E-20        -0.60536E-20         0.00000E+00
   -0.11583E-19         0.55879E-20         0.00000E+00
   -0.11816E-19         0.93132E-20         0.00000E+00
   -0.10536E-19         0.14435E-19         0.00000E+00
   -0.93714E-20         0.18626E-20         0.00000E+00
   -0.60536E-20        -0.12573E-19         0.00000E+00
   -0.23865E-20        -0.20955E-19         0.00000E+00
   -0.23283E-20        -0.27008E-19         0.00000E+00
   -0.15134E-20        -0.31898E-19         0.00000E+00
   -0.11642E-20        -0.12573E-19         0.00000E+00
    0.11642E-21        -0.10245E-19         0.00000E+00
    0.30268E-20        -0.23283E-20         0.00000E+00
    0.59372E-20        -0.20955E-20         0.00000E+00
    0.61118E-20         0.11874E-19         0.00000E+00
    0.60536E-20         0.60536E-20         0.00000E+00
    0.68685E-20        -0.83819E-20         0.00000E+00
    0.76834E-20        -0.69849E-20         0.00000E+00
    0.79744E-20         0.55879E-20         0.00000E+00
    0.10419E-19         0.18626E-20         0.00000E+00
    0.12282E-19        -0.74506E-20         0.00000E+00
    0.11991E-19        -0.46566E-20         0.00000E+00
    0.97789E-20        -0.55879E-20         0.00000E+00
    0.77416E-20        -0.13970E-19         0.00000E+00
    0.94878E-20        -0.13504E-19         0.00000E+00
    0.10245E-19        -0.21886E-19         0.00000E+00
    0.89058E-20        -0.26077E-19         0.00000E+00
    0.48894E-20        -0.29337E-19         0.00000E+00
    0.25611E-20        -0.18161E-19         0.00000E+00
   -0.23283E-21        -0.31665E-19         0.00000E+00
    0.34925E-21        -0.39116E-19         0.00000E+00
    0.43656E-20        -0.38650E-19         0.00000E+00
    0.58208E-20        -0.19558E-19         0.00000E+00
    0.71013E-20        -0.12107E-19         0.00000E+00
    0.72760E-20        -0.93132E-20         0.00000E+00
    0.69267E-20         0.32596E-20         0.00000E+00
    0.68685E-20         0.27940E-20         0.00000E+00
   -0.64028E-20         0.39581E-20         0.00000E+00
   -0.65193E-20         0.23283E-20         0.00000E+00
   -0.42492E-20         0.74506E-20         0.00000E+00
   -0.34925E-21         0.48894E-20         0.00000E+00
    0.33760E-20        -0.39581E-20         0.00000E+00
    0.57626E-20        -0.21886E-19         0.00000E+00
    0.43074E-20        -0.28871E-19         0.00000E+00
    0.20955E-20        -0.27707E-19         0.00000E+00
    0.10477E-20        -0.27474E-19         0.00000E+00
    0.81491E-21        -0.14901E-19         0.00000E+00
    0.69849E-21        -0.21886E-19         0.00000E+00
    0.34925E-21        -0.60536E-20         0.00000E+00
    0.64028E-21        -0.10245E-19         0.00000E+00
    0.32014E-20         0.83819E-20         0.00000E+00
    0.65193E-20        -0.13970E-20         0.00000E+00
    0.62282E-20         0.15600E-19         0.00000E+00
    0.72760E-20         0.53551E-20         0.00000E+00
    0.89640E-20         0.74506E-20         0.00000E+00
    0.92550E-20         0.41910E-20         0.00000E+00
    0.64028E-20        -0.22352E-19         0.00000E+00
    0.58208E-20        -0.25146E-19         0.00000E+00
    0.74506E-20        -0.31665E-19         0.00000E+00
    0.73342E-20        -0.26543E-19         0.00000E+00
    0.68103E-20        -0.18859E-19         0.00000E+00
    0.66357E-20        -0.10245E-19         0.00000E+00
    0.50641E-20        -0.46566E-20         0.00000E+00
    0.29686E-20         0.13970E-20         0.00000E+00
    0.11642E-20         0.17695E-19         0.00000E+00
    0.29686E-20        -0.93132E-21         0.00000E+00
    0.44820E-20        -0.15600E-19         0.00000E+00
    0.66357E-20        -0.13271E-19         0.00000E+00
    0.77416E-20         0.30268E-20         0.00000E+00
    0.66357E-20         0.23283E-20         0.00000E+00
    0.39581E-20        -0.13970E-20         0.00000E+00
    0.29104E-20        -0.93132E-21         0.00000E+00
    0.47730E-20        -0.32596E-20         0.00000E+00
    0.68103E-20        -0.13271E-19         0.00000E+00
    0.55879E-20        -0.10245E-19         0.00000E+00
    0.12806E-20        -0.14901E-19         0.00000E+00
    0.29104E-21        -0.14435E-19         0.00000E+00
   -0.29104E-21        -0.26543E-19         0.00000E+00
    0.75670E-21        -0.17695E-19         0.00000E+00
    0.33178E-20        -0.31898E-19         0.00000E+00
    0.26776E-20        -0.40513E-19         0.00000E+00
   -0.13970E-20        -0.35856E-19         0.00000E+00
   -0.41910E-20        -0.12806E-19         0.00000E+00
   -0.63446E-20        -0.15134E-19         0.00000E+00
   -0.54715E-20        -0.88476E-20         0.00000E+00
   -0.33178E-20        -0.13970E-20         0.00000E+00
   -0.58208E-21        -0.93132E-21         0.00000E+00
    0.93132E-21         0.18626E-20         0.00000E+00
    0.13970E-20         0.41910E-20         0.00000E+00
    0.12806E-20         0.23283E-20         0.00000E+00
    0.23283E-21        -0.55879E-20         0.00000E+00
   -0.23283E-21        -0.16764E-19         0.00000E+00
   -0.58208E-22        -0.21420E-19         0.00000E+00
    0.15716E-20        -0.25611E-19         0.00000E+00
    0.34925E-20        -0.30035E-19         0.00000E+00
    0.45402E-20        -0.26776E-19         0.00000E+00
    0.64028E-20        -0.21188E-19         0.00000E+00
    0.82655E-20        -0.29802E-19         0.00000E+00
    0.88476E-20        -0.37253E-20         0.00000E+00
    0.82655E-20        -0.12806E-19         0.00000E+00
    0.73924E-20         0.81491E-20         0.00000E+00
    0.62864E-20        -0.81491E-20         0.00000E+00
    0.69267E-20         0.12107E-19         0.00000E+00
    0.88476E-20        -0.53551E-20         0.00000E+00
    0.96043E-20         0.69849E-21         0.00000E+00
    0.90222E-20         0.83819E-20         0.00000E+00
    0.89640E-20        -0.12573E-19         0.00000E+00
    0.86147E-20        -0.23050E-19         0.00000E+00
    0.54715E-20        -0.26077E-19         0.00000E+00
    0.29104E-20        -0.21886E-19         0.00000E+00
    0.16880E-20        -0.15832E-19         0.00000E+00
   -0.17462E-21        -0.76834E-20         0.00000E+00
    0.23283E-21         0.46566E-21         0.00000E+00
    0.22119E-20        -0.23283E-20         0.00000E+00
    0.48312E-20         0.79162E-20         0.00000E+00
    0.37835E-20         0.55879E-20         0.00000E+00
    0.10477E-20        -0.97789E-20         0.00000E+00
   -0.75670E-21        -0.20489E-19         0.00000E+00
   -0.23283E-21         0.46566E-21         0.00000E+00
    0.18626E-20         0.46566E-20         0.00000E+00
    0.41327E-20        -0.65193E-20         0.00000E+00
    0.69849E-20        -0.18626E-20         0.00000E+00
    0.53551E-20        -0.60536E-20         0.00000E+00
    0.41910E-20        -0.16531E-19         0.00000E+00
    0.69849E-20        -0.12806E-19         0.00000E+00
    0.11234E-19        -0.14901E-19         0.00000E+00
    0.13912E-19        -0.14901E-19         0.00000E+00
    0.13213E-19        -0.21653E-19         0.00000E+00
    0.11758E-19        -0.16997E-19         0.00000E+00
    0.82073E-20        -0.28405E-19         0.00000E+00
    0.76252E-20        -0.33993E-19         0.00000E+00
    0.75088E-20        -0.23283E-19         0.00000E+00
    0.79744E-20        -0.14203E-19         0.00000E+00
    0.82655E-20        -0.13970E-19         0.00000E+00
    0.80327E-20        -0.13039E-19         0.00000E+00
    0.81491E-20        -0.41910E-20         0.00000E+00
    0.69849E-20        -0.32596E-20         0.00000E+00
    0.43656E-20         0.41910E-20         0.00000E+00
    0.41910E-20         0.13970E-20         0.00000E+00
    0.51223E-20         0.27940E-20         0.00000E+00
    0.51223E-20         0.23283E-20         0.00000E+00
    0.36089E-20        -0.15134E-19         0.00000E+00
    0.24447E-20        -0.18626E-19         0.00000E+00
    0.81491E-21        -0.26543E-19         0.00000E+00
    0.00000E+00        -0.34459E-19         0.00000E+00
    0.16880E-20        -0.36322E-19         0.00000E+00
    0.37253E-20        -0.27940E-19         0.00000E+00
    0.42492E-20        -0.33760E-19         0.00000E+00
    0.52387E-20        -0.67521E-20         0.00000E+00
    0.66357E-20        -0.19325E-19         0.00000E+00
    0.97789E-20         0.30268E-20         0.00000E+00
    0.10768E-19         0.00000E+00         0.00000E+00
    0.10710E-19        -0.46566E-21         0.00000E+00
    0.10070E-19        -0.13970E-20         0.00000E+00
    0.65775E-20         0.11176E-19         0.00000E+00
    0.54715E-20         0.37253E-20         0.00000E+00
    0.60536E-20        -0.13039E-19         0.00000E+00
    0.71595E-20        -0.20023E-19         0.00000E+00
    0.64028E-20        -0.12107E-19         0.00000E+00
    0.59954E-20        -0.21886E-19         0.00000E+00
    0.61118E-20        -0.10245E-19         0.00000E+00
    0.53551E-20        -0.55879E-20         0.00000E+00
    0.66357E-20        -0.62864E-20         0.00000E+00
    0.68103E-20        -0.79162E-20         0.00000E+00
    0.47148E-20         0.11874E-19         0.00000E+00
    0.51223E-20         0.46566E-20         0.00000E+00
    0.92550E-20        -0.17462E-19         0.00000E+00
    0.10012E-19        -0.16764E-19         0.00000E+00
    0.89058E-20         0.11642E-20         0.00000E+00
    0.65193E-20         0.44238E-20         0.00000E+00
    0.47148E-20        -0.10245E-19         0.00000E+00
    0.33178E-20        -0.18626E-20         0.00000E+00
    0.30268E-20        -0.25611E-20         0.00000E+00
    0.25611E-20        -0.12107E-19         0.00000E+00
    0.98953E-21        -0.22585E-19         0.00000E+00
   -0.26776E-20        -0.17928E-19         0.00000E+00
   -0.37835E-20        -0.19092E-19         0.00000E+00
   -0.16298E-20        -0.32131E-19         0.00000E+00
    0.21537E-20        -0.18859E-19         0.00000E+00
    0.48312E-20        -0.25379E-19         0.00000E+00
    0.65193E-20        -0.40978E-19         0.00000E+00
    0.90804E-20        -0.27707E-19         0.00000E+00
    0.10477E-19        -0.15134E-19         0.00000E+00
    0.10477E-19        -0.83819E-20         0.00000E+00
    0.80327E-20        -0.69849E-20         0.00000E+00
    0.36671E-20         0.86147E-20         0.00000E+00
    0.15134E-20        -0.46566E-21         0.00000E+00
    0.17113E-19         0.18626E-20         0.00000E+00
    0.16182E-19         0.72177E-20         0.00000E+00
    0.13795E-19         0.41910E-20         0.00000E+00
    0.14086E-19        -0.13970E-20         0.00000E+00
    0.14668E-19        -0.11176E-19         0.00000E+00
    0.15832E-19        -0.18394E-19         0.00000E+00
    0.16880E-19        -0.26543E-19         0.00000E+00
    0.15716E-19        -0.27241E-19         0.00000E+00
    0.12165E-19        -0.31432E-19         0.00000E+00
    0.88476E-20        -0.26543E-19         0.00000E+00
    0.83819E-20        -0.32596E-19         0.00000E+00
    0.77998E-20        -0.15600E-19         0.00000E+00
    0.86147E-20        -0.19092E-19         0.00000E+00
    0.97207E-20        -0.12107E-19         0.00000E+00
    0.12747E-19        -0.83819E-20         0.00000E+00
    0.12515E-19         0.86147E-20         0.00000E+00
    0.89640E-20         0.15367E-19         0.00000E+00
    0.83819E-20         0.16298E-19         0.00000E+00
    0.77998E-20         0.74506E-20         0.00000E+00
    0.52387E-20        -0.12107E-19         0.00000E+00
    0.33178E-20        -0.17462E-19         0.00000E+00
    0.27940E-20        -0.11176E-19         0.00000E+00
    0.52387E-20        -0.29569E-19         0.00000E+00
    0.82073E-20        -0.11874E-19         0.00000E+00
    0.91386E-20        -0.20955E-20         0.00000E+00
    0.59372E-20        -0.32596E-20         0.00000E+00
    0.49477E-20        -0.97789E-20         0.00000E+00
    0.59372E-20         0.13970E-19         0.00000E+00
    0.68103E-20        -0.30268E-20         0.00000E+00
    0.54133E-20        -0.16298E-19         0.00000E+00
    0.30850E-20        -0.97789E-20         0.00000E+00
    0.13970E-20         0.76834E-20         0.00000E+00
    0.10477E-20         0.14668E-19         0.00000E+00
   -0.18626E-20         0.25611E-20         0.00000E+00
   -0.34343E-20        -0.46566E-20         0.00000E+00
   -0.16298E-20        -0.88476E-20         0.00000E+00
   -0.12224E-20        -0.79162E-20         0.00000E+00
   -0.16298E-20        -0.14668E-19         0.00000E+00
   -0.47020E-37        -0.17462E-19         0.00000E+00
    0.20373E-20        -0.19791E-19         0.00000E+00
    0.69849E-21        -0.35390E-19         0.00000E+00
   -0.58208E-21        -0.25611E-19         0.00000E+00
   -0.11642E-20        -0.32829E-19         0.00000E+00
   -0.12224E-20        -0.39116E-19         0.00000E+00
   -0.34925E-20        -0.32829E-19         0.00000E+00
   -0.50641E-20        -0.11874E-19         0.00000E+00
   -0.63446E-20        -0.62864E-20         0.00000E+00
   -0.46566E-20        -0.32596E-20         0.00000E+00
   -0.13970E-20         0.83819E-20         0.00000E+00
   -0.81491E-21         0.46566E-21         0.00000E+00
    0.11059E-19         0.48894E-20         0.00000E+00
    0.10594E-19         0.14203E-19         0.00000E+00
    0.11176E-19         0.27940E-20         0.00000E+00
    0.10710E-19         0.39581E-20         0.00000E+00
    0.89640E-20        -0.10245E-19         0.00000E+00
    0.95461E-20        -0.25844E-19         0.00000E+00
    0.96625E-20        -0.22352E-19         0.00000E+00
    0.94878E-20        -0.25146E-19         0.00000E+00
    0.87311E-20        -0.16764E-19         0.00000E+00
    0.84983E-20        -0.25146E-19         0.00000E+00
    0.87311E-20        -0.28405E-19         0.00000E+00
    0.68103E-20        -0.13970E-19         0.00000E+00
    0.54715E-20        -0.20489E-19         0.00000E+00
    0.43074E-20        -0.93132E-20         0.00000E+00
    0.14552E-20        -0.11642E-19         0.00000E+00
    0.20955E-20         0.12107E-19         0.00000E+00
    0.52969E-20         0.11176E-19         0.00000E+00
    0.69849E-20         0.19092E-19         0.00000E+00
    0.68685E-20         0.12806E-19         0.00000E+00
    0.80327E-20        -0.11874E-19         0.00000E+00
    0.98953E-20        -0.14901E-19         0.00000E+00
    0.10012E-19        -0.12573E-19         0.00000E+00
    0.71595E-20        -0.20955E-19         0.00000E+00
    0.15134E-20        -0.11176E-19         0.00000E+00
    0.12224E-20        -0.46566E-21         0.00000E+00
    0.23283E-20         0.13970E-20         0.00000E+00
    0.30850E-20        -0.41910E-20         0.00000E+00
    0.75670E-21         0.18161E-19         0.00000E+00
   -0.26193E-20         0.27940E-20         0.00000E+00
   -0.48312E-20        -0.51223E-20         0.00000E+00
   -0.67521E-20        -0.41910E-20         0.00000E+00
   -0.76834E-20         0.15600E-19         0.00000E+00
   -0.86729E-20         0.15367E-19         0.00000E+00
   -0.75670E-20         0.10012E-19         0.00000E+00
   -0.77998E-20        -0.30268E-20         0.00000E+00
   -0.91968E-20        -0.79162E-20         0.00000E+00
   -0.74506E-20        -0.15832E-19         0.00000E+00
   -0.41910E-20        -0.20955E-19         0.00000E+00
   -0.30850E-20        -0.22352E-19         0.00000E+00
   -0.21537E-20        -0.25611E-19         0.00000E+00
   -0.11642E-20        -0.35157E-19         0.00000E+00
   -0.69849E-21        -0.22817E-19         0.00000E+00
   -0.93132E-21        -0.33062E-19         0.00000E+00
   -0.12224E-20        -0.33062E-19         0.00000E+00
   -0.36089E-20        -0.22352E-19         0.00000E+00
   -0.47148E-20        -0.79162E-20         0.00000E+00
   -0.44820E-20        -0.58208E-20         0.00000E+00
   -0.39581E-20        -0.83819E-20         0.00000E+00
   -0.29686E-20        -0.23283E-20         0.00000E+00
   -0.22119E-20         0.16298E-20         0.00000E+00
   -0.60536E-20         0.32596E-20         0.00000E+00
   -0.38417E-20         0.93132E-20         0.00000E+00
   -0.25029E-20         0.23283E-21         0.00000E+00
   -0.18626E-20         0.69849E-20         0.00000E+00
   -0.23283E-21        -0.17229E-19         0.00000E+00
    0.12806E-20        -0.25611E-19         0.00000E+00
    0.58208E-21        -0.23749E-19         0.00000E+00
    0.10477E-20        -0.23749E-19         0.00000E+00
    0.21537E-20        -0.26310E-19         0.00000E+00
    0.37253E-20        -0.20256E-19         0.00000E+00
    0.12806E-20        -0.22817E-19         0.00000E+00
    0.58208E-21        -0.18626E-20         0.00000E+00
   -0.69849E-21        -0.17462E-19         0.00000E+00
   -0.87311E-21        -0.23283E-20         0.00000E+00
   -0.98953E-21        -0.41910E-20         0.00000E+00
   -0.25611E-20         0.11874E-19         0.00000E+00
   -0.45984E-20         0.60536E-20         0.00000E+00
   -0.52387E-20         0.18859E-19         0.00000E+00
   -0.57044E-20         0.15600E-19         0.00000E+00
   -0.96043E-20        -0.25611E-20         0.00000E+00
   -0.11409E-19        -0.19558E-19         0.00000E+00
   -0.10885E-19        -0.14435E-19         0.00000E+00
   -0.76834E-20        -0.20489E-19         0.00000E+00
   -0.40745E-20        -0.55879E-20         0.00000E+00
   -0.33178E-20        -0.46566E-20         0.00000E+00
   -0.29686E-20        -0.41910E-20         0.00000E+00
   -0.29686E-20         0.46566E-21         0.00000E+00
   -0.31432E-20         0.27008E-19         0.00000E+00
   -0.34343E-20         0.93132E-20         0.00000E+00
   -0.38999E-20        -0.46566E-21         0.00000E+00
   -0.37835E-20         0.46566E-21         0.00000E+00
   -0.29104E-20         0.13970E-19         0.00000E+00
   -0.81491E-21         0.14435E-19         0.00000E+00
   -0.64028E-21         0.51223E-20         0.00000E+00
   -0.11059E-20         0.13970E-20         0.00000E+00
   -0.13970E-20        -0.51223E-20         0.00000E+00
   -0.29104E-20        -0.17695E-19         0.00000E+00
   -0.48312E-20        -0.18161E-19         0.00000E+00
   -0.55879E-20        -0.23982E-19         0.00000E+00
   -0.66939E-20        -0.26543E-19         0.00000E+00
   -0.76252E-20        -0.34925E-19         0.00000E+00
   -0.71595E-20        -0.23283E-19         0.00000E+00
   -0.61118E-20        -0.36554E-19         0.00000E+00
   -0.54133E-20        -0.31898E-19         0.00000E+00
   -0.16880E-20        -0.30734E-19         0.00000E+00
    0.28522E-20        -0.13504E-19         0.00000E+00
    0.48894E-20        -0.10477E-19         0.00000E+00
    0.57626E-20        -0.11874E-19         0.00000E+00
    0.50641E-20         0.46566E-21         0.00000E+00
    0.44820E-20        -0.27940E-20         0.00000E+00
   -0.88476E-20         0.23283E-20         0.00000E+00
   -0.97789E-20         0.18626E-20         0.00000E+00
   -0.86729E-20        -0.20955E-20         0.00000E+00
   -0.76834E-20         0.16298E-20         0.00000E+00
   -0.83237E-20        -0.16997E-19         0.00000E+00
   -0.82655E-20        -0.25611E-19         0.00000E+00
   -0.84983E-20        -0.26543E-19         0.00000E+00
   -0.82655E-20        -0.23283E-19         0.00000E+00
   -0.76834E-20        -0.32363E-19         0.00000E+00
   -0.87311E-20        -0.16764E-19         0.00000E+00
   -0.90804E-20        -0.20489E-19         0.00000E+00
   -0.91386E-20        -0.93132E-21         0.00000E+00
   -0.96625E-20        -0.12107E-19         0.00000E+00
   -0.91386E-20        -0.41910E-20         0.00000E+00
   -0.91386E-20        -0.23283E-20         0.00000E+00
   -0.78580E-20         0.10245E-19         0.00000E+00
   -0.62282E-20         0.15600E-19         0.00000E+00
   -0.73342E-20         0.18394E-19         0.00000E+00
   -0.74506E-20         0.17462E-19         0.00000E+00
   -0.47148E-20         0.37253E-20         0.00000E+00
   -0.52969E-20        -0.18161E-19         0.00000E+00
   -0.60536E-20        -0.12107E-19         0.00000E+00
   -0.74506E-20        -0.33062E-19         0.00000E+00
   -0.73342E-20        -0.11642E-19         0.00000E+00
   -0.58208E-20        -0.90804E-20         0.00000E+00
   -0.56461E-20        -0.23283E-20         0.00000E+00
   -0.45984E-20        -0.41910E-20         0.00000E+00
   -0.33178E-20         0.20489E-19         0.00000E+00
   -0.13388E-20         0.97789E-20         0.00000E+00
   -0.12224E-20        -0.46566E-21         0.00000E+00
   -0.29104E-21        -0.74506E-20         0.00000E+00
    0.18044E-20         0.76834E-20         0.00000E+00
    0.16880E-20         0.97789E-20         0.00000E+00
    0.11642E-20         0.81491E-20         0.00000E+00
    0.34925E-21         0.11642E-20         0.00000E+00
   -0.52387E-21         0.37253E-20         0.00000E+00
   -0.32596E-20        -0.81491E-20         0.00000E+00
   -0.50059E-20        -0.14901E-19         0.00000E+00
   -0.57626E-20        -0.20256E-19         0.00000E+00
   -0.50059E-20        -0.25379E-19         0.00000E+00
   -0.40163E-20        -0.42375E-19         0.00000E+00
   -0.17462E-20        -0.31199E-19         0.00000E+00
   -0.19791E-20        -0.34692E-19         0.00000E+00
   -0.20373E-20        -0.40978E-19         0.00000E+00
   -0.41327E-20        -0.32596E-19         0.00000E+00
   -0.57044E-20        -0.23749E-19         0.00000E+00
   -0.41327E-20        -0.15600E-19         0.00000E+00
   -0.37253E-20        -0.12573E-19         0.00000E+00
   -0.34925E-20         0.13970E-20         0.00000E+00
   -0.37835E-20         0.00000E+00         0.00000E+00
   -0.13737E-19         0.55879E-20         0.00000E+00
   -0.14144E-19         0.23283E-20         0.00000E+00
   -0.13970E-19        -0.60536E-20         0.00000E+00
   -0.12573E-19        -0.27940E-20         0.00000E+00
   -0.13039E-19        -0.12107E-19         0.00000E+00
   -0.12806E-19        -0.33528E-19         0.00000E+00
   -0.10012E-19        -0.26543E-19         0.00000E+00
   -0.76834E-20        -0.32596E-19         0.00000E+00
   -0.43656E-20        -0.34459E-19         0.00000E+00
   -0.26193E-20        -0.21420E-19         0.00000E+00
    0.34925E-21        -0.25611E-19         0.00000E+00
    0.14552E-20         0.27940E-20         0.00000E+00
    0.11642E-21        -0.13039E-19         0.00000E+00
    0.00000E+00        -0.32596E-20         0.00000E+00
   -0.17462E-21        -0.83819E-20         0.00000E+00
   -0.21537E-20         0.11642E-19         0.00000E+00
   -0.34343E-20         0.97789E-20         0.00000E+00
   -0.58208E-21         0.13504E-19         0.00000E+00
    0.93132E-21         0.12107E-19         0.00000E+00
    0.58208E-21        -0.23283E-20         0.00000E+00
    0.52387E-21        -0.13039E-19         0.00000E+00
    0.10477E-20        -0.15367E-19         0.00000E+00
    0.12224E-20        -0.21886E-19         0.00000E+00
   -0.11642E-20        -0.16764E-19         0.00000E+00
   -0.25611E-20        -0.55879E-20         0.00000E+00
   -0.26193E-20        -0.88476E-20         0.00000E+00
   -0.20373E-20        -0.55879E-20         0.00000E+00
   -0.18044E-20         0.12107E-19         0.00000E+00
   -0.98953E-21         0.65193E-20         0.00000E+00
    0.17462E-21         0.46566E-21         0.00000E+00
   -0.58208E-22        -0.51223E-20         0.00000E+00
   -0.20373E-20         0.86147E-20         0.00000E+00
   -0.34925E-20         0.16531E-19         0.00000E+00
   -0.41910E-20         0.60536E-20         0.00000E+00
   -0.30850E-20        -0.23283E-20         0.00000E+00
    0.11642E-21        -0.27940E-20         0.00000E+00
    0.32596E-20        -0.51223E-20         0.00000E+00
    0.52969E-20        -0.17462E-19         0.00000E+00
    0.64611E-20        -0.21886E-19         0.00000E+00
    0.83237E-20        -0.31199E-19         0.00000E+00
    0.61118E-20        -0.40047E-19         0.00000E+00
    0.27940E-20        -0.22352E-19         0.00000E+00
    0.12224E-20        -0.30734E-19         0.00000E+00
    0.52387E-21        -0.40047E-19         0.00000E+00
    0.87311E-21        -0.23749E-19         0.00000E+00
   -0.87311E-21        -0.17695E-19         0.00000E+00
   -0.36671E-20        -0.12107E-19         0.00000E+00
   -0.51805E-20        -0.79162E-20         0.00000E+00
   -0.61700E-20         0.23283E-20         0.00000E+00
   -0.70431E-20         0.37253E-20         0.00000E+00
   -0.60536E-20        -0.13970E-20         0.00000E+00
   -0.55879E-20         0.46566E-20         0.00000E+00
   -0.75088E-20        -0.93132E-21         0.00000E+00
   -0.10303E-19         0.27940E-20         0.00000E+00
   -0.97207E-20        -0.20489E-19         0.00000E+00
   -0.79162E-20        -0.34925E-19         0.00000E+00
   -0.77998E-20        -0.38184E-19         0.00000E+00
   -0.68685E-20        -0.44238E-19         0.00000E+00
   -0.55879E-20        -0.41910E-19         0.00000E+00
   -0.54133E-20        -0.22585E-19         0.00000E+00
   -0.52387E-20        -0.34925E-19         0.00000E+00
   -0.45984E-20        -0.93132E-21         0.00000E+00
   -0.16298E-20        -0.20256E-19         0.00000E+00
   -0.15716E-20         0.11642E-20         0.00000E+00
   -0.81491E-21        -0.51223E-20         0.00000E+00
   -0.75670E-21         0.16298E-19         0.00000E+00
    0.52387E-21         0.23283E-20         0.00000E+00
    0.14552E-20         0.60536E-20         0.00000E+00
    0.64028E-21         0.93132E-20         0.00000E+00
    0.20373E-20        -0.20955E-20         0.00000E+00
    0.39581E-20        -0.15600E-19         0.00000E+00
    0.40745E-20        -0.17695E-19         0.00000E+00
    0.33760E-20        -0.19092E-19         0.00000E+00
    0.43656E-20        -0.14435E-19         0.00000E+00
    0.32014E-20         0.27940E-20         0.00000E+00
    0.18626E-20        -0.93132E-20         0.00000E+00
    0.00000E+00         0.00000E+00         0.00000E+00
   -0.98953E-21         0.11642E-19         0.00000E+00
   -0.16298E-20        -0.93132E-21         0.00000E+00
    0.40745E-21        -0.74506E-20         0.00000E+00
    0.93132E-21        -0.27940E-20         0.00000E+00
    0.17462E-20         0.74506E-20         0.00000E+00
    0.47148E-20         0.13970E-19         0.00000E+00
    0.61700E-20         0.53551E-20         0.00000E+00
    0.39581E-20         0.65193E-20         0.00000E+00
    0.15716E-20        -0.90804E-20         0.00000E+00
    0.40745E-21        -0.12806E-19         0.00000E+00
    0.98953E-21        -0.21420E-19         0.00000E+00
    0.29104E-20        -0.31665E-19         0.00000E+00
    0.26193E-20        -0.26543E-19         0.00000E+00
    0.19791E-20        -0.35856E-19         0.00000E+00
    0.35507E-20        -0.19092E-19         0.00000E+00
    0.42492E-20        -0.32829E-19         0.00000E+00
    0.45984E-20        -0.39116E-19         0.00000E+00
    0.35507E-20        -0.26077E-19         0.00000E+00
    0.32014E-20        -0.60536E-20         0.00000E+00
    0.19791E-20        -0.37253E-20         0.00000E+00
    0.58208E-21        -0.37253E-20         0.00000E+00
   -0.69849E-21         0.51223E-20         0.00000E+00
   -0.11642E-20         0.74506E-20         0.00000E+00
    0.73342E-20         0.34925E-20         0.00000E+00
    0.64028E-20         0.51223E-20         0.00000E+00
    0.65193E-20         0.37253E-20         0.00000E+00
    0.85565E-20        -0.93132E-21         0.00000E+00
    0.80327E-20        -0.16997E-19         0.00000E+00
    0.55297E-20        -0.33528E-19         0.00000E+00
    0.54715E-20        -0.43772E-19         0.00000E+00
    0.40745E-20        -0.40978E-19         0.00000E+00
    0.23865E-20        -0.36787E-19         0.00000E+00
    0.17462E-20        -0.27008E-19         0.00000E+00
   -0.17462E-21        -0.26077E-19         0.00000E+00
   -0.16298E-20        -0.10245E-19         0.00000E+00
   -0.25611E-20        -0.18626E-19         0.00000E+00
   -0.18044E-20        -0.74506E-20         0.00000E+00
    0.46566E-21        -0.83819E-20         0.00000E+00
    0.64028E-21         0.11642E-19         0.00000E+00
    0.22701E-20        -0.27940E-20         0.00000E+00
    0.43074E-20         0.93132E-20         0.00000E+00
    0.43656E-20         0.27940E-20         0.00000E+00
    0.37253E-20        -0.74506E-20         0.00000E+00
    0.33178E-20        -0.21886E-19         0.00000E+00
    0.19209E-20        -0.10245E-19         0.00000E+00
    0.81491E-21        -0.18161E-19         0.00000E+00
   -0.64028E-21        -0.10245E-19         0.00000E+00
    0.11642E-20        -0.46566E-21         0.00000E+00
    0.19209E-20        -0.18626E-20         0.00000E+00
    0.20955E-20        -0.27940E-20         0.00000E+00
    0.43074E-20         0.13504E-19         0.00000E+00
    0.35507E-20         0.32596E-20         0.00000E+00
    0.11642E-20        -0.65193E-20         0.00000E+00
    0.29104E-21        -0.37253E-20         0.00000E+00
   -0.17462E-21         0.10710E-19         0.00000E+00
   -0.33178E-20         0.93132E-20         0.00000E+00
   -0.39581E-20         0.51223E-20         0.00000E+00
   -0.87311E-21         0.74506E-20         0.00000E+00
    0.12806E-20        -0.93132E-20         0.00000E+00
    0.25611E-20        -0.12573E-19         0.00000E+00
    0.19791E-20        -0.22352E-19         0.00000E+00
    0.34925E-21        -0.28871E-19         0.00000E+00
   -0.11642E-21        -0.22817E-19         0.00000E+00
   -0.40745E-21        -0.35157E-19         0.00000E+00
   -0.23283E-21        -0.18161E-19         0.00000E+00
   -0.34925E-21        -0.34692E-19         0.00000E+00
   -0.93132E-21        -0.33993E-19         0.00000E+00
   -0.15134E-20        -0.22817E-19         0.00000E+00
   -0.15716E-20        -0.51223E-20         0.00000E+00
   -0.18626E-20        -0.27940E-20         0.00000E+00
   -0.98953E-21         0.00000E+00         0.00000E+00
   -0.15716E-20         0.83819E-20         0.00000E+00
   -0.11642E-20         0.37253E-20         0.00000E+00
    0.22119E-20         0.65193E-20         0.00000E+00
    0.15134E-20         0.32596E-20         0.00000E+00
    0.22119E-20         0.00000E+00         0.00000E+00
    0.32014E-20        -0.10710E-19         0.00000E+00
    0.61700E-20        -0.20256E-19         0.00000E+00
    0.10652E-19        -0.38883E-19         0.00000E+00
    0.10827E-19        -0.40978E-19         0.00000E+00
    0.10652E-19        -0.35623E-19         0.00000E+00
    0.11758E-19        -0.34692E-19         0.00000E+00
    0.11292E-19        -0.24680E-19         0.00000E+00
    0.13446E-19        -0.30966E-19         0.00000E+00
    0.16298E-19        -0.81491E-20         0.00000E+00
    0.17346E-19        -0.19092E-19         0.00000E+00
    0.14610E-19         0.00000E+00         0.00000E+00
    0.11350E-19        -0.55879E-20         0.00000E+00
    0.89058E-20         0.15367E-19         0.00000E+00
    0.54133E-20         0.32596E-20         0.00000E+00
    0.16298E-20         0.13504E-19         0.00000E+00
    0.52387E-21         0.93132E-20         0.00000E+00
   -0.69849E-21        -0.46566E-20         0.00000E+00
   -0.13970E-20        -0.14435E-19         0.00000E+00
   -0.81491E-21        -0.12573E-19         0.00000E+00
    0.12806E-20        -0.21886E-19         0.00000E+00
    0.29686E-20        -0.10710E-19         0.00000E+00
    0.29104E-20        -0.18626E-20         0.00000E+00
    0.27358E-20        -0.23283E-20         0.00000E+00
    0.20955E-20        -0.55879E-20         0.00000E+00
    0.29104E-21         0.13039E-19         0.00000E+00
    0.58208E-22         0.97789E-20         0.00000E+00
    0.52387E-21        -0.37253E-20         0.00000E+00
    0.93132E-21         0.00000E+00         0.00000E+00
    0.13970E-20         0.12107E-19         0.00000E+00
    0.29104E-20         0.16298E-19         0.00000E+00
    0.12806E-20         0.51223E-20         0.00000E+00
    0.58208E-22         0.00000E+00         0.00000E+00
   -0.98953E-21        -0.51223E-20         0.00000E+00
   -0.46566E-20        -0.74506E-20         0.00000E+00
   -0.69849E-20        -0.13970E-19         0.00000E+00
   -0.76252E-20        -0.26077E-19         0.00000E+00
   -0.75670E-20        -0.22817E-19         0.00000E+00
   -0.76834E-20        -0.33528E-19         0.00000E+00
   -0.91386E-20        -0.15832E-19         0.00000E+00
   -0.12224E-19        -0.21420E-19         0.00000E+00
   -0.14377E-19        -0.29337E-19         0.00000E+00
   -0.14610E-19        -0.26310E-19         0.00000E+00
   -0.13446E-19        -0.69849E-20         0.00000E+00
   -0.11874E-19        -0.79162E-20         0.00000E+00
   -0.93714E-20        -0.93132E-20         0.00000E+00
   -0.69267E-20         0.18626E-20         0.00000E+00
   -0.57626E-20         0.34925E-20         0.00000E+00
    0.67521E-20         0.46566E-20         0.00000E+00
    0.73342E-20        -0.23283E-21         0.00000E+00
    0.89058E-20        -0.41910E-20         0.00000E+00
    0.83819E-20        -0.20955E-20         0.00000E+00
    0.28522E-20        -0.23516E-19         0.00000E+00
   -0.16298E-20        -0.38184E-19         0.00000E+00
   -0.36089E-20        -0.34925E-19         0.00000E+00
   -0.35507E-20        -0.41677E-19         0.00000E+00
   -0.25611E-20        -0.40047E-19         0.00000E+00
   -0.29104E-21        -0.27474E-19         0.00000E+00
   -0.11642E-20        -0.35623E-19         0.00000E+00
   -0.32596E-20        -0.72177E-20         0.00000E+00
   -0.31432E-20        -0.23749E-19         0.00000E+00
   -0.16880E-20         0.93132E-20         0.00000E+00
    0.23283E-21        -0.18626E-20         0.00000E+00
    0.22701E-20         0.16531E-19         0.00000E+00
    0.37835E-20         0.17928E-19         0.00000E+00
    0.30268E-20         0.20955E-19         0.00000E+00
    0.18626E-20         0.16997E-19         0.00000E+00
   -0.81491E-21         0.27940E-20         0.00000E+00
   -0.17462E-21        -0.19558E-19         0.00000E+00
   -0.17462E-21        -0.14901E-19         0.00000E+00
    0.11642E-21        -0.33528E-19         0.00000E+00
    0.40745E-21        -0.14435E-19         0.00000E+00
    0.22119E-20        -0.74506E-20         0.00000E+00
    0.36671E-20        -0.60536E-20         0.00000E+00
    0.44238E-20         0.00000E+00         0.00000E+00
    0.38417E-20         0.20955E-19         0.00000E+00
    0.81491E-21         0.17928E-19         0.00000E+00
   -0.20955E-20         0.44238E-20         0.00000E+00
   -0.32596E-20        -0.27940E-20         0.00000E+00
   -0.47730E-20         0.15600E-19         0.00000E+00
   -0.65775E-20         0.15600E-19         0.00000E+00
   -0.58790E-20         0.76834E-20         0.00000E+00
   -0.65775E-20         0.27940E-20         0.00000E+00
   -0.73342E-20         0.00000E+00         0.00000E+00
   -0.59372E-20        -0.27940E-20         0.00000E+00
   -0.65775E-20        -0.41910E-20         0.00000E+00
   -0.93132E-20        -0.13970E-19         0.00000E+00
   -0.12049E-19        -0.20489E-19         0.00000E+00
   -0.13853E-19        -0.30734E-19         0.00000E+00
   -0.12689E-19        -0.19558E-19         0.00000E+00
   -0.85565E-20        -0.19791E-19         0.00000E+00
   -0.51805E-20        -0.33528E-19         0.00000E+00
   -0.43656E-20        -0.20955E-19         0.00000E+00
   -0.44820E-20        -0.16531E-19         0.00000E+00
   -0.46566E-20        -0.95461E-20         0.00000E+00
   -0.38999E-20        -0.20955E-19         0.00000E+00
   -0.31432E-20        -0.23283E-20         0.00000E+00
   -0.27358E-20         0.32596E-20         0.00000E+00
   -0.10594E-19         0.79162E-20         0.00000E+00
   -0.11758E-19        -0.46566E-20         0.00000E+00
   -0.12922E-19        -0.55879E-20         0.00000E+00
   -0.11059E-19         0.46566E-21         0.00000E+00
   -0.99535E-20        -0.11176E-19         0.00000E+00
   -0.89640E-20        -0.32131E-19         0.00000E+00
   -0.69849E-20        -0.33993E-19         0.00000E+00
   -0.76252E-20        -0.34925E-19         0.00000E+00
   -0.97789E-20        -0.40513E-19         0.00000E+00
   -0.10943E-19        -0.33062E-19         0.00000E+00
   -0.10477E-19        -0.28871E-19         0.00000E+00
   -0.10827E-19        -0.41910E-20         0.00000E+00
   -0.11059E-19        -0.24913E-19         0.00000E+00
   -0.10536E-19         0.00000E+00         0.00000E+00
   -0.96043E-20        -0.18626E-20         0.00000E+00
   -0.10070E-19         0.55879E-20         0.00000E+00
   -0.86147E-20         0.12806E-19         0.00000E+00
   -0.65193E-20         0.20023E-19         0.00000E+00
   -0.66357E-20         0.20955E-19         0.00000E+00
   -0.47730E-20        -0.23283E-20         0.00000E+00
   -0.15134E-20        -0.22817E-19         0.00000E+00
    0.00000E+00        -0.23749E-19         0.00000E+00
    0.15716E-20        -0.33528E-19         0.00000E+00
    0.20373E-20        -0.14901E-19         0.00000E+00
    0.11059E-20        -0.69849E-20         0.00000E+00
   -0.25029E-20         0.27940E-20         0.00000E+00
   -0.58790E-20         0.65193E-20         0.00000E+00
   -0.66939E-20         0.20955E-19         0.00000E+00
   -0.34343E-20         0.16065E-19         0.00000E+00
    0.15134E-20        -0.23283E-21         0.00000E+00
    0.29686E-20         0.13970E-20         0.00000E+00
    0.30850E-20         0.18626E-19         0.00000E+00
    0.34925E-20         0.16997E-19         0.00000E+00
    0.18044E-20         0.11642E-19         0.00000E+00
    0.12224E-20         0.34925E-20         0.00000E+00
    0.17462E-20         0.32596E-20         0.00000E+00
   -0.40745E-21         0.18626E-20         0.00000E+00
   -0.18626E-20        -0.51223E-20         0.00000E+00
    0.34925E-21        -0.88476E-20         0.00000E+00
    0.20373E-20        -0.19558E-19         0.00000E+00
    0.21537E-20        -0.30734E-19         0.00000E+00
    0.26776E-20        -0.23749E-19         0.00000E+00
    0.27940E-20        -0.35856E-19         0.00000E+00
    0.25611E-20        -0.38184E-19         0.00000E+00
    0.33760E-20        -0.23749E-19         0.00000E+00
    0.33760E-20        -0.16065E-19         0.00000E+00
    0.19791E-20        -0.95461E-20         0.00000E+00
    0.29104E-21        -0.10943E-19         0.00000E+00
   -0.27358E-20         0.51223E-20         0.00000E+00
   -0.36089E-20         0.46566E-21         0.00000E+00
    0.94878E-20         0.27940E-20         0.00000E+00
    0.96043E-20         0.41910E-20         0.00000E+00
    0.86147E-20        -0.32596E-20         0.00000E+00
    0.80327E-20        -0.67521E-20         0.00000E+00
    0.75670E-20        -0.16065E-19         0.00000E+00
    0.80327E-20        -0.28405E-19         0.00000E+00
    0.54715E-20        -0.30268E-19         0.00000E+00
    0.34343E-20        -0.28871E-19         0.00000E+00
    0.11642E-21        -0.25379E-19         0.00000E+00
   -0.32596E-20        -0.18626E-19         0.00000E+00
   -0.52387E-20        -0.31199E-19         0.00000E+00
   -0.41910E-20        -0.30268E-20         0.00000E+00
   -0.68685E-20        -0.15367E-19         0.00000E+00
   -0.10710E-19         0.27940E-20         0.00000E+00
   -0.11933E-19        -0.51223E-20         0.00000E+00
   -0.12282E-19         0.86147E-20         0.00000E+00
   -0.11234E-19         0.13970E-20         0.00000E+00
   -0.89058E-20         0.14203E-19         0.00000E+00
   -0.61118E-20         0.69849E-20         0.00000E+00
   -0.37253E-20        -0.12107E-19         0.00000E+00
   -0.52969E-20        -0.19092E-19         0.00000E+00
   -0.90804E-20        -0.19558E-19         0.00000E+00
   -0.11176E-19        -0.33528E-19         0.00000E+00
   -0.11409E-19        -0.15832E-19         0.00000E+00
   -0.10768E-19         0.25611E-20         0.00000E+00
   -0.83237E-20        -0.23283E-20         0.00000E+00
   -0.48894E-20         0.55879E-20         0.00000E+00
   -0.42492E-20         0.17695E-19         0.00000E+00
   -0.59954E-20         0.10710E-19         0.00000E+00
   -0.98371E-20         0.13970E-20         0.00000E+00
   -0.11874E-19         0.60536E-20         0.00000E+00
   -0.11642E-19         0.13970E-19         0.00000E+00
   -0.80327E-20         0.65193E-20         0.00000E+00
   -0.33760E-20         0.65193E-20         0.00000E+00
   -0.19209E-20         0.16298E-20         0.00000E+00
   -0.25611E-20         0.93132E-21         0.00000E+00
    0.17462E-21         0.23283E-20         0.00000E+00
    0.16880E-20        -0.46566E-20         0.00000E+00
    0.64028E-21        -0.88476E-20         0.00000E+00
   -0.29104E-21        -0.19558E-19         0.00000E+00
   -0.69849E-21        -0.34925E-19         0.00000E+00
    0.34925E-21        -0.20023E-19         0.00000E+00
   -0.75670E-21        -0.33062E-19         0.00000E+00
   -0.11642E-20        -0.34925E-19         0.00000E+00
    0.46566E-21        -0.33062E-19         0.00000E+00
    0.15716E-20        -0.14435E-19         0.00000E+00
    0.30850E-20        -0.14435E-19         0.00000E+00
    0.38999E-20        -0.32596E-20         0.00000E+00
    0.40745E-20         0.79162E-20         0.00000E+00
    0.45402E-20        -0.93132E-21         0.00000E+00
   -0.32596E-20         0.00000E+00         0.00000E+00
   -0.19791E-20         0.46566E-21         0.00000E+00
   -0.10477E-20        -0.16298E-20         0.00000E+00
   -0.93132E-21        -0.46566E-21         0.00000E+00
   -0.38417E-20        -0.69849E-20         0.00000E+00
   -0.73342E-20        -0.20489E-19         0.00000E+00
   -0.68685E-20        -0.25611E-19         0.00000E+00
   -0.65193E-20        -0.27474E-19         0.00000E+00
   -0.58208E-20        -0.22352E-19         0.00000E+00
   -0.38417E-20        -0.16298E-19         0.00000E+00
   -0.38417E-20        -0.27940E-19         0.00000E+00
   -0.53551E-20         0.23283E-21         0.00000E+00
   -0.53551E-20        -0.10245E-19         0.00000E+00
   -0.44820E-20         0.10710E-19         0.00000E+00
   -0.48894E-20        -0.46566E-21         0.00000E+00
   -0.74506E-20         0.12573E-19         0.00000E+00
   -0.80909E-20         0.46566E-20         0.00000E+00
   -0.87311E-20         0.69849E-20         0.00000E+00
   -0.11467E-19         0.13970E-20         0.00000E+00
   -0.12573E-19        -0.10710E-19         0.00000E+00
   -0.10070E-19        -0.22817E-19         0.00000E+00
   -0.52387E-20        -0.21420E-19         0.00000E+00
   -0.40745E-20        -0.30268E-19         0.00000E+00
   -0.30850E-20        -0.20023E-19         0.00000E+00
   -0.12806E-20        -0.53551E-20         0.00000E+00
   -0.25029E-20        -0.27940E-20         0.00000E+00
   -0.20373E-20        -0.88476E-20         0.00000E+00
   -0.46566E-21         0.21886E-19         0.00000E+00
    0.18044E-20         0.60536E-20         0.00000E+00
    0.54715E-20         0.32596E-20         0.00000E+00
    0.86729E-20        -0.60536E-20         0.00000E+00
    0.94878E-20         0.11176E-19         0.00000E+00
    0.70431E-20         0.76834E-20         0.00000E+00
    0.23283E-20         0.30268E-20         0.00000E+00
   -0.23283E-21         0.69849E-20         0.00000E+00
   -0.12806E-20         0.27940E-20         0.00000E+00
   -0.29104E-20        -0.48894E-20         0.00000E+00
   -0.34343E-20        -0.39581E-20         0.00000E+00
   -0.26776E-20        -0.11176E-19         0.00000E+00
   -0.52387E-21        -0.18626E-19         0.00000E+00
   -0.40745E-21        -0.40280E-19         0.00000E+00
    0.52387E-21        -0.20023E-19         0.00000E+00
    0.16880E-20        -0.33993E-19         0.00000E+00
    0.37835E-20        -0.41211E-19         0.00000E+00
    0.47148E-20        -0.38650E-19         0.00000E+00
    0.61118E-20        -0.23749E-19         0.00000E+00
    0.75088E-20        -0.21886E-19         0.00000E+00
    0.10070E-19        -0.15367E-19         0.00000E+00
    0.15425E-19         0.23283E-21         0.00000E+00
    0.14552E-19         0.27940E-20         0.00000E+00
   -0.41910E-20         0.00000E+00         0.00000E+00
   -0.46566E-20         0.23283E-20         0.00000E+00
   -0.51805E-20         0.93132E-21         0.00000E+00
   -0.66357E-20         0.46566E-21         0.00000E+00
   -0.50059E-20        -0.51223E-20         0.00000E+00
   -0.16298E-20        -0.17695E-19         0.00000E+00
   -0.16298E-20        -0.27008E-19         0.00000E+00
   -0.75670E-21        -0.27940E-19         0.00000E+00
   -0.93132E-21        -0.24214E-19         0.00000E+00
   -0.12224E-20        -0.23283E-19         0.00000E+00
   -0.34925E-21        -0.25146E-19         0.00000E+00
    0.15134E-20        -0.69849E-21         0.00000E+00
    0.22701E-20        -0.12107E-19         0.00000E+00
    0.25029E-20         0.76834E-20         0.00000E+00
    0.34343E-20        -0.20955E-20         0.00000E+00
    0.40745E-20         0.16065E-19         0.00000E+00
    0.37835E-20         0.10710E-19         0.00000E+00
    0.23865E-20         0.10245E-19         0.00000E+00
    0.29104E-20         0.10245E-19         0.00000E+00
    0.20955E-20        -0.12107E-19         0.00000E+00
    0.25611E-20        -0.28871E-19         0.00000E+00
    0.10477E-20        -0.32363E-19         0.00000E+00
    0.14552E-20        -0.27940E-19         0.00000E+00
    0.47020E-37        -0.19558E-19         0.00000E+00
   -0.12806E-20        -0.55879E-20         0.00000E+00
   -0.40745E-21        -0.46566E-21         0.00000E+00
   -0.75670E-21        -0.74506E-20         0.00000E+00
   -0.15716E-20         0.16298E-19         0.00000E+00
   -0.20373E-20         0.46566E-20         0.00000E+00
   -0.28522E-20        -0.11176E-19         0.00000E+00
   -0.18626E-20        -0.97789E-20         0.00000E+00
   -0.26776E-20         0.14901E-19         0.00000E+00
   -0.22701E-20         0.18394E-19         0.00000E+00
   -0.34925E-21         0.55879E-20         0.00000E+00
    0.15716E-20         0.79162E-20         0.00000E+00
    0.30268E-20         0.93132E-21         0.00000E+00
    0.47730E-20        -0.18626E-20         0.00000E+00
    0.57626E-20        -0.69849E-20         0.00000E+00
    0.52387E-20        -0.12107E-19         0.00000E+00
    0.44820E-20        -0.20023E-19         0.00000E+00
    0.26193E-20        -0.39116E-19         0.00000E+00
    0.20955E-20        -0.24214E-19         0.00000E+00
    0.25029E-20        -0.40978E-19         0.00000E+00
    0.36671E-20        -0.47963E-19         0.00000E+00
    0.43656E-20        -0.37951E-19         0.00000E+00
    0.45984E-20        -0.33062E-19         0.00000E+00
    0.26776E-20        -0.12573E-19         0.00000E+00
   -0.15134E-20        -0.15367E-19         0.00000E+00
   -0.50641E-20         0.00000E+00         0.00000E+00
   -0.50059E-20         0.55879E-20         0.00000E+00
   -0.16298E-20         0.00000E+00         0.00000E+00
   -0.27358E-20         0.48894E-20         0.00000E+00
   -0.30850E-20         0.65193E-20         0.00000E+00
   -0.47730E-20         0.79162E-20         0.00000E+00
   -0.70431E-20        -0.15832E-19         0.00000E+00
   -0.72177E-20        -0.21653E-19         0.00000E+00
   -0.71013E-20        -0.27474E-19         0.00000E+00
   -0.59372E-20        -0.37719E-19         0.00000E+00
   -0.29104E-20        -0.33062E-19         0.00000E+00
   -0.40745E-21        -0.22352E-19         0.00000E+00
   -0.24447E-20        -0.26543E-19         0.00000E+00
   -0.29104E-20        -0.27940E-20         0.00000E+00
   -0.20955E-20        -0.14901E-19         0.00000E+00
   -0.75670E-21         0.60536E-20         0.00000E+00
   -0.23283E-21        -0.83819E-20         0.00000E+00
   -0.13970E-20         0.19092E-19         0.00000E+00
   -0.29104E-21         0.11642E-19         0.00000E+00
    0.17462E-21         0.83819E-20         0.00000E+00
   -0.11642E-21         0.17229E-19         0.00000E+00
   -0.93132E-21        -0.11642E-19         0.00000E+00
   -0.14552E-20        -0.26543E-19         0.00000E+00
   -0.47730E-20        -0.13039E-19         0.00000E+00
   -0.86147E-20        -0.27474E-19         0.00000E+00
   -0.87311E-20        -0.16298E-19         0.00000E+00
   -0.84401E-20        -0.51223E-20         0.00000E+00
   -0.98371E-20        -0.27940E-20         0.00000E+00
   -0.91386E-20        -0.69849E-20         0.00000E+00
   -0.74506E-20         0.83819E-20         0.00000E+00
   -0.43656E-20        -0.18626E-20         0.00000E+00
   -0.14552E-20        -0.16764E-19         0.00000E+00
   -0.16880E-20        -0.65193E-20         0.00000E+00
   -0.12224E-20         0.14901E-19         0.00000E+00
   -0.11059E-20         0.16298E-19         0.00000E+00
   -0.16298E-20         0.23283E-21         0.00000E+00
   -0.21537E-20         0.37253E-20         0.00000E+00
   -0.19791E-20        -0.69849E-21         0.00000E+00
   -0.32014E-20        -0.69849E-20         0.00000E+00
   -0.43656E-20        -0.88476E-20         0.00000E+00
   -0.15134E-20        -0.13970E-19         0.00000E+00
    0.52387E-21        -0.19092E-19         0.00000E+00
    0.15716E-20        -0.36322E-19         0.00000E+00
    0.11059E-20        -0.22352E-19         0.00000E+00
   -0.40745E-21        -0.38184E-19         0.00000E+00
   -0.38999E-20        -0.43306E-19         0.00000E+00
   -0.56461E-20        -0.37951E-19         0.00000E+00
   -0.87311E-20        -0.14901E-19         0.00000E+00
   -0.11059E-19        -0.12573E-19         0.00000E+00
   -0.85565E-20        -0.83819E-20         0.00000E+00
   -0.68103E-20         0.13970E-20         0.00000E+00
   -0.53551E-20        -0.23283E-20         0.00000E+00
   -0.86147E-20         0.18626E-20         0.00000E+00
   -0.10012E-19         0.93132E-20         0.00000E+00
   -0.10070E-19         0.60536E-20         0.00000E+00
   -0.10245E-19         0.15367E-19         0.00000E+00
   -0.90804E-20        -0.12573E-19         0.00000E+00
   -0.65193E-20        -0.26077E-19         0.00000E+00
   -0.45984E-20        -0.36322E-19         0.00000E+00
   -0.32596E-20        -0.34925E-19         0.00000E+00
   -0.62864E-20        -0.37253E-19         0.00000E+00
   -0.69849E-20        -0.23283E-19         0.00000E+00
   -0.60536E-20        -0.25146E-19         0.00000E+00
   -0.52969E-20        -0.60536E-20         0.00000E+00
   -0.60536E-20        -0.16764E-19         0.00000E+00
   -0.54133E-20        -0.37253E-20         0.00000E+00
   -0.57044E-20         0.18626E-20         0.00000E+00
   -0.62282E-20         0.15367E-19         0.00000E+00
   -0.29686E-20        -0.27940E-20         0.00000E+00
   -0.26776E-20         0.12573E-19         0.00000E+00
   -0.16880E-20         0.13504E-19         0.00000E+00
   -0.16298E-20        -0.10245E-19         0.00000E+00
   -0.19209E-20        -0.22817E-19         0.00000E+00
    0.34925E-21        -0.11176E-19         0.00000E+00
    0.36671E-20        -0.23516E-19         0.00000E+00
    0.41910E-20        -0.15600E-19         0.00000E+00
    0.40745E-20        -0.74506E-20         0.00000E+00
    0.66939E-20        -0.93132E-20         0.00000E+00
    0.64028E-20        -0.51223E-20         0.00000E+00
    0.36671E-20         0.13970E-19         0.00000E+00
    0.11059E-20        -0.65193E-20         0.00000E+00
   -0.12224E-20        -0.14901E-19         0.00000E+00
   -0.24447E-20        -0.55879E-20         0.00000E+00
   -0.24447E-20         0.12573E-19         0.00000E+00
   -0.87311E-21         0.79162E-20         0.00000E+00
    0.58208E-22         0.93132E-20         0.00000E+00
   -0.58208E-22         0.00000E+00         0.00000E+00
    0.58208E-21        -0.46566E-21         0.00000E+00
    0.20955E-20        -0.74506E-20         0.00000E+00
    0.30850E-20        -0.67521E-20         0.00000E+00
   -0.52387E-21        -0.14901E-19         0.00000E+00
   -0.37835E-20        -0.18626E-19         0.00000E+00
   -0.24447E-20        -0.42375E-19         0.00000E+00
   -0.11642E-20        -0.22817E-19         0.00000E+00
   -0.17462E-20        -0.30501E-19         0.00000E+00
   -0.75670E-21        -0.38650E-19         0.00000E+00
   -0.13388E-20        -0.27474E-19         0.00000E+00
    0.00000E+00        -0.97789E-20         0.00000E+00
    0.16298E-20        -0.15367E-19         0.00000E+00
    0.69849E-21        -0.15367E-19         0.00000E+00
    0.46566E-21        -0.18626E-20         0.00000E+00
    0.46566E-21        -0.41910E-20         0.00000E+00
   -0.16298E-20         0.41910E-20         0.00000E+00
   -0.34925E-21         0.74506E-20         0.00000E+00
    0.21537E-20         0.37253E-20         0.00000E+00
    0.50059E-20         0.46566E-20         0.00000E+00
    0.58208E-20        -0.18394E-19         0.00000E+00
    0.47730E-20        -0.31199E-19         0.00000E+00
    0.40745E-20        -0.30734E-19         0.00000E+00
    0.27940E-20        -0.36787E-19         0.00000E+00
    0.37253E-20        -0.28405E-19         0.00000E+00
    0.26776E-20        -0.20955E-19         0.00000E+00
    0.52387E-21        -0.26543E-19         0.00000E+00
    0.16298E-20        -0.41910E-20         0.00000E+00
    0.14552E-20        -0.14435E-19         0.00000E+00
   -0.40745E-21         0.23283E-20         0.00000E+00
    0.17462E-21        -0.37253E-20         0.00000E+00
    0.29686E-20         0.69849E-20         0.00000E+00
    0.16298E-20         0.93132E-21         0.00000E+00
    0.13970E-20         0.74506E-20         0.00000E+00
    0.32596E-20         0.69849E-20         0.00000E+00
    0.29686E-20        -0.60536E-20         0.00000E+00
    0.22119E-20        -0.18626E-19         0.00000E+00
    0.20955E-20        -0.25611E-19         0.00000E+00
    0.22119E-20        -0.24680E-19         0.00000E+00
    0.93132E-21        -0.14435E-19         0.00000E+00
    0.15134E-20        -0.93132E-20         0.00000E+00
    0.40745E-21        -0.14668E-19         0.00000E+00
    0.13970E-20        -0.27940E-20         0.00000E+00
    0.58208E-22         0.24214E-19         0.00000E+00
   -0.22701E-20         0.14901E-19         0.00000E+00
   -0.57626E-20        -0.51223E-20         0.00000E+00
   -0.58208E-20        -0.69849E-20         0.00000E+00
   -0.47148E-20         0.69849E-20         0.00000E+00
   -0.36671E-20         0.51223E-20         0.00000E+00
   -0.25611E-20         0.37253E-20         0.00000E+00
   -0.22701E-20         0.00000E+00         0.00000E+00
   -0.12806E-20         0.00000E+00         0.00000E+00
   -0.38999E-20        -0.74506E-20         0.00000E+00
   -0.38999E-20        -0.93132E-20         0.00000E+00
   -0.12224E-20        -0.93132E-20         0.00000E+00
    0.58208E-21        -0.18626E-19         0.00000E+00
   -0.23283E-20        -0.31199E-19         0.00000E+00
   -0.73342E-20        -0.18626E-19         0.00000E+00
   -0.64611E-20        -0.34459E-19         0.00000E+00
   -0.56461E-20        -0.44238E-19         0.00000E+00
   -0.34343E-20        -0.27940E-19         0.00000E+00
   -0.27358E-20        -0.17229E-19         0.00000E+00
   -0.40163E-20        -0.10245E-19         0.00000E+00
   -0.36671E-20        -0.19558E-19         0.00000E+00
   -0.17462E-20        -0.93132E-20         0.00000E+00
   -0.20955E-20         0.46566E-21         0.00000E+00
    0.41327E-20         0.88476E-20         0.00000E+00
    0.93132E-21         0.69849E-20         0.00000E+00
   -0.13388E-20         0.60536E-20         0.00000E+00
   -0.45402E-20         0.32596E-20         0.00000E+00
   -0.74506E-20        -0.86147E-20         0.00000E+00
   -0.87311E-20        -0.34226E-19         0.00000E+00
   -0.84401E-20        -0.29802E-19         0.00000E+00
   -0.10128E-19        -0.29569E-19         0.00000E+00
   -0.12456E-19        -0.30035E-19         0.00000E+00
   -0.11758E-19        -0.19558E-19         0.00000E+00
   -0.93714E-20        -0.29337E-19         0.00000E+00
   -0.75670E-20        -0.10710E-19         0.00000E+00
   -0.70431E-20        -0.14901E-19         0.00000E+00
   -0.42492E-20         0.13970E-20         0.00000E+00
   -0.49477E-20        -0.13970E-19         0.00000E+00
   -0.62864E-20         0.97789E-20         0.00000E+00
   -0.71595E-20         0.65193E-20         0.00000E+00
   -0.86729E-20         0.90804E-20         0.00000E+00
   -0.10536E-19         0.44238E-20         0.00000E+00
   -0.89640E-20        -0.93132E-20         0.00000E+00
   -0.66939E-20        -0.26077E-19         0.00000E+00
   -0.57044E-20        -0.26543E-19         0.00000E+00
   -0.50641E-20        -0.25611E-19         0.00000E+00
   -0.47730E-20        -0.13504E-19         0.00000E+00
   -0.44820E-20        -0.51223E-20         0.00000E+00
   -0.57626E-20        -0.62864E-20         0.00000E+00
   -0.72760E-20        -0.27940E-20         0.00000E+00
   -0.65193E-20         0.22352E-19         0.00000E+00
   -0.23865E-20         0.11642E-19         0.00000E+00
    0.13388E-20        -0.51223E-20         0.00000E+00
    0.12224E-20        -0.74506E-20         0.00000E+00
    0.81491E-21         0.60536E-20         0.00000E+00
    0.29104E-21         0.23283E-20         0.00000E+00
    0.12224E-20        -0.23283E-20         0.00000E+00
    0.20373E-20        -0.32596E-20         0.00000E+00
    0.26776E-20        -0.46566E-20         0.00000E+00
    0.40745E-20        -0.51223E-20         0.00000E+00
    0.41910E-20        -0.97789E-20         0.00000E+00
    0.27358E-20        -0.16065E-19         0.00000E+00
    0.25029E-20        -0.21420E-19         0.00000E+00
    0.48894E-20        -0.26543E-19         0.00000E+00
    0.79162E-20        -0.19092E-19         0.00000E+00
    0.81491E-20        -0.34925E-19         0.00000E+00
    0.71595E-20        -0.38184E-19         0.00000E+00
    0.50059E-20        -0.33528E-19         0.00000E+00
    0.58208E-20        -0.22352E-19         0.00000E+00
    0.90804E-20        -0.14668E-19         0.00000E+00
    0.10128E-19        -0.19092E-19         0.00000E+00
    0.77998E-20        -0.74506E-20         0.00000E+00
    0.76834E-20         0.30268E-20         0.00000E+00
    0.54133E-20         0.55879E-20         0.00000E+00
    0.64611E-20         0.11176E-19         0.00000E+00
    0.91968E-20         0.74506E-20         0.00000E+00
    0.11525E-19         0.55879E-20         0.00000E+00
    0.12631E-19        -0.55879E-20         0.00000E+00
    0.11758E-19        -0.18626E-19         0.00000E+00
    0.80327E-20        -0.19558E-19         0.00000E+00
    0.65193E-20        -0.22352E-19         0.00000E+00
    0.65193E-20        -0.27008E-19         0.00000E+00
    0.38417E-20        -0.16764E-19         0.00000E+00
    0.81491E-21        -0.25146E-19         0.00000E+00
   -0.29104E-21        -0.88476E-20         0.00000E+00
   -0.21537E-20        -0.18626E-19         0.00000E+00
   -0.36671E-20         0.46566E-21         0.00000E+00
   -0.44238E-20        -0.41910E-20         0.00000E+00
   -0.54133E-20         0.12573E-19         0.00000E+00
   -0.26776E-20        -0.13970E-20         0.00000E+00
    0.93132E-21         0.74506E-20         0.00000E+00
    0.23865E-20         0.12573E-19         0.00000E+00
    0.17462E-21        -0.13504E-19         0.00000E+00
   -0.18044E-20        -0.26543E-19         0.00000E+00
   -0.44238E-20        -0.18161E-19         0.00000E+00
   -0.46566E-20        -0.35390E-19         0.00000E+00
   -0.34925E-20        -0.13504E-19         0.00000E+00
   -0.32014E-20        -0.83819E-20         0.00000E+00
   -0.34343E-20        -0.76834E-20         0.00000E+00
   -0.11059E-20        -0.46566E-20         0.00000E+00
    0.10477E-20         0.12573E-19         0.00000E+00
    0.10477E-20         0.00000E+00         0.00000E+00
    0.15716E-20        -0.14435E-19         0.00000E+00
    0.31432E-20        -0.74506E-20         0.00000E+00
    0.36089E-20         0.88476E-20         0.00000E+00
    0.25611E-20         0.69849E-20         0.00000E+00
    0.69849E-21        -0.55879E-20         0.00000E+00
   -0.29104E-21         0.00000E+00         0.00000E+00
    0.52387E-21        -0.88476E-20         0.00000E+00
    0.58208E-21        -0.12573E-19         0.00000E+00
    0.20373E-20        -0.11176E-19         0.00000E+00
    0.34343E-20        -0.12573E-19         0.00000E+00
    0.32596E-20        -0.22352E-19         0.00000E+00
    0.19209E-20        -0.35390E-19         0.00000E+00
    0.58208E-22        -0.15367E-19         0.00000E+00
   -0.11059E-20        -0.26543E-19         0.00000E+00
    0.87311E-21        -0.47032E-19         0.00000E+00
    0.33178E-20        -0.36322E-19         0.00000E+00
    0.43656E-20        -0.26543E-19         0.00000E+00
    0.22701E-20        -0.18161E-19         0.00000E+00
   -0.64028E-21        -0.93132E-20         0.00000E+00
   -0.20373E-20        -0.37253E-20         0.00000E+00
   -0.20955E-20         0.51223E-20         0.00000E+00
   -0.37253E-20         0.46566E-20         0.00000E+00
   -0.46566E-20         0.60536E-20         0.00000E+00
   -0.32014E-20        -0.23283E-20         0.00000E+00
   -0.31432E-20         0.00000E+00         0.00000E+00
   -0.32014E-20        -0.65193E-20         0.00000E+00
   -0.31432E-20        -0.10245E-19         0.00000E+00
   -0.34925E-21        -0.22352E-19         0.00000E+00
    0.23865E-20        -0.25146E-19         0.00000E+00
    0.43074E-20        -0.27474E-19         0.00000E+00
    0.73924E-20        -0.17695E-19         0.00000E+00
    0.87311E-20        -0.22817E-19         0.00000E+00
    0.77998E-20         0.27940E-20         0.00000E+00
    0.66357E-20        -0.16764E-19         0.00000E+00
    0.66939E-20         0.10245E-19         0.00000E+00
    0.62282E-20        -0.65193E-20         0.00000E+00
    0.66357E-20         0.12107E-19         0.00000E+00
    0.57626E-20        -0.93132E-20         0.00000E+00
    0.47148E-20        -0.13970E-20         0.00000E+00
    0.49477E-20         0.97789E-20         0.00000E+00
    0.48894E-20        -0.23283E-21         0.00000E+00
    0.35507E-20        -0.22817E-19         0.00000E+00
    0.36089E-20        -0.10710E-19         0.00000E+00
    0.13970E-20        -0.25611E-19         0.00000E+00
   -0.27940E-20        -0.74506E-20         0.00000E+00
   -0.41910E-20        -0.81491E-20         0.00000E+00
   -0.27940E-20        -0.16531E-19         0.00000E+00
   -0.52387E-21        -0.17928E-19         0.00000E+00
    0.25611E-20         0.55879E-20         0.00000E+00
    0.16880E-20         0.93132E-20         0.00000E+00
   -0.15716E-20        -0.93132E-20         0.00000E+00
   -0.50641E-20        -0.74506E-20         0.00000E+00
   -0.43656E-20         0.55879E-20         0.00000E+00
   -0.30268E-20         0.79162E-20         0.00000E+00
   -0.25029E-20        -0.23283E-20         0.00000E+00
    0.64028E-21        -0.93132E-20         0.00000E+00
    0.24447E-20        -0.10710E-19         0.00000E+00
    0.22119E-20        -0.79162E-20         0.00000E+00
    0.11059E-20        -0.16298E-19         0.00000E+00
    0.18044E-20        -0.17229E-19         0.00000E+00
    0.36089E-20        -0.19092E-19         0.00000E+00
    0.40745E-20        -0.35390E-19         0.00000E+00
    0.60536E-20        -0.23749E-19         0.00000E+00
    0.80327E-20        -0.28871E-19         0.00000E+00
    0.64611E-20        -0.42375E-19         0.00000E+00
    0.33760E-20        -0.39116E-19         0.00000E+00
    0.22701E-20        -0.19092E-19         0.00000E+00
    0.75670E-21        -0.12107E-19         0.00000E+00
    0.12224E-20         0.00000E+00         0.00000E+00
    0.87311E-21        -0.18626E-20         0.00000E+00
    0.18626E-20         0.41910E-20         0.00000E+00
    0.74506E-20         0.83819E-20         0.00000E+00
    0.67521E-20         0.97789E-20         0.00000E+00
    0.47730E-20         0.46566E-21         0.00000E+00
    0.39581E-20         0.18626E-20         0.00000E+00
    0.40745E-20        -0.10710E-19         0.00000E+00
    0.49477E-20        -0.20256E-19         0.00000E+00
    0.58208E-20        -0.27241E-19         0.00000E+00
    0.52387E-20        -0.28405E-19         0.00000E+00
    0.24447E-20        -0.23749E-19         0.00000E+00
   -0.10477E-20        -0.16764E-19         0.00000E+00
   -0.23283E-20        -0.23050E-19         0.00000E+00
   -0.75670E-21        -0.93132E-21         0.00000E+00
    0.93132E-21        -0.14435E-19         0.00000E+00
    0.33760E-20        -0.32596E-20         0.00000E+00
    0.73924E-20        -0.12573E-19         0.00000E+00
    0.58790E-20         0.14435E-19         0.00000E+00
    0.33178E-20         0.74506E-20         0.00000E+00
    0.11642E-21         0.62864E-20         0.00000E+00
   -0.27358E-20         0.13504E-19         0.00000E+00
   -0.41910E-20         0.16298E-20         0.00000E+00
   -0.29104E-20        -0.18859E-19         0.00000E+00
   -0.18626E-20        -0.18161E-19         0.00000E+00
    0.64028E-21        -0.22817E-19         0.00000E+00
    0.40745E-20        -0.13039E-19         0.00000E+00
    0.59954E-20        -0.11176E-19         0.00000E+00
    0.49477E-20        -0.12573E-19         0.00000E+00
   -0.58208E-22        -0.55879E-20         0.00000E+00
   -0.51805E-20         0.11642E-19         0.00000E+00
   -0.62864E-20         0.83819E-20         0.00000E+00
   -0.21537E-20        -0.97789E-20         0.00000E+00
    0.12224E-20        -0.69849E-20         0.00000E+00
    0.12806E-20         0.69849E-20         0.00000E+00
    0.11059E-20         0.23283E-20         0.00000E+00
    0.11642E-21         0.00000E+00         0.00000E+00
   -0.24447E-20        -0.74506E-20         0.00000E+00
   -0.53551E-20        -0.62864E-20         0.00000E+00
   -0.58208E-20        -0.12573E-19         0.00000E+00
   -0.35507E-20        -0.19558E-19         0.00000E+00
   -0.29104E-20        -0.21420E-19         0.00000E+00
   -0.28522E-20        -0.20489E-19         0.00000E+00
   -0.30850E-20        -0.31199E-19         0.00000E+00
   -0.31432E-20        -0.34925E-19         0.00000E+00
   -0.20373E-20        -0.38883E-19         0.00000E+00
    0.23865E-20        -0.44238E-19         0.00000E+00
    0.34343E-20        -0.34925E-19         0.00000E+00
    0.37835E-20        -0.14435E-19         0.00000E+00
    0.37835E-20        -0.12573E-19         0.00000E+00
    0.46566E-20        -0.69849E-20         0.00000E+00
    0.43074E-20         0.93132E-21         0.00000E+00
    0.55879E-20        -0.25611E-20         0.00000E+00
    0.19791E-20        -0.93132E-21         0.00000E+00
    0.55879E-20         0.88476E-20         0.00000E+00
    0.64028E-20         0.13970E-20         0.00000E+00
    0.56461E-20         0.32596E-20         0.00000E+00
    0.40163E-20        -0.86147E-20         0.00000E+00
    0.30268E-20        -0.20489E-19         0.00000E+00
    0.13388E-20        -0.16764E-19         0.00000E+00
   -0.20373E-20        -0.20722E-19         0.00000E+00
   -0.18626E-20        -0.16764E-19         0.00000E+00
   -0.23283E-21        -0.16764E-19         0.00000E+00
    0.46566E-21        -0.21653E-19         0.00000E+00
    0.81491E-21        -0.93132E-20         0.00000E+00
    0.52387E-21        -0.20489E-19         0.00000E+00
    0.17462E-21        -0.69849E-20         0.00000E+00
   -0.21537E-20        -0.16298E-19         0.00000E+00
   -0.40745E-21         0.10245E-19         0.00000E+00
    0.37835E-20         0.12107E-19         0.00000E+00
    0.39581E-20         0.14435E-19         0.00000E+00
    0.57626E-20         0.13504E-19         0.00000E+00
    0.72760E-20        -0.11642E-20         0.00000E+00
    0.76252E-20        -0.21886E-19         0.00000E+00
    0.66357E-20        -0.19325E-19         0.00000E+00
    0.53551E-20        -0.25844E-19         0.00000E+00
    0.40745E-20        -0.17695E-19         0.00000E+00
    0.39581E-20        -0.11642E-19         0.00000E+00
    0.41910E-20        -0.53551E-20         0.00000E+00
    0.69849E-20        -0.32596E-20         0.00000E+00
    0.97207E-20         0.16298E-19         0.00000E+00
    0.99535E-20         0.46566E-20         0.00000E+00
    0.66939E-20        -0.11409E-19         0.00000E+00
    0.54715E-20        -0.17928E-19         0.00000E+00
    0.89640E-20         0.16298E-20         0.00000E+00
    0.93132E-20         0.41910E-20         0.00000E+00
    0.87311E-20         0.18626E-20         0.00000E+00
    0.79744E-20         0.34925E-20         0.00000E+00
    0.70431E-20         0.34925E-20         0.00000E+00
    0.60536E-20        -0.12107E-19         0.00000E+00
    0.30268E-20        -0.14435E-19         0.00000E+00
    0.29104E-21        -0.18161E-19         0.00000E+00
    0.46566E-21        -0.24447E-19         0.00000E+00
    0.16880E-20        -0.32596E-19         0.00000E+00
    0.75670E-21        -0.32596E-19         0.00000E+00
   -0.75670E-21        -0.44703E-19         0.00000E+00
   -0.13388E-20        -0.52154E-19         0.00000E+00
   -0.15134E-20        -0.31665E-19         0.00000E+00
   -0.16880E-20        -0.20489E-19         0.00000E+00
   -0.12224E-20        -0.65193E-20         0.00000E+00
   -0.87311E-21        -0.72177E-20         0.00000E+00
   -0.18626E-20        -0.41910E-20         0.00000E+00
   -0.20955E-20         0.93132E-21         0.00000E+00
    0.38417E-20         0.60536E-20         0.00000E+00
    0.13970E-20         0.32596E-20         0.00000E+00
    0.15134E-20         0.60536E-20         0.00000E+00
    0.20955E-20         0.32596E-20         0.00000E+00
    0.24447E-20        -0.18626E-20         0.00000E+00
    0.15134E-20        -0.16764E-19         0.00000E+00
    0.38999E-20        -0.20955E-19         0.00000E+00
    0.88476E-20        -0.29337E-19         0.00000E+00
    0.12573E-19        -0.29337E-19         0.00000E+00
    0.14610E-19        -0.25146E-19         0.00000E+00
    0.15367E-19        -0.25146E-19         0.00000E+00
    0.16531E-19        -0.69849E-20         0.00000E+00
    0.14610E-19        -0.11176E-19         0.00000E+00
    0.10303E-19         0.76834E-20         0.00000E+00
    0.80909E-20        -0.74506E-20         0.00000E+00
    0.51805E-20         0.11642E-20         0.00000E+00
    0.41327E-20         0.93132E-20         0.00000E+00
    0.33178E-20         0.16764E-19         0.00000E+00
    0.25611E-20         0.65193E-20         0.00000E+00
    0.22701E-20        -0.23283E-20         0.00000E+00
    0.20955E-20        -0.18161E-19         0.00000E+00
    0.75670E-21        -0.10245E-19         0.00000E+00
   -0.34925E-21        -0.27008E-19         0.00000E+00
    0.98953E-21        -0.16298E-19         0.00000E+00
    0.58208E-22        -0.72177E-20         0.00000E+00
   -0.75670E-21        -0.88476E-20         0.00000E+00
   -0.22701E-20        -0.67521E-20         0.00000E+00
   -0.37835E-20         0.19092E-19         0.00000E+00
   -0.35507E-20         0.18626E-20         0.00000E+00
   -0.22701E-20        -0.58208E-20         0.00000E+00
   -0.36089E-20        -0.10245E-19         0.00000E+00
   -0.81491E-20         0.23283E-20         0.00000E+00
   -0.10186E-19         0.95461E-20         0.00000E+00
   -0.11001E-19         0.60536E-20         0.00000E+00
   -0.11059E-19         0.18626E-20         0.00000E+00
   -0.88476E-20        -0.27940E-20         0.00000E+00
   -0.72177E-20        -0.65193E-20         0.00000E+00
   -0.61700E-20        -0.13504E-19         0.00000E+00
   -0.36089E-20        -0.18394E-19         0.00000E+00
   -0.31432E-20        -0.26543E-19         0.00000E+00
   -0.24447E-20        -0.43772E-19         0.00000E+00
   -0.69849E-21        -0.24214E-19         0.00000E+00
    0.17462E-21        -0.42841E-19         0.00000E+00
   -0.12224E-20        -0.42841E-19         0.00000E+00
   -0.81491E-21        -0.41444E-19         0.00000E+00
    0.29104E-20        -0.27940E-19         0.00000E+00
    0.52969E-20        -0.16997E-19         0.00000E+00
    0.81491E-20        -0.11176E-19         0.00000E+00
    0.10477E-19         0.93132E-21         0.00000E+00
    0.11409E-19        -0.23283E-20         0.00000E+00
   -0.34343E-20         0.69849E-20         0.00000E+00
   -0.22119E-20         0.79162E-20         0.00000E+00
   -0.12806E-20        -0.93132E-21         0.00000E+00
    0.18626E-20        -0.93132E-20         0.00000E+00
    0.50059E-20        -0.11642E-19         0.00000E+00
    0.89640E-20        -0.23283E-19         0.00000E+00
    0.93714E-20        -0.23982E-19         0.00000E+00
    0.72177E-20        -0.31665E-19         0.00000E+00
    0.41910E-20        -0.25611E-19         0.00000E+00
    0.14552E-20        -0.25844E-19         0.00000E+00
    0.10477E-20        -0.31665E-19         0.00000E+00
    0.19209E-20        -0.60536E-20         0.00000E+00
    0.34925E-20        -0.58208E-20         0.00000E+00
    0.63446E-20         0.81491E-20         0.00000E+00
    0.76252E-20        -0.13970E-20         0.00000E+00
    0.62282E-20         0.11176E-19         0.00000E+00
    0.69267E-20         0.72177E-20         0.00000E+00
    0.65193E-20         0.21886E-19         0.00000E+00
    0.54133E-20         0.15832E-19         0.00000E+00
    0.37835E-20        -0.23283E-20         0.00000E+00
    0.43074E-20        -0.17229E-19         0.00000E+00
    0.66357E-20        -0.17229E-19         0.00000E+00
    0.71595E-20        -0.26543E-19         0.00000E+00
    0.53551E-20        -0.13271E-19         0.00000E+00
    0.40745E-20        -0.69849E-20         0.00000E+00
    0.51805E-20        -0.69849E-20         0.00000E+00
    0.57626E-20         0.46566E-21         0.00000E+00
    0.51805E-20         0.20489E-19         0.00000E+00
    0.38999E-20         0.69849E-20         0.00000E+00
    0.64028E-21         0.51223E-20         0.00000E+00
   -0.22701E-20         0.23283E-20         0.00000E+00
   -0.30850E-20         0.14435E-19         0.00000E+00
   -0.43656E-20         0.14901E-19         0.00000E+00
   -0.38417E-20        -0.23283E-20         0.00000E+00
   -0.16880E-20        -0.93132E-21         0.00000E+00
   -0.13970E-20        -0.83819E-20         0.00000E+00
   -0.12224E-20        -0.12107E-19         0.00000E+00
   -0.46566E-21        -0.20489E-19         0.00000E+00
   -0.87311E-21        -0.25611E-19         0.00000E+00
    0.25029E-20        -0.37951E-19         0.00000E+00
    0.56461E-20        -0.49127E-19         0.00000E+00
    0.63446E-20        -0.27940E-19         0.00000E+00
    0.69267E-20        -0.39581E-19         0.00000E+00
    0.84401E-20        -0.43306E-19         0.00000E+00
    0.78580E-20        -0.38650E-19         0.00000E+00
    0.36671E-20        -0.26543E-19         0.00000E+00
    0.15716E-20        -0.18161E-19         0.00000E+00
    0.46566E-21        -0.23516E-19         0.00000E+00
    0.22701E-20        -0.69849E-20         0.00000E+00
    0.30268E-20        -0.58208E-20         0.00000E+00
    0.12806E-20         0.79162E-20         0.00000E+00
    0.19791E-20         0.46566E-20         0.00000E+00
    0.69849E-21        -0.48894E-20         0.00000E+00
   -0.13970E-20        -0.60536E-20         0.00000E+00
   -0.47148E-20        -0.13970E-19         0.00000E+00
   -0.62864E-20        -0.28871E-19         0.00000E+00
   -0.55879E-20        -0.27474E-19         0.00000E+00
   -0.50059E-20        -0.25611E-19         0.00000E+00
   -0.23283E-20        -0.22817E-19         0.00000E+00
   -0.17462E-20        -0.18161E-19         0.00000E+00
   -0.25611E-20        -0.30734E-19         0.00000E+00
   -0.27940E-20        -0.74506E-20         0.00000E+00
   -0.24447E-20        -0.14435E-19         0.00000E+00
   -0.30268E-20         0.60536E-20         0.00000E+00
   -0.26776E-20        -0.55879E-20         0.00000E+00
   -0.14552E-20         0.12573E-19         0.00000E+00
   -0.16880E-20         0.10710E-19         0.00000E+00
   -0.81491E-21         0.15832E-19         0.00000E+00
    0.20955E-20         0.13504E-19         0.00000E+00
    0.35507E-20        -0.37253E-20         0.00000E+00
    0.49477E-20        -0.21420E-19         0.00000E+00
    0.41910E-20        -0.17695E-19         0.00000E+00
    0.24447E-20        -0.22817E-19         0.00000E+00
    0.34925E-20        -0.11176E-19         0.00000E+00
    0.47730E-20        -0.69849E-20         0.00000E+00
    0.44820E-20        -0.67521E-20         0.00000E+00
    0.50641E-20        -0.74506E-20         0.00000E+00
    0.68685E-20         0.21420E-19         0.00000E+00
    0.63446E-20         0.16298E-19         0.00000E+00
    0.89058E-20         0.51223E-20         0.00000E+00
    0.11350E-19         0.37253E-20         0.00000E+00
    0.12165E-19         0.14203E-19         0.00000E+00
    0.12806E-19         0.19558E-19         0.00000E+00
    0.11059E-19        -0.27940E-20         0.00000E+00
    0.80909E-20        -0.93132E-21         0.00000E+00
    0.94296E-20        -0.15367E-19         0.00000E+00
    0.12282E-19        -0.25611E-19         0.00000E+00
    0.14785E-19        -0.23516E-19         0.00000E+00
    0.16415E-19        -0.32131E-19         0.00000E+00
    0.13446E-19        -0.39116E-19         0.00000E+00
    0.95461E-20        -0.48196E-19         0.00000E+00
    0.93132E-20        -0.28405E-19         0.00000E+00
    0.83237E-20        -0.39581E-19         0.00000E+00
    0.50641E-20        -0.39581E-19         0.00000E+00
    0.42492E-20        -0.30966E-19         0.00000E+00
    0.74506E-20        -0.28871E-19         0.00000E+00
    0.10186E-19        -0.20023E-19         0.00000E+00
    0.11758E-19        -0.21886E-19         0.00000E+00
    0.11001E-19        -0.12107E-19         0.00000E+00
    0.97789E-20         0.16298E-20         0.00000E+00
   -0.19209E-20         0.69849E-20         0.00000E+00
   -0.26193E-20         0.74506E-20         0.00000E+00
   -0.15716E-20        -0.46566E-20         0.00000E+00
   -0.52387E-21        -0.46566E-20         0.00000E+00
    0.93132E-21        -0.88476E-20         0.00000E+00
    0.93132E-21        -0.25611E-19         0.00000E+00
    0.17462E-21        -0.27940E-19         0.00000E+00
    0.12806E-20        -0.34925E-19         0.00000E+00
    0.23283E-20        -0.34226E-19         0.00000E+00
    0.48894E-20        -0.24214E-19         0.00000E+00
    0.65193E-20        -0.27008E-19         0.00000E+00
    0.52387E-20        -0.60536E-20         0.00000E+00
    0.37253E-20        -0.93132E-20         0.00000E+00
    0.26776E-20         0.60536E-20         0.00000E+00
    0.15716E-20        -0.69849E-20         0.00000E+00
    0.16298E-20         0.12107E-19         0.00000E+00
   -0.17462E-21         0.18161E-19         0.00000E+00
   -0.24447E-20         0.20256E-19         0.00000E+00
   -0.43656E-20         0.13504E-19         0.00000E+00
   -0.59954E-20        -0.69849E-20         0.00000E+00
   -0.53551E-20        -0.25146E-19         0.00000E+00
   -0.53551E-20        -0.12573E-19         0.00000E+00
   -0.37835E-20        -0.23749E-19         0.00000E+00
   -0.32596E-20        -0.11642E-19         0.00000E+00
   -0.31432E-20        -0.12573E-19         0.00000E+00
   -0.14552E-20        -0.12573E-19         0.00000E+00
   -0.15716E-20        -0.60536E-20         0.00000E+00
   -0.34925E-20         0.20489E-19         0.00000E+00
   -0.29104E-21         0.51223E-20         0.00000E+00
    0.14552E-20        -0.79162E-20         0.00000E+00
    0.21537E-20        -0.46566E-20         0.00000E+00
    0.36089E-20         0.13504E-19         0.00000E+00
    0.43656E-20         0.81491E-20         0.00000E+00
    0.60536E-20        -0.93132E-21         0.00000E+00
    0.85565E-20        -0.23283E-20         0.00000E+00
    0.81491E-20        -0.14435E-19         0.00000E+00
    0.69849E-20        -0.26543E-19         0.00000E+00
    0.54133E-20        -0.25844E-19         0.00000E+00
    0.40163E-20        -0.27474E-19         0.00000E+00
    0.52969E-20        -0.25611E-19         0.00000E+00
    0.42492E-20        -0.39581E-19         0.00000E+00
    0.34925E-21        -0.15832E-19         0.00000E+00
   -0.18626E-20        -0.29104E-19         0.00000E+00
   -0.20373E-20        -0.33528E-19         0.00000E+00
   -0.87311E-21        -0.36322E-19         0.00000E+00
   -0.27940E-20        -0.25611E-19         0.00000E+00
   -0.61118E-20        -0.23283E-19         0.00000E+00
   -0.86147E-20        -0.17695E-19         0.00000E+00
   -0.10419E-19        -0.74506E-20         0.00000E+00
   -0.10070E-19        -0.93132E-21         0.00000E+00
    0.11059E-19         0.27940E-20         0.00000E+00
    0.13155E-19         0.23283E-20         0.00000E+00
    0.14435E-19        -0.37253E-20         0.00000E+00
    0.13271E-19        -0.79162E-20         0.00000E+00
    0.13271E-19        -0.16298E-19         0.00000E+00
    0.13155E-19        -0.20955E-19         0.00000E+00
    0.13039E-19        -0.33062E-19         0.00000E+00
    0.12165E-19        -0.33062E-19         0.00000E+00
    0.11583E-19        -0.37253E-19         0.00000E+00
    0.12049E-19        -0.33062E-19         0.00000E+00
    0.11933E-19        -0.32131E-19         0.00000E+00
    0.14552E-19        -0.83819E-20         0.00000E+00
    0.17579E-19        -0.10477E-19         0.00000E+00
    0.17229E-19         0.13039E-19         0.00000E+00
    0.15600E-19        -0.37253E-20         0.00000E+00
    0.13388E-19         0.17695E-19         0.00000E+00
    0.13504E-19         0.15832E-19         0.00000E+00
    0.15367E-19         0.18626E-19         0.00000E+00
    0.17579E-19         0.20023E-19         0.00000E+00
    0.16415E-19        -0.60536E-20         0.00000E+00
    0.15891E-19        -0.22352E-19         0.00000E+00
    0.15134E-19        -0.14435E-19         0.00000E+00
    0.14552E-19        -0.26543E-19         0.00000E+00
    0.12224E-19        -0.12107E-19         0.00000E+00
    0.11350E-19        -0.88476E-20         0.00000E+00
    0.10536E-19        -0.15832E-19         0.00000E+00
    0.12573E-19        -0.10477E-19         0.00000E+00
    0.17113E-19         0.11642E-19         0.00000E+00
    0.18277E-19        -0.37253E-20         0.00000E+00
    0.16822E-19        -0.83819E-20         0.00000E+00
    0.16356E-19        -0.60536E-20         0.00000E+00
    0.16880E-19         0.79162E-20         0.00000E+00
    0.18510E-19         0.62864E-20         0.00000E+00
    0.20023E-19        -0.10245E-19         0.00000E+00
    0.18452E-19         0.27940E-20         0.00000E+00
    0.16997E-19        -0.60536E-20         0.00000E+00
    0.14203E-19        -0.16764E-19         0.00000E+00
    0.13562E-19        -0.20955E-19         0.00000E+00
    0.12806E-19        -0.26543E-19         0.00000E+00
    0.10477E-19        -0.21886E-19         0.00000E+00
    0.10012E-19        -0.33528E-19         0.00000E+00
    0.10827E-19        -0.13970E-19         0.00000E+00
    0.12631E-19        -0.29802E-19         0.00000E+00
    0.13679E-19        -0.40047E-19         0.00000E+00
    0.12398E-19        -0.34459E-19         0.00000E+00
    0.11758E-19        -0.20023E-19         0.00000E+00
    0.97207E-20        -0.65193E-20         0.00000E+00
    0.78580E-20        -0.11874E-19         0.00000E+00
    0.78580E-20         0.46566E-21         0.00000E+00
    0.54715E-20        -0.27940E-20         0.00000E+00
    0.83528E-19         0.27940E-20         0.00000E+00
    0.82189E-19        -0.18626E-20         0.00000E+00
    0.80792E-19         0.51223E-20         0.00000E+00
    0.77067E-19         0.13970E-20         0.00000E+00
    0.74098E-19        -0.97789E-20         0.00000E+00
    0.73691E-19        -0.25611E-19         0.00000E+00
    0.73866E-19        -0.24680E-19         0.00000E+00
    0.72061E-19        -0.24680E-19         0.00000E+00
    0.71595E-19        -0.37253E-19         0.00000E+00
    0.71595E-19        -0.29337E-19         0.00000E+00
    0.69966E-19        -0.30268E-19         0.00000E+00
    0.67404E-19        -0.74506E-20         0.00000E+00
    0.65076E-19        -0.97789E-20         0.00000E+00
    0.65018E-19         0.10710E-19         0.00000E+00
    0.64960E-19         0.23283E-20         0.00000E+00
    0.65484E-19         0.24214E-19         0.00000E+00
    0.66299E-19         0.60536E-20         0.00000E+00
    0.67288E-19         0.16764E-19         0.00000E+00
    0.68278E-19         0.97789E-20         0.00000E+00
    0.70548E-19        -0.11176E-19         0.00000E+00
    0.72876E-19        -0.20955E-19         0.00000E+00
    0.73458E-19        -0.16764E-19         0.00000E+00
    0.74739E-19        -0.23283E-19         0.00000E+00
    0.76077E-19        -0.13039E-19         0.00000E+00
    0.78115E-19        -0.88476E-20         0.00000E+00
    0.76601E-19        -0.74506E-20         0.00000E+00
    0.73574E-19        -0.93132E-20         0.00000E+00
    0.68918E-19         0.15832E-19         0.00000E+00
    0.66531E-19         0.46566E-21         0.00000E+00
    0.67113E-19        -0.13039E-19         0.00000E+00
    0.69092E-19        -0.88476E-20         0.00000E+00
    0.71363E-19        -0.46566E-21         0.00000E+00
    0.71654E-19         0.46566E-20         0.00000E+00
    0.69616E-19        -0.32596E-20         0.00000E+00
    0.68976E-19        -0.46566E-21         0.00000E+00
    0.69209E-19         0.83819E-20         0.00000E+00
    0.66939E-19        -0.95461E-20         0.00000E+00
    0.64785E-19        -0.11176E-19         0.00000E+00
    0.61991E-19        -0.20489E-19         0.00000E+00
    0.61351E-19        -0.15832E-19         0.00000E+00
    0.60478E-19        -0.37486E-19         0.00000E+00
    0.61351E-19        -0.16764E-19         0.00000E+00
    0.60827E-19        -0.30734E-19         0.00000E+00
    0.59779E-19        -0.37719E-19         0.00000E+00
    0.60129E-19        -0.33528E-19         0.00000E+00
    0.60711E-19        -0.18626E-19         0.00000E+00
    0.63970E-19        -0.62864E-20         0.00000E+00
    0.65134E-19        -0.15134E-19         0.00000E+00
    0.65600E-19        -0.93132E-21         0.00000E+00
    0.67870E-19        -0.93132E-21         0.00000E+00
    0.37404E-18         0.65193E-20         0.00000E+00
    0.37323E-18         0.41910E-20         0.00000E+00
    0.37608E-18        -0.93132E-21         0.00000E+00
    0.37986E-18         0.46566E-20         0.00000E+00
    0.38161E-18        -0.88476E-20         0.00000E+00
    0.38126E-18        -0.21886E-19         0.00000E+00
    0.37975E-18        -0.20955E-19         0.00000E+00
    0.38056E-18        -0.25611E-19         0.00000E+00
    0.37893E-18        -0.23283E-19         0.00000E+00
    0.37369E-18        -0.18161E-19         0.00000E+00
    0.36915E-18        -0.15832E-19         0.00000E+00
    0.36642E-18         0.46566E-20         0.00000E+00
    0.36263E-18         0.32596E-20         0.00000E+00
    0.36036E-18         0.13039E-19         0.00000E+00
    0.36025E-18        -0.23283E-20         0.00000E+00
    0.36304E-18         0.13970E-19         0.00000E+00
    0.36386E-18         0.88476E-20         0.00000E+00
    0.36287E-18         0.14435E-19         0.00000E+00
    0.36386E-18         0.00000E+00         0.00000E+00
    0.36444E-18        -0.16298E-19         0.00000E+00
    0.36543E-18        -0.27940E-19         0.00000E+00
    0.36799E-18        -0.21886E-19         0.00000E+00
    0.36851E-18        -0.28871E-19         0.00000E+00
    0.36857E-18        -0.19092E-19         0.00000E+00
    0.36921E-18        -0.12107E-19         0.00000E+00
    0.36869E-18        -0.27940E-20         0.00000E+00
    0.36892E-18         0.46566E-20         0.00000E+00
    0.36968E-18         0.15832E-19         0.00000E+00
    0.37061E-18         0.60536E-20         0.00000E+00
    0.36974E-18        -0.16298E-19         0.00000E+00
    0.36933E-18        -0.14435E-19         0.00000E+00
    0.36770E-18         0.27940E-20         0.00000E+00
    0.36735E-18         0.37253E-20         0.00000E+00
    0.36939E-18         0.13970E-20         0.00000E+00
    0.36921E-18        -0.13970E-20         0.00000E+00
    0.37154E-18         0.23283E-20         0.00000E+00
    0.37358E-18        -0.55879E-20         0.00000E+00
    0.37561E-18        -0.10245E-19         0.00000E+00
    0.37678E-18        -0.16298E-19         0.00000E+00
    0.37713E-18        -0.14901E-19         0.00000E+00
    0.37532E-18        -0.29569E-19         0.00000E+00
    0.37381E-18        -0.16764E-19         0.00000E+00
    0.37439E-18        -0.29569E-19         0.00000E+00
    0.37422E-18        -0.35390E-19         0.00000E+00
    0.37334E-18        -0.28871E-19         0.00000E+00
    0.37177E-18        -0.17229E-19         0.00000E+00
    0.37067E-18        -0.13504E-19         0.00000E+00
    0.37189E-18        -0.15367E-19         0.00000E+00
    0.37247E-18        -0.41910E-20         0.00000E+00
    0.37230E-18        -0.69849E-21         0.00000E+00
    0.19677E-17         0.13970E-20         0.00000E+00
    0.19683E-17         0.65193E-20         0.00000E+00
    0.19663E-17        -0.39581E-20         0.00000E+00
    0.19631E-17         0.39581E-20         0.00000E+00
    0.19608E-17        -0.93132E-20         0.00000E+00
    0.19583E-17        -0.93132E-20         0.00000E+00
    0.19545E-17        -0.11176E-19         0.00000E+00
    0.19495E-17        -0.14901E-19         0.00000E+00
    0.19480E-17        -0.16065E-19         0.00000E+00
    0.19488E-17        -0.53551E-20         0.00000E+00
    0.19486E-17        -0.10245E-19         0.00000E+00
    0.19494E-17         0.15832E-19         0.00000E+00
    0.19509E-17         0.00000E+00         0.00000E+00
    0.19537E-17         0.14901E-19         0.00000E+00
    0.19546E-17        -0.60536E-20         0.00000E+00
    0.19523E-17         0.93132E-20         0.00000E+00
    0.19502E-17         0.15367E-19         0.00000E+00
    0.19491E-17         0.13039E-19         0.00000E+00
    0.19477E-17         0.46566E-20         0.00000E+00
    0.19469E-17        -0.16764E-19         0.00000E+00
    0.19460E-17        -0.30734E-19         0.00000E+00
    0.19442E-17        -0.29337E-19         0.00000E+00
    0.19463E-17        -0.38184E-19         0.00000E+00
    0.19468E-17        -0.18161E-19         0.00000E+00
    0.19470E-17        -0.12573E-19         0.00000E+00
    0.19476E-17        -0.23283E-20         0.00000E+00
    0.19485E-17        -0.27940E-20         0.00000E+00
    0.19503E-17         0.12573E-19         0.00000E+00
    0.19523E-17         0.93132E-21         0.00000E+00
    0.19550E-17        -0.21420E-19         0.00000E+00
    0.19572E-17        -0.19558E-19         0.00000E+00
    0.19585E-17         0.74506E-20         0.00000E+00
    0.19583E-17         0.23283E-20         0.00000E+00
    0.19580E-17        -0.93132E-21         0.00000E+00
    0.19569E-17         0.37253E-20         0.00000E+00
    0.19553E-17        -0.97789E-20         0.00000E+00
    0.19550E-17         0.00000E+00         0.00000E+00
    0.19529E-17        -0.15832E-19         0.00000E+00
    0.19514E-17        -0.12573E-19         0.00000E+00
    0.19518E-17        -0.16764E-19         0.00000E+00
    0.19531E-17        -0.29104E-19         0.00000E+00
    0.19551E-17        -0.18626E-19         0.00000E+00
    0.19541E-17        -0.29802E-19         0.00000E+00
    0.19528E-17        -0.31665E-19         0.00000E+00
    0.19526E-17        -0.23050E-19         0.00000E+00
    0.19543E-17        -0.20489E-19         0.00000E+00
    0.19555E-17        -0.15367E-19         0.00000E+00
    0.19560E-17        -0.15367E-19         0.00000E+00
    0.19552E-17        -0.65193E-20         0.00000E+00
    0.19549E-17         0.69849E-21         0.00000E+00
    0.10158E-16         0.23283E-20         0.00000E+00
    0.10158E-16         0.32596E-20         0.00000E+00
    0.10160E-16        -0.32596E-20         0.00000E+00
    0.10165E-16        -0.13970E-20         0.00000E+00
    0.10166E-16         0.13970E-20         0.00000E+00
    0.10168E-16        -0.11642E-19         0.00000E+00
    0.10174E-16        -0.88476E-20         0.00000E+00
    0.10178E-16        -0.11642E-19         0.00000E+00
    0.10180E-16        -0.21420E-19         0.00000E+00
    0.10181E-16        -0.10245E-19         0.00000E+00
    0.10181E-16        -0.88476E-20         0.00000E+00
    0.10181E-16         0.17229E-19         0.00000E+00
    0.10179E-16        -0.37253E-20         0.00000E+00
    0.10178E-16         0.95461E-20         0.00000E+00
    0.10177E-16         0.13970E-20         0.00000E+00
    0.10177E-16         0.20955E-19         0.00000E+00
    0.10178E-16         0.13970E-19         0.00000E+00
    0.10179E-16         0.16298E-19         0.00000E+00
    0.10181E-16         0.55879E-20         0.00000E+00
    0.10181E-16        -0.18626E-19         0.00000E+00
    0.10182E-16        -0.25146E-19         0.00000E+00
    0.10182E-16        -0.26077E-19         0.00000E+00
    0.10180E-16        -0.39116E-19         0.00000E+00
    0.10178E-16        -0.16298E-19         0.00000E+00
    0.10176E-16        -0.97789E-20         0.00000E+00
    0.10179E-16        -0.15367E-19         0.00000E+00
    0.10181E-16        -0.13970E-19         0.00000E+00
    0.10180E-16         0.10710E-19         0.00000E+00
    0.10180E-16        -0.32596E-20         0.00000E+00
    0.10177E-16        -0.24214E-19         0.00000E+00
    0.10175E-16        -0.15832E-19         0.00000E+00
    0.10175E-16        -0.32596E-20         0.00000E+00
    0.10178E-16        -0.27940E-20         0.00000E+00
    0.10179E-16        -0.27940E-20         0.00000E+00
    0.10181E-16         0.13970E-20         0.00000E+00
    0.10182E-16        -0.69849E-20         0.00000E+00
    0.10181E-16         0.25611E-20         0.00000E+00
    0.10181E-16        -0.23283E-20         0.00000E+00
    0.10181E-16        -0.14901E-19         0.00000E+00
    0.10180E-16        -0.97789E-20         0.00000E+00
    0.10178E-16        -0.32596E-19         0.00000E+00
    0.10178E-16        -0.23283E-19         0.00000E+00
    0.10179E-16        -0.24447E-19         0.00000E+00
    0.10179E-16        -0.27474E-19         0.00000E+00
    0.10178E-16        -0.19092E-19         0.00000E+00
    0.10178E-16        -0.25844E-19         0.00000E+00
    0.10176E-16        -0.97789E-20         0.00000E+00
    0.10174E-16        -0.12107E-19         0.00000E+00
    0.10173E-16        -0.97789E-20         0.00000E+00
    0.10174E-16        -0.13970E-20         0.00000E+00
    0.52070E-16         0.18626E-20         0.00000E+00
    0.52069E-16         0.37253E-20         0.00000E+00
    0.52067E-16        -0.32596E-20         0.00000E+00
    0.52065E-16        -0.55879E-20         0.00000E+00
    0.52066E-16        -0.13737E-19         0.00000E+00
    0.52070E-16        -0.35856E-19         0.00000E+00
    0.52074E-16        -0.31665E-19         0.00000E+00
    0.52076E-16        -0.20489E-19         0.00000E+00
    0.52077E-16        -0.25611E-19         0.00000E+00
    0.52077E-16        -0.17229E-19         0.00000E+00
    0.52079E-16        -0.10710E-19         0.00000E+00
    0.52080E-16         0.13970E-19         0.00000E+00
    0.52081E-16        -0.18626E-20         0.00000E+00
    0.52082E-16         0.97789E-20         0.00000E+00
    0.52082E-16         0.65193E-20         0.00000E+00
    0.52081E-16         0.21653E-19         0.00000E+00
    0.52081E-16         0.83819E-20         0.00000E+00
    0.52081E-16         0.16298E-19         0.00000E+00
    0.52081E-16         0.23283E-20         0.00000E+00
    0.52081E-16        -0.16298E-19         0.00000E+00
    0.52080E-16        -0.29337E-19         0.00000E+00
    0.52081E-16        -0.19092E-19         0.00000E+00
    0.52082E-16        -0.40513E-19         0.00000E+00
    0.52083E-16        -0.14435E-19         0.00000E+00
    0.52083E-16        -0.23283E-20         0.00000E+00
    0.52080E-16        -0.10710E-19         0.00000E+00
    0.52075E-16         0.93132E-21         0.00000E+00
    0.52072E-16         0.15367E-19         0.00000E+00
    0.52072E-16         0.18626E-20         0.00000E+00
    0.52073E-16        -0.20955E-19         0.00000E+00
    0.52074E-16        -0.12573E-19         0.00000E+00
    0.52074E-16        -0.10245E-19         0.00000E+00
    0.52073E-16        -0.37253E-20         0.00000E+00
    0.52072E-16        -0.65193E-20         0.00000E+00
    0.52071E-16         0.00000E+00         0.00000E+00
    0.52071E-16        -0.69849E-21         0.00000E+00
    0.52071E-16        -0.13970E-20         0.00000E+00
    0.52072E-16        -0.41910E-20         0.00000E+00
    0.52073E-16        -0.14435E-19         0.00000E+00
    0.52075E-16        -0.18626E-19         0.00000E+00
    0.52076E-16        -0.26543E-19         0.00000E+00
    0.52077E-16        -0.21653E-19         0.00000E+00
    0.52077E-16        -0.33993E-19         0.00000E+00
    0.52079E-16        -0.28405E-19         0.00000E+00
    0.52077E-16        -0.18394E-19         0.00000E+00
    0.52075E-16        -0.83819E-20         0.00000E+00
    0.52073E-16        -0.79162E-20         0.00000E+00
    0.52074E-16        -0.79162E-20         0.00000E+00
    0.52074E-16        -0.76834E-20         0.00000E+00
    0.52073E-16        -0.74506E-20         0.00000E+00
    0.26132E-15         0.60536E-20         0.00000E+00
    0.26132E-15         0.13970E-20         0.00000E+00
    0.26132E-15         0.32596E-20         0.00000E+00
    0.26132E-15        -0.44238E-20         0.00000E+00
    0.26132E-15        -0.19791E-19         0.00000E+00
    0.26132E-15        -0.30734E-19         0.00000E+00
    0.26131E-15        -0.33528E-19         0.00000E+00
    0.26131E-15        -0.32131E-19         0.00000E+00
    0.26132E-15        -0.30734E-19         0.00000E+00
    0.26132E-15        -0.23283E-19         0.00000E+00
    0.26132E-15        -0.21886E-19         0.00000E+00
    0.26133E-15         0.93132E-21         0.00000E+00
    0.26133E-15        -0.41910E-20         0.00000E+00
    0.26133E-15         0.12573E-19         0.00000E+00
    0.26133E-15         0.48894E-20         0.00000E+00
    0.26133E-15         0.81491E-20         0.00000E+00
    0.26133E-15         0.10245E-19         0.00000E+00
    0.26133E-15         0.13970E-19         0.00000E+00
    0.26133E-15         0.51223E-20         0.00000E+00
    0.26133E-15        -0.14435E-19         0.00000E+00
    0.26133E-15        -0.22352E-19         0.00000E+00
    0.26132E-15        -0.13970E-19         0.00000E+00
    0.26132E-15        -0.34925E-19         0.00000E+00
    0.26132E-15        -0.19092E-19         0.00000E+00
    0.26132E-15        -0.18626E-20         0.00000E+00
    0.26132E-15        -0.46566E-21         0.00000E+00
    0.26132E-15         0.79162E-20         0.00000E+00
    0.26133E-15         0.13504E-19         0.00000E+00
    0.26133E-15         0.18626E-20         0.00000E+00
    0.26132E-15        -0.11176E-19         0.00000E+00
    0.26132E-15        -0.12573E-19         0.00000E+00
    0.26132E-15        -0.55879E-20         0.00000E+00
    0.26132E-15        -0.46566E-20         0.00000E+00
    0.26132E-15        -0.37253E-20         0.00000E+00
    0.26132E-15        -0.23283E-21         0.00000E+00
    0.26132E-15         0.37253E-20         0.00000E+00
    0.26132E-15        -0.18626E-20         0.00000E+00
    0.26132E-15        -0.97789E-20         0.00000E+00
    0.26132E-15        -0.16531E-19         0.00000E+00
    0.26132E-15        -0.28405E-19         0.00000E+00
    0.26132E-15        -0.42375E-19         0.00000E+00
    0.26133E-15        -0.25611E-19         0.00000E+00
    0.26133E-15        -0.30268E-19         0.00000E+00
    0.26133E-15        -0.29104E-19         0.00000E+00
    0.26133E-15        -0.16065E-19         0.00000E+00
    0.26133E-15        -0.12107E-19         0.00000E+00
    0.26133E-15        -0.60536E-20         0.00000E+00
    0.26133E-15        -0.13504E-19         0.00000E+00
    0.26133E-15        -0.25611E-20         0.00000E+00
    0.26133E-15        -0.69849E-21         0.00000E+00
    0.12841E-14         0.60536E-20         0.00000E+00
    0.12841E-14         0.79162E-20         0.00000E+00
    0.12841E-14         0.62864E-20         0.00000E+00
    0.12840E-14         0.00000E+00         0.00000E+00
    0.12840E-14        -0.97789E-20         0.00000E+00
    0.12840E-14        -0.19791E-19         0.00000E+00
    0.12840E-14        -0.32131E-19         0.00000E+00
    0.12840E-14        -0.35856E-19         0.00000E+00
    0.12841E-14        -0.41444E-19         0.00000E+00
    0.12841E-14        -0.24680E-19         0.00000E+00
    0.12840E-14        -0.33993E-19         0.00000E+00
    0.12841E-14        -0.12107E-19         0.00000E+00
    0.12841E-14        -0.13039E-19         0.00000E+00
    0.12841E-14         0.81491E-20         0.00000E+00
    0.12841E-14        -0.83819E-20         0.00000E+00
    0.12841E-14         0.46566E-20         0.00000E+00
    0.12841E-14         0.79162E-20         0.00000E+00
    0.12841E-14         0.13039E-19         0.00000E+00
    0.12841E-14         0.11176E-19         0.00000E+00
    0.12841E-14        -0.48894E-20         0.00000E+00
    0.12841E-14        -0.74506E-20         0.00000E+00
    0.12841E-14        -0.13504E-19         0.00000E+00
    0.12841E-14        -0.36322E-19         0.00000E+00
    0.12841E-14        -0.16298E-19         0.00000E+00
    0.12841E-14        -0.41910E-20         0.00000E+00
    0.12841E-14        -0.60536E-20         0.00000E+00
    0.12841E-14         0.37253E-20         0.00000E+00
    0.12841E-14         0.17229E-19         0.00000E+00
    0.12841E-14         0.65193E-20         0.00000E+00
    0.12841E-14        -0.27940E-20         0.00000E+00
    0.12841E-14        -0.13039E-19         0.00000E+00
    0.12841E-14        -0.13970E-20         0.00000E+00
    0.12841E-14        -0.65193E-20         0.00000E+00
    0.12841E-14         0.32596E-20         0.00000E+00
    0.12841E-14        -0.18626E-20         0.00000E+00
    0.12841E-14        -0.60536E-20         0.00000E+00
    0.12841E-14        -0.69849E-20         0.00000E+00
    0.12841E-14        -0.93132E-20         0.00000E+00
    0.12841E-14        -0.16764E-19         0.00000E+00
    0.12841E-14        -0.31199E-19         0.00000E+00
    0.12841E-14        -0.44238E-19         0.00000E+00
    0.12841E-14        -0.24913E-19         0.00000E+00
    0.12841E-14        -0.27940E-19         0.00000E+00
    0.12841E-14        -0.33062E-19         0.00000E+00
    0.12841E-14        -0.23283E-19         0.00000E+00
    0.12841E-14        -0.21420E-19         0.00000E+00
    0.12841E-14        -0.44238E-20         0.00000E+00
    0.12841E-14        -0.13504E-19         0.00000E+00
    0.12841E-14        -0.23283E-20         0.00000E+00
    0.12841E-14         0.11642E-20         0.00000E+00
    0.61655E-14         0.72177E-20         0.00000E+00
    0.61655E-14         0.23283E-21         0.00000E+00
    0.61655E-14         0.14435E-19         0.00000E+00
    0.61655E-14         0.37253E-20         0.00000E+00
    0.61655E-14        -0.10477E-19         0.00000E+00
    0.61655E-14        -0.24447E-19         0.00000E+00
    0.61655E-14        -0.34925E-19         0.00000E+00
    0.61655E-14        -0.33760E-19         0.00000E+00
    0.61655E-14        -0.46566E-19         0.00000E+00
    0.61655E-14        -0.26077E-19         0.00000E+00
    0.61655E-14        -0.32829E-19         0.00000E+00
    0.61655E-14        -0.93132E-20         0.00000E+00
    0.61655E-14        -0.17229E-19         0.00000E+00
    0.61655E-14        -0.46566E-21         0.00000E+00
    0.61655E-14        -0.11642E-19         0.00000E+00
    0.61655E-14         0.15134E-19         0.00000E+00
    0.61655E-14         0.37253E-20         0.00000E+00
    0.61655E-14         0.14435E-19         0.00000E+00
    0.61655E-14         0.32596E-20         0.00000E+00
    0.61655E-14        -0.46566E-20         0.00000E+00
    0.61655E-14        -0.12107E-19         0.00000E+00
    0.61655E-14        -0.19092E-19         0.00000E+00
    0.61655E-14        -0.41444E-19         0.00000E+00
    0.61655E-14        -0.10245E-19         0.00000E+00
    0.61655E-14        -0.65193E-20         0.00000E+00
    0.61655E-14        -0.37253E-20         0.00000E+00
    0.61655E-14         0.65193E-20         0.00000E+00
    0.61655E-14         0.25611E-19         0.00000E+00
    0.61655E-14         0.65193E-20         0.00000E+00
    0.61655E-14        -0.65193E-20         0.00000E+00
    0.61655E-14        -0.13504E-19         0.00000E+00
    0.61655E-14        -0.32596E-20         0.00000E+00
    0.61655E-14        -0.65193E-20         0.00000E+00
    0.61655E-14        -0.18626E-20         0.00000E+00
    0.61655E-14        -0.18626E-20         0.00000E+00
    0.61655E-14        -0.93132E-21         0.00000E+00
    0.61655E-14        -0.88476E-20         0.00000E+00
    0.61655E-14        -0.23283E-21         0.00000E+00
    0.61655E-14        -0.79162E-20         0.00000E+00
    0.61655E-14        -0.30734E-19         0.00000E+00
    0.61655E-14        -0.29802E-19         0.00000E+00
    0.61655E-14        -0.20023E-19         0.00000E+00
    0.61655E-14        -0.23283E-19         0.00000E+00
    0.61655E-14        -0.34925E-19         0.00000E+00
    0.61655E-14        -0.19558E-19         0.00000E+00
    0.61655E-14        -0.23749E-19         0.00000E+00
    0.61655E-14        -0.79162E-20         0.00000E+00
    0.61655E-14        -0.18394E-19         0.00000E+00
    0.61655E-14        -0.55879E-20         0.00000E+00
    0.61655E-14         0.74506E-20         0.00000E+00
    0.28862E-13         0.32596E-20         0.00000E+00
    0.28862E-13        -0.69849E-21         0.00000E+00
    0.28862E-13        -0.13970E-20         0.00000E+00
    0.28862E-13        -0.23283E-20         0.00000E+00
    0.28862E-13        -0.11642E-19         0.00000E+00
    0.28862E-13        -0.27474E-19         0.00000E+00
    0.28862E-13        -0.37719E-19         0.00000E+00
    0.28862E-13        -0.33528E-19         0.00000E+00
    0.28862E-13        -0.43306E-19         0.00000E+00
    0.28862E-13        -0.24447E-19         0.00000E+00
    0.28862E-13        -0.20023E-19         0.00000E+00
    0.28862E-13        -0.10710E-19         0.00000E+00
    0.28862E-13        -0.14901E-19         0.00000E+00
    0.28862E-13         0.46566E-20         0.00000E+00
    0.28862E-13        -0.41910E-20         0.00000E+00
    0.28862E-13         0.93132E-20         0.00000E+00
    0.28862E-13         0.74506E-20         0.00000E+00
    0.28862E-13         0.15832E-19         0.00000E+00
    0.28862E-13         0.60536E-20         0.00000E+00
    0.28862E-13        -0.12573E-19         0.00000E+00
    0.28862E-13        -0.11176E-19         0.00000E+00
    0.28862E-13        -0.29802E-19         0.00000E+00
    0.28862E-13        -0.32596E-19         0.00000E+00
    0.28862E-13        -0.13504E-19         0.00000E+00
    0.28862E-13        -0.41910E-20         0.00000E+00
    0.28862E-13        -0.23283E-20         0.00000E+00
    0.28862E-13         0.74506E-20         0.00000E+00
    0.28862E-13         0.17695E-19         0.00000E+00
    0.28862E-13        -0.93132E-21         0.00000E+00
    0.28862E-13        -0.83819E-20         0.00000E+00
    0.28862E-13        -0.74506E-20         0.00000E+00
    0.28862E-13         0.23283E-20         0.00000E+00
    0.28862E-13        -0.41910E-20         0.00000E+00
    0.28862E-13        -0.23283E-20         0.00000E+00
    0.28862E-13        -0.32596E-20         0.00000E+00
    0.28862E-13        -0.37253E-20         0.00000E+00
    0.28862E-13        -0.18626E-20         0.00000E+00
    0.28862E-13        -0.37253E-20         0.00000E+00
    0.28862E-13         0.23283E-20         0.00000E+00
    0.28862E-13        -0.12573E-19         0.00000E+00
    0.28862E-13        -0.28405E-19         0.00000E+00
    0.28862E-13        -0.18626E-19         0.00000E+00
    0.28862E-13        -0.19558E-19         0.00000E+00
    0.28862E-13        -0.33528E-19         0.00000E+00
    0.28862E-13        -0.20955E-19         0.00000E+00
    0.28862E-13        -0.22352E-19         0.00000E+00
    0.28862E-13        -0.16298E-19         0.00000E+00
    0.28862E-13        -0.28405E-19         0.00000E+00
    0.28862E-13        -0.13970E-20         0.00000E+00
    0.28862E-13         0.74506E-20         0.00000E+00
    0.13137E-12         0.51223E-20         0.00000E+00
    0.13137E-12         0.88476E-20         0.00000E+00
    0.13137E-12        -0.41910E-20         0.00000E+00
    0.13137E-12         0.46566E-20         0.00000E+00
    0.13137E-12        -0.93132E-20         0.00000E+00
    0.13137E-12        -0.31665E-19         0.00000E+00
    0.13137E-12        -0.34459E-19         0.00000E+00
    0.13137E-12        -0.34925E-19         0.00000E+00
    0.13137E-12        -0.35390E-19         0.00000E+00
    0.13137E-12        -0.25611E-19         0.00000E+00
    0.13137E-12        -0.20023E-19         0.00000E+00
    0.13137E-12        -0.69849E-20         0.00000E+00
    0.13137E-12        -0.16764E-19         0.00000E+00
    0.13137E-12         0.10710E-19         0.00000E+00
    0.13137E-12        -0.93132E-20         0.00000E+00
    0.13137E-12         0.48894E-20         0.00000E+00
    0.13137E-12         0.14435E-19         0.00000E+00
    0.13137E-12         0.19092E-19         0.00000E+00
    0.13137E-12         0.11642E-19         0.00000E+00
    0.13137E-12         0.23283E-20         0.00000E+00
    0.13137E-12        -0.11642E-19         0.00000E+00
    0.13137E-12        -0.27008E-19         0.00000E+00
    0.13137E-12        -0.30734E-19         0.00000E+00
    0.13137E-12        -0.23283E-19         0.00000E+00
    0.13137E-12        -0.17229E-19         0.00000E+00
    0.13137E-12        -0.41910E-20         0.00000E+00
    0.13137E-12        -0.69849E-20         0.00000E+00
    0.13137E-12         0.18626E-20         0.00000E+00
    0.13137E-12        -0.55879E-20         0.00000E+00
    0.13137E-12        -0.97789E-20         0.00000E+00
    0.13137E-12        -0.93132E-20         0.00000E+00
    0.13137E-12         0.65193E-20         0.00000E+00
    0.13137E-12         0.65193E-20         0.00000E+00
    0.13137E-12         0.79162E-20         0.00000E+00
    0.13137E-12         0.51223E-20         0.00000E+00
    0.13137E-12        -0.11642E-20         0.00000E+00
    0.13137E-12        -0.25611E-20         0.00000E+00
    0.13137E-12        -0.10012E-19         0.00000E+00
    0.13137E-12        -0.93132E-21         0.00000E+00
    0.13137E-12        -0.14435E-19         0.00000E+00
    0.13137E-12        -0.26077E-19         0.00000E+00
    0.13137E-12        -0.17695E-19         0.00000E+00
    0.13137E-12        -0.27008E-19         0.00000E+00
    0.13137E-12        -0.33062E-19         0.00000E+00
    0.13137E-12        -0.27474E-19         0.00000E+00
    0.13137E-12        -0.16531E-19         0.00000E+00
    0.13137E-12        -0.97789E-20         0.00000E+00
    0.13137E-12        -0.16298E-19         0.00000E+00
    0.13137E-12        -0.46566E-21         0.00000E+00
    0.13137E-12        -0.23283E-20         0.00000E+00
    0.57964E-12         0.32596E-20         0.00000E+00
    0.57964E-12         0.46566E-20         0.00000E+00
    0.57964E-12         0.83819E-20         0.00000E+00
    0.57964E-12         0.19092E-19         0.00000E+00
    0.57964E-12        -0.10943E-19         0.00000E+00
    0.57964E-12        -0.30268E-19         0.00000E+00
    0.57964E-12        -0.27940E-19         0.00000E+00
    0.57964E-12        -0.34925E-19         0.00000E+00
    0.57964E-12        -0.36787E-19         0.00000E+00
    0.57964E-12        -0.25611E-19         0.00000E+00
    0.57964E-12        -0.27707E-19         0.00000E+00
    0.57964E-12        -0.11642E-19         0.00000E+00
    0.57964E-12        -0.14435E-19         0.00000E+00
    0.57964E-12         0.65193E-20         0.00000E+00
    0.57964E-12        -0.55879E-20         0.00000E+00
    0.57964E-12         0.14435E-19         0.00000E+00
    0.57964E-12         0.21420E-19         0.00000E+00
    0.57964E-12         0.27474E-19         0.00000E+00
    0.57964E-12         0.24447E-19         0.00000E+00
    0.57964E-12         0.13039E-19         0.00000E+00
    0.57964E-12        -0.16298E-19         0.00000E+00
    0.57964E-12        -0.20023E-19         0.00000E+00
    0.57964E-12        -0.37253E-19         0.00000E+00
    0.57964E-12        -0.27707E-19         0.00000E+00
    0.57964E-12        -0.20489E-19         0.00000E+00
    0.57964E-12        -0.58208E-20         0.00000E+00
    0.57964E-12         0.13970E-20         0.00000E+00
    0.57964E-12         0.27940E-20         0.00000E+00
    0.57964E-12        -0.41910E-20         0.00000E+00
    0.57964E-12        -0.10710E-19         0.00000E+00
    0.57964E-12        -0.15367E-19         0.00000E+00
    0.57964E-12        -0.46566E-20         0.00000E+00
    0.57964E-12         0.13970E-20         0.00000E+00
    0.57964E-12         0.41910E-20         0.00000E+00
    0.57964E-12         0.15600E-19         0.00000E+00
    0.57964E-12         0.51223E-20         0.00000E+00
    0.57964E-12         0.25611E-20         0.00000E+00
    0.57964E-12        -0.18626E-20         0.00000E+00
    0.57964E-12        -0.32596E-20         0.00000E+00
    0.57964E-12        -0.20023E-19         0.00000E+00
    0.57964E-12        -0.32596E-19         0.00000E+00
    0.57964E-12        -0.17695E-19         0.00000E+00
    0.57964E-12        -0.30268E-19         0.00000E+00
    0.57964E-12        -0.33528E-19         0.00000E+00
    0.57964E-12        -0.25146E-19         0.00000E+00
    0.57964E-12        -0.13737E-19         0.00000E+00
    0.57964E-12        -0.79162E-20         0.00000E+00
    0.57964E-12        -0.37253E-20         0.00000E+00
    0.57964E-12        -0.18626E-20         0.00000E+00
    0.57964E-12         0.20955E-20         0.00000E+00
    0.24704E-11         0.46566E-21         0.00000E+00
    0.24704E-11        -0.93132E-21         0.00000E+00
    0.24704E-11         0.53551E-20         0.00000E+00
    0.24704E-11         0.93132E-20         0.00000E+00
    0.24704E-11        -0.18626E-20         0.00000E+00
    0.24704E-11        -0.17462E-19         0.00000E+00
    0.24704E-11        -0.25146E-19         0.00000E+00
    0.24704E-11        -0.26543E-19         0.00000E+00
    0.24704E-11        -0.32596E-19         0.00000E+00
    0.24704E-11        -0.20023E-19         0.00000E+00
    0.24704E-11        -0.32131E-19         0.00000E+00
    0.24704E-11        -0.79162E-20         0.00000E+00
    0.24704E-11        -0.11642E-19         0.00000E+00
    0.24704E-11         0.88476E-20         0.00000E+00
    0.24704E-11         0.32596E-20         0.00000E+00
    0.24704E-11         0.11176E-19         0.00000E+00
    0.24704E-11         0.18161E-19         0.00000E+00
    0.24704E-11         0.22585E-19         0.00000E+00
    0.24704E-11         0.23516E-19         0.00000E+00
    0.24704E-11         0.79162E-20         0.00000E+00
    0.24704E-11        -0.10477E-19         0.00000E+00
    0.24704E-11        -0.18161E-19         0.00000E+00
    0.24704E-11        -0.38184E-19         0.00000E+00
    0.24704E-11        -0.19092E-19         0.00000E+00
    0.24704E-11        -0.11176E-19         0.00000E+00
    0.24704E-11        -0.74506E-20         0.00000E+00
    0.24704E-11         0.97789E-20         0.00000E+00
    0.24704E-11         0.15367E-19         0.00000E+00
    0.24704E-11         0.88476E-20         0.00000E+00
    0.24704E-11        -0.41910E-20         0.00000E+00
    0.24704E-11        -0.12340E-19         0.00000E+00
    0.24704E-11        -0.97789E-20         0.00000E+00
    0.24704E-11        -0.83819E-20         0.00000E+00
    0.24704E-11        -0.32596E-20         0.00000E+00
    0.24704E-11         0.10245E-19         0.00000E+00
    0.24704E-11        -0.65193E-20         0.00000E+00
    0.24704E-11        -0.11642E-20         0.00000E+00
    0.24704E-11        -0.51223E-20         0.00000E+00
    0.24704E-11        -0.55879E-20         0.00000E+00
    0.24704E-11        -0.20722E-19         0.00000E+00
    0.24704E-11        -0.32363E-19         0.00000E+00
    0.24704E-11        -0.16298E-19         0.00000E+00
    0.24704E-11        -0.30734E-19         0.00000E+00
    0.24704E-11        -0.35157E-19         0.00000E+00
    0.24704E-11        -0.26543E-19         0.00000E+00
    0.24704E-11        -0.22352E-19         0.00000E+00
    0.24704E-11        -0.37253E-20         0.00000E+00
    0.24704E-11        -0.46566E-20         0.00000E+00
    0.24704E-11         0.32596E-20         0.00000E+00
    0.24704E-11         0.79162E-20         0.00000E+00
    0.10129E-10         0.18626E-20         0.00000E+00
    0.10129E-10        -0.27940E-20         0.00000E+00
    0.10129E-10         0.32596E-20         0.00000E+00
    0.10129E-10         0.74506E-20         0.00000E+00
    0.10129E-10         0.46566E-20         0.00000E+00
    0.10129E-10        -0.13970E-19         0.00000E+00
    0.10129E-10        -0.25146E-19         0.00000E+00
    0.10129E-10        -0.21420E-19         0.00000E+00
    0.10129E-10        -0.32131E-19         0.00000E+00
    0.10129E-10        -0.27474E-19         0.00000E+00
    0.10129E-10        -0.26543E-19         0.00000E+00
    0.10129E-10        -0.12107E-19         0.00000E+00
    0.10129E-10        -0.12340E-19         0.00000E+00
    0.10129E-10         0.13970E-19         0.00000E+00
    0.10129E-10         0.74506E-20         0.00000E+00
    0.10129E-10         0.97789E-20         0.00000E+00
    0.10129E-10         0.12573E-19         0.00000E+00
    0.10129E-10         0.23283E-19         0.00000E+00
    0.10129E-10         0.13271E-19         0.00000E+00
    0.10129E-10        -0.34925E-20         0.00000E+00
    0.10129E-10        -0.46566E-20         0.00000E+00
    0.10129E-10        -0.11176E-19         0.00000E+00
    0.10129E-10        -0.37020E-19         0.00000E+00
    0.10129E-10        -0.18626E-19         0.00000E+00
    0.10129E-10        -0.72177E-20         0.00000E+00
    0.10129E-10        -0.76834E-20         0.00000E+00
    0.10129E-10         0.12573E-19         0.00000E+00
    0.10129E-10         0.27474E-19         0.00000E+00
    0.10129E-10         0.18626E-19         0.00000E+00
    0.10129E-10         0.00000E+00         0.00000E+00
    0.10129E-10        -0.14901E-19         0.00000E+00
    0.10129E-10         0.13970E-20         0.00000E+00
    0.10129E-10        -0.10710E-19         0.00000E+00
    0.10129E-10         0.46566E-21         0.00000E+00
    0.10129E-10         0.93132E-21         0.00000E+00
    0.10129E-10        -0.55879E-20         0.00000E+00
    0.10129E-10        -0.69849E-20         0.00000E+00
    0.10129E-10        -0.12573E-19         0.00000E+00
    0.10129E-10        -0.83819E-20         0.00000E+00
    0.10129E-10        -0.23283E-19         0.00000E+00
    0.10129E-10        -0.28173E-19         0.00000E+00
    0.10129E-10        -0.18161E-19         0.00000E+00
    0.10129E-10        -0.23283E-19         0.00000E+00
    0.10129E-10        -0.31199E-19         0.00000E+00
    0.10129E-10        -0.30035E-19         0.00000E+00
    0.10129E-10        -0.22817E-19         0.00000E+00
    0.10129E-10        -0.18626E-20         0.00000E+00
    0.10129E-10        -0.41910E-20         0.00000E+00
    0.10129E-10         0.48894E-20         0.00000E+00
    0.10129E-10         0.93132E-20         0.00000E+00
    0.39759E-10         0.27940E-20         0.00000E+00
    0.39759E-10         0.13970E-20         0.00000E+00
    0.39759E-10         0.18626E-20         0.00000E+00
    0.39759E-10        -0.46566E-20         0.00000E+00
    0.39759E-10         0.13970E-20         0.00000E+00
    0.39759E-10        -0.51223E-20         0.00000E+00
    0.39759E-10        -0.17695E-19         0.00000E+00
    0.39759E-10        -0.25379E-19         0.00000E+00
    0.39759E-10        -0.31665E-19         0.00000E+00
    0.39759E-10        -0.31199E-19         0.00000E+00
    0.39759E-10        -0.20023E-19         0.00000E+00
    0.39759E-10        -0.97789E-20         0.00000E+00
    0.39759E-10        -0.93132E-20         0.00000E+00
    0.39759E-10         0.44238E-20         0.00000E+00
    0.39759E-10         0.18626E-20         0.00000E+00
    0.39759E-10         0.10710E-19         0.00000E+00
    0.39759E-10         0.46566E-20         0.00000E+00
    0.39759E-10         0.23749E-19         0.00000E+00
    0.39759E-10         0.74506E-20         0.00000E+00
    0.39759E-10        -0.44238E-20         0.00000E+00
    0.39759E-10        -0.18161E-19         0.00000E+00
    0.39759E-10        -0.48894E-20         0.00000E+00
    0.39759E-10        -0.36322E-19         0.00000E+00
    0.39759E-10        -0.18161E-19         0.00000E+00
    0.39759E-10        -0.86147E-20         0.00000E+00
    0.39759E-10        -0.62864E-20         0.00000E+00
    0.39759E-10         0.14901E-19         0.00000E+00
    0.39759E-10         0.20722E-19         0.00000E+00
    0.39759E-10        -0.46566E-21         0.00000E+00
    0.39759E-10        -0.32596E-20         0.00000E+00
    0.39759E-10        -0.74506E-20         0.00000E+00
    0.39759E-10         0.13504E-19         0.00000E+00
    0.39759E-10        -0.39581E-20         0.00000E+00
    0.39759E-10         0.46566E-20         0.00000E+00
    0.39759E-10        -0.11642E-20         0.00000E+00
    0.39759E-10        -0.37253E-20         0.00000E+00
    0.39759E-10        -0.69849E-20         0.00000E+00
    0.39759E-10        -0.32596E-20         0.00000E+00
    0.39759E-10        -0.93132E-20         0.00000E+00
    0.39759E-10        -0.20023E-19         0.00000E+00
    0.39759E-10        -0.29104E-19         0.00000E+00
    0.39759E-10        -0.21886E-19         0.00000E+00
    0.39759E-10        -0.24447E-19         0.00000E+00
    0.39759E-10        -0.28871E-19         0.00000E+00
    0.39759E-10        -0.24680E-19         0.00000E+00
    0.39759E-10        -0.22817E-19         0.00000E+00
    0.39759E-10        -0.65193E-20         0.00000E+00
    0.39759E-10        -0.10710E-19         0.00000E+00
    0.39759E-10        -0.46566E-20         0.00000E+00
    0.39759E-10        -0.55879E-20         0.00000E+00
    0.14860E-09         0.65193E-20         0.00000E+00
    0.14860E-09         0.12107E-19         0.00000E+00
    0.14860E-09        -0.46566E-20         0.00000E+00
    0.14860E-09         0.13970E-20         0.00000E+00
    0.14860E-09        -0.20955E-20         0.00000E+00
    0.14860E-09        -0.10710E-19         0.00000E+00
    0.14860E-09        -0.20023E-19         0.00000E+00
    0.14860E-09        -0.24214E-19         0.00000E+00
    0.14860E-09        -0.25379E-19         0.00000E+00
    0.14860E-09        -0.26077E-19         0.00000E+00
    0.14860E-09        -0.25379E-19         0.00000E+00
    0.14860E-09        -0.93132E-20         0.00000E+00
    0.14860E-09        -0.10245E-19         0.00000E+00
    0.14860E-09        -0.46566E-20         0.00000E+00
    0.14860E-09        -0.11642E-19         0.00000E+00
    0.14860E-09         0.37253E-20         0.00000E+00
    0.14860E-09        -0.46566E-21         0.00000E+00
    0.14860E-09         0.88476E-20         0.00000E+00
    0.14860E-09         0.37253E-20         0.00000E+00
    0.14860E-09         0.69849E-21         0.00000E+00
    0.14860E-09        -0.16764E-19         0.00000E+00
    0.14860E-09        -0.88476E-20         0.00000E+00
    0.14860E-09        -0.25611E-19         0.00000E+00
    0.14860E-09        -0.12573E-19         0.00000E+00
    0.14860E-09        -0.27940E-20         0.00000E+00
    0.14860E-09        -0.46566E-21         0.00000E+00
    0.14860E-09         0.51223E-20         0.00000E+00
    0.14860E-09         0.14901E-19         0.00000E+00
    0.14860E-09        -0.13970E-20         0.00000E+00
    0.14860E-09        -0.93132E-21         0.00000E+00
    0.14860E-09        -0.93132E-21         0.00000E+00
    0.14860E-09         0.16298E-19         0.00000E+00
    0.14860E-09         0.10012E-19         0.00000E+00
    0.14860E-09        -0.95461E-20         0.00000E+00
    0.14860E-09         0.93132E-21         0.00000E+00
    0.14860E-09        -0.20955E-20         0.00000E+00
    0.14860E-09        -0.69849E-21         0.00000E+00
    0.14860E-09        -0.83819E-20         0.00000E+00
    0.14860E-09        -0.16298E-19         0.00000E+00
    0.14860E-09        -0.22119E-19         0.00000E+00
    0.14860E-09        -0.24214E-19         0.00000E+00
    0.14860E-09        -0.15367E-19         0.00000E+00
    0.14860E-09        -0.23516E-19         0.00000E+00
    0.14860E-09        -0.33062E-19         0.00000E+00
    0.14860E-09        -0.19558E-19         0.00000E+00
    0.14860E-09        -0.18859E-19         0.00000E+00
    0.14860E-09        -0.55879E-20         0.00000E+00
    0.14860E-09        -0.15367E-19         0.00000E+00
    0.14860E-09        -0.44238E-20         0.00000E+00
    0.14860E-09        -0.83819E-20         0.00000E+00
    0.52542E-09         0.79162E-20         0.00000E+00
    0.52542E-09         0.37253E-20         0.00000E+00
    0.52542E-09        -0.93132E-21         0.00000E+00
    0.52542E-09         0.74506E-20         0.00000E+00
    0.52542E-09        -0.39581E-20         0.00000E+00
    0.52542E-09        -0.22119E-19         0.00000E+00
    0.52542E-09        -0.25611E-19         0.00000E+00
    0.52542E-09        -0.21886E-19         0.00000E+00
    0.52542E-09        -0.28405E-19         0.00000E+00
    0.52542E-09        -0.17695E-19         0.00000E+00
    0.52542E-09        -0.19092E-19         0.00000E+00
    0.52542E-09        -0.48894E-20         0.00000E+00
    0.52542E-09        -0.51223E-20         0.00000E+00
    0.52542E-09         0.93132E-20         0.00000E+00
    0.52542E-09        -0.14901E-19         0.00000E+00
    0.52542E-09         0.37253E-20         0.00000E+00
    0.52542E-09         0.39581E-20         0.00000E+00
    0.52542E-09         0.13039E-19         0.00000E+00
    0.52542E-09         0.10710E-19         0.00000E+00
    0.52542E-09        -0.13970E-20         0.00000E+00
    0.52542E-09        -0.11176E-19         0.00000E+00
    0.52542E-09        -0.13271E-19         0.00000E+00
    0.52542E-09        -0.16764E-19         0.00000E+00
    0.52542E-09        -0.12573E-19         0.00000E+00
    0.52542E-09        -0.10710E-19         0.00000E+00
    0.52542E-09        -0.95461E-20         0.00000E+00
    0.52542E-09         0.20955E-20         0.00000E+00
    0.52542E-09         0.88476E-20         0.00000E+00
    0.52542E-09         0.20955E-20         0.00000E+00
    0.52542E-09        -0.65193E-20         0.00000E+00
    0.52542E-09        -0.46566E-20         0.00000E+00
    0.52542E-09         0.69849E-20         0.00000E+00
    0.52542E-09         0.37253E-20         0.00000E+00
    0.52542E-09        -0.83819E-20         0.00000E+00
    0.52542E-09        -0.69849E-21         0.00000E+00
    0.52542E-09        -0.60536E-20         0.00000E+00
    0.52542E-09        -0.11642E-20         0.00000E+00
    0.52542E-09        -0.37253E-20         0.00000E+00
    0.52542E-09        -0.41910E-20         0.00000E+00
    0.52542E-09        -0.21420E-19         0.00000E+00
    0.52542E-09        -0.24214E-19         0.00000E+00
    0.52542E-09        -0.19558E-19         0.00000E+00
    0.52542E-09        -0.29569E-19         0.00000E+00
    0.52542E-09        -0.28405E-19         0.00000E+00
    0.52542E-09        -0.20955E-19         0.00000E+00
    0.52542E-09        -0.15134E-19         0.00000E+00
    0.52542E-09         0.46566E-21         0.00000E+00
    0.52542E-09        -0.88476E-20         0.00000E+00
    0.52542E-09        -0.39581E-20         0.00000E+00
    0.52542E-09        -0.30268E-20         0.00000E+00
    0.17445E-08         0.41910E-20         0.00000E+00
    0.17445E-08         0.51223E-20         0.00000E+00
    0.17445E-08         0.41910E-20         0.00000E+00
    0.17445E-08         0.23283E-20         0.00000E+00
    0.17445E-08        -0.74506E-20         0.00000E+00
    0.17445E-08        -0.28405E-19         0.00000E+00
    0.17445E-08        -0.22119E-19         0.00000E+00
    0.17445E-08        -0.14435E-19         0.00000E+00
    0.17445E-08        -0.32131E-19         0.00000E+00
    0.17445E-08        -0.17695E-19         0.00000E+00
    0.17445E-08        -0.18394E-19         0.00000E+00
    0.17445E-08         0.51223E-20         0.00000E+00
    0.17445E-08        -0.32596E-20         0.00000E+00
    0.17445E-08         0.79162E-20         0.00000E+00
    0.17445E-08        -0.41910E-20         0.00000E+00
    0.17445E-08         0.13504E-19         0.00000E+00
    0.17445E-08         0.13737E-19         0.00000E+00
    0.17445E-08         0.18626E-19         0.00000E+00
    0.17445E-08         0.11176E-19         0.00000E+00
    0.17445E-08        -0.97789E-20         0.00000E+00
    0.17445E-08        -0.20489E-19         0.00000E+00
    0.17445E-08        -0.14901E-19         0.00000E+00
    0.17445E-08        -0.30268E-19         0.00000E+00
    0.17445E-08        -0.97789E-20         0.00000E+00
    0.17445E-08        -0.17695E-19         0.00000E+00
    0.17445E-08        -0.13737E-19         0.00000E+00
    0.17445E-08         0.46566E-21         0.00000E+00
    0.17445E-08         0.46566E-20         0.00000E+00
    0.17445E-08         0.93132E-21         0.00000E+00
    0.17445E-08        -0.88476E-20         0.00000E+00
    0.17445E-08        -0.10710E-19         0.00000E+00
    0.17445E-08         0.13970E-20         0.00000E+00
    0.17445E-08         0.25611E-20         0.00000E+00
    0.17445E-08         0.23283E-20         0.00000E+00
    0.17445E-08         0.65193E-20         0.00000E+00
    0.17445E-08        -0.15367E-19         0.00000E+00
    0.17445E-08        -0.30268E-20         0.00000E+00
    0.17445E-08        -0.37253E-20         0.00000E+00
    0.17445E-08        -0.93132E-20         0.00000E+00
    0.17445E-08        -0.13737E-19         0.00000E+00
    0.17445E-08        -0.31199E-19         0.00000E+00
    0.17445E-08        -0.35390E-19         0.00000E+00
    0.17445E-08        -0.37486E-19         0.00000E+00
    0.17445E-08        -0.25146E-19         0.00000E+00
    0.17445E-08        -0.19558E-19         0.00000E+00
    0.17445E-08        -0.17928E-19         0.00000E+00
    0.17445E-08         0.23283E-20         0.00000E+00
    0.17445E-08        -0.27940E-20         0.00000E+00
    0.17445E-08         0.46566E-21         0.00000E+00
    0.17445E-08        -0.46566E-21         0.00000E+00
    0.53926E-08         0.83819E-20         0.00000E+00
    0.53926E-08         0.83819E-20         0.00000E+00
    0.53926E-08         0.27940E-20         0.00000E+00
    0.53926E-08        -0.27940E-20         0.00000E+00
    0.53926E-08        -0.79162E-20         0.00000E+00
    0.53926E-08        -0.20023E-19         0.00000E+00
    0.53926E-08        -0.20489E-19         0.00000E+00
    0.53926E-08        -0.17695E-19         0.00000E+00
    0.53926E-08        -0.16764E-19         0.00000E+00
    0.53926E-08        -0.16531E-19         0.00000E+00
    0.53926E-08        -0.20489E-19         0.00000E+00
    0.53926E-08         0.51223E-20         0.00000E+00
    0.53926E-08        -0.97789E-20         0.00000E+00
    0.53926E-08         0.69849E-20         0.00000E+00
    0.53926E-08        -0.39581E-20         0.00000E+00
    0.53926E-08         0.22352E-19         0.00000E+00
    0.53926E-08         0.13737E-19         0.00000E+00
    0.53926E-08         0.97789E-20         0.00000E+00
    0.53926E-08         0.18626E-20         0.00000E+00
    0.53926E-08        -0.18161E-19         0.00000E+00
    0.53926E-08        -0.23982E-19         0.00000E+00
    0.53926E-08        -0.23749E-19         0.00000E+00
    0.53926E-08        -0.32131E-19         0.00000E+00
    0.53926E-08        -0.19558E-19         0.00000E+00
    0.53926E-08        -0.11642E-19         0.00000E+00
    0.53926E-08        -0.83819E-20         0.00000E+00
    0.53926E-08         0.46566E-20         0.00000E+00
    0.53926E-08         0.67521E-20         0.00000E+00
    0.53926E-08         0.37253E-20         0.00000E+00
    0.53926E-08        -0.83819E-20         0.00000E+00
    0.53926E-08        -0.10710E-19         0.00000E+00
    0.53926E-08         0.46566E-21         0.00000E+00
    0.53926E-08         0.76834E-20         0.00000E+00
    0.53926E-08        -0.53551E-20         0.00000E+00
    0.53926E-08         0.27940E-20         0.00000E+00
    0.53926E-08        -0.79162E-20         0.00000E+00
    0.53926E-08        -0.13039E-19         0.00000E+00
    0.53926E-08        -0.13039E-19         0.00000E+00
    0.53926E-08        -0.22817E-19         0.00000E+00
    0.53926E-08        -0.15600E-19         0.00000E+00
    0.53926E-08        -0.26543E-19         0.00000E+00
    0.53926E-08        -0.33760E-19         0.00000E+00
    0.53926E-08        -0.25611E-19         0.00000E+00
    0.53926E-08        -0.29337E-19         0.00000E+00
    0.53926E-08        -0.20256E-19         0.00000E+00
    0.53926E-08        -0.12340E-19         0.00000E+00
    0.53926E-08        -0.46566E-20         0.00000E+00
    0.53926E-08        -0.41910E-20         0.00000E+00
    0.53926E-08        -0.27940E-20         0.00000E+00
    0.53926E-08         0.46566E-21         0.00000E+00
    0.15370E-07         0.18626E-20         0.00000E+00
    0.15370E-07         0.23283E-20         0.00000E+00
    0.15370E-07        -0.11642E-20         0.00000E+00
    0.15370E-07         0.32596E-20         0.00000E+00
    0.15370E-07        -0.60536E-20         0.00000E+00
    0.15370E-07        -0.12107E-19         0.00000E+00
    0.15370E-07        -0.22119E-19         0.00000E+00
    0.15370E-07        -0.19558E-19         0.00000E+00
    0.15370E-07        -0.21886E-19         0.00000E+00
    0.15370E-07        -0.16298E-19         0.00000E+00
    0.15370E-07        -0.26543E-19         0.00000E+00
    0.15370E-07         0.23283E-20         0.00000E+00
    0.15370E-07        -0.37253E-20         0.00000E+00
    0.15370E-07         0.15367E-19         0.00000E+00
    0.15370E-07         0.11642E-20         0.00000E+00
    0.15370E-07         0.13039E-19         0.00000E+00
    0.15370E-07         0.74506E-20         0.00000E+00
    0.15370E-07         0.14668E-19         0.00000E+00
    0.15370E-07         0.88476E-20         0.00000E+00
    0.15370E-07        -0.16298E-19         0.00000E+00
    0.15370E-07        -0.24913E-19         0.00000E+00
    0.15370E-07        -0.24214E-19         0.00000E+00
    0.15370E-07        -0.27474E-19         0.00000E+00
    0.15370E-07        -0.27008E-19         0.00000E+00
    0.15370E-07        -0.22585E-19         0.00000E+00
    0.15370E-07        -0.18859E-19         0.00000E+00
    0.15370E-07         0.30268E-20         0.00000E+00
    0.15370E-07         0.69849E-20         0.00000E+00
    0.15370E-07         0.00000E+00         0.00000E+00
    0.15370E-07        -0.13039E-19         0.00000E+00
    0.15370E-07        -0.46566E-20         0.00000E+00
    0.15370E-07         0.11642E-20         0.00000E+00
    0.15370E-07         0.27940E-20         0.00000E+00
    0.15370E-07        -0.10710E-19         0.00000E+00
    0.15370E-07        -0.83819E-20         0.00000E+00
    0.15370E-07        -0.58208E-20         0.00000E+00
    0.15370E-07        -0.15832E-19         0.00000E+00
    0.15370E-07        -0.12107E-19         0.00000E+00
    0.15370E-07        -0.15367E-19         0.00000E+00
    0.15370E-07        -0.23050E-19         0.00000E+00
    0.15370E-07        -0.24913E-19         0.00000E+00
    0.15370E-07        -0.20023E-19         0.00000E+00
    0.15370E-07        -0.26543E-19         0.00000E+00
    0.15370E-07        -0.22352E-19         0.00000E+00
    0.15370E-07        -0.16298E-19         0.00000E+00
    0.15370E-07        -0.11176E-19         0.00000E+00
    0.15370E-07         0.93132E-21         0.00000E+00
    0.15370E-07         0.23283E-20         0.00000E+00
    0.15370E-07        -0.41910E-20         0.00000E+00
    0.15370E-07        -0.67521E-20         0.00000E+00
    0.39960E-07         0.32596E-20         0.00000E+00
    0.39960E-07         0.13039E-19         0.00000E+00
    0.39960E-07        -0.30268E-20         0.00000E+00
    0.39960E-07         0.74506E-20         0.00000E+00
    0.39960E-07        -0.10710E-19         0.00000E+00
    0.39960E-07        -0.16298E-19         0.00000E+00
    0.39960E-07        -0.22585E-19         0.00000E+00
    0.39960E-07        -0.21188E-19         0.00000E+00
    0.39960E-07        -0.39116E-19         0.00000E+00
    0.39960E-07        -0.11176E-19         0.00000E+00
    0.39960E-07        -0.13039E-19         0.00000E+00
    0.39960E-07         0.16298E-20         0.00000E+00
    0.39960E-07         0.34925E-20         0.00000E+00
    0.39960E-07         0.12806E-19         0.00000E+00
    0.39960E-07         0.55879E-20         0.00000E+00
    0.39960E-07         0.55879E-20         0.00000E+00
    0.39960E-07         0.74506E-20         0.00000E+00
    0.39960E-07         0.19791E-19         0.00000E+00
    0.39960E-07         0.10245E-19         0.00000E+00
    0.39960E-07        -0.12107E-19         0.00000E+00
    0.39960E-07        -0.20489E-19         0.00000E+00
    0.39960E-07        -0.20955E-19         0.00000E+00
    0.39960E-07        -0.30268E-19         0.00000E+00
    0.39960E-07        -0.27474E-19         0.00000E+00
    0.39960E-07        -0.24680E-19         0.00000E+00
    0.39960E-07        -0.15832E-19         0.00000E+00
    0.39960E-07        -0.18626E-20         0.00000E+00
    0.39960E-07         0.20722E-19         0.00000E+00
    0.39960E-07         0.97789E-20         0.00000E+00
    0.39960E-07        -0.32596E-20         0.00000E+00
    0.39960E-07        -0.17229E-19         0.00000E+00
    0.39960E-07        -0.37253E-20         0.00000E+00
    0.39960E-07         0.23283E-20         0.00000E+00
    0.39960E-07        -0.11176E-19         0.00000E+00
    0.39960E-07        -0.41910E-20         0.00000E+00
    0.39960E-07        -0.10245E-19         0.00000E+00
    0.39960E-07        -0.14901E-19         0.00000E+00
    0.39960E-07        -0.16764E-19         0.00000E+00
    0.39960E-07        -0.22352E-19         0.00000E+00
    0.39960E-07        -0.22119E-19         0.00000E+00
    0.39960E-07        -0.26776E-19         0.00000E+00
    0.39960E-07        -0.15367E-19         0.00000E+00
    0.39960E-07        -0.36787E-19         0.00000E+00
    0.39960E-07        -0.25611E-19         0.00000E+00
    0.39960E-07        -0.18859E-19         0.00000E+00
    0.39960E-07        -0.10012E-19         0.00000E+00
    0.39960E-07         0.34925E-20         0.00000E+00
    0.39960E-07         0.69849E-21         0.00000E+00
    0.39960E-07        -0.18626E-20         0.00000E+00
    0.39960E-07        -0.44238E-20         0.00000E+00
    0.93663E-07         0.46566E-20         0.00000E+00
    0.93663E-07         0.46566E-20         0.00000E+00
    0.93663E-07         0.74506E-20         0.00000E+00
    0.93663E-07         0.23283E-20         0.00000E+00
    0.93663E-07        -0.10245E-19         0.00000E+00
    0.93663E-07        -0.20955E-19         0.00000E+00
    0.93663E-07        -0.25611E-19         0.00000E+00
    0.93663E-07        -0.32829E-19         0.00000E+00
    0.93663E-07        -0.27008E-19         0.00000E+00
    0.93663E-07        -0.15832E-19         0.00000E+00
    0.93663E-07        -0.20489E-19         0.00000E+00
    0.93663E-07        -0.46566E-20         0.00000E+00
    0.93663E-07        -0.81491E-20         0.00000E+00
    0.93663E-07         0.10245E-19         0.00000E+00
    0.93663E-07         0.53551E-20         0.00000E+00
    0.93663E-07         0.34925E-20         0.00000E+00
    0.93663E-07         0.17229E-19         0.00000E+00
    0.93663E-07         0.22817E-19         0.00000E+00
    0.93663E-07         0.15367E-19         0.00000E+00
    0.93663E-07        -0.46566E-20         0.00000E+00
    0.93663E-07        -0.21420E-19         0.00000E+00
    0.93663E-07        -0.19558E-19         0.00000E+00
    0.93663E-07        -0.30501E-19         0.00000E+00
    0.93663E-07        -0.20023E-19         0.00000E+00
    0.93663E-07        -0.72177E-20         0.00000E+00
    0.93663E-07        -0.79162E-20         0.00000E+00
    0.93663E-07         0.18626E-20         0.00000E+00
    0.93663E-07         0.20023E-19         0.00000E+00
    0.93663E-07         0.13970E-20         0.00000E+00
    0.93663E-07        -0.10943E-19         0.00000E+00
    0.93663E-07        -0.14668E-19         0.00000E+00
    0.93663E-07         0.18626E-20         0.00000E+00
    0.93663E-07         0.46566E-21         0.00000E+00
    0.93663E-07        -0.41910E-20         0.00000E+00
    0.93663E-07        -0.18626E-20         0.00000E+00
    0.93663E-07        -0.12107E-19         0.00000E+00
    0.93663E-07        -0.20489E-19         0.00000E+00
    0.93663E-07        -0.30734E-19         0.00000E+00
    0.93663E-07        -0.24680E-19         0.00000E+00
    0.93663E-07        -0.29337E-19         0.00000E+00
    0.93663E-07        -0.29337E-19         0.00000E+00
    0.93663E-07        -0.16764E-19         0.00000E+00
    0.93663E-07        -0.25611E-19         0.00000E+00
    0.93663E-07        -0.39116E-19         0.00000E+00
    0.93663E-07        -0.21420E-19         0.00000E+00
    0.93663E-07        -0.10943E-19         0.00000E+00
    0.93663E-07        -0.46566E-21         0.00000E+00
    0.93663E-07        -0.51223E-20         0.00000E+00
    0.93663E-07         0.13970E-20         0.00000E+00
    0.93663E-07        -0.46566E-21         0.00000E+00
    0.19552E-06         0.00000E+00         0.00000E+00
    0.19552E-06         0.88476E-20         0.00000E+00
    0.19552E-06         0.16298E-20         0.00000E+00
    0.19552E-06         0.00000E+00         0.00000E+00
    0.19552E-06        -0.55879E-20         0.00000E+00
    0.19552E-06        -0.24680E-19         0.00000E+00
    0.19552E-06        -0.38650E-19         0.00000E+00
    0.19552E-06        -0.20955E-19         0.00000E+00
    0.19552E-06        -0.33993E-19         0.00000E+00
    0.19552E-06        -0.23749E-19         0.00000E+00
    0.19552E-06        -0.27474E-19         0.00000E+00
    0.19552E-06        -0.25611E-20         0.00000E+00
    0.19552E-06        -0.24214E-19         0.00000E+00
    0.19552E-06         0.65193E-20         0.00000E+00
    0.19552E-06         0.62864E-20         0.00000E+00
    0.19552E-06         0.88476E-20         0.00000E+00
    0.19552E-06         0.11176E-19         0.00000E+00
    0.19552E-06         0.20489E-19         0.00000E+00
    0.19552E-06         0.20489E-19         0.00000E+00
    0.19552E-06        -0.13970E-20         0.00000E+00
    0.19552E-06        -0.13039E-19         0.00000E+00
    0.19552E-06        -0.21653E-19         0.00000E+00
    0.19552E-06        -0.29802E-19         0.00000E+00
    0.19552E-06        -0.37253E-20         0.00000E+00
    0.19552E-06        -0.83819E-20         0.00000E+00
    0.19552E-06        -0.11642E-19         0.00000E+00
    0.19552E-06         0.41910E-20         0.00000E+00
    0.19552E-06         0.88476E-20         0.00000E+00
    0.19552E-06        -0.16065E-19         0.00000E+00
    0.19552E-06        -0.14203E-19         0.00000E+00
    0.19552E-06        -0.11642E-19         0.00000E+00
    0.19552E-06        -0.18626E-20         0.00000E+00
    0.19552E-06        -0.48894E-20         0.00000E+00
    0.19552E-06        -0.93132E-21         0.00000E+00
    0.19552E-06        -0.23283E-20         0.00000E+00
    0.19552E-06        -0.14203E-19         0.00000E+00
    0.19552E-06        -0.13271E-19         0.00000E+00
    0.19552E-06        -0.21188E-19         0.00000E+00
    0.19552E-06        -0.97789E-20         0.00000E+00
    0.19552E-06        -0.31199E-19         0.00000E+00
    0.19552E-06        -0.35856E-19         0.00000E+00
    0.19552E-06        -0.23749E-19         0.00000E+00
    0.19552E-06        -0.25146E-19         0.00000E+00
    0.19552E-06        -0.21886E-19         0.00000E+00
    0.19552E-06        -0.22352E-19         0.00000E+00
    0.19552E-06        -0.16065E-19         0.00000E+00
    0.19552E-06         0.44238E-20         0.00000E+00
    0.19552E-06         0.69849E-21         0.00000E+00
    0.19552E-06        -0.53551E-20         0.00000E+00
    0.19552E-06        -0.23283E-20         0.00000E+00
    0.35908E-06         0.88476E-20         0.00000E+00
    0.35908E-06         0.23283E-20         0.00000E+00
    0.35908E-06         0.32596E-20         0.00000E+00
    0.35908E-06        -0.11176E-19         0.00000E+00
    0.35908E-06        -0.93132E-20         0.00000E+00
    0.35908E-06        -0.23749E-19         0.00000E+00
    0.35908E-06        -0.27707E-19         0.00000E+00
    0.35908E-06        -0.27241E-19         0.00000E+00
    0.35908E-06        -0.20955E-19         0.00000E+00
    0.35908E-06        -0.27008E-19         0.00000E+00
    0.35908E-06        -0.14668E-19         0.00000E+00
    0.35908E-06        -0.93132E-20         0.00000E+00
    0.35908E-06        -0.44238E-20         0.00000E+00
    0.35908E-06         0.76834E-20         0.00000E+00
    0.35908E-06        -0.51223E-20         0.00000E+00
    0.35908E-06         0.14435E-19         0.00000E+00
    0.35908E-06         0.14203E-19         0.00000E+00
    0.35908E-06         0.13271E-19         0.00000E+00
    0.35908E-06         0.11642E-19         0.00000E+00
    0.35908E-06        -0.55879E-20         0.00000E+00
    0.35908E-06        -0.13970E-19         0.00000E+00
    0.35908E-06        -0.16298E-19         0.00000E+00
    0.35908E-06        -0.28173E-19         0.00000E+00
    0.35908E-06        -0.27707E-19         0.00000E+00
    0.35908E-06        -0.67521E-20         0.00000E+00
    0.35908E-06        -0.44238E-20         0.00000E+00
    0.35908E-06        -0.86147E-20         0.00000E+00
    0.35908E-06         0.12573E-19         0.00000E+00
    0.35908E-06         0.46566E-20         0.00000E+00
    0.35908E-06        -0.79162E-20         0.00000E+00
    0.35908E-06        -0.93132E-20         0.00000E+00
    0.35908E-06        -0.55879E-20         0.00000E+00
    0.35908E-06        -0.93132E-21         0.00000E+00
    0.35908E-06        -0.74506E-20         0.00000E+00
    0.35908E-06         0.51223E-20         0.00000E+00
    0.35908E-06        -0.46566E-20         0.00000E+00
    0.35908E-06        -0.55879E-20         0.00000E+00
    0.35908E-06        -0.13039E-19         0.00000E+00
    0.35908E-06        -0.86147E-20         0.00000E+00
    0.35908E-06        -0.14435E-19         0.00000E+00
    0.35908E-06        -0.25146E-19         0.00000E+00
    0.35908E-06        -0.30268E-19         0.00000E+00
    0.35908E-06        -0.25611E-19         0.00000E+00
    0.35908E-06        -0.20023E-19         0.00000E+00
    0.35908E-06        -0.13504E-19         0.00000E+00
    0.35908E-06        -0.12573E-19         0.00000E+00
    0.35908E-06        -0.23283E-20         0.00000E+00
    0.35908E-06        -0.46566E-20         0.00000E+00
    0.35908E-06        -0.13970E-20         0.00000E+00
    0.35908E-06         0.13970E-20         0.00000E+00
    0.57347E-06         0.72177E-20         0.00000E+00
    0.57347E-06        -0.16298E-20         0.00000E+00
    0.57347E-06        -0.11758E-19         0.00000E+00
    0.57347E-06        -0.32596E-20         0.00000E+00
    0.57347E-06        -0.15250E-19         0.00000E+00
    0.57347E-06        -0.17695E-19         0.00000E+00
    0.57347E-06        -0.29686E-19         0.00000E+00
    0.57347E-06        -0.26077E-19         0.00000E+00
    0.57347E-06        -0.23632E-19         0.00000E+00
    0.57347E-06        -0.20955E-19         0.00000E+00
    0.57347E-06        -0.15483E-19         0.00000E+00
    0.57347E-06        -0.72177E-20         0.00000E+00
    0.57347E-06        -0.12689E-19         0.00000E+00
    0.57347E-06         0.67521E-20         0.00000E+00
    0.57347E-06        -0.11176E-19         0.00000E+00
    0.57347E-06         0.93132E-21         0.00000E+00
    0.57347E-06         0.10477E-19         0.00000E+00
    0.57347E-06         0.18277E-19         0.00000E+00
    0.57347E-06         0.76834E-20         0.00000E+00
    0.57347E-06        -0.74506E-20         0.00000E+00
    0.57347E-06        -0.16531E-19         0.00000E+00
    0.57347E-06        -0.14435E-19         0.00000E+00
    0.57347E-06        -0.25611E-19         0.00000E+00
    0.57347E-06        -0.25146E-19         0.00000E+00
    0.57347E-06        -0.53551E-20         0.00000E+00
    0.57347E-06        -0.59372E-20         0.00000E+00
    0.57347E-06         0.31432E-20         0.00000E+00
    0.57347E-06         0.18394E-19         0.00000E+00
    0.57347E-06         0.00000E+00         0.00000E+00
    0.57347E-06        -0.18626E-20         0.00000E+00
    0.57347E-06        -0.77998E-20         0.00000E+00
    0.57347E-06         0.10477E-19         0.00000E+00
    0.57347E-06        -0.13970E-20         0.00000E+00
    0.57347E-06         0.36089E-20         0.00000E+00
    0.57347E-06        -0.39581E-20         0.00000E+00
    0.57347E-06        -0.74506E-20         0.00000E+00
    0.57347E-06        -0.11642E-20         0.00000E+00
    0.57347E-06        -0.86147E-20         0.00000E+00
    0.57347E-06        -0.16531E-19         0.00000E+00
    0.57347E-06        -0.22002E-19         0.00000E+00
    0.57347E-06        -0.21188E-19         0.00000E+00
    0.57347E-06        -0.17695E-19         0.00000E+00
    0.57347E-06        -0.21886E-19         0.00000E+00
    0.57347E-06        -0.19325E-19         0.00000E+00
    0.57347E-06        -0.16997E-19         0.00000E+00
    0.57347E-06        -0.10361E-19         0.00000E+00
    0.57347E-06        -0.24447E-20         0.00000E+00
    0.57347E-06        -0.74506E-20         0.00000E+00
    0.57347E-06        -0.71013E-20         0.00000E+00
    0.57347E-06         0.39581E-20         0.00000E+00
    0.78854E-06        -0.93132E-21         0.00000E+00
    0.78854E-06        -0.11642E-21         0.00000E+00
    0.78854E-06        -0.46566E-20         0.00000E+00
    0.78854E-06        -0.18626E-20         0.00000E+00
    0.78854E-06        -0.10012E-19         0.00000E+00
    0.78854E-06        -0.97789E-20         0.00000E+00
    0.78854E-06        -0.25728E-19         0.00000E+00
    0.78854E-06        -0.18161E-19         0.00000E+00
    0.78854E-06        -0.30966E-19         0.00000E+00
    0.78854E-06        -0.11874E-19         0.00000E+00
    0.78854E-06        -0.27008E-19         0.00000E+00
    0.78854E-06        -0.32596E-20         0.00000E+00
    0.78854E-06        -0.83819E-20         0.00000E+00
    0.78854E-06         0.29104E-20         0.00000E+00
    0.78854E-06        -0.68685E-20         0.00000E+00
    0.78854E-06         0.97789E-20         0.00000E+00
    0.78854E-06         0.95461E-20         0.00000E+00
    0.78854E-06         0.90804E-20         0.00000E+00
    0.78854E-06         0.18394E-19         0.00000E+00
    0.78854E-06        -0.46566E-20         0.00000E+00
    0.78854E-06        -0.10245E-19         0.00000E+00
    0.78854E-06        -0.12340E-19         0.00000E+00
    0.78854E-06        -0.17462E-19         0.00000E+00
    0.78854E-06        -0.95461E-20         0.00000E+00
    0.78854E-06        -0.46566E-20         0.00000E+00
    0.78854E-06        -0.39581E-20         0.00000E+00
    0.78854E-06         0.37253E-20         0.00000E+00
    0.78854E-06         0.95461E-20         0.00000E+00
    0.78854E-06         0.23283E-21         0.00000E+00
    0.78854E-06        -0.25611E-20         0.00000E+00
    0.78854E-06        -0.60536E-20         0.00000E+00
    0.78854E-06         0.98953E-20         0.00000E+00
    0.78854E-06         0.10477E-20         0.00000E+00
    0.78854E-06         0.13970E-20         0.00000E+00
    0.78854E-06        -0.48894E-20         0.00000E+00
    0.78854E-06        -0.48894E-20         0.00000E+00
    0.78854E-06        -0.37253E-20         0.00000E+00
    0.78854E-06        -0.10128E-19         0.00000E+00
    0.78854E-06        -0.10943E-19         0.00000E+00
    0.78854E-06        -0.10477E-19         0.00000E+00
    0.78854E-06        -0.22352E-19         0.00000E+00
    0.78854E-06        -0.15250E-19         0.00000E+00
    0.78854E-06        -0.55879E-20         0.00000E+00
    0.78854E-06        -0.13155E-19         0.00000E+00
    0.78854E-06        -0.54715E-20         0.00000E+00
    0.78854E-06        -0.61700E-20         0.00000E+00
    0.78854E-06         0.22119E-20         0.00000E+00
    0.78854E-06        -0.69849E-20         0.00000E+00
    0.78854E-06         0.65193E-20         0.00000E+00
    0.78854E-06        -0.33760E-20         0.00000E+00
    0.92653E-06         0.00000E+00         0.00000E+00
    0.92653E-06         0.37253E-20         0.00000E+00
    0.92653E-06         0.00000E+00         0.00000E+00
    0.92653E-06        -0.37253E-20         0.00000E+00
    0.92653E-06        -0.93132E-21         0.00000E+00
    0.92653E-06        -0.23283E-20         0.00000E+00
    0.92653E-06         0.94296E-20         0.00000E+00
    0.92653E-06        -0.74506E-20         0.00000E+00
    0.92653E-06        -0.13039E-19         0.00000E+00
    0.92653E-06        -0.34925E-19         0.00000E+00
    0.92653E-06         0.14785E-19         0.00000E+00
    0.92653E-06         0.13970E-20         0.00000E+00
    0.92653E-06         0.00000E+00         0.00000E+00
    0.92653E-06         0.32596E-20         0.00000E+00
    0.92653E-06        -0.18626E-20         0.00000E+00
    0.92653E-06         0.60536E-20         0.00000E+00
    0.92653E-06         0.69849E-20         0.00000E+00
    0.92653E-06         0.30734E-19         0.00000E+00
    0.92653E-06        -0.19325E-19         0.00000E+00
    0.92653E-06        -0.46566E-20         0.00000E+00
    0.92653E-06        -0.37253E-20         0.00000E+00
    0.92653E-06        -0.60536E-20         0.00000E+00
    0.92653E-06        -0.83819E-20         0.00000E+00
    0.92653E-06        -0.55879E-20         0.00000E+00
    0.92653E-06        -0.93132E-21         0.00000E+00
    0.92653E-06        -0.93132E-21         0.00000E+00
    0.92653E-06         0.00000E+00         0.00000E+00
    0.92653E-06         0.23283E-20         0.00000E+00
    0.92653E-06         0.93132E-21         0.00000E+00
    0.92653E-06        -0.23283E-20         0.00000E+00
    0.92653E-06        -0.23283E-20         0.00000E+00
    0.92653E-06        -0.17346E-19         0.00000E+00
    0.92653E-06         0.22934E-19         0.00000E+00
    0.92653E-06        -0.23283E-20         0.00000E+00
    0.92653E-06         0.23283E-20         0.00000E+00
    0.92653E-06        -0.13970E-20         0.00000E+00
    0.92653E-06        -0.13970E-20         0.00000E+00
    0.92653E-06        -0.60536E-20         0.00000E+00
    0.92653E-06        -0.46566E-20         0.00000E+00
    0.92653E-06        -0.33644E-19         0.00000E+00
    0.92653E-06        -0.79162E-20         0.00000E+00
    0.92653E-06         0.23749E-19         0.00000E+00
    0.92653E-06         0.00000E+00         0.00000E+00
    0.92653E-06        -0.46566E-20         0.00000E+00
    0.92653E-06        -0.13970E-20         0.00000E+00
    0.92653E-06         0.00000E+00         0.00000E+00
    0.92653E-06         0.51223E-20         0.00000E+00
    0.92653E-06         0.24680E-19         0.00000E+00
    0.92653E-06        -0.22817E-19         0.00000E+00
    0.92653E-06         0.26310E-19         0.00000E+00
POINT_DATA       5151
VECTORS vDarcyNodal double 
    0.61769E-06         0.00000E+00         0.00000E+00
    0.61769E-06         0.00000E+00         0.00000E+00
    0.61769E-06         0.00000E+00         0.00000E+00
    0.61769E-06         0.00000E+00         0.00000E+00
    0.61769E-06         0.00000E+00         0.00000E+00
    0.61769E-06         0.00000E+00         0.00000E+00
    0.61769E-06         0.00000E+00         0.00000E+00
    0.61769E-06         0.00000E+00         0.00000E+00
    0.61769E-06         0.00000E+00         0.00000E+00
    0.61769E-06         0.00000E+00         0.00000E+00
    0.61769E-06         0.00000E+00         0.00000E+00
    0.61769E-06         0.00000E+00         0.00000E+00
    0.61769E-06         0.00000E+00         0.00000E+00
    0.61769E-06         0.00000E+00         0.00000E+00
    0.61769E-06         0.00000E+00         0.00000E+00
    0.61769E-06         0.00000E+00         0.00000E+00
    0.61769E-06         0.00000E+00         0.00000E+00
    0.61769E-06         0.00000E+00         0.00000E+00
    0.61769E-06         0.00000E+00         0.00000E+00
    0.61769E-06         0.00000E+00         0.00000E+00
    0.61769E-06         0.00000E+00         0.00000E+00
    0.61769E-06         0.00000E+00         0.00000E+00
    0.61769E-06         0.00000E+00         0.00000E+00
    0.61769E-06         0.00000E+00         0.00000E+00
    0.61769E-06         0.00000E+00         0.00000E+00
    0.61769E-06         0.00000E+00         0.00000E+00
    0.61769E-06         0.00000E+00         0.00000E+00
    0.61769E-06         0.00000E+00         0.00000E+00
    0.61769E-06         0.00000E+00         0.00000E+00
    0.61769E-06         0.00000E+00         0.00000E+00
    0.61769E-06         0.00000E+00         0.00000E+00
    0.61769E-06         0.00000E+00         0.00000E+00
    0.61769E-06         0.00000E+00         0.00000E+00
    0.61769E-06         0.00000E+00         0.00000E+00
    0.61769E-06         0.00000E+00         0.00000E+00
    0.61769E-06         0.00000E+00         0.00000E+00
    0.61769E-06         0.00000E+00         0.00000E+00
    0.61769E-06         0.00000E+00         0.00000E+00
    0.61769E-06         0.00000E+00         0.00000E+00
    0.61769E-06         0.00000E+00         0.00000E+00
    0.61769E-06         0.00000E+00         0.00000E+00
    0.61769E-06         0.00000E+00         0.00000E+00
    0.61769E-06         0.00000E+00         0.00000E+00
    0.61769E-06         0.00000E+00         0.00000E+00
    0.61769E-06         0.00000E+00         0.00000E+00
    0.61769E-06         0.00000E+00         0.00000E+00
    0.61769E-06         0.00000E+00         0.00000E+00
    0.61769E-06         0.00000E+00         0.00000E+00
    0.61769E-06         0.00000E+00         0.00000E+00
    0.61769E-06         0.00000E+00         0.00000E+00
    0.61769E-06         0.00000E+00         0.00000E+00
    0.57169E-06         0.00000E+00         0.00000E+00
    0.57169E-06        -0.37253E-20         0.00000E+00
    0.57169E-06        -0.37253E-20         0.00000E+00
    0.57169E-06        -0.56221E-21         0.00000E+00
    0.57169E-06         0.37253E-20         0.00000E+00
    0.57169E-06         0.48497E-20         0.00000E+00
    0.57169E-06         0.90278E-35         0.00000E+00
    0.57169E-06        -0.24249E-20         0.00000E+00
    0.57169E-06        -0.74506E-20         0.00000E+00
    0.57169E-06        -0.55879E-20         0.00000E+00
    0.57169E-06        -0.18626E-20         0.00000E+00
    0.57169E-06        -0.42875E-20         0.00000E+00
    0.57169E-06        -0.11176E-19         0.00000E+00
    0.57169E-06        -0.74506E-20         0.00000E+00
    0.57169E-06        -0.94980E-35         0.00000E+00
    0.57169E-06        -0.31631E-20         0.00000E+00
    0.57169E-06        -0.55879E-20         0.00000E+00
    0.57169E-06         0.00000E+00         0.00000E+00
    0.57169E-06         0.74506E-20         0.00000E+00
    0.57169E-06         0.00000E+00         0.00000E+00
    0.57169E-06        -0.37253E-20         0.00000E+00
    0.57169E-06         0.74506E-20         0.00000E+00
    0.57169E-06         0.11176E-19         0.00000E+00
    0.57169E-06         0.68884E-20         0.00000E+00
    0.57169E-06         0.61502E-20         0.00000E+00
    0.57169E-06         0.55879E-20         0.00000E+00
    0.57169E-06         0.36911E-21         0.00000E+00
    0.57169E-06         0.14935E-20         0.00000E+00
    0.57169E-06        -0.18626E-20         0.00000E+00
    0.57169E-06         0.00000E+00         0.00000E+00
    0.57169E-06         0.37253E-20         0.00000E+00
    0.57169E-06         0.93132E-20         0.00000E+00
    0.57169E-06         0.11176E-19         0.00000E+00
    0.57169E-06         0.11176E-19         0.00000E+00
    0.57169E-06         0.74506E-20         0.00000E+00
    0.57169E-06        -0.18626E-20         0.00000E+00
    0.57169E-06        -0.74506E-20         0.00000E+00
    0.57169E-06        -0.37253E-20         0.00000E+00
    0.57169E-06         0.37253E-20         0.00000E+00
    0.57169E-06         0.74506E-20         0.00000E+00
    0.57169E-06         0.56221E-21         0.00000E+00
    0.57169E-06        -0.74506E-20         0.00000E+00
    0.57169E-06         0.13004E-20         0.00000E+00
    0.57169E-06         0.80128E-20         0.00000E+00
    0.57169E-06        -0.24249E-20         0.00000E+00
    0.57169E-06        -0.29871E-20         0.00000E+00
    0.57169E-06        -0.13004E-20         0.00000E+00
    0.57169E-06        -0.31631E-20         0.00000E+00
    0.57169E-06        -0.55879E-20         0.00000E+00
    0.57169E-06         0.56221E-21         0.00000E+00
    0.57169E-06         0.85750E-20         0.00000E+00
    0.45400E-06         0.11176E-19         0.00000E+00
    0.45400E-06         0.14901E-19         0.00000E+00
    0.45400E-06         0.00000E+00         0.00000E+00
    0.45400E-06        -0.16195E-19         0.00000E+00
    0.45400E-06        -0.16764E-19         0.00000E+00
    0.45400E-06        -0.57935E-20         0.00000E+00
    0.45400E-06        -0.74506E-20         0.00000E+00
    0.45400E-06        -0.18989E-19         0.00000E+00
    0.45400E-06        -0.55879E-20         0.00000E+00
    0.45400E-06        -0.18626E-20         0.00000E+00
    0.45400E-06        -0.93132E-20         0.00000E+00
    0.45400E-06         0.14998E-20         0.00000E+00
    0.45400E-06         0.14901E-19         0.00000E+00
    0.45400E-06         0.14901E-19         0.00000E+00
    0.45400E-06         0.12107E-19         0.00000E+00
    0.45400E-06         0.68821E-20         0.00000E+00
    0.45400E-06         0.18626E-20         0.00000E+00
    0.45400E-06         0.00000E+00         0.00000E+00
    0.45400E-06         0.18626E-20         0.00000E+00
    0.45400E-06         0.11176E-19         0.00000E+00
    0.45400E-06         0.11176E-19         0.00000E+00
    0.45400E-06        -0.11176E-19         0.00000E+00
    0.45400E-06        -0.22352E-19         0.00000E+00
    0.45400E-06        -0.18989E-19         0.00000E+00
    0.45400E-06        -0.18264E-19         0.00000E+00
    0.45400E-06        -0.11176E-19         0.00000E+00
    0.45400E-06        -0.11539E-19         0.00000E+00
    0.45400E-06        -0.10813E-19         0.00000E+00
    0.45400E-06        -0.55879E-20         0.00000E+00
    0.45400E-06         0.14901E-19         0.00000E+00
    0.45400E-06         0.27940E-19         0.00000E+00
    0.45400E-06         0.27940E-19         0.00000E+00
    0.45400E-06         0.26077E-19         0.00000E+00
    0.45400E-06         0.93132E-20         0.00000E+00
    0.45400E-06        -0.18626E-20         0.00000E+00
    0.45400E-06        -0.74506E-20         0.00000E+00
    0.45400E-06         0.00000E+00         0.00000E+00
    0.45400E-06         0.93132E-20         0.00000E+00
    0.45400E-06         0.55879E-20         0.00000E+00
    0.45400E-06         0.55879E-20         0.00000E+00
    0.45400E-06         0.78135E-20         0.00000E+00
    0.45400E-06         0.37253E-20         0.00000E+00
    0.45400E-06        -0.11539E-19         0.00000E+00
    0.45400E-06        -0.20126E-19         0.00000E+00
    0.45400E-06        -0.17127E-19         0.00000E+00
    0.45400E-06        -0.11902E-19         0.00000E+00
    0.45400E-06        -0.24311E-20         0.00000E+00
    0.45400E-06        -0.98817E-20         0.00000E+00
    0.45400E-06        -0.93132E-20         0.00000E+00
    0.45400E-06        -0.52250E-20         0.00000E+00
    0.45400E-06        -0.10450E-19         0.00000E+00
    0.31085E-06        -0.14901E-19         0.00000E+00
    0.31085E-06        -0.20027E-19         0.00000E+00
    0.31085E-06        -0.11176E-19         0.00000E+00
    0.31085E-06         0.32632E-20         0.00000E+00
    0.31085E-06        -0.55879E-20         0.00000E+00
    0.31085E-06        -0.12576E-19         0.00000E+00
    0.31085E-06        -0.20489E-19         0.00000E+00
    0.31085E-06        -0.93132E-20         0.00000E+00
    0.31085E-06         0.14901E-19         0.00000E+00
    0.31085E-06         0.33528E-19         0.00000E+00
    0.31085E-06         0.45166E-19         0.00000E+00
    0.31085E-06         0.21890E-19         0.00000E+00
    0.31085E-06        -0.51258E-20         0.00000E+00
    0.31085E-06        -0.69885E-20         0.00000E+00
    0.31085E-06         0.46637E-20         0.00000E+00
    0.31085E-06         0.69885E-20         0.00000E+00
    0.31085E-06         0.37253E-20         0.00000E+00
    0.31085E-06         0.13508E-19         0.00000E+00
    0.31085E-06         0.19558E-19         0.00000E+00
    0.31085E-06         0.79127E-20         0.00000E+00
    0.31085E-06        -0.51258E-20         0.00000E+00
    0.31085E-06        -0.88511E-20         0.00000E+00
    0.31085E-06        -0.88440E-20         0.00000E+00
    0.31085E-06        -0.10245E-19         0.00000E+00
    0.31085E-06        -0.11176E-19         0.00000E+00
    0.31085E-06         0.18626E-20         0.00000E+00
    0.31085E-06         0.13970E-19         0.00000E+00
    0.31085E-06         0.15832E-19         0.00000E+00
    0.31085E-06         0.24677E-19         0.00000E+00
    0.31085E-06         0.21890E-19         0.00000E+00
    0.31085E-06         0.69885E-20         0.00000E+00
    0.31085E-06         0.23248E-20         0.00000E+00
    0.31085E-06         0.65193E-20         0.00000E+00
    0.31085E-06         0.41945E-20         0.00000E+00
    0.31085E-06         0.55879E-20         0.00000E+00
    0.31085E-06        -0.74506E-20         0.00000E+00
    0.31085E-06        -0.28409E-19         0.00000E+00
    0.31085E-06        -0.31665E-19         0.00000E+00
    0.31085E-06        -0.27008E-19         0.00000E+00
    0.31085E-06        -0.23752E-19         0.00000E+00
    0.31085E-06        -0.14432E-19         0.00000E+00
    0.31085E-06        -0.69814E-20         0.00000E+00
    0.31085E-06        -0.18626E-20         0.00000E+00
    0.31085E-06        -0.37253E-20         0.00000E+00
    0.31085E-06        -0.37253E-20         0.00000E+00
    0.31085E-06         0.97754E-20         0.00000E+00
    0.31085E-06         0.13039E-19         0.00000E+00
    0.31085E-06         0.74506E-20         0.00000E+00
    0.31085E-06        -0.18626E-20         0.00000E+00
    0.31085E-06        -0.23248E-20         0.00000E+00
    0.31085E-06         0.37253E-20         0.00000E+00
    0.18487E-06         0.74506E-20         0.00000E+00
    0.18487E-06         0.18626E-20         0.00000E+00
    0.18487E-06        -0.18626E-20         0.00000E+00
    0.18487E-06        -0.12284E-21         0.00000E+00
    0.18487E-06         0.33078E-34         0.00000E+00
    0.18487E-06         0.76963E-20         0.00000E+00
    0.18487E-06         0.29802E-19         0.00000E+00
    0.18487E-06         0.25954E-19         0.00000E+00
    0.18487E-06         0.37253E-20         0.00000E+00
    0.18487E-06        -0.74506E-20         0.00000E+00
    0.18487E-06        -0.37253E-20         0.00000E+00
    0.18487E-06         0.14778E-19         0.00000E+00
    0.18487E-06         0.26077E-19         0.00000E+00
    0.18487E-06         0.18626E-19         0.00000E+00
    0.18487E-06         0.18626E-19         0.00000E+00
    0.18487E-06         0.16887E-19         0.00000E+00
    0.18487E-06         0.93132E-20         0.00000E+00
    0.18487E-06         0.93132E-20         0.00000E+00
    0.18487E-06         0.55879E-20         0.00000E+00
    0.18487E-06        -0.37253E-20         0.00000E+00
    0.18487E-06        -0.11176E-19         0.00000E+00
    0.18487E-06        -0.74506E-20         0.00000E+00
    0.18487E-06         0.37253E-20         0.00000E+00
    0.18487E-06         0.54651E-20         0.00000E+00
    0.18487E-06         0.12230E-19         0.00000E+00
    0.18487E-06         0.21420E-19         0.00000E+00
    0.18487E-06         0.14778E-19         0.00000E+00
    0.18487E-06         0.19855E-20         0.00000E+00
    0.18487E-06        -0.74506E-20         0.00000E+00
    0.18487E-06        -0.11176E-19         0.00000E+00
    0.18487E-06         0.00000E+00         0.00000E+00
    0.18487E-06         0.14901E-19         0.00000E+00
    0.18487E-06         0.74506E-20         0.00000E+00
    0.18487E-06        -0.13039E-19         0.00000E+00
    0.18487E-06        -0.18626E-19         0.00000E+00
    0.18487E-06        -0.13039E-19         0.00000E+00
    0.18487E-06        -0.74506E-20         0.00000E+00
    0.18487E-06         0.18626E-20         0.00000E+00
    0.18487E-06         0.11176E-19         0.00000E+00
    0.18487E-06         0.55879E-20         0.00000E+00
    0.18487E-06        -0.14778E-19         0.00000E+00
    0.18487E-06        -0.15832E-19         0.00000E+00
    0.18487E-06        -0.10367E-19         0.00000E+00
    0.18487E-06        -0.73277E-20         0.00000E+00
    0.18487E-06        -0.29168E-20         0.00000E+00
    0.18487E-06        -0.16078E-19         0.00000E+00
    0.18487E-06        -0.19435E-19         0.00000E+00
    0.18487E-06        -0.10122E-19         0.00000E+00
    0.18487E-06         0.37253E-20         0.00000E+00
    0.18487E-06         0.66421E-20         0.00000E+00
    0.18487E-06        -0.53422E-20         0.00000E+00
    0.96395E-07        -0.74506E-20         0.00000E+00
    0.96395E-07        -0.55879E-20         0.00000E+00
    0.96395E-07         0.57662E-20         0.00000E+00
    0.96395E-07         0.14901E-19         0.00000E+00
    0.96395E-07         0.16586E-19         0.00000E+00
    0.96395E-07         0.11176E-19         0.00000E+00
    0.96395E-07         0.00000E+00         0.00000E+00
    0.96395E-07        -0.37253E-20         0.00000E+00
    0.96395E-07        -0.13039E-19         0.00000E+00
    0.96395E-07        -0.18626E-20         0.00000E+00
    0.96395E-07         0.19736E-19         0.00000E+00
    0.96395E-07        -0.64699E-34         0.00000E+00
    0.96395E-07         0.75302E-21         0.00000E+00
    0.96395E-07         0.18626E-19         0.00000E+00
    0.96395E-07         0.18626E-19         0.00000E+00
    0.96395E-07         0.18626E-19         0.00000E+00
    0.96395E-07         0.20489E-19         0.00000E+00
    0.96395E-07         0.11176E-19         0.00000E+00
    0.96395E-07         0.74506E-20         0.00000E+00
    0.96395E-07         0.74506E-20         0.00000E+00
    0.96395E-07         0.74506E-20         0.00000E+00
    0.96395E-07         0.13039E-19         0.00000E+00
    0.96395E-07         0.74506E-20         0.00000E+00
    0.96395E-07         0.93132E-20         0.00000E+00
    0.96395E-07         0.11176E-19         0.00000E+00
    0.96395E-07         0.37253E-20         0.00000E+00
    0.96395E-07        -0.18626E-20         0.00000E+00
    0.96395E-07        -0.74506E-20         0.00000E+00
    0.96395E-07        -0.74506E-20         0.00000E+00
    0.96395E-07         0.93132E-20         0.00000E+00
    0.96395E-07         0.16764E-19         0.00000E+00
    0.96395E-07        -0.55879E-20         0.00000E+00
    0.96395E-07        -0.11176E-19         0.00000E+00
    0.96395E-07         0.00000E+00         0.00000E+00
    0.96395E-07        -0.55879E-20         0.00000E+00
    0.96395E-07        -0.14901E-19         0.00000E+00
    0.96395E-07        -0.63410E-20         0.00000E+00
    0.96395E-07         0.85602E-20         0.00000E+00
    0.96395E-07         0.16843E-20         0.00000E+00
    0.96395E-07        -0.17830E-21         0.00000E+00
    0.96395E-07         0.37253E-20         0.00000E+00
    0.96395E-07        -0.22352E-19         0.00000E+00
    0.96395E-07        -0.40978E-19         0.00000E+00
    0.96395E-07        -0.29802E-19         0.00000E+00
    0.96395E-07        -0.21242E-19         0.00000E+00
    0.96395E-07        -0.21242E-19         0.00000E+00
    0.96395E-07        -0.16011E-19         0.00000E+00
    0.96395E-07        -0.17873E-19         0.00000E+00
    0.96395E-07        -0.13039E-19         0.00000E+00
    0.96395E-07         0.11096E-20         0.00000E+00
    0.96395E-07         0.59445E-20         0.00000E+00
    0.44541E-07         0.37253E-20         0.00000E+00
    0.44541E-07         0.44546E-20         0.00000E+00
    0.44541E-07         0.18626E-20         0.00000E+00
    0.44541E-07         0.10447E-19         0.00000E+00
    0.44541E-07         0.93132E-20         0.00000E+00
    0.44541E-07        -0.95152E-20         0.00000E+00
    0.44541E-07        -0.16764E-19         0.00000E+00
    0.44541E-07        -0.93132E-20         0.00000E+00
    0.44541E-07        -0.55879E-20         0.00000E+00
    0.44541E-07         0.93132E-21         0.00000E+00
    0.44541E-07         0.72936E-21         0.00000E+00
    0.44541E-07         0.76525E-20         0.00000E+00
    0.44541E-07         0.10974E-19         0.00000E+00
    0.44541E-07         0.10043E-19         0.00000E+00
    0.44541E-07         0.16236E-19         0.00000E+00
    0.44541E-07         0.15103E-19         0.00000E+00
    0.44541E-07         0.22352E-19         0.00000E+00
    0.44541E-07         0.21622E-19         0.00000E+00
    0.44541E-07         0.74506E-20         0.00000E+00
    0.44541E-07        -0.11333E-20         0.00000E+00
    0.44541E-07        -0.20646E-20         0.00000E+00
    0.44541E-07        -0.57899E-20         0.00000E+00
    0.44541E-07        -0.44546E-20         0.00000E+00
    0.44541E-07        -0.46566E-20         0.00000E+00
    0.44541E-07         0.93132E-21         0.00000E+00
    0.44541E-07         0.93132E-20         0.00000E+00
    0.44541E-07         0.12107E-19         0.00000E+00
    0.44541E-07         0.15832E-19         0.00000E+00
    0.44541E-07         0.15631E-19         0.00000E+00
    0.44541E-07         0.29959E-20         0.00000E+00
    0.44541E-07        -0.63173E-20         0.00000E+00
    0.44541E-07        -0.67212E-20         0.00000E+00
    0.44541E-07         0.65193E-20         0.00000E+00
    0.44541E-07         0.11378E-19         0.00000E+00
    0.44541E-07        -0.18626E-20         0.00000E+00
    0.44541E-07        -0.11176E-19         0.00000E+00
    0.44541E-07        -0.14172E-19         0.00000E+00
    0.44541E-07        -0.16764E-19         0.00000E+00
    0.44541E-07        -0.16764E-19         0.00000E+00
    0.44541E-07        -0.85839E-20         0.00000E+00
    0.44541E-07        -0.14699E-19         0.00000E+00
    0.44541E-07        -0.10974E-19         0.00000E+00
    0.44541E-07        -0.11176E-19         0.00000E+00
    0.44541E-07        -0.26077E-19         0.00000E+00
    0.44541E-07        -0.24214E-19         0.00000E+00
    0.44541E-07        -0.12309E-19         0.00000E+00
    0.44541E-07        -0.24920E-35         0.00000E+00
    0.44541E-07        -0.93132E-20         0.00000E+00
    0.44541E-07        -0.55879E-20         0.00000E+00
    0.44541E-07         0.11333E-20         0.00000E+00
    0.44541E-07         0.37253E-20         0.00000E+00
    0.18443E-07         0.27069E-20         0.00000E+00
    0.18443E-07        -0.46566E-20         0.00000E+00
    0.18443E-07        -0.41474E-20         0.00000E+00
    0.18443E-07        -0.37253E-20         0.00000E+00
    0.18443E-07        -0.23718E-20         0.00000E+00
    0.18443E-07        -0.79598E-20         0.00000E+00
    0.18443E-07        -0.11598E-19         0.00000E+00
    0.18443E-07        -0.15323E-19         0.00000E+00
    0.18443E-07        -0.26077E-19         0.00000E+00
    0.18443E-07        -0.18626E-19         0.00000E+00
    0.18443E-07        -0.93132E-20         0.00000E+00
    0.18443E-07        -0.55879E-20         0.00000E+00
    0.18443E-07         0.55879E-20         0.00000E+00
    0.18443E-07         0.18626E-19         0.00000E+00
    0.18443E-07         0.22352E-19         0.00000E+00
    0.18443E-07         0.14901E-19         0.00000E+00
    0.18443E-07         0.13039E-19         0.00000E+00
    0.18443E-07         0.93132E-20         0.00000E+00
    0.18443E-07         0.37253E-20         0.00000E+00
    0.18443E-07        -0.74506E-20         0.00000E+00
    0.18443E-07        -0.16764E-19         0.00000E+00
    0.18443E-07        -0.55879E-20         0.00000E+00
    0.18443E-07         0.55879E-20         0.00000E+00
    0.18443E-07         0.55879E-20         0.00000E+00
    0.18443E-07         0.55879E-20         0.00000E+00
    0.18443E-07         0.11176E-19         0.00000E+00
    0.18443E-07         0.31665E-19         0.00000E+00
    0.18443E-07         0.44703E-19         0.00000E+00
    0.18443E-07         0.24214E-19         0.00000E+00
    0.18443E-07         0.37253E-20         0.00000E+00
    0.18443E-07         0.37253E-20         0.00000E+00
    0.18443E-07        -0.16764E-19         0.00000E+00
    0.18443E-07        -0.37253E-19         0.00000E+00
    0.18443E-07        -0.27940E-19         0.00000E+00
    0.18443E-07        -0.14901E-19         0.00000E+00
    0.18443E-07        -0.18626E-20         0.00000E+00
    0.18443E-07         0.18626E-20         0.00000E+00
    0.18443E-07        -0.18626E-20         0.00000E+00
    0.18443E-07         0.18626E-20         0.00000E+00
    0.18443E-07         0.78727E-20         0.00000E+00
    0.18443E-07         0.74506E-20         0.00000E+00
    0.18443E-07        -0.42213E-21         0.00000E+00
    0.18443E-07        -0.18626E-19         0.00000E+00
    0.18443E-07        -0.27940E-19         0.00000E+00
    0.18443E-07        -0.26077E-19         0.00000E+00
    0.18443E-07        -0.22352E-19         0.00000E+00
    0.18443E-07        -0.15410E-19         0.00000E+00
    0.18443E-07        -0.14901E-19         0.00000E+00
    0.18443E-07        -0.16255E-19         0.00000E+00
    0.18443E-07        -0.37253E-20         0.00000E+00
    0.18443E-07         0.00000E+00         0.00000E+00
    0.69208E-08         0.00000E+00         0.00000E+00
    0.69208E-08        -0.18626E-20         0.00000E+00
    0.69208E-08         0.18626E-20         0.00000E+00
    0.69208E-08         0.42281E-20         0.00000E+00
    0.69208E-08        -0.62818E-34         0.00000E+00
    0.69208E-08        -0.14975E-19         0.00000E+00
    0.69208E-08        -0.27008E-19         0.00000E+00
    0.69208E-08        -0.18124E-19         0.00000E+00
    0.69208E-08        -0.37253E-20         0.00000E+00
    0.69208E-08        -0.74506E-20         0.00000E+00
    0.69208E-08        -0.11176E-19         0.00000E+00
    0.69208E-08        -0.12536E-19         0.00000E+00
    0.69208E-08        -0.13039E-19         0.00000E+00
    0.69208E-08        -0.10245E-19         0.00000E+00
    0.69208E-08        -0.10245E-19         0.00000E+00
    0.69208E-08        -0.60907E-20         0.00000E+00
    0.69208E-08         0.11176E-19         0.00000E+00
    0.69208E-08         0.11176E-19         0.00000E+00
    0.69208E-08        -0.37253E-20         0.00000E+00
    0.69208E-08        -0.74506E-20         0.00000E+00
    0.69208E-08        -0.37253E-20         0.00000E+00
    0.69208E-08        -0.55879E-20         0.00000E+00
    0.69208E-08         0.37253E-20         0.00000E+00
    0.69208E-08         0.11679E-19         0.00000E+00
    0.69208E-08         0.11604E-19         0.00000E+00
    0.69208E-08         0.20489E-19         0.00000E+00
    0.69208E-08         0.20992E-19         0.00000E+00
    0.69208E-08         0.22780E-19         0.00000E+00
    0.69208E-08         0.18626E-19         0.00000E+00
    0.69208E-08         0.93132E-20         0.00000E+00
    0.69208E-08        -0.93132E-20         0.00000E+00
    0.69208E-08        -0.18626E-19         0.00000E+00
    0.69208E-08        -0.74506E-20         0.00000E+00
    0.69208E-08         0.18626E-20         0.00000E+00
    0.69208E-08         0.18626E-20         0.00000E+00
    0.69208E-08        -0.37253E-20         0.00000E+00
    0.69208E-08         0.74506E-20         0.00000E+00
    0.69208E-08         0.14901E-19         0.00000E+00
    0.69208E-08         0.37253E-20         0.00000E+00
    0.69208E-08        -0.37253E-20         0.00000E+00
    0.69208E-08        -0.17267E-19         0.00000E+00
    0.69208E-08        -0.30734E-19         0.00000E+00
    0.69208E-08        -0.19055E-19         0.00000E+00
    0.69208E-08        -0.20992E-19         0.00000E+00
    0.69208E-08        -0.22780E-19         0.00000E+00
    0.69208E-08        -0.20415E-19         0.00000E+00
    0.69208E-08        -0.17267E-19         0.00000E+00
    0.69208E-08        -0.79534E-20         0.00000E+00
    0.69208E-08        -0.37253E-20         0.00000E+00
    0.69208E-08        -0.23655E-20         0.00000E+00
    0.69208E-08        -0.47309E-20         0.00000E+00
    0.23790E-08        -0.27238E-20         0.00000E+00
    0.23790E-08         0.37253E-20         0.00000E+00
    0.23790E-08         0.93132E-20         0.00000E+00
    0.23790E-08         0.74506E-20         0.00000E+00
    0.23790E-08        -0.37253E-20         0.00000E+00
    0.23790E-08        -0.14901E-19         0.00000E+00
    0.23790E-08        -0.13970E-19         0.00000E+00
    0.23790E-08        -0.19057E-19         0.00000E+00
    0.23790E-08        -0.31665E-19         0.00000E+00
    0.23790E-08        -0.17265E-19         0.00000E+00
    0.23790E-08        -0.19127E-19         0.00000E+00
    0.23790E-08        -0.22352E-19         0.00000E+00
    0.23790E-08        -0.14901E-19         0.00000E+00
    0.23790E-08        -0.14901E-19         0.00000E+00
    0.23790E-08        -0.74506E-20         0.00000E+00
    0.23790E-08        -0.74506E-20         0.00000E+00
    0.23790E-08        -0.11176E-19         0.00000E+00
    0.23790E-08        -0.93132E-20         0.00000E+00
    0.23790E-08        -0.37253E-20         0.00000E+00
    0.23790E-08         0.00000E+00         0.00000E+00
    0.23790E-08        -0.13039E-19         0.00000E+00
    0.23790E-08        -0.16764E-19         0.00000E+00
    0.23790E-08        -0.93132E-20         0.00000E+00
    0.23790E-08        -0.37253E-20         0.00000E+00
    0.23790E-08         0.18626E-19         0.00000E+00
    0.23790E-08         0.28440E-19         0.00000E+00
    0.23790E-08         0.74506E-20         0.00000E+00
    0.23790E-08         0.50872E-20         0.00000E+00
    0.23790E-08         0.16764E-19         0.00000E+00
    0.23790E-08         0.14901E-19         0.00000E+00
    0.23790E-08         0.93132E-20         0.00000E+00
    0.23790E-08         0.50074E-21         0.00000E+00
    0.23790E-08        -0.83819E-20         0.00000E+00
    0.23790E-08        -0.12608E-19         0.00000E+00
    0.23790E-08        -0.93132E-20         0.00000E+00
    0.23790E-08        -0.18626E-20         0.00000E+00
    0.23790E-08        -0.93132E-20         0.00000E+00
    0.23790E-08        -0.37253E-20         0.00000E+00
    0.23790E-08         0.74506E-20         0.00000E+00
    0.23790E-08         0.42260E-20         0.00000E+00
    0.23790E-08         0.18626E-20         0.00000E+00
    0.23790E-08         0.93132E-21         0.00000E+00
    0.23790E-08        -0.83819E-20         0.00000E+00
    0.23790E-08        -0.22352E-19         0.00000E+00
    0.23790E-08        -0.31665E-19         0.00000E+00
    0.23790E-08        -0.24715E-19         0.00000E+00
    0.23790E-08         0.00000E+00         0.00000E+00
    0.23790E-08         0.37253E-20         0.00000E+00
    0.23790E-08        -0.55879E-20         0.00000E+00
    0.23790E-08        -0.42260E-20         0.00000E+00
    0.23790E-08        -0.47268E-20         0.00000E+00
    0.75664E-09         0.74506E-20         0.00000E+00
    0.75664E-09         0.55879E-20         0.00000E+00
    0.75664E-09         0.50878E-20         0.00000E+00
    0.75664E-09         0.16764E-19         0.00000E+00
    0.75664E-09         0.60881E-20         0.00000E+00
    0.75664E-09        -0.14901E-19         0.00000E+00
    0.75664E-09        -0.26077E-19         0.00000E+00
    0.75664E-09        -0.31665E-19         0.00000E+00
    0.75664E-09        -0.33528E-19         0.00000E+00
    0.75664E-09        -0.39116E-19         0.00000E+00
    0.75664E-09        -0.29371E-19         0.00000E+00
    0.75664E-09        -0.46566E-20         0.00000E+00
    0.75664E-09        -0.88131E-20         0.00000E+00
    0.75664E-09        -0.16764E-19         0.00000E+00
    0.75664E-09        -0.18626E-19         0.00000E+00
    0.75664E-09        -0.13039E-19         0.00000E+00
    0.75664E-09        -0.37253E-20         0.00000E+00
    0.75664E-09         0.93132E-20         0.00000E+00
    0.75664E-09         0.14901E-19         0.00000E+00
    0.75664E-09        -0.37253E-20         0.00000E+00
    0.75664E-09        -0.22352E-19         0.00000E+00
    0.75664E-09        -0.22352E-19         0.00000E+00
    0.75664E-09        -0.14901E-19         0.00000E+00
    0.75664E-09        -0.11176E-19         0.00000E+00
    0.75664E-09         0.00000E+00         0.00000E+00
    0.75664E-09         0.14901E-19         0.00000E+00
    0.75664E-09         0.22352E-19         0.00000E+00
    0.75664E-09         0.22352E-19         0.00000E+00
    0.75664E-09         0.11176E-19         0.00000E+00
    0.75664E-09        -0.18626E-20         0.00000E+00
    0.75664E-09        -0.13039E-19         0.00000E+00
    0.75664E-09        -0.13039E-19         0.00000E+00
    0.75664E-09        -0.74506E-20         0.00000E+00
    0.75664E-09        -0.93132E-20         0.00000E+00
    0.75664E-09        -0.13039E-19         0.00000E+00
    0.75664E-09        -0.55879E-20         0.00000E+00
    0.75664E-09         0.41565E-20         0.00000E+00
    0.75664E-09        -0.32941E-20         0.00000E+00
    0.75664E-09        -0.78818E-20         0.00000E+00
    0.75664E-09        -0.11607E-19         0.00000E+00
    0.75664E-09        -0.22352E-19         0.00000E+00
    0.75664E-09        -0.18626E-19         0.00000E+00
    0.75664E-09        -0.93132E-20         0.00000E+00
    0.75664E-09        -0.14901E-19         0.00000E+00
    0.75664E-09        -0.88820E-20         0.00000E+00
    0.75664E-09        -0.70194E-20         0.00000E+00
    0.75664E-09        -0.50878E-20         0.00000E+00
    0.75664E-09        -0.50878E-20         0.00000E+00
    0.75664E-09        -0.93132E-20         0.00000E+00
    0.75664E-09        -0.23628E-20         0.00000E+00
    0.75664E-09        -0.10002E-20         0.00000E+00
    0.22467E-09         0.37253E-20         0.00000E+00
    0.22467E-09         0.74506E-20         0.00000E+00
    0.22467E-09         0.93132E-20         0.00000E+00
    0.22467E-09         0.11176E-19         0.00000E+00
    0.22467E-09         0.60879E-20         0.00000E+00
    0.22467E-09        -0.88818E-20         0.00000E+00
    0.22467E-09        -0.24283E-19         0.00000E+00
    0.22467E-09        -0.27440E-19         0.00000E+00
    0.22467E-09        -0.33028E-19         0.00000E+00
    0.22467E-09        -0.39615E-19         0.00000E+00
    0.22467E-09        -0.31665E-19         0.00000E+00
    0.22467E-09        -0.25577E-19         0.00000E+00
    0.22467E-09        -0.22352E-19         0.00000E+00
    0.22467E-09        -0.74506E-20         0.00000E+00
    0.22467E-09        -0.55879E-20         0.00000E+00
    0.22467E-09        -0.98132E-20         0.00000E+00
    0.22467E-09        -0.41567E-20         0.00000E+00
    0.22467E-09         0.49994E-21         0.00000E+00
    0.22467E-09         0.36567E-20         0.00000E+00
    0.22467E-09        -0.88133E-20         0.00000E+00
    0.22467E-09        -0.69506E-20         0.00000E+00
    0.22467E-09        -0.42252E-20         0.00000E+00
    0.22467E-09        -0.12539E-19         0.00000E+00
    0.22467E-09        -0.16264E-19         0.00000E+00
    0.22467E-09        -0.99989E-21         0.00000E+00
    0.22467E-09         0.93132E-21         0.00000E+00
    0.22467E-09        -0.69506E-20         0.00000E+00
    0.22467E-09         0.43138E-21         0.00000E+00
    0.22467E-09         0.74506E-20         0.00000E+00
    0.22467E-09         0.13627E-20         0.00000E+00
    0.22467E-09         0.23626E-20         0.00000E+00
    0.22467E-09         0.99989E-21         0.00000E+00
    0.22467E-09        -0.42252E-20         0.00000E+00
    0.22467E-09        -0.11676E-19         0.00000E+00
    0.22467E-09        -0.60193E-20         0.00000E+00
    0.22467E-09        -0.74506E-20         0.00000E+00
    0.22467E-09        -0.74506E-20         0.00000E+00
    0.22467E-09        -0.74506E-20         0.00000E+00
    0.22467E-09        -0.10245E-19         0.00000E+00
    0.22467E-09        -0.12539E-19         0.00000E+00
    0.22467E-09        -0.18195E-19         0.00000E+00
    0.22467E-09        -0.14470E-19         0.00000E+00
    0.22467E-09        -0.12539E-19         0.00000E+00
    0.22467E-09        -0.18626E-19         0.00000E+00
    0.22467E-09        -0.24714E-19         0.00000E+00
    0.22467E-09        -0.22352E-19         0.00000E+00
    0.22467E-09        -0.11176E-19         0.00000E+00
    0.22467E-09        -0.37253E-20         0.00000E+00
    0.22467E-09        -0.22940E-20         0.00000E+00
    0.22467E-09        -0.23626E-20         0.00000E+00
    0.22467E-09         0.73135E-20         0.00000E+00
    0.62786E-10         0.11176E-19         0.00000E+00
    0.62786E-10         0.14312E-20         0.00000E+00
    0.62786E-10        -0.93132E-21         0.00000E+00
    0.62786E-10        -0.49990E-21         0.00000E+00
    0.62786E-10        -0.13039E-19         0.00000E+00
    0.62786E-10        -0.27440E-19         0.00000E+00
    0.62786E-10        -0.31665E-19         0.00000E+00
    0.62786E-10        -0.37253E-19         0.00000E+00
    0.62786E-10        -0.33528E-19         0.00000E+00
    0.62786E-10        -0.29802E-19         0.00000E+00
    0.62786E-10        -0.25577E-19         0.00000E+00
    0.62786E-10        -0.98131E-20         0.00000E+00
    0.62786E-10        -0.13470E-19         0.00000E+00
    0.62786E-10        -0.15333E-19         0.00000E+00
    0.62786E-10        -0.93817E-20         0.00000E+00
    0.62786E-10        -0.51565E-20         0.00000E+00
    0.62786E-10        -0.18626E-20         0.00000E+00
    0.62786E-10         0.50880E-20         0.00000E+00
    0.62786E-10         0.27940E-20         0.00000E+00
    0.62786E-10        -0.22941E-20         0.00000E+00
    0.62786E-10        -0.69507E-20         0.00000E+00
    0.62786E-10        -0.10676E-19         0.00000E+00
    0.62786E-10        -0.11676E-19         0.00000E+00
    0.62786E-10        -0.23283E-19         0.00000E+00
    0.62786E-10        -0.20489E-19         0.00000E+00
    0.62786E-10        -0.65193E-20         0.00000E+00
    0.62786E-10         0.00000E+00         0.00000E+00
    0.62786E-10         0.11176E-19         0.00000E+00
    0.62786E-10         0.15401E-19         0.00000E+00
    0.62786E-10         0.13627E-20         0.00000E+00
    0.62786E-10        -0.98131E-20         0.00000E+00
    0.62786E-10        -0.60194E-20         0.00000E+00
    0.62786E-10         0.46566E-20         0.00000E+00
    0.62786E-10         0.50880E-20         0.00000E+00
    0.62786E-10        -0.18626E-20         0.00000E+00
    0.62786E-10        -0.93132E-20         0.00000E+00
    0.62786E-10        -0.20921E-19         0.00000E+00
    0.62786E-10        -0.16764E-19         0.00000E+00
    0.62786E-10        -0.65193E-20         0.00000E+00
    0.62786E-10        -0.19989E-19         0.00000E+00
    0.62786E-10        -0.31234E-19         0.00000E+00
    0.62786E-10        -0.25646E-19         0.00000E+00
    0.62786E-10        -0.20489E-19         0.00000E+00
    0.62786E-10        -0.29802E-19         0.00000E+00
    0.62786E-10        -0.29802E-19         0.00000E+00
    0.62786E-10        -0.10676E-19         0.00000E+00
    0.62786E-10         0.18626E-20         0.00000E+00
    0.62786E-10        -0.37253E-20         0.00000E+00
    0.62786E-10         0.10245E-19         0.00000E+00
    0.62786E-10         0.22941E-20         0.00000E+00
    0.62786E-10        -0.74506E-20         0.00000E+00
    0.16629E-10         0.00000E+00         0.00000E+00
    0.16629E-10         0.37253E-20         0.00000E+00
    0.16629E-10         0.93132E-20         0.00000E+00
    0.16629E-10         0.55879E-20         0.00000E+00
    0.16629E-10        -0.37253E-20         0.00000E+00
    0.16629E-10        -0.13039E-19         0.00000E+00
    0.16629E-10        -0.26077E-19         0.00000E+00
    0.16629E-10        -0.29802E-19         0.00000E+00
    0.16629E-10        -0.29802E-19         0.00000E+00
    0.16629E-10        -0.27940E-19         0.00000E+00
    0.16629E-10        -0.18626E-19         0.00000E+00
    0.16629E-10        -0.11176E-19         0.00000E+00
    0.16629E-10        -0.14901E-19         0.00000E+00
    0.16629E-10        -0.11176E-19         0.00000E+00
    0.16629E-10        -0.74506E-20         0.00000E+00
    0.16629E-10        -0.74506E-20         0.00000E+00
    0.16629E-10         0.00000E+00         0.00000E+00
    0.16629E-10         0.00000E+00         0.00000E+00
    0.16629E-10         0.10176E-19         0.00000E+00
    0.16629E-10        -0.18626E-20         0.00000E+00
    0.16629E-10        -0.19489E-19         0.00000E+00
    0.16629E-10        -0.18626E-19         0.00000E+00
    0.16629E-10        -0.18626E-19         0.00000E+00
    0.16629E-10        -0.18626E-19         0.00000E+00
    0.16629E-10        -0.37253E-20         0.00000E+00
    0.16629E-10        -0.74506E-20         0.00000E+00
    0.16629E-10        -0.93132E-20         0.00000E+00
    0.16629E-10         0.93132E-20         0.00000E+00
    0.16629E-10         0.55879E-20         0.00000E+00
    0.16629E-10        -0.55879E-20         0.00000E+00
    0.16629E-10        -0.14901E-19         0.00000E+00
    0.16629E-10        -0.11176E-19         0.00000E+00
    0.16629E-10        -0.37253E-20         0.00000E+00
    0.16629E-10         0.00000E+00         0.00000E+00
    0.16629E-10         0.37253E-20         0.00000E+00
    0.16629E-10         0.00000E+00         0.00000E+00
    0.16629E-10        -0.93132E-20         0.00000E+00
    0.16629E-10        -0.18626E-19         0.00000E+00
    0.16629E-10        -0.20489E-19         0.00000E+00
    0.16629E-10        -0.20489E-19         0.00000E+00
    0.16629E-10        -0.26077E-19         0.00000E+00
    0.16629E-10        -0.31665E-19         0.00000E+00
    0.16629E-10        -0.27940E-19         0.00000E+00
    0.16629E-10        -0.26077E-19         0.00000E+00
    0.16629E-10        -0.13039E-19         0.00000E+00
    0.16629E-10        -0.74506E-20         0.00000E+00
    0.16629E-10        -0.93132E-20         0.00000E+00
    0.16629E-10        -0.74506E-20         0.00000E+00
    0.16629E-10        -0.93132E-20         0.00000E+00
    0.16629E-10        -0.37253E-20         0.00000E+00
    0.16629E-10         0.00000E+00         0.00000E+00
    0.41997E-11         0.73137E-20         0.00000E+00
    0.41997E-11         0.55879E-20         0.00000E+00
    0.41997E-11         0.19311E-20         0.00000E+00
    0.41997E-11        -0.55879E-20         0.00000E+00
    0.41997E-11        -0.75190E-20         0.00000E+00
    0.41997E-11        -0.13107E-19         0.00000E+00
    0.41997E-11        -0.29734E-19         0.00000E+00
    0.41997E-11        -0.33459E-19         0.00000E+00
    0.41997E-11        -0.31665E-19         0.00000E+00
    0.41997E-11        -0.29802E-19         0.00000E+00
    0.41997E-11        -0.24214E-19         0.00000E+00
    0.41997E-11        -0.74506E-20         0.00000E+00
    0.41997E-11         0.00000E+00         0.00000E+00
    0.41997E-11        -0.37253E-20         0.00000E+00
    0.41997E-11         0.00000E+00         0.00000E+00
    0.41997E-11         0.37253E-20         0.00000E+00
    0.41997E-11         0.37253E-20         0.00000E+00
    0.41997E-11         0.11176E-19         0.00000E+00
    0.41997E-11         0.55879E-20         0.00000E+00
    0.41997E-11        -0.93132E-20         0.00000E+00
    0.41997E-11        -0.14901E-19         0.00000E+00
    0.41997E-11        -0.24214E-19         0.00000E+00
    0.41997E-11        -0.27940E-19         0.00000E+00
    0.41997E-11        -0.29802E-19         0.00000E+00
    0.41997E-11        -0.18626E-19         0.00000E+00
    0.41997E-11        -0.37253E-20         0.00000E+00
    0.41997E-11         0.37253E-20         0.00000E+00
    0.41997E-11         0.11176E-19         0.00000E+00
    0.41997E-11         0.37253E-20         0.00000E+00
    0.41997E-11        -0.11176E-19         0.00000E+00
    0.41997E-11        -0.18626E-19         0.00000E+00
    0.41997E-11        -0.16764E-19         0.00000E+00
    0.41997E-11        -0.37253E-20         0.00000E+00
    0.41997E-11        -0.18626E-20         0.00000E+00
    0.41997E-11        -0.37253E-20         0.00000E+00
    0.41997E-11        -0.74506E-20         0.00000E+00
    0.41997E-11        -0.55879E-20         0.00000E+00
    0.41997E-11        -0.37253E-20         0.00000E+00
    0.41997E-11        -0.93132E-20         0.00000E+00
    0.41997E-11        -0.14970E-19         0.00000E+00
    0.41997E-11        -0.24214E-19         0.00000E+00
    0.41997E-11        -0.24146E-19         0.00000E+00
    0.41997E-11        -0.24214E-19         0.00000E+00
    0.41997E-11        -0.26077E-19         0.00000E+00
    0.41997E-11        -0.22352E-19         0.00000E+00
    0.41997E-11        -0.13039E-19         0.00000E+00
    0.41997E-11        -0.75190E-20         0.00000E+00
    0.41997E-11        -0.46566E-20         0.00000E+00
    0.41997E-11        -0.27255E-20         0.00000E+00
    0.41997E-11         0.00000E+00         0.00000E+00
    0.41997E-11         0.00000E+00         0.00000E+00
    0.10167E-11         0.37253E-20         0.00000E+00
    0.10167E-11         0.19311E-20         0.00000E+00
    0.10167E-11        -0.93132E-21         0.00000E+00
    0.10167E-11         0.86288E-21         0.00000E+00
    0.10167E-11        -0.11176E-19         0.00000E+00
    0.10167E-11        -0.28803E-19         0.00000E+00
    0.10167E-11        -0.32528E-19         0.00000E+00
    0.10167E-11        -0.35390E-19         0.00000E+00
    0.10167E-11        -0.39184E-19         0.00000E+00
    0.10167E-11        -0.33596E-19         0.00000E+00
    0.10167E-11        -0.18558E-19         0.00000E+00
    0.10167E-11        -0.11176E-19         0.00000E+00
    0.10167E-11        -0.16832E-19         0.00000E+00
    0.10167E-11        -0.11107E-19         0.00000E+00
    0.10167E-11        -0.37253E-20         0.00000E+00
    0.10167E-11         0.93132E-21         0.00000E+00
    0.10167E-11         0.10313E-19         0.00000E+00
    0.10167E-11         0.19489E-19         0.00000E+00
    0.10167E-11         0.17627E-19         0.00000E+00
    0.10167E-11         0.37253E-20         0.00000E+00
    0.10167E-11        -0.10176E-19         0.00000E+00
    0.10167E-11        -0.10176E-19         0.00000E+00
    0.10167E-11        -0.24214E-19         0.00000E+00
    0.10167E-11        -0.26077E-19         0.00000E+00
    0.10167E-11        -0.11244E-19         0.00000E+00
    0.10167E-11        -0.83819E-20         0.00000E+00
    0.10167E-11        -0.27255E-20         0.00000E+00
    0.10167E-11         0.00000E+00         0.00000E+00
    0.10167E-11        -0.18626E-20         0.00000E+00
    0.10167E-11        -0.75190E-20         0.00000E+00
    0.10167E-11        -0.13039E-19         0.00000E+00
    0.10167E-11        -0.73821E-20         0.00000E+00
    0.10167E-11         0.45882E-20         0.00000E+00
    0.10167E-11        -0.99976E-21         0.00000E+00
    0.10167E-11        -0.37253E-20         0.00000E+00
    0.10167E-11        -0.18626E-20         0.00000E+00
    0.10167E-11        -0.55879E-20         0.00000E+00
    0.10167E-11        -0.92448E-20         0.00000E+00
    0.10167E-11        -0.12970E-19         0.00000E+00
    0.10167E-11        -0.26145E-19         0.00000E+00
    0.10167E-11        -0.35459E-19         0.00000E+00
    0.10167E-11        -0.33528E-19         0.00000E+00
    0.10167E-11        -0.35322E-19         0.00000E+00
    0.10167E-11        -0.33459E-19         0.00000E+00
    0.10167E-11        -0.29802E-19         0.00000E+00
    0.10167E-11        -0.22352E-19         0.00000E+00
    0.10167E-11        -0.19311E-20         0.00000E+00
    0.10167E-11        -0.37937E-20         0.00000E+00
    0.10167E-11        -0.55879E-20         0.00000E+00
    0.10167E-11         0.37253E-20         0.00000E+00
    0.10167E-11         0.74506E-20         0.00000E+00
    0.23700E-12         0.37253E-20         0.00000E+00
    0.23700E-12         0.55879E-20         0.00000E+00
    0.23700E-12         0.00000E+00         0.00000E+00
    0.23700E-12        -0.64508E-20         0.00000E+00
    0.23700E-12        -0.13039E-19         0.00000E+00
    0.23700E-12        -0.23420E-19         0.00000E+00
    0.23700E-12        -0.33528E-19         0.00000E+00
    0.23700E-12        -0.27871E-19         0.00000E+00
    0.23700E-12        -0.29802E-19         0.00000E+00
    0.23700E-12        -0.29802E-19         0.00000E+00
    0.23700E-12        -0.24214E-19         0.00000E+00
    0.23700E-12        -0.13901E-19         0.00000E+00
    0.23700E-12        -0.14901E-19         0.00000E+00
    0.23700E-12        -0.10245E-19         0.00000E+00
    0.23700E-12         0.93132E-21         0.00000E+00
    0.23700E-12         0.27255E-20         0.00000E+00
    0.23700E-12         0.14901E-19         0.00000E+00
    0.23700E-12         0.26077E-19         0.00000E+00
    0.23700E-12         0.20489E-19         0.00000E+00
    0.23700E-12         0.37253E-20         0.00000E+00
    0.23700E-12        -0.93132E-20         0.00000E+00
    0.23700E-12        -0.18626E-19         0.00000E+00
    0.23700E-12        -0.18626E-19         0.00000E+00
    0.23700E-12        -0.23215E-19         0.00000E+00
    0.23700E-12        -0.16832E-19         0.00000E+00
    0.23700E-12        -0.18626E-19         0.00000E+00
    0.23700E-12        -0.13901E-19         0.00000E+00
    0.23700E-12         0.17942E-20         0.00000E+00
    0.23700E-12         0.00000E+00         0.00000E+00
    0.23700E-12        -0.93132E-20         0.00000E+00
    0.23700E-12        -0.93132E-20         0.00000E+00
    0.23700E-12        -0.18626E-20         0.00000E+00
    0.23700E-12        -0.74506E-20         0.00000E+00
    0.23700E-12        -0.74506E-20         0.00000E+00
    0.23700E-12         0.18626E-20         0.00000E+00
    0.23700E-12        -0.74506E-20         0.00000E+00
    0.23700E-12        -0.16764E-19         0.00000E+00
    0.23700E-12        -0.18626E-19         0.00000E+00
    0.23700E-12        -0.18626E-19         0.00000E+00
    0.23700E-12        -0.18626E-19         0.00000E+00
    0.23700E-12        -0.24283E-19         0.00000E+00
    0.23700E-12        -0.31665E-19         0.00000E+00
    0.23700E-12        -0.31597E-19         0.00000E+00
    0.23700E-12        -0.37321E-19         0.00000E+00
    0.23700E-12        -0.28803E-19         0.00000E+00
    0.23700E-12        -0.15696E-19         0.00000E+00
    0.23700E-12        -0.14970E-19         0.00000E+00
    0.23700E-12        -0.75190E-20         0.00000E+00
    0.23700E-12        -0.37253E-20         0.00000E+00
    0.23700E-12         0.17942E-20         0.00000E+00
    0.23700E-12         0.35884E-20         0.00000E+00
    0.53410E-13         0.74506E-20         0.00000E+00
    0.53410E-13         0.64508E-20         0.00000E+00
    0.53410E-13        -0.27940E-20         0.00000E+00
    0.53410E-13        -0.36569E-20         0.00000E+00
    0.53410E-13        -0.11176E-19         0.00000E+00
    0.53410E-13        -0.24214E-19         0.00000E+00
    0.53410E-13        -0.29802E-19         0.00000E+00
    0.53410E-13        -0.31665E-19         0.00000E+00
    0.53410E-13        -0.26145E-19         0.00000E+00
    0.53410E-13        -0.18626E-19         0.00000E+00
    0.53410E-13        -0.18558E-19         0.00000E+00
    0.53410E-13        -0.11176E-19         0.00000E+00
    0.53410E-13        -0.12176E-19         0.00000E+00
    0.53410E-13        -0.16764E-19         0.00000E+00
    0.53410E-13        -0.83135E-20         0.00000E+00
    0.53410E-13        -0.56564E-20         0.00000E+00
    0.53410E-13         0.65193E-20         0.00000E+00
    0.53410E-13         0.18626E-19         0.00000E+00
    0.53410E-13         0.15764E-19         0.00000E+00
    0.53410E-13         0.28624E-20         0.00000E+00
    0.53410E-13        -0.10245E-19         0.00000E+00
    0.53410E-13        -0.14901E-19         0.00000E+00
    0.53410E-13        -0.26077E-19         0.00000E+00
    0.53410E-13        -0.37321E-19         0.00000E+00
    0.53410E-13        -0.20489E-19         0.00000E+00
    0.53410E-13         0.18626E-20         0.00000E+00
    0.53410E-13         0.10313E-19         0.00000E+00
    0.53410E-13         0.83819E-20         0.00000E+00
    0.53410E-13         0.55195E-20         0.00000E+00
    0.53410E-13        -0.86288E-21         0.00000E+00
    0.53410E-13        -0.13039E-19         0.00000E+00
    0.53410E-13        -0.83819E-20         0.00000E+00
    0.53410E-13        -0.17942E-20         0.00000E+00
    0.53410E-13        -0.75190E-20         0.00000E+00
    0.53410E-13        -0.74506E-20         0.00000E+00
    0.53410E-13        -0.55879E-20         0.00000E+00
    0.53410E-13        -0.11244E-19         0.00000E+00
    0.53410E-13        -0.13039E-19         0.00000E+00
    0.53410E-13        -0.16695E-19         0.00000E+00
    0.53410E-13        -0.33459E-19         0.00000E+00
    0.53410E-13        -0.44772E-19         0.00000E+00
    0.53410E-13        -0.40978E-19         0.00000E+00
    0.53410E-13        -0.40910E-19         0.00000E+00
    0.53410E-13        -0.40978E-19         0.00000E+00
    0.53410E-13        -0.35390E-19         0.00000E+00
    0.53410E-13        -0.26077E-19         0.00000E+00
    0.53410E-13        -0.14901E-19         0.00000E+00
    0.53410E-13        -0.11244E-19         0.00000E+00
    0.53410E-13        -0.83819E-20         0.00000E+00
    0.53410E-13        -0.46566E-20         0.00000E+00
    0.53410E-13        -0.13688E-21         0.00000E+00
    0.11676E-13         0.75875E-20         0.00000E+00
    0.11676E-13         0.37253E-20         0.00000E+00
    0.11676E-13         0.00000E+00         0.00000E+00
    0.11676E-13        -0.74506E-20         0.00000E+00
    0.11676E-13        -0.22352E-19         0.00000E+00
    0.11676E-13        -0.35390E-19         0.00000E+00
    0.11676E-13        -0.34459E-19         0.00000E+00
    0.11676E-13        -0.26940E-19         0.00000E+00
    0.11676E-13        -0.24214E-19         0.00000E+00
    0.11676E-13        -0.17764E-19         0.00000E+00
    0.11676E-13        -0.28624E-20         0.00000E+00
    0.11676E-13         0.00000E+00         0.00000E+00
    0.11676E-13        -0.55879E-20         0.00000E+00
    0.11676E-13         0.18626E-20         0.00000E+00
    0.11676E-13         0.55879E-20         0.00000E+00
    0.11676E-13         0.13039E-19         0.00000E+00
    0.11676E-13         0.11176E-19         0.00000E+00
    0.11676E-13         0.00000E+00         0.00000E+00
    0.11676E-13         0.37253E-20         0.00000E+00
    0.11676E-13        -0.55879E-20         0.00000E+00
    0.11676E-13        -0.13039E-19         0.00000E+00
    0.11676E-13        -0.14901E-19         0.00000E+00
    0.11676E-13        -0.22352E-19         0.00000E+00
    0.11676E-13        -0.22352E-19         0.00000E+00
    0.11676E-13        -0.13039E-19         0.00000E+00
    0.11676E-13        -0.16695E-19         0.00000E+00
    0.11676E-13        -0.74506E-20         0.00000E+00
    0.11676E-13         0.73821E-20         0.00000E+00
    0.11676E-13         0.37253E-20         0.00000E+00
    0.11676E-13        -0.37253E-20         0.00000E+00
    0.11676E-13        -0.11176E-19         0.00000E+00
    0.11676E-13        -0.17942E-20         0.00000E+00
    0.11676E-13         0.46566E-20         0.00000E+00
    0.11676E-13        -0.28624E-20         0.00000E+00
    0.11676E-13         0.00000E+00         0.00000E+00
    0.11676E-13        -0.11176E-19         0.00000E+00
    0.11676E-13        -0.22352E-19         0.00000E+00
    0.11676E-13        -0.29802E-19         0.00000E+00
    0.11676E-13        -0.26077E-19         0.00000E+00
    0.11676E-13        -0.24146E-19         0.00000E+00
    0.11676E-13        -0.33528E-19         0.00000E+00
    0.11676E-13        -0.27940E-19         0.00000E+00
    0.11676E-13        -0.27940E-19         0.00000E+00
    0.11676E-13        -0.37253E-19         0.00000E+00
    0.11676E-13        -0.39116E-19         0.00000E+00
    0.11676E-13        -0.37321E-19         0.00000E+00
    0.11676E-13        -0.26077E-19         0.00000E+00
    0.11676E-13        -0.14901E-19         0.00000E+00
    0.11676E-13        -0.11176E-19         0.00000E+00
    0.11676E-13        -0.37937E-20         0.00000E+00
    0.11676E-13        -0.13688E-21         0.00000E+00
    0.24832E-14         0.37253E-20         0.00000E+00
    0.24832E-14         0.93132E-20         0.00000E+00
    0.24832E-14         0.11176E-19         0.00000E+00
    0.24832E-14         0.74506E-20         0.00000E+00
    0.24832E-14        -0.83135E-20         0.00000E+00
    0.24832E-14        -0.23283E-19         0.00000E+00
    0.24832E-14        -0.22420E-19         0.00000E+00
    0.24832E-14        -0.27940E-19         0.00000E+00
    0.24832E-14        -0.40978E-19         0.00000E+00
    0.24832E-14        -0.42841E-19         0.00000E+00
    0.24832E-14        -0.33459E-19         0.00000E+00
    0.24832E-14        -0.12107E-19         0.00000E+00
    0.24832E-14        -0.99976E-21         0.00000E+00
    0.24832E-14         0.14970E-19         0.00000E+00
    0.24832E-14         0.21420E-19         0.00000E+00
    0.24832E-14         0.11039E-19         0.00000E+00
    0.24832E-14         0.17695E-19         0.00000E+00
    0.24832E-14         0.16832E-19         0.00000E+00
    0.24832E-14         0.11176E-19         0.00000E+00
    0.24832E-14        -0.37253E-20         0.00000E+00
    0.24832E-14        -0.18626E-19         0.00000E+00
    0.24832E-14        -0.18626E-19         0.00000E+00
    0.24832E-14        -0.22352E-19         0.00000E+00
    0.24832E-14        -0.29802E-19         0.00000E+00
    0.24832E-14        -0.27940E-19         0.00000E+00
    0.24832E-14        -0.22352E-19         0.00000E+00
    0.24832E-14        -0.14901E-19         0.00000E+00
    0.24832E-14        -0.74506E-20         0.00000E+00
    0.24832E-14        -0.37253E-20         0.00000E+00
    0.24832E-14        -0.55879E-20         0.00000E+00
    0.24832E-14        -0.93132E-20         0.00000E+00
    0.24832E-14        -0.93132E-20         0.00000E+00
    0.24832E-14        -0.74506E-20         0.00000E+00
    0.24832E-14        -0.11176E-19         0.00000E+00
    0.24832E-14        -0.16764E-19         0.00000E+00
    0.24832E-14        -0.14970E-19         0.00000E+00
    0.24832E-14        -0.46566E-20         0.00000E+00
    0.24832E-14        -0.12039E-19         0.00000E+00
    0.24832E-14        -0.22352E-19         0.00000E+00
    0.24832E-14        -0.22352E-19         0.00000E+00
    0.24832E-14        -0.22283E-19         0.00000E+00
    0.24832E-14        -0.22352E-19         0.00000E+00
    0.24832E-14        -0.29871E-19         0.00000E+00
    0.24832E-14        -0.37253E-19         0.00000E+00
    0.24832E-14        -0.35390E-19         0.00000E+00
    0.24832E-14        -0.29802E-19         0.00000E+00
    0.24832E-14        -0.16695E-19         0.00000E+00
    0.24832E-14        -0.65193E-20         0.00000E+00
    0.24832E-14        -0.84503E-20         0.00000E+00
    0.24832E-14         0.17942E-20         0.00000E+00
    0.24832E-14         0.11039E-19         0.00000E+00
    0.51513E-15         0.00000E+00         0.00000E+00
    0.51513E-15         0.18626E-20         0.00000E+00
    0.51513E-15         0.73821E-20         0.00000E+00
    0.51513E-15         0.14901E-19         0.00000E+00
    0.51513E-15         0.13107E-19         0.00000E+00
    0.51513E-15        -0.74506E-20         0.00000E+00
    0.51513E-15        -0.26077E-19         0.00000E+00
    0.51513E-15        -0.26077E-19         0.00000E+00
    0.51513E-15        -0.26077E-19         0.00000E+00
    0.51512E-15        -0.22352E-19         0.00000E+00
    0.51512E-15        -0.21489E-19         0.00000E+00
    0.51512E-15        -0.17695E-19         0.00000E+00
    0.51512E-15        -0.92448E-20         0.00000E+00
    0.51512E-15         0.00000E+00         0.00000E+00
    0.51513E-15         0.37253E-20         0.00000E+00
    0.51513E-15         0.74506E-20         0.00000E+00
    0.51513E-15         0.93132E-20         0.00000E+00
    0.51513E-15         0.13039E-19         0.00000E+00
    0.51513E-15         0.13039E-19         0.00000E+00
    0.51513E-15        -0.55879E-20         0.00000E+00
    0.51513E-15        -0.22352E-19         0.00000E+00
    0.51513E-15        -0.31665E-19         0.00000E+00
    0.51513E-15        -0.33528E-19         0.00000E+00
    0.51513E-15        -0.24214E-19         0.00000E+00
    0.51513E-15        -0.14901E-19         0.00000E+00
    0.51513E-15        -0.14901E-19         0.00000E+00
    0.51513E-15        -0.93132E-20         0.00000E+00
    0.51513E-15         0.37253E-20         0.00000E+00
    0.51513E-15         0.37253E-20         0.00000E+00
    0.51513E-15        -0.93132E-20         0.00000E+00
    0.51513E-15        -0.24214E-19         0.00000E+00
    0.51513E-15        -0.14901E-19         0.00000E+00
    0.51513E-15        -0.37253E-20         0.00000E+00
    0.51513E-15        -0.16764E-19         0.00000E+00
    0.51513E-15        -0.14901E-19         0.00000E+00
    0.51513E-15        -0.93132E-20         0.00000E+00
    0.51513E-15        -0.13107E-19         0.00000E+00
    0.51513E-15        -0.13107E-19         0.00000E+00
    0.51513E-15        -0.12970E-19         0.00000E+00
    0.51513E-15        -0.18558E-19         0.00000E+00
    0.51513E-15        -0.29802E-19         0.00000E+00
    0.51513E-15        -0.22352E-19         0.00000E+00
    0.51513E-15        -0.26077E-19         0.00000E+00
    0.51513E-15        -0.40978E-19         0.00000E+00
    0.51513E-15        -0.39184E-19         0.00000E+00
    0.51513E-15        -0.29871E-19         0.00000E+00
    0.51513E-15        -0.20421E-19         0.00000E+00
    0.51513E-15        -0.20421E-19         0.00000E+00
    0.51513E-15        -0.13039E-19         0.00000E+00
    0.51513E-15        -0.93817E-20         0.00000E+00
    0.51513E-15        -0.11313E-19         0.00000E+00
    0.10447E-15         0.37253E-20         0.00000E+00
    0.10447E-15         0.28624E-20         0.00000E+00
    0.10447E-15         0.28624E-20         0.00000E+00
    0.10447E-15         0.73821E-20         0.00000E+00
    0.10447E-15         0.00000E+00         0.00000E+00
    0.10447E-15        -0.11107E-19         0.00000E+00
    0.10447E-15        -0.11176E-19         0.00000E+00
    0.10447E-15        -0.14038E-19         0.00000E+00
    0.10447E-15        -0.17764E-19         0.00000E+00
    0.10447E-15        -0.19489E-19         0.00000E+00
    0.10447E-15        -0.18626E-19         0.00000E+00
    0.10447E-15        -0.17764E-19         0.00000E+00
    0.10447E-15        -0.16764E-19         0.00000E+00
    0.10447E-15        -0.11107E-19         0.00000E+00
    0.10447E-15        -0.37253E-20         0.00000E+00
    0.10447E-15         0.93132E-21         0.00000E+00
    0.10447E-15         0.65877E-20         0.00000E+00
    0.10447E-15         0.74506E-20         0.00000E+00
    0.10447E-15         0.82450E-20         0.00000E+00
    0.10447E-15         0.37253E-20         0.00000E+00
    0.10447E-15        -0.63824E-20         0.00000E+00
    0.10447E-15        -0.14901E-19         0.00000E+00
    0.10447E-15        -0.28008E-19         0.00000E+00
    0.10446E-15        -0.34459E-19         0.00000E+00
    0.10446E-15        -0.19489E-19         0.00000E+00
    0.10446E-15        -0.55879E-20         0.00000E+00
    0.10446E-15        -0.55879E-20         0.00000E+00
    0.10446E-15        -0.55879E-20         0.00000E+00
    0.10446E-15         0.00000E+00         0.00000E+00
    0.10446E-15        -0.47251E-20         0.00000E+00
    0.10446E-15        -0.12107E-19         0.00000E+00
    0.10446E-15        -0.14833E-19         0.00000E+00
    0.10446E-15        -0.55879E-20         0.00000E+00
    0.10446E-15        -0.93132E-20         0.00000E+00
    0.10446E-15        -0.14901E-19         0.00000E+00
    0.10446E-15        -0.93132E-20         0.00000E+00
    0.10446E-15        -0.55879E-20         0.00000E+00
    0.10446E-15        -0.11176E-19         0.00000E+00
    0.10446E-15        -0.20558E-19         0.00000E+00
    0.10446E-15        -0.26077E-19         0.00000E+00
    0.10446E-15        -0.33459E-19         0.00000E+00
    0.10446E-15        -0.33596E-19         0.00000E+00
    0.10446E-15        -0.29802E-19         0.00000E+00
    0.10446E-15        -0.33459E-19         0.00000E+00
    0.10446E-15        -0.29871E-19         0.00000E+00
    0.10446E-15        -0.22420E-19         0.00000E+00
    0.10446E-15        -0.18626E-19         0.00000E+00
    0.10446E-15        -0.18626E-19         0.00000E+00
    0.10446E-15        -0.18626E-19         0.00000E+00
    0.10446E-15        -0.37253E-20         0.00000E+00
    0.10446E-15         0.74506E-20         0.00000E+00
    0.20751E-16         0.37253E-20         0.00000E+00
    0.20752E-16         0.55879E-20         0.00000E+00
    0.20752E-16         0.00000E+00         0.00000E+00
    0.20753E-16         0.00000E+00         0.00000E+00
    0.20754E-16        -0.27255E-20         0.00000E+00
    0.20753E-16        -0.14970E-19         0.00000E+00
    0.20754E-16        -0.23420E-19         0.00000E+00
    0.20755E-16        -0.26009E-19         0.00000E+00
    0.20755E-16        -0.18558E-19         0.00000E+00
    0.20758E-16        -0.17764E-19         0.00000E+00
    0.20758E-16        -0.16764E-19         0.00000E+00
    0.20758E-16        -0.10176E-19         0.00000E+00
    0.20757E-16        -0.14901E-19         0.00000E+00
    0.20756E-16        -0.14901E-19         0.00000E+00
    0.20757E-16        -0.74506E-20         0.00000E+00
    0.20756E-16        -0.56564E-20         0.00000E+00
    0.20755E-16         0.75190E-20         0.00000E+00
    0.20755E-16         0.21489E-19         0.00000E+00
    0.20755E-16         0.21284E-19         0.00000E+00
    0.20754E-16         0.10313E-19         0.00000E+00
    0.20754E-16         0.68439E-22         0.00000E+00
    0.20754E-16        -0.10313E-19         0.00000E+00
    0.20753E-16        -0.13901E-19         0.00000E+00
    0.20751E-16        -0.15764E-19         0.00000E+00
    0.20750E-16        -0.12244E-19         0.00000E+00
    0.20750E-16        -0.11176E-19         0.00000E+00
    0.20750E-16        -0.64508E-20         0.00000E+00
    0.20749E-16         0.36569E-20         0.00000E+00
    0.20749E-16         0.00000E+00         0.00000E+00
    0.20748E-16        -0.10313E-19         0.00000E+00
    0.20749E-16        -0.18558E-19         0.00000E+00
    0.20748E-16        -0.11970E-19         0.00000E+00
    0.20746E-16        -0.84503E-20         0.00000E+00
    0.20745E-16        -0.47251E-20         0.00000E+00
    0.20744E-16         0.68439E-22         0.00000E+00
    0.20742E-16        -0.13039E-19         0.00000E+00
    0.20743E-16        -0.22352E-19         0.00000E+00
    0.20745E-16        -0.14901E-19         0.00000E+00
    0.20745E-16        -0.11176E-19         0.00000E+00
    0.20744E-16        -0.20421E-19         0.00000E+00
    0.20743E-16        -0.29871E-19         0.00000E+00
    0.20743E-16        -0.26145E-19         0.00000E+00
    0.20743E-16        -0.29734E-19         0.00000E+00
    0.20744E-16        -0.42841E-19         0.00000E+00
    0.20744E-16        -0.44772E-19         0.00000E+00
    0.20746E-16        -0.33528E-19         0.00000E+00
    0.20747E-16        -0.18626E-19         0.00000E+00
    0.20747E-16        -0.14901E-19         0.00000E+00
    0.20747E-16        -0.11107E-19         0.00000E+00
    0.20745E-16        -0.84503E-20         0.00000E+00
    0.20746E-16        -0.58617E-20         0.00000E+00
    0.40364E-17         0.38622E-20         0.00000E+00
    0.40369E-17        -0.18626E-20         0.00000E+00
    0.40368E-17        -0.37253E-20         0.00000E+00
    0.40373E-17         0.00000E+00         0.00000E+00
    0.40377E-17        -0.27940E-20         0.00000E+00
    0.40387E-17        -0.93817E-20         0.00000E+00
    0.40396E-17        -0.22420E-19         0.00000E+00
    0.40396E-17        -0.24214E-19         0.00000E+00
    0.40405E-17        -0.32665E-19         0.00000E+00
    0.40429E-17        -0.31665E-19         0.00000E+00
    0.40443E-17        -0.20421E-19         0.00000E+00
    0.40461E-17        -0.11107E-19         0.00000E+00
    0.40466E-17        -0.74506E-20         0.00000E+00
    0.40457E-17        -0.73821E-20         0.00000E+00
    0.40457E-17        -0.47251E-20         0.00000E+00
    0.40431E-17         0.64508E-20         0.00000E+00
    0.40433E-17         0.13039E-19         0.00000E+00
    0.40434E-17         0.11107E-19         0.00000E+00
    0.40454E-17         0.15901E-19         0.00000E+00
    0.40461E-17         0.84503E-20         0.00000E+00
    0.40473E-17        -0.83135E-20         0.00000E+00
    0.40485E-17        -0.10176E-19         0.00000E+00
    0.40487E-17        -0.15901E-19         0.00000E+00
    0.40489E-17        -0.20489E-19         0.00000E+00
    0.40478E-17        -0.14970E-19         0.00000E+00
    0.40471E-17        -0.18626E-20         0.00000E+00
    0.40473E-17        -0.86288E-21         0.00000E+00
    0.40475E-17         0.79444E-21         0.00000E+00
    0.40456E-17         0.55879E-20         0.00000E+00
    0.40438E-17        -0.74506E-20         0.00000E+00
    0.40433E-17        -0.10245E-19         0.00000E+00
    0.40417E-17         0.19995E-20         0.00000E+00
    0.40408E-17         0.11244E-19         0.00000E+00
    0.40382E-17        -0.19311E-20         0.00000E+00
    0.40391E-17        -0.37253E-20         0.00000E+00
    0.40389E-17        -0.65877E-20         0.00000E+00
    0.40382E-17        -0.17832E-19         0.00000E+00
    0.40358E-17        -0.18558E-19         0.00000E+00
    0.40368E-17        -0.18626E-19         0.00000E+00
    0.40376E-17        -0.19558E-19         0.00000E+00
    0.40353E-17        -0.25146E-19         0.00000E+00
    0.40368E-17        -0.35390E-19         0.00000E+00
    0.40382E-17        -0.33528E-19         0.00000E+00
    0.40387E-17        -0.36253E-19         0.00000E+00
    0.40389E-17        -0.39978E-19         0.00000E+00
    0.40373E-17        -0.35459E-19         0.00000E+00
    0.40372E-17        -0.22352E-19         0.00000E+00
    0.40365E-17        -0.20489E-19         0.00000E+00
    0.40354E-17        -0.11176E-19         0.00000E+00
    0.40346E-17        -0.68439E-22         0.00000E+00
    0.40336E-17        -0.13688E-21         0.00000E+00
    0.76415E-18         0.37253E-20         0.00000E+00
    0.76462E-18         0.37937E-20         0.00000E+00
    0.76368E-18        -0.55879E-20         0.00000E+00
    0.76275E-18        -0.75190E-20         0.00000E+00
    0.76275E-18        -0.74506E-20         0.00000E+00
    0.76512E-18        -0.23215E-19         0.00000E+00
    0.76644E-18        -0.28871E-19         0.00000E+00
    0.76788E-18        -0.29802E-19         0.00000E+00
    0.77024E-18        -0.32596E-19         0.00000E+00
    0.77070E-18        -0.37253E-19         0.00000E+00
    0.77067E-18        -0.38116E-19         0.00000E+00
    0.77160E-18        -0.17764E-19         0.00000E+00
    0.77300E-18        -0.12039E-19         0.00000E+00
    0.77393E-18        -0.11107E-19         0.00000E+00
    0.77300E-18         0.35884E-20         0.00000E+00
    0.77389E-18         0.73821E-20         0.00000E+00
    0.77486E-18         0.74506E-20         0.00000E+00
    0.77436E-18         0.83135E-20         0.00000E+00
    0.77463E-18         0.93132E-20         0.00000E+00
    0.77579E-18         0.47251E-20         0.00000E+00
    0.77647E-18        -0.14833E-19         0.00000E+00
    0.77626E-18        -0.18558E-19         0.00000E+00
    0.77672E-18        -0.14970E-19         0.00000E+00
    0.77627E-18        -0.12107E-19         0.00000E+00
    0.77461E-18        -0.18626E-20         0.00000E+00
    0.77533E-18        -0.93132E-20         0.00000E+00
    0.77484E-18        -0.74506E-20         0.00000E+00
    0.77439E-18         0.83819E-20         0.00000E+00
    0.77255E-18         0.18695E-19         0.00000E+00
    0.77251E-18         0.27255E-20         0.00000E+00
    0.77255E-18        -0.10313E-19         0.00000E+00
    0.77207E-18         0.99976E-21         0.00000E+00
    0.77278E-18         0.83819E-20         0.00000E+00
    0.77300E-18         0.73821E-20         0.00000E+00
    0.77241E-18        -0.18626E-20         0.00000E+00
    0.77242E-18        -0.93132E-20         0.00000E+00
    0.77114E-18        -0.55195E-20         0.00000E+00
    0.77031E-18        -0.93132E-20         0.00000E+00
    0.77067E-18        -0.20489E-19         0.00000E+00
    0.77101E-18        -0.14833E-19         0.00000E+00
    0.77336E-18        -0.26145E-19         0.00000E+00
    0.77253E-18        -0.37321E-19         0.00000E+00
    0.77108E-18        -0.37253E-19         0.00000E+00
    0.77114E-18        -0.48429E-19         0.00000E+00
    0.77067E-18        -0.40978E-19         0.00000E+00
    0.76857E-18        -0.23215E-19         0.00000E+00
    0.76820E-18        -0.14901E-19         0.00000E+00
    0.76811E-18        -0.46566E-20         0.00000E+00
    0.76885E-18        -0.27940E-20         0.00000E+00
    0.76895E-18        -0.68439E-22         0.00000E+00
    0.76834E-18         0.00000E+00         0.00000E+00
    0.13923E-18         0.00000E+00         0.00000E+00
    0.13970E-18         0.17942E-20         0.00000E+00
    0.14016E-18         0.37253E-20         0.00000E+00
    0.14016E-18        -0.79444E-21         0.00000E+00
    0.14106E-18        -0.12107E-19         0.00000E+00
    0.14153E-18        -0.28008E-19         0.00000E+00
    0.14156E-18        -0.35390E-19         0.00000E+00
    0.14249E-18        -0.40978E-19         0.00000E+00
    0.14292E-18        -0.44703E-19         0.00000E+00
    0.14219E-18        -0.35322E-19         0.00000E+00
    0.14203E-18        -0.27940E-19         0.00000E+00
    0.14133E-18        -0.20558E-19         0.00000E+00
    0.14292E-18        -0.16764E-19         0.00000E+00
    0.14346E-18        -0.11176E-19         0.00000E+00
    0.14392E-18        -0.74506E-20         0.00000E+00
    0.14579E-18        -0.86288E-21         0.00000E+00
    0.14665E-18         0.12176E-19         0.00000E+00
    0.14765E-18         0.11107E-19         0.00000E+00
    0.14713E-18         0.11107E-19         0.00000E+00
    0.14761E-18         0.00000E+00         0.00000E+00
    0.14808E-18        -0.11176E-19         0.00000E+00
    0.14855E-18        -0.11107E-19         0.00000E+00
    0.14761E-18        -0.14833E-19         0.00000E+00
    0.14783E-18        -0.14901E-19         0.00000E+00
    0.14878E-18        -0.65877E-20         0.00000E+00
    0.14948E-18        -0.47251E-20         0.00000E+00
    0.14810E-18         0.19311E-20         0.00000E+00
    0.14901E-18         0.14970E-19         0.00000E+00
    0.14994E-18         0.12970E-19         0.00000E+00
    0.15159E-18        -0.56564E-20         0.00000E+00
    0.15202E-18        -0.11176E-19         0.00000E+00
    0.15181E-18         0.18626E-20         0.00000E+00
    0.15227E-18         0.75190E-20         0.00000E+00
    0.15041E-18         0.68439E-22         0.00000E+00
    0.15064E-18        -0.68439E-22         0.00000E+00
    0.14901E-18        -0.68439E-22         0.00000E+00
    0.14855E-18        -0.74506E-20         0.00000E+00
    0.14994E-18        -0.16764E-19         0.00000E+00
    0.14901E-18        -0.20489E-19         0.00000E+00
    0.14808E-18        -0.31597E-19         0.00000E+00
    0.14842E-18        -0.35390E-19         0.00000E+00
    0.14797E-18        -0.26145E-19         0.00000E+00
    0.14744E-18        -0.26077E-19         0.00000E+00
    0.14668E-18        -0.29802E-19         0.00000E+00
    0.14575E-18        -0.29802E-19         0.00000E+00
    0.14529E-18        -0.24146E-19         0.00000E+00
    0.14380E-18        -0.17695E-19         0.00000E+00
    0.14468E-18        -0.26145E-19         0.00000E+00
    0.14594E-18        -0.14901E-19         0.00000E+00
    0.14622E-18         0.17942E-20         0.00000E+00
    0.14622E-18         0.35884E-20         0.00000E+00
    0.25146E-19         0.00000E+00         0.00000E+00
    0.24214E-19         0.00000E+00         0.00000E+00
    0.25111E-19        -0.74506E-20         0.00000E+00
    0.26077E-19        -0.14901E-19         0.00000E+00
    0.27008E-19        -0.14901E-19         0.00000E+00
    0.27474E-19        -0.22352E-19         0.00000E+00
    0.28371E-19        -0.35390E-19         0.00000E+00
    0.27940E-19        -0.37253E-19         0.00000E+00
    0.27508E-19        -0.31665E-19         0.00000E+00
    0.27008E-19        -0.31665E-19         0.00000E+00
    0.27474E-19        -0.33528E-19         0.00000E+00
    0.27508E-19        -0.24214E-19         0.00000E+00
    0.27008E-19        -0.20489E-19         0.00000E+00
    0.26508E-19        -0.16764E-19         0.00000E+00
    0.26741E-19        -0.74506E-20         0.00000E+00
    0.27474E-19        -0.37253E-20         0.00000E+00
    0.29405E-19        -0.18626E-20         0.00000E+00
    0.29337E-19         0.37253E-20         0.00000E+00
    0.30751E-19         0.10108E-19         0.00000E+00
    0.32131E-19        -0.18626E-20         0.00000E+00
    0.32131E-19        -0.17558E-19         0.00000E+00
    0.33062E-19        -0.14901E-19         0.00000E+00
    0.33993E-19        -0.13039E-19         0.00000E+00
    0.33528E-19        -0.18626E-19         0.00000E+00
    0.34476E-19        -0.11176E-19         0.00000E+00
    0.33993E-19        -0.37253E-20         0.00000E+00
    0.34907E-19        -0.93132E-20         0.00000E+00
    0.33993E-19         0.00000E+00         0.00000E+00
    0.35390E-19         0.74506E-20         0.00000E+00
    0.34675E-19        -0.74506E-20         0.00000E+00
    0.34459E-19        -0.11176E-19         0.00000E+00
    0.34907E-19         0.00000E+00         0.00000E+00
    0.35623E-19         0.14901E-19         0.00000E+00
    0.33528E-19         0.14901E-19         0.00000E+00
    0.32721E-19         0.74506E-20         0.00000E+00
    0.32131E-19         0.00000E+00         0.00000E+00
    0.31665E-19        -0.93132E-20         0.00000E+00
    0.31557E-19        -0.11176E-19         0.00000E+00
    0.31665E-19        -0.93132E-20         0.00000E+00
    0.31665E-19        -0.11176E-19         0.00000E+00
    0.30966E-19        -0.29802E-19         0.00000E+00
    0.32006E-19        -0.33528E-19         0.00000E+00
    0.31199E-19        -0.29802E-19         0.00000E+00
    0.32131E-19        -0.39116E-19         0.00000E+00
    0.33295E-19        -0.33528E-19         0.00000E+00
    0.33528E-19        -0.16764E-19         0.00000E+00
    0.33528E-19        -0.93132E-20         0.00000E+00
    0.32131E-19        -0.14901E-19         0.00000E+00
    0.29104E-19        -0.11176E-19         0.00000E+00
    0.29802E-19        -0.37253E-20         0.00000E+00
    0.29802E-19        -0.37253E-20         0.00000E+00
    0.83819E-20         0.34515E-20         0.00000E+00
    0.74164E-20         0.93132E-21         0.00000E+00
    0.74506E-20        -0.26571E-20         0.00000E+00
    0.55879E-20        -0.11176E-19         0.00000E+00
    0.55879E-20        -0.20489E-19         0.00000E+00
    0.65535E-20        -0.33528E-19         0.00000E+00
    0.75190E-20        -0.37253E-19         0.00000E+00
    0.74848E-20        -0.37390E-19         0.00000E+00
    0.97789E-20        -0.41910E-19         0.00000E+00
    0.98131E-20        -0.34322E-19         0.00000E+00
    0.79162E-20        -0.29802E-19         0.00000E+00
    0.69849E-20        -0.16764E-19         0.00000E+00
    0.76834E-20        -0.13039E-19         0.00000E+00
    0.69849E-20        -0.13039E-19         0.00000E+00
    0.60536E-20        -0.11176E-19         0.00000E+00
    0.60194E-20        -0.10381E-19         0.00000E+00
    0.55537E-20        -0.25146E-33         0.00000E+00
    0.46566E-20         0.66561E-20         0.00000E+00
    0.44067E-20        -0.18626E-20         0.00000E+00
    0.51223E-20        -0.74506E-20         0.00000E+00
    0.55879E-20        -0.14901E-19         0.00000E+00
    0.69849E-20        -0.20489E-19         0.00000E+00
    0.76834E-20        -0.20489E-19         0.00000E+00
    0.76834E-20        -0.16764E-19         0.00000E+00
    0.74335E-20        -0.93132E-20         0.00000E+00
    0.93132E-20        -0.74506E-20         0.00000E+00
    0.97960E-20         0.00000E+00         0.00000E+00
    0.83819E-20         0.14901E-19         0.00000E+00
    0.81491E-20         0.14901E-19         0.00000E+00
    0.65193E-20        -0.37253E-20         0.00000E+00
    0.41910E-20        -0.14901E-19         0.00000E+00
    0.35096E-20        -0.18626E-20         0.00000E+00
    0.23112E-20         0.13039E-19         0.00000E+00
    0.37253E-20         0.11176E-19         0.00000E+00
    0.37253E-20         0.93132E-20         0.00000E+00
    0.44238E-20         0.74506E-20         0.00000E+00
    0.55879E-20        -0.55879E-20         0.00000E+00
    0.61615E-20        -0.16764E-19         0.00000E+00
    0.70928E-20        -0.20489E-19         0.00000E+00
    0.88476E-20        -0.30871E-19         0.00000E+00
    0.10370E-19        -0.35390E-19         0.00000E+00
    0.10245E-19        -0.25009E-19         0.00000E+00
    0.11176E-19        -0.27940E-19         0.00000E+00
    0.10943E-19        -0.39116E-19         0.00000E+00
    0.10997E-19        -0.37253E-19         0.00000E+00
    0.11176E-19        -0.26077E-19         0.00000E+00
    0.10800E-19        -0.11176E-19         0.00000E+00
    0.10477E-19        -0.19995E-20         0.00000E+00
    0.10289E-19        -0.46566E-20         0.00000E+00
    0.10943E-19        -0.79444E-21         0.00000E+00
    0.10245E-19         0.37253E-20         0.00000E+00
    0.13039E-19         0.15889E-20         0.00000E+00
    0.12607E-19         0.37253E-20         0.00000E+00
    0.11676E-19         0.29308E-20         0.00000E+00
    0.10245E-19        -0.55879E-20         0.00000E+00
    0.74848E-20        -0.19695E-19         0.00000E+00
    0.55879E-20        -0.30871E-19         0.00000E+00
    0.51223E-20        -0.39910E-19         0.00000E+00
    0.51223E-20        -0.47361E-19         0.00000E+00
    0.32596E-20        -0.42841E-19         0.00000E+00
    0.27940E-20        -0.22352E-19         0.00000E+00
    0.23283E-20        -0.18626E-19         0.00000E+00
    0.23283E-20        -0.22352E-19         0.00000E+00
    0.49988E-21        -0.22352E-19         0.00000E+00
   -0.93132E-21        -0.11176E-19         0.00000E+00
   -0.93132E-21        -0.18626E-20         0.00000E+00
   -0.13628E-20         0.00000E+00         0.00000E+00
   -0.23283E-20         0.55879E-20         0.00000E+00
   -0.11984E-20         0.74506E-20         0.00000E+00
   -0.13970E-20         0.74506E-20         0.00000E+00
   -0.27940E-20        -0.37253E-20         0.00000E+00
   -0.34925E-20        -0.26077E-19         0.00000E+00
   -0.37253E-20        -0.26077E-19         0.00000E+00
   -0.37424E-20        -0.20489E-19         0.00000E+00
   -0.20784E-20        -0.18626E-19         0.00000E+00
   -0.20784E-20        -0.16764E-19         0.00000E+00
   -0.37253E-20        -0.14901E-19         0.00000E+00
   -0.41910E-20        -0.55879E-20         0.00000E+00
   -0.18626E-20         0.93132E-20         0.00000E+00
   -0.48277E-21         0.18626E-19         0.00000E+00
    0.17110E-22         0.93132E-20         0.00000E+00
   -0.46566E-21         0.37253E-20         0.00000E+00
   -0.13970E-20         0.93132E-20         0.00000E+00
   -0.18626E-20         0.13039E-19         0.00000E+00
   -0.18626E-20         0.93132E-20         0.00000E+00
   -0.93132E-21         0.37253E-20         0.00000E+00
    0.57352E-21        -0.93132E-20         0.00000E+00
    0.13970E-20        -0.18626E-19         0.00000E+00
    0.17548E-20        -0.18626E-19         0.00000E+00
    0.23283E-20        -0.22352E-19         0.00000E+00
    0.23283E-20        -0.29008E-19         0.00000E+00
    0.00000E+00        -0.35390E-19         0.00000E+00
    0.00000E+00        -0.36185E-19         0.00000E+00
    0.69849E-21        -0.35390E-19         0.00000E+00
    0.41173E-21        -0.39116E-19         0.00000E+00
   -0.46566E-21        -0.33528E-19         0.00000E+00
   -0.46566E-21        -0.13039E-19         0.00000E+00
    0.13970E-20        -0.75875E-20         0.00000E+00
    0.29373E-20        -0.14901E-19         0.00000E+00
    0.49342E-20        -0.91763E-20         0.00000E+00
    0.45178E-20        -0.18626E-20         0.00000E+00
    0.46566E-20         0.00000E+00         0.00000E+00
    0.83819E-20         0.58617E-20         0.00000E+00
    0.74506E-20         0.74506E-20         0.00000E+00
    0.74506E-20         0.63824E-20         0.00000E+00
    0.65193E-20         0.11313E-19         0.00000E+00
    0.55537E-20         0.65193E-20         0.00000E+00
    0.51223E-20        -0.21557E-19         0.00000E+00
    0.34582E-20        -0.34322E-19         0.00000E+00
    0.13628E-20        -0.26871E-19         0.00000E+00
   -0.11642E-20        -0.30871E-19         0.00000E+00
   -0.69849E-21        -0.30734E-19         0.00000E+00
    0.93132E-21        -0.28871E-19         0.00000E+00
    0.22941E-20        -0.93132E-20         0.00000E+00
    0.43144E-21         0.18626E-20         0.00000E+00
    0.00000E+00        -0.37253E-20         0.00000E+00
   -0.46566E-21        -0.63824E-20         0.00000E+00
    0.00000E+00        -0.47935E-20         0.00000E+00
   -0.46566E-21         0.26571E-20         0.00000E+00
    0.49988E-21         0.00000E+00         0.00000E+00
    0.13970E-20         0.37253E-20         0.00000E+00
    0.13970E-20         0.29308E-20         0.00000E+00
    0.11813E-20        -0.82450E-20         0.00000E+00
   -0.93132E-21        -0.22352E-19         0.00000E+00
   -0.11470E-20        -0.26077E-19         0.00000E+00
   -0.13970E-20        -0.24214E-19         0.00000E+00
   -0.21297E-20        -0.37253E-20         0.00000E+00
   -0.41910E-20         0.37253E-20         0.00000E+00
   -0.41910E-20        -0.93132E-20         0.00000E+00
   -0.46566E-20        -0.37253E-20         0.00000E+00
   -0.48723E-20         0.45197E-20         0.00000E+00
   -0.23283E-20        -0.37253E-20         0.00000E+00
   -0.93132E-21        -0.63824E-20         0.00000E+00
    0.13970E-20         0.55879E-20         0.00000E+00
    0.18626E-20         0.14901E-19         0.00000E+00
    0.23283E-20         0.74506E-20         0.00000E+00
    0.27769E-20        -0.37253E-20         0.00000E+00
    0.18626E-20        -0.85188E-20         0.00000E+00
    0.00000E+00        -0.11176E-19         0.00000E+00
    0.21572E-21        -0.17558E-19         0.00000E+00
   -0.46566E-21        -0.23420E-19         0.00000E+00
   -0.13970E-20        -0.17832E-19         0.00000E+00
   -0.23283E-20        -0.22352E-19         0.00000E+00
   -0.34925E-20        -0.30597E-19         0.00000E+00
   -0.61075E-20        -0.29802E-19         0.00000E+00
   -0.64653E-20        -0.30871E-19         0.00000E+00
   -0.46566E-20        -0.36185E-19         0.00000E+00
   -0.37253E-20        -0.34322E-19         0.00000E+00
   -0.21849E-20        -0.29008E-19         0.00000E+00
   -0.13970E-20        -0.19558E-19         0.00000E+00
   -0.69849E-21        -0.11039E-19         0.00000E+00
   -0.42094E-21        -0.18626E-20         0.00000E+00
   -0.93132E-21         0.00000E+00         0.00000E+00
   -0.51223E-20         0.74506E-20         0.00000E+00
   -0.46566E-20         0.66561E-20         0.00000E+00
   -0.37253E-20         0.74506E-20         0.00000E+00
   -0.27940E-20         0.45197E-20         0.00000E+00
    0.46566E-21        -0.93132E-20         0.00000E+00
    0.18284E-20        -0.21284E-19         0.00000E+00
    0.93132E-21        -0.19421E-19         0.00000E+00
    0.13970E-20        -0.24214E-19         0.00000E+00
    0.27597E-20        -0.34596E-19         0.00000E+00
    0.32254E-20        -0.34596E-19         0.00000E+00
    0.27940E-20        -0.32459E-19         0.00000E+00
    0.18969E-20        -0.22352E-19         0.00000E+00
    0.23625E-20        -0.12244E-19         0.00000E+00
    0.23625E-20        -0.63824E-20         0.00000E+00
    0.49988E-21         0.18626E-20         0.00000E+00
    0.93132E-21         0.00000E+00         0.00000E+00
    0.46566E-21         0.29308E-20         0.00000E+00
   -0.49988E-21         0.26571E-20         0.00000E+00
   -0.23283E-21        -0.10682E-20         0.00000E+00
   -0.18626E-20        -0.74506E-20         0.00000E+00
   -0.23283E-21        -0.13833E-19         0.00000E+00
    0.00000E+00        -0.11970E-19         0.00000E+00
    0.93132E-21        -0.16764E-19         0.00000E+00
    0.46566E-21        -0.13039E-19         0.00000E+00
   -0.21572E-21        -0.66561E-20         0.00000E+00
    0.16298E-20        -0.37253E-20         0.00000E+00
    0.11470E-20         0.10682E-20         0.00000E+00
    0.00000E+00         0.11176E-19         0.00000E+00
   -0.18626E-20         0.74506E-20         0.00000E+00
   -0.18626E-20        -0.12244E-19         0.00000E+00
   -0.27940E-20        -0.14901E-19         0.00000E+00
   -0.20955E-20        -0.26571E-20         0.00000E+00
   -0.23112E-20         0.63824E-20         0.00000E+00
   -0.93132E-21         0.45197E-20         0.00000E+00
   -0.44855E-21         0.37253E-20         0.00000E+00
   -0.59063E-21         0.37253E-20         0.00000E+00
   -0.93132E-21        -0.74506E-20         0.00000E+00
   -0.80635E-21        -0.15696E-19         0.00000E+00
   -0.46566E-21        -0.13833E-19         0.00000E+00
    0.13970E-20        -0.19695E-19         0.00000E+00
    0.23283E-20        -0.23420E-19         0.00000E+00
    0.22204E-20        -0.18626E-19         0.00000E+00
    0.51959E-21        -0.23146E-19         0.00000E+00
   -0.51959E-21        -0.43635E-19         0.00000E+00
   -0.23283E-21        -0.46566E-19         0.00000E+00
   -0.93132E-21        -0.29802E-19         0.00000E+00
   -0.32596E-20        -0.21557E-19         0.00000E+00
   -0.37253E-20        -0.17832E-19         0.00000E+00
   -0.49342E-20        -0.11176E-19         0.00000E+00
   -0.61924E-20        -0.37253E-20         0.00000E+00
   -0.65193E-20        -0.37253E-20         0.00000E+00
   -0.74506E-20         0.00000E+00         0.00000E+00
   -0.65193E-20         0.00000E+00         0.00000E+00
   -0.51223E-20        -0.37253E-20         0.00000E+00
   -0.37253E-20        -0.11176E-19         0.00000E+00
   -0.36911E-20        -0.14901E-19         0.00000E+00
   -0.18626E-20        -0.23146E-19         0.00000E+00
   -0.93132E-21        -0.32733E-19         0.00000E+00
    0.93132E-21        -0.38321E-19         0.00000E+00
    0.96554E-21        -0.39116E-19         0.00000E+00
    0.34220E-22        -0.28871E-19         0.00000E+00
   -0.93132E-21        -0.20352E-19         0.00000E+00
   -0.23625E-20        -0.93132E-20         0.00000E+00
   -0.18969E-20         0.00000E+00         0.00000E+00
   -0.35267E-20         0.55879E-20         0.00000E+00
   -0.28282E-20         0.18626E-20         0.00000E+00
   -0.37253E-20        -0.17258E-20         0.00000E+00
   -0.32938E-20         0.57248E-20         0.00000E+00
   -0.18284E-20         0.45197E-20         0.00000E+00
   -0.18455E-20         0.90395E-20         0.00000E+00
   -0.18626E-20         0.18626E-20         0.00000E+00
   -0.14141E-20        -0.15696E-19         0.00000E+00
   -0.13970E-20        -0.28734E-19         0.00000E+00
   -0.13970E-20        -0.26871E-19         0.00000E+00
   -0.30439E-20        -0.21557E-19         0.00000E+00
   -0.13799E-20        -0.85188E-20         0.00000E+00
   -0.11813E-20        -0.26571E-20         0.00000E+00
   -0.46566E-21         0.10682E-20         0.00000E+00
    0.00000E+00         0.10108E-19         0.00000E+00
   -0.69849E-21         0.15696E-19         0.00000E+00
   -0.18626E-20         0.00000E+00         0.00000E+00
   -0.37253E-20        -0.74506E-20         0.00000E+00
   -0.51052E-20         0.29308E-20         0.00000E+00
   -0.67521E-20         0.74506E-20         0.00000E+00
   -0.83819E-20        -0.10682E-20         0.00000E+00
   -0.83819E-20        -0.37253E-20         0.00000E+00
   -0.81491E-20        -0.55879E-20         0.00000E+00
   -0.74506E-20        -0.11176E-19         0.00000E+00
   -0.75584E-20        -0.22352E-19         0.00000E+00
   -0.77913E-20        -0.31665E-19         0.00000E+00
   -0.69849E-20        -0.29802E-19         0.00000E+00
   -0.65193E-20        -0.27940E-19         0.00000E+00
   -0.59457E-20        -0.22352E-19         0.00000E+00
   -0.41370E-20        -0.18626E-19         0.00000E+00
   -0.48355E-20        -0.26871E-19         0.00000E+00
   -0.59997E-20        -0.28734E-19         0.00000E+00
   -0.53551E-20        -0.22489E-19         0.00000E+00
   -0.36358E-20        -0.15832E-19         0.00000E+00
   -0.27045E-20        -0.10245E-19         0.00000E+00
   -0.16298E-20        -0.13688E-21         0.00000E+00
   -0.93132E-21         0.55879E-20         0.00000E+00
   -0.93132E-21         0.37253E-20         0.00000E+00
   -0.55879E-20        -0.37253E-20         0.00000E+00
   -0.69849E-20        -0.55879E-20         0.00000E+00
   -0.60536E-20        -0.55879E-20         0.00000E+00
   -0.42252E-20        -0.26571E-20         0.00000E+00
   -0.46566E-20        -0.19558E-19         0.00000E+00
   -0.41910E-20        -0.32870E-19         0.00000E+00
   -0.41567E-20        -0.34459E-19         0.00000E+00
   -0.41910E-20        -0.31528E-19         0.00000E+00
   -0.37253E-20        -0.27940E-19         0.00000E+00
   -0.41910E-20        -0.26077E-19         0.00000E+00
   -0.36911E-20        -0.24214E-19         0.00000E+00
   -0.27940E-20        -0.15696E-19         0.00000E+00
   -0.23283E-20        -0.74506E-20         0.00000E+00
   -0.13970E-20        -0.37253E-20         0.00000E+00
    0.00000E+00         0.55879E-20         0.00000E+00
    0.18626E-20         0.79444E-21         0.00000E+00
    0.13970E-20        -0.74506E-20         0.00000E+00
    0.46566E-21        -0.55879E-20         0.00000E+00
   -0.24994E-21         0.00000E+00         0.00000E+00
    0.46566E-21        -0.74506E-20         0.00000E+00
   -0.93132E-21        -0.14901E-19         0.00000E+00
   -0.18626E-20        -0.11176E-19         0.00000E+00
   -0.25611E-20        -0.93132E-20         0.00000E+00
   -0.34925E-20        -0.15696E-19         0.00000E+00
   -0.42081E-20        -0.14107E-19         0.00000E+00
   -0.51223E-20        -0.93132E-20         0.00000E+00
   -0.48894E-20        -0.63824E-20         0.00000E+00
   -0.35096E-20         0.13833E-19         0.00000E+00
   -0.32767E-20         0.18626E-19         0.00000E+00
   -0.23283E-20         0.18626E-20         0.00000E+00
   -0.27940E-20         0.00000E+00         0.00000E+00
   -0.30439E-20         0.13039E-19         0.00000E+00
   -0.30439E-20         0.22352E-19         0.00000E+00
   -0.37253E-20         0.11176E-19         0.00000E+00
   -0.46566E-20         0.37253E-20         0.00000E+00
   -0.58037E-20         0.00000E+00         0.00000E+00
   -0.69849E-20        -0.11176E-19         0.00000E+00
   -0.82740E-20        -0.14901E-19         0.00000E+00
   -0.10477E-19        -0.16764E-19         0.00000E+00
   -0.11642E-19        -0.22352E-19         0.00000E+00
   -0.12107E-19        -0.32733E-19         0.00000E+00
   -0.10710E-19        -0.29802E-19         0.00000E+00
   -0.96539E-20        -0.25009E-19         0.00000E+00
   -0.79162E-20        -0.38321E-19         0.00000E+00
   -0.72717E-20        -0.43635E-19         0.00000E+00
   -0.65732E-20        -0.40704E-19         0.00000E+00
   -0.61430E-20        -0.33664E-19         0.00000E+00
   -0.53551E-20        -0.26214E-19         0.00000E+00
   -0.32149E-20        -0.18626E-19         0.00000E+00
   -0.93132E-21        -0.10381E-19         0.00000E+00
   -0.13970E-20        -0.21364E-20         0.00000E+00
    0.55879E-20         0.53142E-20         0.00000E+00
    0.41910E-20         0.27940E-20         0.00000E+00
    0.27597E-20        -0.12902E-19         0.00000E+00
    0.26705E-21        -0.18626E-19         0.00000E+00
    0.00000E+00        -0.16764E-19         0.00000E+00
   -0.13970E-20        -0.22352E-19         0.00000E+00
   -0.14312E-20        -0.32733E-19         0.00000E+00
   -0.23283E-20        -0.38321E-19         0.00000E+00
   -0.27940E-20        -0.39910E-19         0.00000E+00
   -0.27940E-20        -0.30597E-19         0.00000E+00
   -0.32596E-20        -0.29008E-19         0.00000E+00
   -0.13628E-20        -0.15832E-19         0.00000E+00
   -0.18626E-20        -0.91763E-20         0.00000E+00
   -0.93132E-21        -0.82450E-20         0.00000E+00
   -0.93132E-21        -0.11176E-19         0.00000E+00
    0.23283E-20        -0.10381E-19         0.00000E+00
    0.96554E-21         0.13039E-19         0.00000E+00
    0.46566E-21         0.13833E-19         0.00000E+00
   -0.23283E-20         0.10108E-19         0.00000E+00
   -0.18626E-20         0.47935E-20         0.00000E+00
   -0.37253E-20        -0.63824E-20         0.00000E+00
   -0.37253E-20        -0.16764E-19         0.00000E+00
   -0.28111E-20        -0.18626E-19         0.00000E+00
   -0.20784E-20        -0.12902E-19         0.00000E+00
   -0.32767E-20        -0.13688E-21         0.00000E+00
   -0.44067E-20        -0.50292E-33         0.00000E+00
   -0.51052E-20        -0.82450E-20         0.00000E+00
   -0.58037E-20         0.26571E-20         0.00000E+00
   -0.34753E-20         0.74506E-20         0.00000E+00
   -0.41910E-20        -0.18626E-20         0.00000E+00
   -0.27940E-20        -0.37253E-20         0.00000E+00
   -0.93132E-21         0.47935E-20         0.00000E+00
   -0.23283E-21         0.11176E-19         0.00000E+00
    0.13970E-20         0.82450E-20         0.00000E+00
    0.18626E-20         0.74506E-20         0.00000E+00
    0.32596E-20         0.63824E-20         0.00000E+00
    0.27940E-20         0.00000E+00         0.00000E+00
    0.80635E-21        -0.82450E-20         0.00000E+00
    0.35780E-21        -0.15969E-19         0.00000E+00
    0.46566E-21        -0.20489E-19         0.00000E+00
   -0.46566E-21        -0.32459E-19         0.00000E+00
   -0.46566E-21        -0.34596E-19         0.00000E+00
   -0.93132E-21        -0.30871E-19         0.00000E+00
    0.00000E+00        -0.39910E-19         0.00000E+00
    0.69849E-21        -0.34322E-19         0.00000E+00
   -0.17890E-21        -0.27940E-19         0.00000E+00
   -0.20955E-20        -0.22489E-19         0.00000E+00
   -0.27940E-20        -0.24214E-19         0.00000E+00
   -0.40028E-20        -0.19558E-19         0.00000E+00
   -0.39581E-20        -0.47935E-20         0.00000E+00
   -0.41910E-20         0.00000E+00         0.00000E+00
    0.79162E-20         0.74506E-20         0.00000E+00
    0.93132E-20         0.82450E-20         0.00000E+00
    0.88818E-20         0.13039E-19         0.00000E+00
    0.60536E-20         0.85188E-20         0.00000E+00
    0.50881E-20        -0.74506E-20         0.00000E+00
    0.51223E-20        -0.22352E-19         0.00000E+00
    0.41910E-20        -0.29802E-19         0.00000E+00
    0.27940E-20        -0.26077E-19         0.00000E+00
    0.18626E-20        -0.27145E-19         0.00000E+00
    0.13970E-20        -0.26077E-19         0.00000E+00
    0.93132E-21        -0.28734E-19         0.00000E+00
   -0.49988E-21        -0.22352E-19         0.00000E+00
    0.00000E+00        -0.12244E-19         0.00000E+00
   -0.93132E-21        -0.93132E-20         0.00000E+00
   -0.93132E-21        -0.10108E-19         0.00000E+00
   -0.23283E-20        -0.66561E-20         0.00000E+00
   -0.27940E-20         0.27940E-20         0.00000E+00
   -0.14312E-20         0.10245E-19         0.00000E+00
   -0.13970E-20         0.11970E-19         0.00000E+00
   -0.20955E-20        -0.79444E-21         0.00000E+00
   -0.93132E-21        -0.93132E-20         0.00000E+00
   -0.46566E-21        -0.13039E-19         0.00000E+00
    0.17110E-22        -0.16764E-19         0.00000E+00
    0.46566E-21        -0.14107E-19         0.00000E+00
    0.96554E-21         0.00000E+00         0.00000E+00
    0.23283E-20         0.00000E+00         0.00000E+00
    0.20955E-20        -0.45197E-20         0.00000E+00
    0.46566E-21         0.74506E-20         0.00000E+00
   -0.46566E-21         0.11970E-19         0.00000E+00
   -0.23283E-20        -0.26571E-20         0.00000E+00
   -0.18626E-20        -0.13039E-19         0.00000E+00
   -0.93132E-21        -0.18626E-20         0.00000E+00
   -0.21572E-21         0.10381E-19         0.00000E+00
   -0.18626E-20         0.79444E-21         0.00000E+00
   -0.18626E-20        -0.37253E-20         0.00000E+00
   -0.10563E-20        -0.18626E-20         0.00000E+00
    0.00000E+00         0.79444E-21         0.00000E+00
    0.48277E-21        -0.37253E-20         0.00000E+00
   -0.17110E-22        -0.15696E-19         0.00000E+00
    0.00000E+00        -0.19421E-19         0.00000E+00
    0.00000E+00        -0.27145E-19         0.00000E+00
   -0.46566E-21        -0.26077E-19         0.00000E+00
    0.23283E-21        -0.28734E-19         0.00000E+00
    0.00000E+00        -0.44703E-19         0.00000E+00
    0.17890E-21        -0.42841E-19         0.00000E+00
    0.69849E-21        -0.27940E-19         0.00000E+00
    0.14864E-20        -0.20489E-19         0.00000E+00
    0.13075E-20        -0.18763E-19         0.00000E+00
    0.69849E-21        -0.12107E-19         0.00000E+00
   -0.32688E-21        -0.74506E-20         0.00000E+00
    0.93132E-21        -0.58617E-20         0.00000E+00
    0.79162E-20        -0.37253E-20         0.00000E+00
    0.88476E-20        -0.18626E-20         0.00000E+00
    0.97789E-20        -0.10682E-20         0.00000E+00
    0.11642E-19        -0.10682E-20         0.00000E+00
    0.10744E-19        -0.91763E-20         0.00000E+00
    0.97789E-20        -0.14764E-19         0.00000E+00
    0.88476E-20        -0.21557E-19         0.00000E+00
    0.79162E-20        -0.29008E-19         0.00000E+00
    0.64850E-20        -0.33528E-19         0.00000E+00
    0.55879E-20        -0.26871E-19         0.00000E+00
    0.60536E-20        -0.16764E-19         0.00000E+00
    0.32938E-20        -0.85188E-20         0.00000E+00
    0.18969E-20        -0.55879E-20         0.00000E+00
    0.13970E-20        -0.82450E-20         0.00000E+00
   -0.46566E-21        -0.55879E-20         0.00000E+00
   -0.13970E-20        -0.25127E-33         0.00000E+00
   -0.13970E-20         0.83819E-20         0.00000E+00
   -0.27940E-20         0.91763E-20         0.00000E+00
   -0.18626E-20         0.14901E-19         0.00000E+00
   -0.37082E-20         0.18626E-20         0.00000E+00
   -0.23283E-20        -0.18626E-19         0.00000E+00
   -0.18626E-20        -0.20489E-19         0.00000E+00
   -0.13970E-20        -0.22352E-19         0.00000E+00
   -0.23283E-20        -0.18490E-19         0.00000E+00
   -0.14312E-20        -0.65193E-20         0.00000E+00
    0.93132E-21        -0.66561E-20         0.00000E+00
    0.16127E-20         0.00000E+00         0.00000E+00
    0.23283E-20         0.16764E-19         0.00000E+00
    0.32596E-20         0.22352E-19         0.00000E+00
    0.27940E-20         0.38622E-20         0.00000E+00
    0.16127E-20        -0.83819E-20         0.00000E+00
    0.46566E-21         0.79444E-21         0.00000E+00
    0.00000E+00         0.11176E-19         0.00000E+00
   -0.46566E-21         0.12244E-19         0.00000E+00
    0.00000E+00         0.55879E-20         0.00000E+00
   -0.20955E-20        -0.10682E-20         0.00000E+00
   -0.18626E-20        -0.55879E-20         0.00000E+00
   -0.14141E-20        -0.11176E-19         0.00000E+00
   -0.10786E-21        -0.14901E-19         0.00000E+00
    0.00000E+00        -0.19421E-19         0.00000E+00
    0.46566E-21        -0.28734E-19         0.00000E+00
    0.46566E-21        -0.34596E-19         0.00000E+00
    0.21494E-20        -0.33528E-19         0.00000E+00
    0.18626E-20        -0.39910E-19         0.00000E+00
    0.00000E+00        -0.42046E-19         0.00000E+00
    0.23283E-21        -0.32733E-19         0.00000E+00
    0.23283E-21        -0.26077E-19         0.00000E+00
   -0.69849E-21        -0.19421E-19         0.00000E+00
   -0.74322E-21        -0.10108E-19         0.00000E+00
   -0.60444E-21        -0.85188E-20         0.00000E+00
   -0.18626E-20        -0.58617E-20         0.00000E+00
    0.13039E-19         0.21364E-20         0.00000E+00
    0.12107E-19         0.37253E-20         0.00000E+00
    0.11176E-19         0.00000E+00         0.00000E+00
    0.97789E-20         0.00000E+00         0.00000E+00
    0.79162E-20         0.93132E-21         0.00000E+00
    0.69849E-20        -0.10245E-19         0.00000E+00
    0.70191E-20        -0.19558E-19         0.00000E+00
    0.69849E-20        -0.14764E-19         0.00000E+00
    0.65535E-20        -0.16764E-19         0.00000E+00
    0.50881E-20        -0.21557E-19         0.00000E+00
    0.41910E-20        -0.15969E-19         0.00000E+00
    0.55879E-20         0.00000E+00         0.00000E+00
    0.36911E-20        -0.37253E-20         0.00000E+00
    0.37253E-20         0.00000E+00         0.00000E+00
    0.23283E-20         0.37253E-20         0.00000E+00
    0.93132E-21         0.00000E+00         0.00000E+00
    0.46566E-21         0.74506E-20         0.00000E+00
   -0.19861E-21         0.13039E-19         0.00000E+00
    0.00000E+00         0.16764E-19         0.00000E+00
    0.11470E-20         0.00000E+00         0.00000E+00
    0.46566E-21        -0.18626E-19         0.00000E+00
   -0.46566E-21        -0.16764E-19         0.00000E+00
   -0.18626E-20        -0.13039E-19         0.00000E+00
   -0.28282E-20        -0.16764E-19         0.00000E+00
   -0.29926E-20        -0.16764E-19         0.00000E+00
   -0.27940E-20        -0.13833E-19         0.00000E+00
   -0.32425E-20        -0.93132E-20         0.00000E+00
   -0.13970E-20         0.79444E-21         0.00000E+00
   -0.93132E-21         0.74506E-20         0.00000E+00
    0.00000E+00         0.37253E-20         0.00000E+00
   -0.21572E-21         0.00000E+00         0.00000E+00
    0.00000E+00         0.66561E-20         0.00000E+00
    0.00000E+00         0.11176E-19         0.00000E+00
    0.00000E+00         0.45197E-20         0.00000E+00
    0.80635E-21         0.74506E-20         0.00000E+00
    0.57352E-21         0.55879E-20         0.00000E+00
    0.00000E+00        -0.55879E-20         0.00000E+00
    0.14141E-20        -0.11176E-19         0.00000E+00
    0.18626E-20        -0.20489E-19         0.00000E+00
    0.18626E-20        -0.25009E-19         0.00000E+00
    0.23283E-20        -0.29802E-19         0.00000E+00
    0.27940E-20        -0.33528E-19         0.00000E+00
    0.27940E-20        -0.33528E-19         0.00000E+00
    0.27940E-20        -0.37253E-19         0.00000E+00
    0.33675E-20        -0.35390E-19         0.00000E+00
    0.25611E-20        -0.25283E-19         0.00000E+00
    0.10747E-20        -0.16764E-19         0.00000E+00
   -0.94040E-37        -0.16764E-19         0.00000E+00
    0.27756E-21        -0.11176E-19         0.00000E+00
   -0.93132E-21        -0.10682E-20         0.00000E+00
   -0.18626E-20         0.53142E-20         0.00000E+00
   -0.23283E-20         0.74506E-20         0.00000E+00
   -0.23283E-20         0.85188E-20         0.00000E+00
   -0.32596E-20         0.13039E-19         0.00000E+00
   -0.37253E-20         0.15696E-19         0.00000E+00
   -0.27940E-20         0.38622E-20         0.00000E+00
   -0.93132E-21        -0.10245E-19         0.00000E+00
    0.00000E+00        -0.19695E-19         0.00000E+00
    0.46566E-21        -0.26077E-19         0.00000E+00
    0.13970E-20        -0.26077E-19         0.00000E+00
    0.18969E-20        -0.14901E-19         0.00000E+00
   -0.46566E-21        -0.16764E-19         0.00000E+00
    0.66427E-21        -0.74506E-20         0.00000E+00
    0.23283E-20         0.18626E-20         0.00000E+00
    0.23283E-20         0.00000E+00         0.00000E+00
    0.27940E-20         0.55879E-20         0.00000E+00
    0.23283E-20         0.11176E-19         0.00000E+00
    0.13970E-20         0.13039E-19         0.00000E+00
    0.93132E-21         0.11176E-19         0.00000E+00
    0.13970E-20         0.11176E-19         0.00000E+00
    0.46566E-21         0.00000E+00         0.00000E+00
   -0.46566E-21        -0.11176E-19         0.00000E+00
   -0.93132E-21        -0.11176E-19         0.00000E+00
    0.00000E+00        -0.11176E-19         0.00000E+00
    0.14312E-20        -0.11970E-19         0.00000E+00
    0.16127E-20        -0.74506E-20         0.00000E+00
    0.46566E-21        -0.37253E-20         0.00000E+00
   -0.11642E-20        -0.74506E-20         0.00000E+00
   -0.13970E-20         0.45197E-20         0.00000E+00
   -0.23283E-20         0.14901E-19         0.00000E+00
   -0.14141E-20         0.00000E+00         0.00000E+00
   -0.14141E-20        -0.74506E-20         0.00000E+00
   -0.93132E-21         0.00000E+00         0.00000E+00
   -0.93132E-21         0.11176E-19         0.00000E+00
   -0.46566E-21         0.93132E-20         0.00000E+00
   -0.57352E-21         0.18626E-20         0.00000E+00
   -0.46566E-21         0.18626E-20         0.00000E+00
   -0.93132E-21        -0.82450E-20         0.00000E+00
   -0.15220E-20        -0.17558E-19         0.00000E+00
   -0.19876E-20        -0.17832E-19         0.00000E+00
   -0.13970E-20        -0.21557E-19         0.00000E+00
   -0.46566E-21        -0.37253E-19         0.00000E+00
    0.00000E+00        -0.37253E-19         0.00000E+00
   -0.18626E-20        -0.31665E-19         0.00000E+00
   -0.13970E-20        -0.40978E-19         0.00000E+00
   -0.12181E-20        -0.39116E-19         0.00000E+00
   -0.14509E-20        -0.26077E-19         0.00000E+00
   -0.23283E-21        -0.14901E-19         0.00000E+00
    0.78794E-21        -0.11970E-19         0.00000E+00
   -0.18811E-21        -0.63824E-20         0.00000E+00
    0.00000E+00         0.15889E-20         0.00000E+00
   -0.46566E-21         0.31778E-20         0.00000E+00
   -0.12107E-19         0.74506E-20         0.00000E+00
   -0.11176E-19         0.74506E-20         0.00000E+00
   -0.12107E-19         0.37253E-20         0.00000E+00
   -0.11642E-19         0.00000E+00         0.00000E+00
   -0.10710E-19        -0.11039E-19         0.00000E+00
   -0.97789E-20        -0.25146E-19         0.00000E+00
   -0.79162E-20        -0.27145E-19         0.00000E+00
   -0.64850E-20        -0.22352E-19         0.00000E+00
   -0.60536E-20        -0.22352E-19         0.00000E+00
   -0.46566E-20        -0.13039E-19         0.00000E+00
   -0.28282E-20        -0.11970E-19         0.00000E+00
   -0.27940E-20        -0.13039E-19         0.00000E+00
   -0.27940E-20        -0.10381E-19         0.00000E+00
   -0.27940E-20        -0.45197E-20         0.00000E+00
   -0.93132E-21         0.55879E-20         0.00000E+00
    0.13970E-20         0.62455E-20         0.00000E+00
    0.18284E-20         0.12107E-19         0.00000E+00
    0.43144E-21         0.14107E-19         0.00000E+00
    0.00000E+00         0.20489E-19         0.00000E+00
   -0.13799E-20         0.93132E-20         0.00000E+00
   -0.27940E-20        -0.11176E-19         0.00000E+00
   -0.32596E-20        -0.18626E-19         0.00000E+00
   -0.34925E-20        -0.26077E-19         0.00000E+00
   -0.28111E-20        -0.26077E-19         0.00000E+00
   -0.27940E-20        -0.11176E-19         0.00000E+00
   -0.23283E-20         0.00000E+00         0.00000E+00
   -0.71560E-21         0.00000E+00         0.00000E+00
   -0.13970E-20         0.74506E-20         0.00000E+00
   -0.46566E-21         0.74506E-20         0.00000E+00
   -0.11470E-20         0.00000E+00         0.00000E+00
   -0.21572E-21        -0.37253E-20         0.00000E+00
   -0.93132E-21         0.55879E-20         0.00000E+00
   -0.16298E-20         0.11176E-19         0.00000E+00
   -0.23283E-20         0.18626E-20         0.00000E+00
   -0.29189E-20         0.55879E-20         0.00000E+00
   -0.32596E-20         0.26571E-20         0.00000E+00
   -0.23283E-20        -0.18626E-20         0.00000E+00
   -0.18626E-20        -0.26571E-20         0.00000E+00
   -0.93132E-21        -0.18626E-19         0.00000E+00
    0.00000E+00        -0.31665E-19         0.00000E+00
    0.93132E-21        -0.36185E-19         0.00000E+00
   -0.93132E-21        -0.27940E-19         0.00000E+00
   -0.13970E-20        -0.27145E-19         0.00000E+00
   -0.13970E-20        -0.39116E-19         0.00000E+00
   -0.20955E-20        -0.37253E-19         0.00000E+00
   -0.20415E-20        -0.29802E-19         0.00000E+00
   -0.36358E-20        -0.26871E-19         0.00000E+00
   -0.37253E-20        -0.17695E-19         0.00000E+00
   -0.49789E-20        -0.75875E-20         0.00000E+00
   -0.51223E-20         0.79444E-21         0.00000E+00
   -0.41910E-20         0.90395E-20         0.00000E+00
   -0.93132E-20         0.00000E+00         0.00000E+00
   -0.83819E-20         0.74506E-20         0.00000E+00
   -0.79162E-20         0.13039E-19         0.00000E+00
   -0.65193E-20         0.74506E-20         0.00000E+00
   -0.51223E-20        -0.37253E-20         0.00000E+00
   -0.65193E-20        -0.22352E-19         0.00000E+00
   -0.69849E-20        -0.35390E-19         0.00000E+00
   -0.55879E-20        -0.37253E-19         0.00000E+00
   -0.46566E-20        -0.34322E-19         0.00000E+00
   -0.27940E-20        -0.29802E-19         0.00000E+00
   -0.11299E-20        -0.27145E-19         0.00000E+00
    0.49988E-21        -0.74506E-20         0.00000E+00
    0.46566E-21        -0.29308E-20         0.00000E+00
    0.46566E-21        -0.11176E-19         0.00000E+00
    0.93132E-21        -0.10108E-19         0.00000E+00
    0.13970E-20        -0.18626E-20         0.00000E+00
    0.14312E-20         0.14901E-19         0.00000E+00
    0.14312E-20         0.19421E-19         0.00000E+00
    0.23283E-20         0.22352E-19         0.00000E+00
    0.30097E-20         0.14107E-19         0.00000E+00
    0.23283E-20        -0.37253E-20         0.00000E+00
    0.23283E-20        -0.55879E-20         0.00000E+00
    0.18455E-20        -0.13039E-19         0.00000E+00
    0.94843E-21        -0.18626E-19         0.00000E+00
   -0.23283E-21        -0.93132E-20         0.00000E+00
   -0.93132E-21        -0.11176E-19         0.00000E+00
    0.17110E-22        -0.11176E-19         0.00000E+00
   -0.46566E-21         0.37253E-20         0.00000E+00
   -0.23283E-20         0.11176E-19         0.00000E+00
   -0.39581E-20        -0.37253E-20         0.00000E+00
   -0.41910E-20        -0.74506E-20         0.00000E+00
   -0.41910E-20         0.74506E-20         0.00000E+00
   -0.46737E-20         0.18626E-19         0.00000E+00
   -0.55879E-20         0.15696E-19         0.00000E+00
   -0.42988E-20         0.74506E-20         0.00000E+00
   -0.18626E-20        -0.18626E-20         0.00000E+00
   -0.46566E-21        -0.16764E-19         0.00000E+00
    0.93132E-21        -0.25009E-19         0.00000E+00
    0.27940E-20        -0.26077E-19         0.00000E+00
    0.27940E-20        -0.29802E-19         0.00000E+00
    0.23283E-20        -0.31665E-19         0.00000E+00
    0.18626E-20        -0.26077E-19         0.00000E+00
    0.20955E-20        -0.27940E-19         0.00000E+00
    0.18626E-20        -0.37253E-19         0.00000E+00
    0.87739E-21        -0.35390E-19         0.00000E+00
   -0.46566E-21        -0.18626E-19         0.00000E+00
   -0.17193E-20        -0.74506E-20         0.00000E+00
   -0.42804E-20        -0.55879E-20         0.00000E+00
   -0.32149E-20        -0.10682E-20         0.00000E+00
   -0.38193E-20        -0.10682E-20         0.00000E+00
   -0.27940E-20        -0.74506E-20         0.00000E+00
   -0.27940E-20        -0.37253E-20         0.00000E+00
   -0.32596E-20        -0.37253E-20         0.00000E+00
   -0.37253E-20        -0.85188E-20         0.00000E+00
   -0.23283E-20        -0.10381E-19         0.00000E+00
   -0.14312E-20        -0.91763E-20         0.00000E+00
    0.43144E-21        -0.14764E-19         0.00000E+00
    0.13285E-20        -0.29802E-19         0.00000E+00
    0.17942E-20        -0.35390E-19         0.00000E+00
    0.13970E-20        -0.37253E-19         0.00000E+00
    0.43144E-21        -0.31665E-19         0.00000E+00
   -0.49988E-21        -0.29008E-19         0.00000E+00
   -0.14312E-20        -0.19695E-19         0.00000E+00
   -0.43144E-21        -0.13039E-19         0.00000E+00
   -0.18626E-20        -0.82450E-20         0.00000E+00
   -0.32596E-20        -0.15889E-20         0.00000E+00
   -0.51565E-20         0.55879E-20         0.00000E+00
   -0.51565E-20         0.13833E-19         0.00000E+00
   -0.46908E-20         0.10108E-19         0.00000E+00
   -0.37253E-20         0.13833E-19         0.00000E+00
   -0.46566E-21         0.93132E-20         0.00000E+00
    0.13970E-20        -0.10108E-19         0.00000E+00
    0.23283E-20        -0.15696E-19         0.00000E+00
    0.34753E-20        -0.17832E-19         0.00000E+00
    0.27769E-20        -0.14901E-19         0.00000E+00
    0.34753E-20        -0.18626E-20         0.00000E+00
    0.46566E-20        -0.26571E-20         0.00000E+00
    0.22941E-20        -0.18626E-20         0.00000E+00
    0.13970E-20         0.18353E-19         0.00000E+00
   -0.93132E-21         0.23420E-19         0.00000E+00
   -0.24994E-21         0.85188E-20         0.00000E+00
   -0.16298E-20        -0.10682E-20         0.00000E+00
   -0.16469E-20         0.11176E-19         0.00000E+00
   -0.93132E-21         0.15175E-19         0.00000E+00
    0.93132E-21         0.10682E-20         0.00000E+00
    0.18455E-20        -0.11450E-19         0.00000E+00
    0.13970E-20        -0.15175E-19         0.00000E+00
    0.00000E+00        -0.14901E-19         0.00000E+00
   -0.15220E-20        -0.22352E-19         0.00000E+00
   -0.23283E-20        -0.30597E-19         0.00000E+00
   -0.41910E-20        -0.25009E-19         0.00000E+00
   -0.43159E-20        -0.31665E-19         0.00000E+00
   -0.37253E-20        -0.29008E-19         0.00000E+00
   -0.40121E-20        -0.24214E-19         0.00000E+00
   -0.37253E-20        -0.34322E-19         0.00000E+00
   -0.29729E-20        -0.27145E-19         0.00000E+00
   -0.13970E-20        -0.15969E-19         0.00000E+00
    0.93132E-21        -0.10108E-19         0.00000E+00
    0.27940E-20        -0.82450E-20         0.00000E+00
    0.36806E-20        -0.93132E-20         0.00000E+00
    0.54492E-20        -0.10682E-20         0.00000E+00
    0.46566E-20         0.15889E-20         0.00000E+00
    0.13970E-20         0.74506E-20         0.00000E+00
    0.11299E-20         0.11970E-19         0.00000E+00
    0.93132E-21         0.37253E-20         0.00000E+00
    0.00000E+00        -0.27940E-20         0.00000E+00
   -0.13970E-20        -0.14901E-19         0.00000E+00
    0.23283E-21        -0.36322E-19         0.00000E+00
    0.68439E-22        -0.41910E-19         0.00000E+00
   -0.89710E-21        -0.37253E-19         0.00000E+00
   -0.14312E-20        -0.28871E-19         0.00000E+00
   -0.13970E-20        -0.21284E-19         0.00000E+00
   -0.93132E-21        -0.20489E-19         0.00000E+00
   -0.18626E-20        -0.55879E-20         0.00000E+00
   -0.32938E-20         0.37253E-20         0.00000E+00
   -0.37253E-20         0.00000E+00         0.00000E+00
   -0.41910E-20        -0.10682E-20         0.00000E+00
   -0.37253E-20         0.82450E-20         0.00000E+00
   -0.27597E-20         0.14901E-19         0.00000E+00
   -0.37253E-20         0.13039E-19         0.00000E+00
   -0.48894E-20         0.18626E-20         0.00000E+00
   -0.46566E-20        -0.11176E-19         0.00000E+00
   -0.55879E-20        -0.16764E-19         0.00000E+00
   -0.51223E-20        -0.14901E-19         0.00000E+00
   -0.50881E-20        -0.16764E-19         0.00000E+00
   -0.25440E-20        -0.20352E-19         0.00000E+00
   -0.23283E-20        -0.15832E-19         0.00000E+00
   -0.46566E-21        -0.47935E-20         0.00000E+00
   -0.13799E-20         0.37253E-20         0.00000E+00
   -0.13970E-20         0.18626E-19         0.00000E+00
    0.44855E-21         0.22352E-19         0.00000E+00
    0.69849E-21        -0.18626E-20         0.00000E+00
    0.68138E-21        -0.45197E-20         0.00000E+00
    0.11642E-20         0.66561E-20         0.00000E+00
    0.13970E-20         0.63824E-20         0.00000E+00
    0.18626E-20         0.45197E-20         0.00000E+00
   -0.21572E-21         0.37253E-20         0.00000E+00
   -0.18626E-20         0.66561E-20         0.00000E+00
   -0.27940E-20         0.10682E-20         0.00000E+00
   -0.20955E-20        -0.14901E-19         0.00000E+00
   -0.48894E-20        -0.15969E-19         0.00000E+00
   -0.60536E-20        -0.18626E-19         0.00000E+00
   -0.61615E-20        -0.33528E-19         0.00000E+00
   -0.62864E-20        -0.29802E-19         0.00000E+00
   -0.58208E-20        -0.27940E-19         0.00000E+00
   -0.34925E-20        -0.40978E-19         0.00000E+00
   -0.20955E-20        -0.46566E-19         0.00000E+00
    0.93132E-21        -0.37253E-19         0.00000E+00
    0.93132E-21        -0.29802E-19         0.00000E+00
    0.25611E-20        -0.21557E-19         0.00000E+00
    0.20955E-20        -0.11039E-19         0.00000E+00
    0.25611E-20        -0.65193E-20         0.00000E+00
    0.18626E-20        -0.21364E-20         0.00000E+00
   -0.18626E-20         0.00000E+00         0.00000E+00
   -0.13628E-20        -0.79444E-21         0.00000E+00
   -0.93132E-21         0.10682E-20         0.00000E+00
   -0.93132E-21        -0.29308E-20         0.00000E+00
   -0.18284E-20        -0.93132E-20         0.00000E+00
   -0.34240E-20        -0.20489E-19         0.00000E+00
   -0.55879E-20        -0.25283E-19         0.00000E+00
   -0.64850E-20        -0.27940E-19         0.00000E+00
   -0.69165E-20        -0.35390E-19         0.00000E+00
   -0.69507E-20        -0.33528E-19         0.00000E+00
   -0.74164E-20        -0.26077E-19         0.00000E+00
   -0.69507E-20        -0.93132E-20         0.00000E+00
   -0.55537E-20        -0.37253E-20         0.00000E+00
   -0.46566E-20        -0.26571E-20         0.00000E+00
   -0.36911E-20        -0.37253E-20         0.00000E+00
   -0.29926E-20        -0.10682E-20         0.00000E+00
   -0.41910E-20         0.12244E-19         0.00000E+00
   -0.22941E-20         0.19695E-19         0.00000E+00
   -0.18455E-20         0.17558E-19         0.00000E+00
   -0.46566E-20         0.13039E-19         0.00000E+00
   -0.55879E-20        -0.55879E-20         0.00000E+00
   -0.51223E-20        -0.17832E-19         0.00000E+00
   -0.46566E-20        -0.29802E-19         0.00000E+00
   -0.48894E-20        -0.26871E-19         0.00000E+00
   -0.48552E-20        -0.13039E-19         0.00000E+00
   -0.67521E-20        -0.66561E-20         0.00000E+00
   -0.48723E-20         0.18626E-20         0.00000E+00
   -0.44067E-20         0.93132E-20         0.00000E+00
   -0.39410E-20         0.13039E-19         0.00000E+00
   -0.27769E-20         0.55879E-20         0.00000E+00
   -0.46224E-20        -0.37253E-20         0.00000E+00
   -0.34753E-20         0.58617E-20         0.00000E+00
   -0.32596E-20         0.14901E-19         0.00000E+00
   -0.27940E-20         0.90395E-20         0.00000E+00
   -0.27940E-20         0.55879E-20         0.00000E+00
   -0.20784E-20        -0.18626E-20         0.00000E+00
   -0.23283E-20        -0.13039E-19         0.00000E+00
   -0.30097E-20        -0.11176E-19         0.00000E+00
   -0.30097E-20        -0.13039E-19         0.00000E+00
   -0.23283E-20        -0.21284E-19         0.00000E+00
   -0.27940E-20        -0.26871E-19         0.00000E+00
   -0.33675E-20        -0.32733E-19         0.00000E+00
   -0.29729E-20        -0.39116E-19         0.00000E+00
   -0.28479E-20        -0.49223E-19         0.00000E+00
   -0.30807E-20        -0.49497E-19         0.00000E+00
   -0.41910E-20        -0.32733E-19         0.00000E+00
   -0.59641E-20        -0.16764E-19         0.00000E+00
   -0.75940E-20        -0.14901E-19         0.00000E+00
   -0.73611E-20        -0.93132E-20         0.00000E+00
   -0.91744E-20        -0.10682E-20         0.00000E+00
   -0.93132E-20         0.53142E-20         0.00000E+00
   -0.13970E-20         0.37253E-20         0.00000E+00
   -0.18626E-20         0.55879E-20         0.00000E+00
   -0.32596E-20         0.29308E-20         0.00000E+00
   -0.27940E-20         0.00000E+00         0.00000E+00
   -0.37253E-20        -0.47935E-20         0.00000E+00
   -0.37253E-20        -0.14901E-19         0.00000E+00
   -0.37595E-20        -0.24214E-19         0.00000E+00
   -0.51565E-20        -0.31665E-19         0.00000E+00
   -0.65535E-20        -0.26871E-19         0.00000E+00
   -0.74506E-20        -0.15696E-19         0.00000E+00
   -0.79505E-20        -0.21557E-19         0.00000E+00
   -0.84161E-20        -0.16764E-19         0.00000E+00
   -0.79505E-20        -0.93132E-20         0.00000E+00
   -0.83819E-20        -0.93132E-20         0.00000E+00
   -0.74848E-20        -0.45197E-20         0.00000E+00
   -0.69849E-20         0.93132E-20         0.00000E+00
   -0.65535E-20         0.82450E-20         0.00000E+00
   -0.56222E-20         0.37253E-20         0.00000E+00
   -0.53722E-20         0.13833E-19         0.00000E+00
   -0.46566E-20         0.74506E-20         0.00000E+00
   -0.41910E-20        -0.14627E-19         0.00000E+00
   -0.32596E-20        -0.20489E-19         0.00000E+00
   -0.27940E-20        -0.19695E-19         0.00000E+00
   -0.39752E-20        -0.16764E-19         0.00000E+00
   -0.39752E-20        -0.93132E-20         0.00000E+00
   -0.51394E-20        -0.74506E-20         0.00000E+00
   -0.60536E-20        -0.55879E-20         0.00000E+00
   -0.58379E-20         0.15696E-19         0.00000E+00
   -0.55879E-20         0.16764E-19         0.00000E+00
   -0.51394E-20         0.10682E-20         0.00000E+00
   -0.46566E-20        -0.10682E-20         0.00000E+00
   -0.46566E-20        -0.18626E-20         0.00000E+00
   -0.37253E-20         0.39990E-20         0.00000E+00
   -0.32596E-20         0.26571E-20         0.00000E+00
   -0.23283E-20         0.79444E-21         0.00000E+00
   -0.18798E-20         0.37253E-20         0.00000E+00
   -0.93132E-21         0.37253E-20         0.00000E+00
   -0.12891E-20        -0.11970E-19         0.00000E+00
   -0.59063E-21        -0.20489E-19         0.00000E+00
   -0.13970E-20        -0.17832E-19         0.00000E+00
    0.93132E-21        -0.26077E-19         0.00000E+00
    0.34069E-21        -0.30597E-19         0.00000E+00
    0.23283E-21        -0.28734E-19         0.00000E+00
   -0.11102E-20        -0.41252E-19         0.00000E+00
   -0.27940E-20        -0.40184E-19         0.00000E+00
   -0.41910E-20        -0.21284E-19         0.00000E+00
   -0.47461E-20        -0.14901E-19         0.00000E+00
   -0.54446E-20        -0.13039E-19         0.00000E+00
   -0.58655E-20        -0.45197E-20         0.00000E+00
   -0.68909E-20         0.18626E-20         0.00000E+00
   -0.69849E-20         0.15889E-20         0.00000E+00
   -0.46566E-21         0.37253E-20         0.00000E+00
   -0.93132E-21         0.55879E-20         0.00000E+00
   -0.93132E-21         0.37253E-20         0.00000E+00
   -0.23283E-20         0.00000E+00         0.00000E+00
   -0.42252E-20        -0.82450E-20         0.00000E+00
   -0.56222E-20        -0.18626E-19         0.00000E+00
   -0.55879E-20        -0.17832E-19         0.00000E+00
   -0.46566E-20        -0.15696E-19         0.00000E+00
   -0.46566E-20        -0.22352E-19         0.00000E+00
   -0.37253E-20        -0.23420E-19         0.00000E+00
   -0.36911E-20        -0.23146E-19         0.00000E+00
   -0.41567E-20        -0.85188E-20         0.00000E+00
   -0.37253E-20        -0.47935E-20         0.00000E+00
   -0.46566E-20        -0.71768E-20         0.00000E+00
   -0.74506E-20        -0.63824E-20         0.00000E+00
   -0.79162E-20        -0.58617E-20         0.00000E+00
   -0.60194E-20         0.74506E-20         0.00000E+00
   -0.74164E-20         0.13039E-19         0.00000E+00
   -0.79162E-20         0.10902E-19         0.00000E+00
   -0.65193E-20         0.47935E-20         0.00000E+00
   -0.37253E-20        -0.82450E-20         0.00000E+00
   -0.37253E-20        -0.24214E-19         0.00000E+00
   -0.27940E-20        -0.28734E-19         0.00000E+00
   -0.11642E-20        -0.19421E-19         0.00000E+00
   -0.11642E-20        -0.77243E-20         0.00000E+00
   -0.44855E-21         0.18626E-20         0.00000E+00
   -0.46566E-21         0.47935E-20         0.00000E+00
    0.00000E+00         0.82450E-20         0.00000E+00
    0.13970E-20         0.82450E-20         0.00000E+00
    0.71560E-21         0.29308E-20         0.00000E+00
    0.27769E-20        -0.71768E-20         0.00000E+00
    0.23283E-20         0.00000E+00         0.00000E+00
    0.28111E-20         0.10902E-19         0.00000E+00
    0.37253E-20         0.37253E-20         0.00000E+00
    0.46566E-20        -0.63824E-20         0.00000E+00
    0.46737E-20        -0.95870E-20         0.00000E+00
    0.51223E-20        -0.13039E-19         0.00000E+00
    0.60536E-20        -0.10108E-19         0.00000E+00
    0.59286E-20        -0.14901E-19         0.00000E+00
    0.60536E-20        -0.30871E-19         0.00000E+00
    0.55879E-20        -0.35390E-19         0.00000E+00
    0.46566E-20        -0.28734E-19         0.00000E+00
    0.39042E-20        -0.34596E-19         0.00000E+00
    0.27940E-20        -0.35390E-19         0.00000E+00
    0.30268E-20        -0.28734E-19         0.00000E+00
    0.46566E-20        -0.22489E-19         0.00000E+00
    0.56774E-20        -0.13175E-19         0.00000E+00
    0.51223E-20        -0.99708E-20         0.00000E+00
    0.44685E-20        -0.79444E-21         0.00000E+00
    0.41910E-20         0.25202E-20         0.00000E+00
    0.37253E-20         0.53142E-20         0.00000E+00
   -0.37253E-20         0.74506E-20         0.00000E+00
   -0.32596E-20         0.55879E-20         0.00000E+00
   -0.27940E-20         0.82450E-20         0.00000E+00
   -0.32596E-20         0.15696E-19         0.00000E+00
   -0.22941E-20         0.11450E-19         0.00000E+00
   -0.22941E-20        -0.71768E-20         0.00000E+00
   -0.27940E-20        -0.30871E-19         0.00000E+00
   -0.18626E-20        -0.32733E-19         0.00000E+00
   -0.93132E-21        -0.29802E-19         0.00000E+00
   -0.14312E-20        -0.23420E-19         0.00000E+00
   -0.14312E-20        -0.17832E-19         0.00000E+00
   -0.18969E-20        -0.15696E-19         0.00000E+00
    0.00000E+00        -0.63824E-20         0.00000E+00
   -0.46566E-21         0.55879E-20         0.00000E+00
   -0.93132E-21         0.12244E-19         0.00000E+00
   -0.13970E-20         0.37253E-20         0.00000E+00
   -0.32596E-20         0.99708E-20         0.00000E+00
   -0.14312E-20         0.11039E-19         0.00000E+00
   -0.46566E-21         0.47935E-20         0.00000E+00
   -0.46566E-21        -0.14901E-19         0.00000E+00
    0.18626E-20        -0.25283E-19         0.00000E+00
    0.18626E-20        -0.24214E-19         0.00000E+00
    0.32596E-20        -0.30597E-19         0.00000E+00
    0.21126E-20        -0.23941E-19         0.00000E+00
    0.32767E-20        -0.14107E-19         0.00000E+00
    0.37253E-20        -0.11176E-19         0.00000E+00
    0.46395E-20        -0.74506E-20         0.00000E+00
    0.41910E-20         0.26571E-20         0.00000E+00
    0.32596E-20         0.11450E-19         0.00000E+00
    0.51223E-20        -0.26571E-20         0.00000E+00
    0.65364E-20        -0.10381E-19         0.00000E+00
    0.74506E-20        -0.18626E-20         0.00000E+00
    0.83819E-20        -0.10682E-20         0.00000E+00
    0.79162E-20        -0.58617E-20         0.00000E+00
    0.79162E-20        -0.45197E-20         0.00000E+00
    0.70928E-20         0.18626E-20         0.00000E+00
    0.74506E-20        -0.26571E-20         0.00000E+00
    0.73427E-20        -0.16490E-19         0.00000E+00
    0.69849E-20        -0.23420E-19         0.00000E+00
    0.51223E-20        -0.18900E-19         0.00000E+00
    0.27940E-20        -0.19695E-19         0.00000E+00
    0.16298E-20        -0.18626E-19         0.00000E+00
    0.20955E-20        -0.19421E-19         0.00000E+00
    0.13970E-20        -0.36185E-19         0.00000E+00
    0.19166E-20        -0.46566E-19         0.00000E+00
    0.13970E-20        -0.33391E-19         0.00000E+00
    0.93132E-21        -0.18626E-19         0.00000E+00
    0.46566E-21        -0.11313E-19         0.00000E+00
    0.11194E-20        -0.10682E-20         0.00000E+00
    0.27940E-20         0.63824E-20         0.00000E+00
    0.37253E-20         0.37253E-20         0.00000E+00
   -0.32596E-20         0.21364E-20         0.00000E+00
   -0.23283E-20         0.37253E-20         0.00000E+00
   -0.23283E-20         0.18626E-20         0.00000E+00
   -0.93132E-21        -0.37253E-20         0.00000E+00
    0.93132E-21        -0.10381E-19         0.00000E+00
    0.30268E-20        -0.18763E-19         0.00000E+00
    0.27940E-20        -0.21420E-19         0.00000E+00
    0.23283E-20        -0.22352E-19         0.00000E+00
    0.23283E-20        -0.24214E-19         0.00000E+00
    0.32938E-20        -0.20489E-19         0.00000E+00
    0.37595E-20        -0.19558E-19         0.00000E+00
    0.53551E-20        -0.14764E-19         0.00000E+00
    0.46566E-20        -0.93132E-20         0.00000E+00
    0.55879E-20        -0.63824E-20         0.00000E+00
    0.55879E-20        -0.26571E-20         0.00000E+00
    0.69849E-20         0.45197E-20         0.00000E+00
    0.60536E-20         0.74506E-20         0.00000E+00
    0.88818E-20         0.79444E-21         0.00000E+00
    0.97789E-20         0.53142E-20         0.00000E+00
    0.88476E-20        -0.37253E-20         0.00000E+00
    0.69849E-20        -0.21284E-19         0.00000E+00
    0.69849E-20        -0.30597E-19         0.00000E+00
    0.55879E-20        -0.29802E-19         0.00000E+00
    0.41910E-20        -0.22215E-19         0.00000E+00
    0.34582E-20        -0.15038E-19         0.00000E+00
    0.32596E-20        -0.37253E-20         0.00000E+00
    0.21126E-20         0.37253E-20         0.00000E+00
    0.27940E-20         0.11176E-19         0.00000E+00
    0.32596E-20         0.29308E-20         0.00000E+00
    0.27940E-20        -0.11176E-19         0.00000E+00
    0.23112E-20        -0.20489E-19         0.00000E+00
    0.37253E-20        -0.85188E-20         0.00000E+00
    0.41910E-20         0.74506E-20         0.00000E+00
    0.32596E-20         0.45197E-20         0.00000E+00
    0.42988E-20         0.18626E-20         0.00000E+00
    0.46566E-20        -0.74506E-20         0.00000E+00
    0.51223E-20        -0.14901E-19         0.00000E+00
    0.60365E-20        -0.74506E-20         0.00000E+00
    0.65193E-20        -0.37253E-20         0.00000E+00
    0.65193E-20        -0.11176E-19         0.00000E+00
    0.69849E-20        -0.18626E-19         0.00000E+00
    0.61786E-20        -0.24214E-19         0.00000E+00
    0.58747E-20        -0.30871E-19         0.00000E+00
    0.55879E-20        -0.33528E-19         0.00000E+00
    0.41370E-20        -0.27666E-19         0.00000E+00
    0.18626E-20        -0.17558E-19         0.00000E+00
    0.17732E-20        -0.10381E-19         0.00000E+00
    0.69849E-21        -0.13039E-19         0.00000E+00
    0.18626E-20        -0.11176E-19         0.00000E+00
    0.32596E-20        -0.10381E-19         0.00000E+00
    0.32596E-20        -0.58617E-20         0.00000E+00
    0.27940E-20        -0.21364E-20         0.00000E+00
    0.23283E-20         0.18626E-20         0.00000E+00
    0.27940E-20         0.47935E-20         0.00000E+00
    0.32596E-20         0.18626E-20         0.00000E+00
    0.23283E-20        -0.93132E-20         0.00000E+00
    0.13628E-20        -0.19695E-19         0.00000E+00
    0.49988E-21        -0.29008E-19         0.00000E+00
    0.93132E-21        -0.32459E-19         0.00000E+00
    0.23283E-20        -0.31665E-19         0.00000E+00
    0.46566E-20        -0.27145E-19         0.00000E+00
    0.55537E-20        -0.28734E-19         0.00000E+00
    0.65535E-20        -0.19421E-19         0.00000E+00
    0.69849E-20        -0.85188E-20         0.00000E+00
    0.83819E-20         0.00000E+00         0.00000E+00
    0.88476E-20         0.58617E-20         0.00000E+00
    0.79162E-20        -0.79444E-21         0.00000E+00
    0.97789E-20        -0.10682E-20         0.00000E+00
    0.93132E-20        -0.39990E-20         0.00000E+00
    0.70020E-20         0.45197E-20         0.00000E+00
    0.74506E-20        -0.18626E-20         0.00000E+00
    0.79162E-20        -0.14901E-19         0.00000E+00
    0.74506E-20        -0.16764E-19         0.00000E+00
    0.41910E-20        -0.19421E-19         0.00000E+00
    0.44238E-20        -0.13833E-19         0.00000E+00
    0.30439E-20        -0.85188E-20         0.00000E+00
    0.25611E-20        -0.37253E-20         0.00000E+00
    0.37082E-20        -0.45197E-20         0.00000E+00
    0.55879E-20        -0.47935E-20         0.00000E+00
    0.41910E-20         0.10108E-19         0.00000E+00
    0.41910E-20         0.39990E-20         0.00000E+00
    0.51394E-20        -0.12902E-19         0.00000E+00
    0.39410E-20        -0.10245E-19         0.00000E+00
    0.41910E-20        -0.37253E-20         0.00000E+00
    0.32596E-20        -0.66561E-20         0.00000E+00
    0.46566E-20        -0.93132E-20         0.00000E+00
    0.46566E-20        -0.29308E-20         0.00000E+00
    0.37253E-20        -0.85188E-20         0.00000E+00
    0.29189E-20        -0.23146E-19         0.00000E+00
    0.44238E-20        -0.26077E-19         0.00000E+00
    0.46566E-20        -0.19695E-19         0.00000E+00
    0.51223E-20        -0.18626E-19         0.00000E+00
    0.67521E-20        -0.14901E-19         0.00000E+00
    0.65193E-20        -0.15696E-19         0.00000E+00
    0.65193E-20        -0.28734E-19         0.00000E+00
    0.80241E-20        -0.29008E-19         0.00000E+00
    0.88476E-20        -0.18626E-19         0.00000E+00
    0.97789E-20        -0.11970E-19         0.00000E+00
    0.87042E-20        -0.14107E-19         0.00000E+00
    0.79610E-20        -0.10381E-19         0.00000E+00
    0.46566E-20        -0.18626E-20         0.00000E+00
    0.41910E-20         0.00000E+00         0.00000E+00
    0.10245E-19         0.74506E-20         0.00000E+00
    0.10710E-19         0.29308E-20         0.00000E+00
    0.97789E-20         0.00000E+00         0.00000E+00
    0.97789E-20         0.26571E-20         0.00000E+00
    0.97789E-20        -0.45197E-20         0.00000E+00
    0.88818E-20        -0.11970E-19         0.00000E+00
    0.88476E-20        -0.18763E-19         0.00000E+00
    0.79162E-20        -0.30734E-19         0.00000E+00
    0.74506E-20        -0.38184E-19         0.00000E+00
    0.62522E-20        -0.37390E-19         0.00000E+00
    0.65535E-20        -0.33528E-19         0.00000E+00
    0.55537E-20        -0.23146E-19         0.00000E+00
    0.69849E-20        -0.15696E-19         0.00000E+00
    0.79162E-20        -0.15969E-19         0.00000E+00
    0.11176E-19        -0.79444E-21         0.00000E+00
    0.12107E-19         0.50292E-33         0.00000E+00
    0.11176E-19         0.15889E-20         0.00000E+00
    0.83477E-20         0.14901E-19         0.00000E+00
    0.67350E-20         0.11176E-19         0.00000E+00
    0.60536E-20        -0.74506E-20         0.00000E+00
    0.55879E-20        -0.19421E-19         0.00000E+00
    0.46566E-20        -0.13833E-19         0.00000E+00
    0.46566E-20        -0.15969E-19         0.00000E+00
    0.62693E-20        -0.14901E-19         0.00000E+00
    0.74677E-20        -0.55879E-20         0.00000E+00
    0.65021E-20        -0.66561E-20         0.00000E+00
    0.56050E-20        -0.93132E-20         0.00000E+00
    0.60536E-20         0.66561E-20         0.00000E+00
    0.51223E-20         0.74506E-20         0.00000E+00
    0.65193E-20        -0.14107E-19         0.00000E+00
    0.74335E-20        -0.18626E-19         0.00000E+00
    0.58379E-20        -0.37253E-20         0.00000E+00
    0.41910E-20         0.93132E-20         0.00000E+00
    0.27940E-20         0.18626E-20         0.00000E+00
   -0.10786E-21        -0.37253E-20         0.00000E+00
    0.00000E+00        -0.18626E-20         0.00000E+00
    0.18626E-20        -0.55879E-20         0.00000E+00
   -0.10786E-21        -0.11176E-19         0.00000E+00
   -0.10392E-20        -0.10902E-19         0.00000E+00
   -0.13970E-20        -0.13039E-19         0.00000E+00
   -0.93132E-21        -0.30076E-19         0.00000E+00
   -0.12497E-21        -0.36185E-19         0.00000E+00
    0.11642E-20        -0.29802E-19         0.00000E+00
    0.32596E-20        -0.37253E-19         0.00000E+00
    0.25072E-20        -0.40978E-19         0.00000E+00
    0.32596E-20        -0.25283E-19         0.00000E+00
    0.24178E-20        -0.11176E-19         0.00000E+00
    0.22389E-20        -0.17258E-20         0.00000E+00
    0.11194E-20         0.10245E-19         0.00000E+00
    0.93132E-21         0.82450E-20         0.00000E+00
    0.93132E-21        -0.37253E-20         0.00000E+00
    0.13970E-19        -0.15889E-20         0.00000E+00
    0.13970E-19         0.74506E-20         0.00000E+00
    0.12573E-19         0.11970E-19         0.00000E+00
    0.12573E-19         0.10682E-20         0.00000E+00
    0.12107E-19        -0.63824E-20         0.00000E+00
    0.11642E-19        -0.17832E-19         0.00000E+00
    0.13737E-19        -0.23420E-19         0.00000E+00
    0.13039E-19        -0.24214E-19         0.00000E+00
    0.11642E-19        -0.23420E-19         0.00000E+00
    0.93474E-20        -0.21420E-19         0.00000E+00
    0.83477E-20        -0.25940E-19         0.00000E+00
    0.79162E-20        -0.24214E-19         0.00000E+00
    0.69849E-20        -0.20489E-19         0.00000E+00
    0.65193E-20        -0.18626E-19         0.00000E+00
    0.69849E-20        -0.16764E-19         0.00000E+00
    0.78820E-20         0.00000E+00         0.00000E+00
    0.64850E-20         0.20489E-19         0.00000E+00
    0.74506E-20         0.18626E-19         0.00000E+00
    0.74506E-20         0.14901E-19         0.00000E+00
    0.69849E-20         0.37253E-20         0.00000E+00
    0.65193E-20        -0.93132E-20         0.00000E+00
    0.60536E-20        -0.13039E-19         0.00000E+00
    0.69849E-20        -0.26077E-19         0.00000E+00
    0.51223E-20        -0.27940E-19         0.00000E+00
    0.48723E-20        -0.93132E-20         0.00000E+00
    0.51223E-20         0.37253E-20         0.00000E+00
    0.37253E-20         0.00000E+00         0.00000E+00
    0.37253E-20         0.00000E+00         0.00000E+00
    0.27940E-20         0.37253E-20         0.00000E+00
    0.13970E-20        -0.74506E-20         0.00000E+00
   -0.13799E-20        -0.93132E-20         0.00000E+00
   -0.23283E-20         0.29308E-20         0.00000E+00
   -0.37253E-20         0.13039E-19         0.00000E+00
   -0.41910E-20         0.14901E-19         0.00000E+00
   -0.51223E-20         0.37253E-20         0.00000E+00
   -0.55879E-20        -0.85188E-20         0.00000E+00
   -0.51223E-20        -0.74506E-20         0.00000E+00
   -0.29189E-20        -0.10108E-19         0.00000E+00
   -0.22204E-20        -0.18626E-19         0.00000E+00
   -0.93132E-21        -0.21557E-19         0.00000E+00
    0.46566E-21        -0.26871E-19         0.00000E+00
    0.00000E+00        -0.26077E-19         0.00000E+00
   -0.75242E-21        -0.27145E-19         0.00000E+00
   -0.46566E-21        -0.35390E-19         0.00000E+00
   -0.20955E-20        -0.31665E-19         0.00000E+00
   -0.46566E-20        -0.17558E-19         0.00000E+00
   -0.56774E-20        -0.74506E-20         0.00000E+00
   -0.51223E-20        -0.66561E-20         0.00000E+00
   -0.37253E-20        -0.45197E-20         0.00000E+00
   -0.93132E-21         0.26571E-20         0.00000E+00
   -0.93132E-21         0.31778E-20         0.00000E+00
    0.27940E-20         0.74506E-20         0.00000E+00
    0.27940E-20         0.10108E-19         0.00000E+00
    0.37253E-20         0.74506E-20         0.00000E+00
    0.41910E-20         0.47935E-20         0.00000E+00
    0.37253E-20         0.13688E-21         0.00000E+00
    0.50881E-20        -0.19558E-19         0.00000E+00
    0.50881E-20        -0.23420E-19         0.00000E+00
    0.55879E-20        -0.22352E-19         0.00000E+00
    0.46566E-20        -0.20489E-19         0.00000E+00
    0.65193E-20        -0.20489E-19         0.00000E+00
    0.56222E-20        -0.26077E-19         0.00000E+00
    0.46908E-20        -0.16764E-19         0.00000E+00
    0.27940E-20        -0.13039E-19         0.00000E+00
    0.23283E-20        -0.11970E-19         0.00000E+00
    0.13970E-20        -0.37253E-20         0.00000E+00
   -0.43144E-21        -0.10682E-20         0.00000E+00
   -0.43144E-21         0.37253E-20         0.00000E+00
    0.96554E-21         0.11176E-19         0.00000E+00
    0.93132E-21         0.13833E-19         0.00000E+00
   -0.23283E-21        -0.37253E-20         0.00000E+00
   -0.13970E-20        -0.15696E-19         0.00000E+00
   -0.46566E-21        -0.15696E-19         0.00000E+00
    0.00000E+00        -0.93132E-20         0.00000E+00
   -0.44855E-21        -0.55879E-20         0.00000E+00
   -0.13970E-20        -0.37253E-20         0.00000E+00
   -0.11470E-20        -0.29308E-20         0.00000E+00
    0.93132E-21        -0.37253E-20         0.00000E+00
   -0.46566E-21         0.12244E-19         0.00000E+00
   -0.23283E-20         0.18626E-19         0.00000E+00
   -0.37253E-20         0.63824E-20         0.00000E+00
   -0.51394E-20         0.00000E+00         0.00000E+00
   -0.55879E-20         0.93132E-20         0.00000E+00
   -0.46566E-20         0.18626E-19         0.00000E+00
   -0.51223E-20         0.93132E-20         0.00000E+00
   -0.37253E-20         0.18626E-20         0.00000E+00
   -0.48894E-20        -0.18626E-20         0.00000E+00
   -0.58208E-20        -0.14901E-19         0.00000E+00
   -0.41910E-20        -0.26077E-19         0.00000E+00
   -0.44238E-20        -0.24214E-19         0.00000E+00
   -0.46566E-20        -0.26077E-19         0.00000E+00
   -0.41910E-20        -0.33528E-19         0.00000E+00
   -0.39581E-20        -0.27940E-19         0.00000E+00
   -0.37253E-20        -0.26077E-19         0.00000E+00
   -0.32596E-20        -0.31665E-19         0.00000E+00
   -0.35464E-20        -0.22352E-19         0.00000E+00
   -0.18626E-20        -0.11176E-19         0.00000E+00
    0.00000E+00        -0.74506E-20         0.00000E+00
    0.69849E-21        -0.93132E-20         0.00000E+00
    0.11642E-20        -0.93132E-20         0.00000E+00
    0.11642E-20        -0.47935E-20         0.00000E+00
    0.13970E-20         0.15889E-20         0.00000E+00
   -0.69849E-20        -0.37253E-20         0.00000E+00
   -0.74506E-20         0.00000E+00         0.00000E+00
   -0.60536E-20         0.10682E-20         0.00000E+00
   -0.51223E-20         0.18626E-20         0.00000E+00
   -0.46566E-20        -0.93132E-20         0.00000E+00
   -0.32254E-20        -0.22352E-19         0.00000E+00
   -0.36911E-20        -0.25283E-19         0.00000E+00
   -0.32254E-20        -0.22352E-19         0.00000E+00
   -0.32254E-20        -0.26871E-19         0.00000E+00
   -0.22941E-20        -0.25146E-19         0.00000E+00
   -0.30268E-20        -0.18763E-19         0.00000E+00
   -0.41910E-20        -0.12244E-19         0.00000E+00
   -0.46224E-20        -0.65193E-20         0.00000E+00
   -0.51223E-20        -0.91763E-20         0.00000E+00
   -0.51223E-20        -0.37253E-20         0.00000E+00
   -0.50881E-20         0.54511E-20         0.00000E+00
   -0.51223E-20         0.13970E-19         0.00000E+00
   -0.60536E-20         0.14901E-19         0.00000E+00
   -0.64850E-20         0.16764E-19         0.00000E+00
   -0.67350E-20         0.17832E-19         0.00000E+00
   -0.83648E-20        -0.74506E-20         0.00000E+00
   -0.83648E-20        -0.18626E-19         0.00000E+00
   -0.83819E-20        -0.26077E-19         0.00000E+00
   -0.65193E-20        -0.23146E-19         0.00000E+00
   -0.48894E-20        -0.74506E-20         0.00000E+00
   -0.41910E-20        -0.66561E-20         0.00000E+00
   -0.37253E-20        -0.18626E-20         0.00000E+00
   -0.37253E-20         0.14901E-19         0.00000E+00
   -0.27940E-20         0.20489E-19         0.00000E+00
   -0.23283E-20         0.55879E-20         0.00000E+00
   -0.23112E-20         0.00000E+00         0.00000E+00
   -0.13799E-20         0.55879E-20         0.00000E+00
    0.00000E+00         0.93132E-20         0.00000E+00
    0.46566E-21         0.63824E-20         0.00000E+00
   -0.46566E-21         0.37253E-20         0.00000E+00
   -0.10786E-21         0.79444E-21         0.00000E+00
   -0.12720E-20        -0.93132E-20         0.00000E+00
   -0.44238E-20        -0.14627E-19         0.00000E+00
   -0.56958E-20        -0.19421E-19         0.00000E+00
   -0.60536E-20        -0.22352E-19         0.00000E+00
   -0.65193E-20        -0.27145E-19         0.00000E+00
   -0.59286E-20        -0.29802E-19         0.00000E+00
   -0.44238E-20        -0.32459E-19         0.00000E+00
   -0.41910E-20        -0.37253E-19         0.00000E+00
   -0.27940E-20        -0.40978E-19         0.00000E+00
   -0.23283E-20        -0.32596E-19         0.00000E+00
   -0.37621E-21        -0.17695E-19         0.00000E+00
    0.78794E-21        -0.13039E-19         0.00000E+00
    0.12089E-20        -0.47935E-20         0.00000E+00
   -0.94053E-22        -0.10682E-20         0.00000E+00
   -0.46566E-21        -0.21364E-20         0.00000E+00
   -0.11176E-19         0.74506E-20         0.00000E+00
   -0.11642E-19         0.37253E-20         0.00000E+00
   -0.11642E-19        -0.18626E-20         0.00000E+00
   -0.10245E-19        -0.18626E-20         0.00000E+00
   -0.97789E-20        -0.74506E-20         0.00000E+00
   -0.10710E-19        -0.22352E-19         0.00000E+00
   -0.98131E-20        -0.26077E-19         0.00000E+00
   -0.88476E-20        -0.24214E-19         0.00000E+00
   -0.60878E-20        -0.26077E-19         0.00000E+00
   -0.60878E-20        -0.20489E-19         0.00000E+00
   -0.55537E-20        -0.16764E-19         0.00000E+00
   -0.37253E-20        -0.11176E-19         0.00000E+00
   -0.46566E-20        -0.74506E-20         0.00000E+00
   -0.46566E-20        -0.74506E-20         0.00000E+00
   -0.46566E-20        -0.55879E-20         0.00000E+00
   -0.46908E-20        -0.18626E-20         0.00000E+00
   -0.51223E-20         0.74506E-20         0.00000E+00
   -0.46566E-20         0.18626E-19         0.00000E+00
   -0.42252E-20         0.18626E-19         0.00000E+00
   -0.34925E-20         0.55879E-20         0.00000E+00
   -0.18626E-20        -0.74506E-20         0.00000E+00
   -0.30439E-20        -0.13039E-19         0.00000E+00
   -0.23283E-20        -0.20489E-19         0.00000E+00
   -0.41910E-20        -0.24214E-19         0.00000E+00
   -0.34753E-20        -0.14901E-19         0.00000E+00
   -0.41910E-20        -0.74506E-20         0.00000E+00
   -0.37253E-20        -0.55879E-20         0.00000E+00
   -0.32596E-20         0.55879E-20         0.00000E+00
   -0.18626E-20         0.11176E-19         0.00000E+00
   -0.46566E-21         0.53142E-20         0.00000E+00
   -0.46566E-21        -0.39990E-20         0.00000E+00
   -0.17110E-22        -0.31778E-20         0.00000E+00
   -0.46566E-21         0.77243E-20         0.00000E+00
   -0.18626E-20         0.10902E-19         0.00000E+00
   -0.15220E-20         0.55879E-20         0.00000E+00
   -0.10563E-20         0.37253E-20         0.00000E+00
    0.46566E-21         0.55879E-20         0.00000E+00
   -0.10786E-21        -0.55879E-20         0.00000E+00
   -0.23283E-21        -0.16764E-19         0.00000E+00
    0.93132E-21        -0.22352E-19         0.00000E+00
    0.13970E-20        -0.37253E-19         0.00000E+00
    0.93132E-21        -0.39116E-19         0.00000E+00
    0.53930E-22        -0.31665E-19         0.00000E+00
   -0.69849E-21        -0.37527E-19         0.00000E+00
   -0.46566E-21        -0.31665E-19         0.00000E+00
   -0.23283E-20        -0.23941E-19         0.00000E+00
   -0.36358E-20        -0.22352E-19         0.00000E+00
   -0.41910E-20        -0.14901E-19         0.00000E+00
   -0.46566E-20        -0.74506E-20         0.00000E+00
   -0.50282E-20         0.00000E+00         0.00000E+00
   -0.60536E-20         0.37253E-20         0.00000E+00
   -0.10710E-19         0.00000E+00         0.00000E+00
   -0.93132E-20         0.18626E-20         0.00000E+00
   -0.97789E-20        -0.18626E-20         0.00000E+00
   -0.11176E-19        -0.74506E-20         0.00000E+00
   -0.12107E-19        -0.74506E-20         0.00000E+00
   -0.10245E-19        -0.22352E-19         0.00000E+00
   -0.10210E-19        -0.37253E-19         0.00000E+00
   -0.83819E-20        -0.39116E-19         0.00000E+00
   -0.60536E-20        -0.40978E-19         0.00000E+00
   -0.43896E-20        -0.31939E-19         0.00000E+00
   -0.37595E-20        -0.29802E-19         0.00000E+00
   -0.18626E-20        -0.14627E-19         0.00000E+00
   -0.18626E-20        -0.39990E-20         0.00000E+00
    0.00000E+00        -0.71768E-20         0.00000E+00
   -0.93132E-21        -0.34515E-20         0.00000E+00
   -0.89710E-21         0.71768E-20         0.00000E+00
   -0.18626E-20         0.13039E-19         0.00000E+00
   -0.93132E-21         0.74506E-20         0.00000E+00
    0.69849E-21         0.10902E-19         0.00000E+00
    0.16127E-20         0.53142E-20         0.00000E+00
    0.13970E-20        -0.71768E-20         0.00000E+00
    0.27940E-20        -0.16490E-19         0.00000E+00
    0.23283E-20        -0.18626E-19         0.00000E+00
    0.20955E-20        -0.14901E-19         0.00000E+00
    0.16298E-20        -0.74506E-20         0.00000E+00
   -0.93132E-21        -0.74506E-20         0.00000E+00
   -0.93132E-21        -0.74506E-20         0.00000E+00
   -0.13970E-20         0.37253E-20         0.00000E+00
   -0.18626E-20         0.74506E-20         0.00000E+00
   -0.23283E-21        -0.27376E-21         0.00000E+00
    0.69849E-21        -0.21364E-20         0.00000E+00
    0.00000E+00         0.61355E-20         0.00000E+00
    0.00000E+00         0.16764E-19         0.00000E+00
    0.93132E-21         0.12765E-19         0.00000E+00
    0.10563E-20        -0.15889E-20         0.00000E+00
   -0.46566E-21        -0.77243E-20         0.00000E+00
    0.13970E-20        -0.13039E-19         0.00000E+00
    0.30268E-20        -0.14627E-19         0.00000E+00
    0.38503E-20        -0.22352E-19         0.00000E+00
    0.51223E-20        -0.29802E-19         0.00000E+00
    0.48894E-20        -0.29802E-19         0.00000E+00
    0.37253E-20        -0.22625E-19         0.00000E+00
    0.22744E-20        -0.22352E-19         0.00000E+00
    0.22744E-20        -0.35116E-19         0.00000E+00
    0.18626E-20        -0.33528E-19         0.00000E+00
    0.18626E-20        -0.16764E-19         0.00000E+00
    0.37621E-21        -0.74506E-20         0.00000E+00
   -0.14864E-20        -0.74506E-20         0.00000E+00
   -0.27940E-20        -0.18626E-20         0.00000E+00
   -0.38193E-20         0.37253E-20         0.00000E+00
   -0.41910E-20         0.37253E-20         0.00000E+00
    0.46566E-21        -0.54752E-21         0.00000E+00
    0.93132E-21         0.18626E-20         0.00000E+00
   -0.34220E-22         0.58617E-20         0.00000E+00
   -0.96554E-21         0.74506E-20         0.00000E+00
   -0.69849E-21        -0.11450E-19         0.00000E+00
   -0.93132E-21        -0.31665E-19         0.00000E+00
   -0.14312E-20        -0.36979E-19         0.00000E+00
   -0.99976E-21        -0.44703E-19         0.00000E+00
   -0.13970E-20        -0.44703E-19         0.00000E+00
   -0.19311E-20        -0.33528E-19         0.00000E+00
   -0.23625E-20        -0.29802E-19         0.00000E+00
   -0.37595E-20        -0.20489E-19         0.00000E+00
   -0.28282E-20        -0.14901E-19         0.00000E+00
   -0.18626E-20        -0.11176E-19         0.00000E+00
   -0.93132E-21        -0.37253E-20         0.00000E+00
   -0.49988E-21         0.37253E-20         0.00000E+00
    0.43144E-21         0.93132E-20         0.00000E+00
    0.22941E-20         0.71768E-20         0.00000E+00
    0.18798E-20         0.71768E-20         0.00000E+00
    0.32596E-20         0.27376E-21         0.00000E+00
    0.29926E-20        -0.14627E-19         0.00000E+00
    0.41910E-20        -0.18626E-19         0.00000E+00
    0.20955E-20        -0.16764E-19         0.00000E+00
    0.25440E-20        -0.16764E-19         0.00000E+00
    0.13799E-20        -0.18626E-20         0.00000E+00
    0.22941E-20         0.18626E-20         0.00000E+00
    0.93132E-21        -0.18626E-20         0.00000E+00
    0.13970E-20         0.11176E-19         0.00000E+00
    0.18626E-20         0.74506E-20         0.00000E+00
    0.21572E-21        -0.74506E-20         0.00000E+00
    0.68138E-21        -0.74506E-20         0.00000E+00
    0.93132E-21         0.00000E+00         0.00000E+00
    0.44855E-21         0.37253E-20         0.00000E+00
    0.13970E-20         0.55879E-20         0.00000E+00
    0.18626E-20         0.11176E-19         0.00000E+00
    0.12720E-20         0.37253E-20         0.00000E+00
    0.19705E-20        -0.74506E-20         0.00000E+00
    0.15048E-20        -0.18626E-19         0.00000E+00
    0.20784E-20        -0.29802E-19         0.00000E+00
    0.13970E-20        -0.27940E-19         0.00000E+00
    0.57352E-21        -0.29802E-19         0.00000E+00
    0.13799E-20        -0.28213E-19         0.00000E+00
    0.22033E-20        -0.26077E-19         0.00000E+00
    0.21494E-20        -0.35116E-19         0.00000E+00
    0.69849E-21        -0.30076E-19         0.00000E+00
    0.93132E-21        -0.14901E-19         0.00000E+00
    0.37621E-21        -0.34515E-20         0.00000E+00
    0.00000E+00         0.00000E+00         0.00000E+00
   -0.12536E-20         0.34515E-20         0.00000E+00
   -0.83727E-21         0.74506E-20         0.00000E+00
   -0.93132E-21         0.79981E-20         0.00000E+00
    0.46566E-20         0.37253E-20         0.00000E+00
    0.41910E-20         0.55879E-20         0.00000E+00
    0.42252E-20         0.37253E-20         0.00000E+00
    0.51565E-20        -0.37253E-20         0.00000E+00
    0.64850E-20        -0.58617E-20         0.00000E+00
    0.76834E-20        -0.18626E-19         0.00000E+00
    0.88133E-20        -0.38842E-19         0.00000E+00
    0.83819E-20        -0.39116E-19         0.00000E+00
    0.71835E-20        -0.33528E-19         0.00000E+00
    0.69849E-20        -0.29802E-19         0.00000E+00
    0.60536E-20        -0.22352E-19         0.00000E+00
    0.74506E-20        -0.13039E-19         0.00000E+00
    0.74506E-20        -0.11176E-19         0.00000E+00
    0.74506E-20        -0.14901E-19         0.00000E+00
    0.60536E-20        -0.11176E-19         0.00000E+00
    0.51223E-20         0.00000E+00         0.00000E+00
    0.42252E-20         0.00000E+00         0.00000E+00
    0.32596E-20         0.00000E+00         0.00000E+00
    0.25440E-20         0.74506E-20         0.00000E+00
    0.18626E-20         0.00000E+00         0.00000E+00
    0.16469E-20        -0.11176E-19         0.00000E+00
    0.44855E-21        -0.11176E-19         0.00000E+00
    0.43144E-21        -0.11176E-19         0.00000E+00
    0.18626E-20        -0.11176E-19         0.00000E+00
    0.13799E-20        -0.74506E-20         0.00000E+00
    0.21126E-20        -0.37253E-20         0.00000E+00
    0.20784E-20        -0.37253E-20         0.00000E+00
    0.23283E-20         0.00000E+00         0.00000E+00
    0.27940E-20         0.11176E-19         0.00000E+00
    0.13970E-20         0.37253E-20         0.00000E+00
    0.93132E-21        -0.37253E-20         0.00000E+00
    0.46566E-21         0.74506E-20         0.00000E+00
    0.48277E-21         0.16764E-19         0.00000E+00
   -0.93132E-21         0.74506E-20         0.00000E+00
   -0.11813E-20        -0.18626E-20         0.00000E+00
    0.00000E+00        -0.74506E-20         0.00000E+00
    0.00000E+00        -0.14901E-19         0.00000E+00
   -0.12891E-20        -0.16764E-19         0.00000E+00
   -0.27940E-20        -0.22352E-19         0.00000E+00
   -0.37253E-20        -0.24214E-19         0.00000E+00
   -0.36003E-20        -0.27940E-19         0.00000E+00
   -0.40660E-20        -0.27940E-19         0.00000E+00
   -0.48894E-20        -0.27940E-19         0.00000E+00
   -0.74506E-20        -0.30076E-19         0.00000E+00
   -0.80951E-20        -0.26077E-19         0.00000E+00
   -0.79162E-20        -0.14627E-19         0.00000E+00
   -0.74506E-20        -0.39990E-20         0.00000E+00
   -0.65193E-20        -0.21364E-20         0.00000E+00
   -0.46566E-20         0.37253E-20         0.00000E+00
   -0.37253E-20         0.58617E-20         0.00000E+00
   -0.32596E-20         0.42728E-20         0.00000E+00
    0.37253E-20         0.69031E-20         0.00000E+00
    0.41910E-20         0.55879E-20         0.00000E+00
    0.51223E-20         0.21364E-20         0.00000E+00
    0.60536E-20        -0.55879E-20         0.00000E+00
    0.42252E-20        -0.24488E-19         0.00000E+00
    0.46224E-20        -0.40978E-19         0.00000E+00
    0.44238E-20        -0.40978E-19         0.00000E+00
    0.32938E-20        -0.37253E-19         0.00000E+00
    0.37253E-20        -0.37253E-19         0.00000E+00
    0.56222E-20        -0.29802E-19         0.00000E+00
    0.60536E-20        -0.33528E-19         0.00000E+00
    0.69849E-20        -0.26077E-19         0.00000E+00
    0.65193E-20        -0.14627E-19         0.00000E+00
    0.74506E-20        -0.37253E-20         0.00000E+00
    0.60536E-20         0.74506E-20         0.00000E+00
    0.55879E-20         0.11176E-19         0.00000E+00
    0.55537E-20         0.18626E-19         0.00000E+00
    0.27940E-20         0.18626E-19         0.00000E+00
    0.18626E-20         0.14627E-19         0.00000E+00
    0.00000E+00         0.37253E-20         0.00000E+00
   -0.13970E-20        -0.71768E-20         0.00000E+00
   -0.91421E-21        -0.14901E-19         0.00000E+00
    0.00000E+00        -0.22352E-19         0.00000E+00
    0.20955E-20        -0.20489E-19         0.00000E+00
    0.23283E-20        -0.55879E-20         0.00000E+00
    0.27940E-20        -0.18626E-20         0.00000E+00
    0.37253E-20        -0.18626E-20         0.00000E+00
    0.32596E-20         0.93132E-20         0.00000E+00
    0.13970E-20         0.11176E-19         0.00000E+00
    0.00000E+00         0.18626E-20         0.00000E+00
   -0.13970E-20        -0.18626E-20         0.00000E+00
   -0.14141E-20         0.18626E-20         0.00000E+00
   -0.23454E-20         0.11176E-19         0.00000E+00
   -0.18626E-20         0.13039E-19         0.00000E+00
   -0.25611E-20         0.37253E-20         0.00000E+00
   -0.39581E-20         0.00000E+00         0.00000E+00
   -0.51223E-20         0.18626E-20         0.00000E+00
   -0.53551E-20        -0.55879E-20         0.00000E+00
   -0.69849E-20        -0.18626E-19         0.00000E+00
   -0.97789E-20        -0.24214E-19         0.00000E+00
   -0.97789E-20        -0.27940E-19         0.00000E+00
   -0.11176E-19        -0.22352E-19         0.00000E+00
   -0.10298E-19        -0.95870E-20         0.00000E+00
   -0.10245E-19        -0.18626E-19         0.00000E+00
   -0.90804E-20        -0.25803E-19         0.00000E+00
   -0.97789E-20        -0.18626E-19         0.00000E+00
   -0.88476E-20        -0.13312E-19         0.00000E+00
   -0.79162E-20        -0.14901E-19         0.00000E+00
   -0.58208E-20        -0.90395E-20         0.00000E+00
   -0.47954E-20         0.18626E-20         0.00000E+00
   -0.46566E-20         0.37253E-20         0.00000E+00
   -0.23283E-20         0.31778E-20         0.00000E+00
   -0.18626E-20        -0.27376E-21         0.00000E+00
   -0.18626E-20        -0.55879E-20         0.00000E+00
   -0.18626E-20         0.27376E-21         0.00000E+00
   -0.18626E-20         0.00000E+00         0.00000E+00
   -0.46224E-20        -0.18626E-19         0.00000E+00
   -0.60194E-20        -0.29802E-19         0.00000E+00
   -0.55879E-20        -0.37527E-19         0.00000E+00
   -0.60194E-20        -0.44430E-19         0.00000E+00
   -0.55879E-20        -0.38842E-19         0.00000E+00
   -0.50881E-20        -0.29802E-19         0.00000E+00
   -0.65193E-20        -0.17038E-19         0.00000E+00
   -0.74506E-20        -0.14901E-19         0.00000E+00
   -0.65193E-20        -0.10902E-19         0.00000E+00
   -0.46566E-20        -0.18626E-20         0.00000E+00
   -0.41910E-20         0.15889E-20         0.00000E+00
   -0.27597E-20         0.13039E-19         0.00000E+00
   -0.22941E-20         0.20489E-19         0.00000E+00
   -0.18626E-20         0.22078E-19         0.00000E+00
   -0.32596E-20         0.15175E-19         0.00000E+00
   -0.18626E-20        -0.71768E-20         0.00000E+00
   -0.93132E-21        -0.18626E-19         0.00000E+00
    0.96554E-21        -0.24214E-19         0.00000E+00
    0.94843E-21        -0.22352E-19         0.00000E+00
    0.21297E-20        -0.13039E-19         0.00000E+00
    0.94843E-21        -0.11176E-19         0.00000E+00
    0.23283E-21        -0.37253E-20         0.00000E+00
   -0.13970E-20         0.11176E-19         0.00000E+00
   -0.13970E-20         0.25803E-19         0.00000E+00
   -0.93132E-21         0.18626E-19         0.00000E+00
    0.23283E-21         0.37253E-20         0.00000E+00
   -0.68138E-21         0.11176E-19         0.00000E+00
   -0.13799E-20         0.18626E-19         0.00000E+00
   -0.18626E-20         0.93132E-20         0.00000E+00
   -0.27769E-20         0.58617E-20         0.00000E+00
   -0.22033E-20         0.34515E-20         0.00000E+00
   -0.27940E-20        -0.39990E-20         0.00000E+00
   -0.37082E-20        -0.55879E-20         0.00000E+00
   -0.41910E-20        -0.15889E-20         0.00000E+00
   -0.55879E-20        -0.90395E-20         0.00000E+00
   -0.51223E-20        -0.22352E-19         0.00000E+00
   -0.55879E-20        -0.26077E-19         0.00000E+00
   -0.49434E-20        -0.29802E-19         0.00000E+00
   -0.13970E-20        -0.35390E-19         0.00000E+00
   -0.98525E-21        -0.29802E-19         0.00000E+00
   -0.93132E-21        -0.19832E-19         0.00000E+00
   -0.84187E-21        -0.13039E-19         0.00000E+00
   -0.93132E-21        -0.16764E-19         0.00000E+00
   -0.22389E-20        -0.12381E-19         0.00000E+00
   -0.38193E-20         0.27376E-21         0.00000E+00
   -0.37253E-20         0.42728E-20         0.00000E+00
   -0.46566E-21         0.79981E-20         0.00000E+00
   -0.46566E-21         0.37253E-20         0.00000E+00
   -0.93132E-21        -0.27376E-21         0.00000E+00
   -0.23283E-20        -0.53142E-20         0.00000E+00
   -0.13970E-20        -0.11176E-19         0.00000E+00
    0.00000E+00        -0.20763E-19         0.00000E+00
   -0.43144E-21        -0.37253E-19         0.00000E+00
   -0.13970E-20        -0.37253E-19         0.00000E+00
   -0.27940E-20        -0.33254E-19         0.00000E+00
   -0.60536E-20        -0.33254E-19         0.00000E+00
   -0.79505E-20        -0.30076E-19         0.00000E+00
   -0.69507E-20        -0.16764E-19         0.00000E+00
   -0.79162E-20        -0.14901E-19         0.00000E+00
   -0.97789E-20        -0.14901E-19         0.00000E+00
   -0.10710E-19        -0.34515E-20         0.00000E+00
   -0.10710E-19         0.18626E-20         0.00000E+00
   -0.10710E-19         0.74506E-20         0.00000E+00
   -0.88476E-20         0.12765E-19         0.00000E+00
   -0.76834E-20         0.18353E-19         0.00000E+00
   -0.46566E-20         0.37253E-20         0.00000E+00
   -0.27940E-20        -0.18353E-19         0.00000E+00
   -0.41910E-20        -0.27666E-19         0.00000E+00
   -0.46566E-20        -0.31665E-19         0.00000E+00
   -0.42081E-20        -0.26077E-19         0.00000E+00
   -0.46737E-20        -0.58617E-20         0.00000E+00
   -0.55879E-20         0.74506E-20         0.00000E+00
   -0.58037E-20         0.95870E-20         0.00000E+00
   -0.55879E-20         0.14901E-19         0.00000E+00
   -0.51223E-20         0.93132E-20         0.00000E+00
   -0.39581E-20        -0.37253E-20         0.00000E+00
   -0.46395E-20        -0.37253E-20         0.00000E+00
   -0.51223E-20         0.93132E-20         0.00000E+00
   -0.32596E-20         0.18626E-19         0.00000E+00
   -0.13970E-20         0.18353E-19         0.00000E+00
   -0.46566E-21         0.74506E-20         0.00000E+00
    0.00000E+00         0.27376E-21         0.00000E+00
    0.00000E+00         0.71768E-20         0.00000E+00
    0.34069E-21         0.18626E-20         0.00000E+00
    0.00000E+00        -0.11176E-19         0.00000E+00
    0.46566E-21        -0.18626E-19         0.00000E+00
    0.46566E-21        -0.26077E-19         0.00000E+00
    0.18626E-20        -0.26077E-19         0.00000E+00
    0.69849E-21        -0.29529E-19         0.00000E+00
    0.69849E-21        -0.35664E-19         0.00000E+00
    0.12181E-20        -0.29802E-19         0.00000E+00
    0.23283E-20        -0.20215E-19         0.00000E+00
    0.22389E-20        -0.11450E-19         0.00000E+00
    0.32596E-20        -0.55879E-20         0.00000E+00
    0.11194E-20         0.39990E-20         0.00000E+00
    0.00000E+00         0.53142E-20         0.00000E+00
    0.93132E-21        -0.54752E-21         0.00000E+00
    0.32596E-20         0.00000E+00         0.00000E+00
    0.37253E-20         0.39990E-20         0.00000E+00
    0.41567E-20         0.37253E-20         0.00000E+00
    0.37253E-20        -0.27376E-21         0.00000E+00
    0.27940E-20        -0.11176E-19         0.00000E+00
    0.13970E-20        -0.22352E-19         0.00000E+00
    0.00000E+00        -0.22352E-19         0.00000E+00
   -0.11642E-20        -0.25803E-19         0.00000E+00
   -0.23283E-20        -0.22352E-19         0.00000E+00
   -0.32596E-20        -0.13039E-19         0.00000E+00
   -0.43896E-20        -0.22078E-19         0.00000E+00
   -0.46908E-20        -0.16764E-19         0.00000E+00
   -0.55537E-20        -0.37253E-20         0.00000E+00
   -0.69849E-20         0.18626E-20         0.00000E+00
   -0.83819E-20         0.34515E-20         0.00000E+00
   -0.93132E-20         0.18626E-20         0.00000E+00
   -0.97789E-20         0.37253E-20         0.00000E+00
   -0.98131E-20         0.34515E-20         0.00000E+00
   -0.85976E-20         0.00000E+00         0.00000E+00
   -0.79162E-20        -0.74506E-20         0.00000E+00
   -0.79162E-20        -0.90395E-20         0.00000E+00
   -0.74506E-20        -0.90395E-20         0.00000E+00
   -0.69849E-20        -0.22352E-19         0.00000E+00
   -0.78991E-20        -0.24214E-19         0.00000E+00
   -0.65193E-20        -0.77243E-20         0.00000E+00
   -0.51223E-20        -0.74506E-20         0.00000E+00
   -0.51223E-20        -0.53142E-20         0.00000E+00
   -0.18626E-20         0.10902E-19         0.00000E+00
   -0.18626E-20         0.18626E-19         0.00000E+00
   -0.18455E-20         0.14901E-19         0.00000E+00
   -0.21126E-20         0.93132E-20         0.00000E+00
   -0.93132E-21         0.58617E-20         0.00000E+00
   -0.93132E-21         0.15889E-20         0.00000E+00
   -0.93132E-21        -0.55879E-20         0.00000E+00
   -0.46566E-21         0.27376E-21         0.00000E+00
   -0.13970E-20         0.15889E-20         0.00000E+00
   -0.19705E-20        -0.55879E-20         0.00000E+00
   -0.46566E-21        -0.55879E-20         0.00000E+00
   -0.93132E-21        -0.58617E-20         0.00000E+00
   -0.46566E-21        -0.10902E-19         0.00000E+00
   -0.46566E-21        -0.27940E-19         0.00000E+00
    0.00000E+00        -0.30076E-19         0.00000E+00
    0.12181E-20        -0.24214E-19         0.00000E+00
    0.87739E-21        -0.33254E-19         0.00000E+00
    0.25611E-20        -0.36979E-19         0.00000E+00
    0.32596E-20        -0.26077E-19         0.00000E+00
    0.46566E-20        -0.18900E-19         0.00000E+00
    0.60536E-20        -0.11176E-19         0.00000E+00
    0.85700E-20         0.37253E-20         0.00000E+00
    0.10477E-19         0.15889E-20         0.00000E+00
    0.93132E-20        -0.37253E-20         0.00000E+00
   -0.37253E-20         0.00000E+00         0.00000E+00
   -0.37253E-20         0.00000E+00         0.00000E+00
   -0.22941E-20        -0.15889E-20         0.00000E+00
   -0.37253E-20        -0.18626E-20         0.00000E+00
   -0.37253E-20         0.34515E-20         0.00000E+00
   -0.46566E-20        -0.55879E-20         0.00000E+00
   -0.46566E-20        -0.24214E-19         0.00000E+00
   -0.41567E-20        -0.26077E-19         0.00000E+00
   -0.37253E-20        -0.26077E-19         0.00000E+00
   -0.32596E-20        -0.24214E-19         0.00000E+00
   -0.18626E-20        -0.20215E-19         0.00000E+00
   -0.23283E-20        -0.93132E-20         0.00000E+00
   -0.18626E-20        -0.39990E-20         0.00000E+00
   -0.13970E-20        -0.15889E-20         0.00000E+00
   -0.93132E-21         0.55879E-20         0.00000E+00
   -0.93132E-21         0.93132E-20         0.00000E+00
   -0.13970E-20         0.11450E-19         0.00000E+00
   -0.32254E-20         0.71768E-20         0.00000E+00
   -0.37253E-20         0.10902E-19         0.00000E+00
   -0.51223E-20         0.00000E+00         0.00000E+00
   -0.51223E-20        -0.22352E-19         0.00000E+00
   -0.27940E-20        -0.33254E-19         0.00000E+00
   -0.16298E-20        -0.29529E-19         0.00000E+00
   -0.16469E-20        -0.26077E-19         0.00000E+00
   -0.13799E-20        -0.18900E-19         0.00000E+00
   -0.93132E-21        -0.18626E-20         0.00000E+00
   -0.13970E-20        -0.53142E-20         0.00000E+00
   -0.13970E-20         0.18626E-20         0.00000E+00
   -0.46566E-21         0.93132E-20         0.00000E+00
   -0.17110E-22        -0.39990E-20         0.00000E+00
    0.32596E-20        -0.95870E-20         0.00000E+00
    0.41910E-20         0.21364E-20         0.00000E+00
    0.30268E-20         0.16764E-19         0.00000E+00
    0.93132E-21         0.16764E-19         0.00000E+00
    0.80635E-21         0.11176E-19         0.00000E+00
    0.69849E-21         0.71768E-20         0.00000E+00
    0.10392E-20         0.37253E-20         0.00000E+00
    0.82346E-21        -0.34515E-20         0.00000E+00
    0.93132E-21        -0.10902E-19         0.00000E+00
    0.18626E-20        -0.18900E-19         0.00000E+00
    0.18626E-20        -0.31939E-19         0.00000E+00
    0.13970E-20        -0.33254E-19         0.00000E+00
    0.18626E-20        -0.31391E-19         0.00000E+00
    0.30807E-20        -0.40978E-19         0.00000E+00
    0.42449E-20        -0.41252E-19         0.00000E+00
    0.41910E-20        -0.33801E-19         0.00000E+00
    0.60536E-20        -0.26077E-19         0.00000E+00
    0.44238E-20        -0.26077E-19         0.00000E+00
    0.47013E-20        -0.18626E-19         0.00000E+00
    0.51223E-20         0.18626E-20         0.00000E+00
    0.46566E-20         0.11176E-19         0.00000E+00
   -0.32596E-20         0.00000E+00         0.00000E+00
   -0.32596E-20         0.27376E-21         0.00000E+00
   -0.32596E-20         0.39990E-20         0.00000E+00
   -0.46566E-20         0.34515E-20         0.00000E+00
   -0.60536E-20        -0.77243E-20         0.00000E+00
   -0.51223E-20        -0.18353E-19         0.00000E+00
   -0.47251E-20        -0.23941E-19         0.00000E+00
   -0.42252E-20        -0.30076E-19         0.00000E+00
   -0.27940E-20        -0.26351E-19         0.00000E+00
   -0.93132E-21        -0.22352E-19         0.00000E+00
   -0.93132E-21        -0.27940E-19         0.00000E+00
   -0.89710E-21        -0.16764E-19         0.00000E+00
   -0.34220E-22        -0.74506E-20         0.00000E+00
    0.46566E-21        -0.18626E-20         0.00000E+00
    0.13970E-20         0.00000E+00         0.00000E+00
    0.23283E-20         0.37253E-20         0.00000E+00
    0.13970E-20         0.14901E-19         0.00000E+00
    0.13628E-20         0.13039E-19         0.00000E+00
    0.13799E-20         0.10902E-19         0.00000E+00
    0.93132E-21         0.00000E+00         0.00000E+00
    0.93132E-21        -0.20215E-19         0.00000E+00
    0.00000E+00        -0.27940E-19         0.00000E+00
   -0.32767E-20        -0.29802E-19         0.00000E+00
   -0.39410E-20        -0.22078E-19         0.00000E+00
   -0.51394E-20        -0.93132E-20         0.00000E+00
   -0.51223E-20        -0.77243E-20         0.00000E+00
   -0.46566E-20        -0.37253E-20         0.00000E+00
   -0.51223E-20         0.55879E-20         0.00000E+00
   -0.41910E-20         0.11176E-19         0.00000E+00
   -0.20784E-20        -0.18626E-20         0.00000E+00
   -0.13970E-20        -0.11176E-19         0.00000E+00
   -0.18626E-20         0.37253E-20         0.00000E+00
   -0.16469E-20         0.16764E-19         0.00000E+00
   -0.13970E-20         0.74506E-20         0.00000E+00
   -0.80635E-21         0.18626E-20         0.00000E+00
   -0.10786E-21         0.15889E-20         0.00000E+00
    0.46566E-21        -0.74506E-20         0.00000E+00
    0.12720E-20        -0.90395E-20         0.00000E+00
    0.93132E-21        -0.74506E-20         0.00000E+00
    0.23283E-20        -0.13039E-19         0.00000E+00
    0.18626E-20        -0.26351E-19         0.00000E+00
    0.20955E-20        -0.27940E-19         0.00000E+00
    0.11102E-20        -0.34843E-19         0.00000E+00
    0.69849E-21        -0.48429E-19         0.00000E+00
   -0.34069E-21        -0.43115E-19         0.00000E+00
   -0.93132E-21        -0.33528E-19         0.00000E+00
   -0.34925E-20        -0.18353E-19         0.00000E+00
   -0.41910E-20        -0.55879E-20         0.00000E+00
   -0.55879E-20        -0.27376E-21         0.00000E+00
   -0.60536E-20         0.18626E-20         0.00000E+00
   -0.41910E-20         0.00000E+00         0.00000E+00
   -0.51223E-20         0.00000E+00         0.00000E+00
   -0.51223E-20         0.37253E-20         0.00000E+00
   -0.69849E-20         0.74506E-20         0.00000E+00
   -0.65193E-20         0.11450E-19         0.00000E+00
   -0.79162E-20         0.37253E-20         0.00000E+00
   -0.74506E-20        -0.15175E-19         0.00000E+00
   -0.60194E-20        -0.26351E-19         0.00000E+00
   -0.46224E-20        -0.33528E-19         0.00000E+00
   -0.46566E-20        -0.42567E-19         0.00000E+00
   -0.41910E-20        -0.33528E-19         0.00000E+00
   -0.41910E-20        -0.20489E-19         0.00000E+00
   -0.41910E-20        -0.14901E-19         0.00000E+00
   -0.41567E-20        -0.11176E-19         0.00000E+00
   -0.39239E-20        -0.71768E-20         0.00000E+00
   -0.22941E-20        -0.37253E-20         0.00000E+00
   -0.37253E-20         0.71768E-20         0.00000E+00
   -0.27940E-20         0.14901E-19         0.00000E+00
   -0.89710E-21         0.74506E-20         0.00000E+00
   -0.91421E-21         0.13039E-19         0.00000E+00
   -0.93132E-21         0.37253E-20         0.00000E+00
   -0.93132E-21        -0.16764E-19         0.00000E+00
   -0.20955E-20        -0.12765E-19         0.00000E+00
   -0.18455E-20        -0.11176E-19         0.00000E+00
   -0.27940E-20        -0.18626E-19         0.00000E+00
   -0.25611E-20        -0.11176E-19         0.00000E+00
   -0.18626E-20        -0.18626E-20         0.00000E+00
   -0.93132E-21        -0.71768E-20         0.00000E+00
   -0.13970E-20        -0.21364E-20         0.00000E+00
   -0.18626E-20        -0.39990E-20         0.00000E+00
   -0.13970E-20        -0.16764E-19         0.00000E+00
   -0.18626E-20        -0.11176E-19         0.00000E+00
   -0.20955E-20         0.39990E-20         0.00000E+00
   -0.11470E-20         0.15175E-19         0.00000E+00
   -0.46566E-21         0.10902E-19         0.00000E+00
   -0.13970E-20         0.34515E-20         0.00000E+00
   -0.46566E-21         0.00000E+00         0.00000E+00
   -0.13970E-20         0.00000E+00         0.00000E+00
    0.23283E-21        -0.55879E-20         0.00000E+00
   -0.10392E-20        -0.18626E-19         0.00000E+00
   -0.18626E-20        -0.24214E-19         0.00000E+00
   -0.18626E-20        -0.29802E-19         0.00000E+00
   -0.10786E-21        -0.29802E-19         0.00000E+00
    0.00000E+00        -0.26351E-19         0.00000E+00
   -0.19166E-20        -0.33254E-19         0.00000E+00
   -0.27940E-20        -0.35116E-19         0.00000E+00
   -0.37253E-20        -0.15175E-19         0.00000E+00
   -0.49434E-20        -0.99708E-20         0.00000E+00
   -0.43343E-20        -0.15832E-19         0.00000E+00
   -0.29821E-20        -0.95870E-20         0.00000E+00
   -0.23283E-20        -0.37253E-20         0.00000E+00
   -0.18626E-20        -0.37253E-20         0.00000E+00
   -0.46566E-20         0.37253E-20         0.00000E+00
   -0.51223E-20         0.93132E-20         0.00000E+00
   -0.46566E-20         0.11176E-19         0.00000E+00
   -0.37253E-20         0.11176E-19         0.00000E+00
   -0.13970E-20        -0.37253E-20         0.00000E+00
   -0.93132E-21        -0.27940E-19         0.00000E+00
   -0.19861E-21        -0.37253E-19         0.00000E+00
   -0.34220E-22        -0.37527E-19         0.00000E+00
   -0.43144E-21        -0.29802E-19         0.00000E+00
   -0.18626E-20        -0.27392E-19         0.00000E+00
   -0.30268E-20        -0.27666E-19         0.00000E+00
   -0.23283E-20        -0.15175E-19         0.00000E+00
   -0.18626E-20        -0.95870E-20         0.00000E+00
   -0.27940E-20        -0.11176E-19         0.00000E+00
   -0.37595E-20         0.00000E+00         0.00000E+00
   -0.23283E-20         0.74506E-20         0.00000E+00
   -0.46566E-21         0.00000E+00         0.00000E+00
   -0.46566E-21         0.37253E-20         0.00000E+00
    0.00000E+00         0.11176E-19         0.00000E+00
    0.11642E-20         0.00000E+00         0.00000E+00
    0.46566E-21        -0.14901E-19         0.00000E+00
    0.17110E-22        -0.22352E-19         0.00000E+00
    0.27940E-20        -0.26077E-19         0.00000E+00
    0.32596E-20        -0.22352E-19         0.00000E+00
    0.30439E-20        -0.13312E-19         0.00000E+00
    0.27940E-20        -0.13039E-19         0.00000E+00
    0.41910E-20        -0.53142E-20         0.00000E+00
    0.32596E-20         0.93132E-20         0.00000E+00
    0.93132E-21         0.11176E-19         0.00000E+00
   -0.27940E-20        -0.37253E-20         0.00000E+00
   -0.44067E-20        -0.74506E-20         0.00000E+00
   -0.34753E-20         0.39990E-20         0.00000E+00
   -0.27940E-20         0.74506E-20         0.00000E+00
   -0.13970E-20         0.71768E-20         0.00000E+00
   -0.13970E-20         0.37253E-20         0.00000E+00
   -0.93132E-21        -0.18626E-20         0.00000E+00
   -0.93132E-21        -0.93132E-20         0.00000E+00
   -0.10392E-20        -0.93132E-20         0.00000E+00
   -0.34069E-21        -0.18626E-20         0.00000E+00
   -0.13970E-20        -0.93132E-20         0.00000E+00
   -0.13970E-20        -0.33528E-19         0.00000E+00
   -0.36174E-20        -0.35664E-19         0.00000E+00
   -0.41910E-20        -0.26077E-19         0.00000E+00
   -0.32057E-20        -0.35116E-19         0.00000E+00
   -0.32596E-20        -0.31665E-19         0.00000E+00
   -0.20955E-20        -0.22352E-19         0.00000E+00
   -0.64456E-21        -0.16764E-19         0.00000E+00
   -0.19521E-20        -0.13039E-19         0.00000E+00
   -0.93132E-21        -0.93132E-20         0.00000E+00
    0.00000E+00        -0.39990E-20         0.00000E+00
   -0.13970E-20        -0.42728E-20         0.00000E+00
    0.18626E-20         0.37253E-20         0.00000E+00
    0.46566E-21         0.18626E-20         0.00000E+00
    0.93132E-21         0.00000E+00         0.00000E+00
    0.00000E+00        -0.37253E-20         0.00000E+00
    0.00000E+00        -0.95870E-20         0.00000E+00
   -0.13970E-20        -0.22352E-19         0.00000E+00
   -0.18626E-20        -0.29529E-19         0.00000E+00
   -0.27597E-20        -0.31391E-19         0.00000E+00
   -0.46566E-20        -0.35390E-19         0.00000E+00
   -0.46566E-20        -0.22352E-19         0.00000E+00
   -0.46908E-20        -0.18626E-19         0.00000E+00
   -0.41910E-20        -0.17038E-19         0.00000E+00
   -0.28282E-20        -0.93132E-20         0.00000E+00
   -0.23283E-20        -0.18626E-20         0.00000E+00
   -0.32254E-20        -0.55879E-20         0.00000E+00
   -0.13970E-20        -0.58617E-20         0.00000E+00
   -0.22941E-20         0.55879E-20         0.00000E+00
   -0.37253E-20         0.37253E-20         0.00000E+00
   -0.34753E-20         0.37253E-20         0.00000E+00
   -0.37082E-20         0.27376E-21         0.00000E+00
   -0.27940E-20        -0.93132E-20         0.00000E+00
   -0.11813E-20        -0.22352E-19         0.00000E+00
   -0.16298E-20        -0.26077E-19         0.00000E+00
   -0.13970E-20        -0.18626E-19         0.00000E+00
   -0.14141E-20        -0.11450E-19         0.00000E+00
   -0.18626E-20        -0.90395E-20         0.00000E+00
   -0.32596E-20        -0.10902E-19         0.00000E+00
   -0.27940E-20         0.12765E-19         0.00000E+00
   -0.32596E-20         0.26077E-19         0.00000E+00
   -0.23283E-20         0.11176E-19         0.00000E+00
   -0.18626E-20        -0.55879E-20         0.00000E+00
   -0.16298E-20        -0.37253E-20         0.00000E+00
   -0.18626E-20         0.37253E-20         0.00000E+00
   -0.13970E-20         0.15889E-20         0.00000E+00
   -0.46566E-21         0.00000E+00         0.00000E+00
    0.00000E+00        -0.15889E-20         0.00000E+00
    0.46566E-21         0.00000E+00         0.00000E+00
    0.10786E-21        -0.74506E-20         0.00000E+00
    0.00000E+00        -0.16764E-19         0.00000E+00
    0.13970E-20        -0.18626E-19         0.00000E+00
    0.18626E-20        -0.16764E-19         0.00000E+00
    0.59063E-21        -0.14901E-19         0.00000E+00
    0.93132E-21        -0.26077E-19         0.00000E+00
    0.87739E-21        -0.41252E-19         0.00000E+00
    0.00000E+00        -0.40978E-19         0.00000E+00
    0.11102E-20        -0.26461E-19         0.00000E+00
    0.19521E-20        -0.10245E-19         0.00000E+00
    0.28834E-20        -0.15175E-19         0.00000E+00
    0.32596E-20        -0.18626E-19         0.00000E+00
    0.27940E-20        -0.39990E-20         0.00000E+00
    0.23283E-20         0.69031E-20         0.00000E+00
    0.41910E-20         0.11176E-19         0.00000E+00
    0.46566E-20         0.13039E-19         0.00000E+00
    0.37253E-20         0.14627E-19         0.00000E+00
    0.37253E-20         0.12765E-19         0.00000E+00
    0.27940E-20         0.37253E-20         0.00000E+00
    0.27940E-20        -0.16764E-19         0.00000E+00
    0.93132E-21        -0.29529E-19         0.00000E+00
   -0.13970E-20        -0.23667E-19         0.00000E+00
   -0.28282E-20        -0.22078E-19         0.00000E+00
   -0.41910E-20        -0.28213E-19         0.00000E+00
   -0.36911E-20        -0.30076E-19         0.00000E+00
   -0.46908E-20        -0.22352E-19         0.00000E+00
   -0.48552E-20        -0.16764E-19         0.00000E+00
   -0.42252E-20        -0.10902E-19         0.00000E+00
   -0.37253E-20        -0.55879E-20         0.00000E+00
   -0.51223E-20         0.15889E-20         0.00000E+00
   -0.65535E-20         0.11176E-19         0.00000E+00
   -0.41910E-20         0.12765E-19         0.00000E+00
   -0.37424E-20         0.11176E-19         0.00000E+00
   -0.46737E-20        -0.53142E-20         0.00000E+00
   -0.39410E-20        -0.26077E-19         0.00000E+00
   -0.37253E-20        -0.27940E-19         0.00000E+00
   -0.55708E-20        -0.26351E-19         0.00000E+00
   -0.41910E-20        -0.22352E-19         0.00000E+00
   -0.37082E-20        -0.11176E-19         0.00000E+00
   -0.37253E-20        -0.53142E-20         0.00000E+00
   -0.41910E-20        -0.15889E-20         0.00000E+00
   -0.34925E-20         0.87657E-20         0.00000E+00
   -0.13970E-20         0.74506E-20         0.00000E+00
    0.44855E-21        -0.71768E-20         0.00000E+00
    0.23283E-20        -0.74506E-20         0.00000E+00
    0.16127E-20         0.18626E-20         0.00000E+00
    0.18626E-20         0.37253E-20         0.00000E+00
    0.93132E-21        -0.18626E-20         0.00000E+00
    0.93132E-21        -0.37253E-20         0.00000E+00
    0.68138E-21        -0.37253E-20         0.00000E+00
    0.13970E-20        -0.93132E-20         0.00000E+00
    0.24533E-20        -0.74506E-20         0.00000E+00
    0.32425E-20        -0.74506E-20         0.00000E+00
    0.27940E-20        -0.18626E-19         0.00000E+00
    0.27940E-20        -0.31665E-19         0.00000E+00
    0.46566E-20        -0.29529E-19         0.00000E+00
    0.41910E-20        -0.26077E-19         0.00000E+00
    0.26151E-20        -0.33801E-19         0.00000E+00
    0.37253E-20        -0.33801E-19         0.00000E+00
    0.47105E-20        -0.30076E-19         0.00000E+00
    0.55879E-20        -0.26077E-19         0.00000E+00
    0.60536E-20        -0.20215E-19         0.00000E+00
    0.37253E-20        -0.90395E-20         0.00000E+00
    0.27940E-20        -0.27376E-21         0.00000E+00
    0.23283E-20        -0.54752E-21         0.00000E+00
    0.46566E-21         0.31778E-20         0.00000E+00
    0.13970E-20         0.55879E-20         0.00000E+00
    0.18626E-20         0.39990E-20         0.00000E+00
    0.37253E-20         0.00000E+00         0.00000E+00
    0.51223E-20        -0.39990E-20         0.00000E+00
    0.51223E-20        -0.93132E-20         0.00000E+00
    0.41567E-20        -0.10902E-19         0.00000E+00
    0.36911E-20        -0.16764E-19         0.00000E+00
    0.46908E-20        -0.22625E-19         0.00000E+00
    0.51565E-20        -0.14901E-19         0.00000E+00
    0.50881E-20        -0.14901E-19         0.00000E+00
    0.46908E-20        -0.14901E-19         0.00000E+00
    0.18626E-20        -0.10902E-19         0.00000E+00
    0.18969E-20        -0.37253E-20         0.00000E+00
    0.89710E-21         0.00000E+00         0.00000E+00
    0.93132E-21         0.37253E-20         0.00000E+00
    0.93132E-21         0.00000E+00         0.00000E+00
    0.23283E-20        -0.74506E-20         0.00000E+00
    0.37253E-20         0.71768E-20         0.00000E+00
    0.37424E-20         0.37253E-20         0.00000E+00
    0.18626E-20        -0.14627E-19         0.00000E+00
    0.00000E+00        -0.16764E-19         0.00000E+00
   -0.71560E-21        -0.24214E-19         0.00000E+00
   -0.23283E-20        -0.27666E-19         0.00000E+00
   -0.37253E-20        -0.95870E-20         0.00000E+00
   -0.37253E-20        -0.74506E-20         0.00000E+00
   -0.18626E-20        -0.12765E-19         0.00000E+00
    0.48277E-21        -0.27376E-21         0.00000E+00
    0.23283E-20         0.55879E-20         0.00000E+00
    0.94843E-21        -0.74506E-20         0.00000E+00
   -0.93132E-21        -0.14901E-19         0.00000E+00
   -0.11642E-20        -0.18626E-20         0.00000E+00
   -0.46566E-21         0.11176E-19         0.00000E+00
   -0.93132E-21         0.55879E-20         0.00000E+00
   -0.93132E-21         0.00000E+00         0.00000E+00
    0.11642E-20        -0.39990E-20         0.00000E+00
    0.13970E-20        -0.11176E-19         0.00000E+00
    0.93132E-21        -0.16490E-19         0.00000E+00
    0.22204E-20        -0.15175E-19         0.00000E+00
    0.34925E-20        -0.14901E-19         0.00000E+00
    0.32596E-20        -0.26077E-19         0.00000E+00
    0.30268E-20        -0.22352E-19         0.00000E+00
    0.37253E-20        -0.18353E-19         0.00000E+00
    0.37253E-20        -0.40978E-19         0.00000E+00
    0.34925E-20        -0.48703E-19         0.00000E+00
    0.34385E-20        -0.33528E-19         0.00000E+00
    0.20060E-20        -0.18353E-19         0.00000E+00
    0.10747E-20        -0.55879E-20         0.00000E+00
   -0.46566E-21        -0.21364E-20         0.00000E+00
    0.00000E+00         0.34515E-20         0.00000E+00
   -0.46566E-21         0.11176E-19         0.00000E+00
    0.23283E-20         0.11176E-19         0.00000E+00
    0.23283E-20         0.74506E-20         0.00000E+00
    0.93132E-21        -0.27376E-21         0.00000E+00
    0.46566E-21        -0.21364E-20         0.00000E+00
    0.46566E-21        -0.37253E-20         0.00000E+00
    0.46566E-21        -0.10902E-19         0.00000E+00
    0.18626E-20        -0.22352E-19         0.00000E+00
    0.32938E-20        -0.29802E-19         0.00000E+00
    0.36911E-20        -0.31391E-19         0.00000E+00
    0.22941E-20        -0.29802E-19         0.00000E+00
    0.32938E-20        -0.24214E-19         0.00000E+00
    0.37253E-20        -0.74506E-20         0.00000E+00
    0.36911E-20        -0.55879E-20         0.00000E+00
    0.37253E-20        -0.37253E-20         0.00000E+00
    0.55879E-20         0.18626E-20         0.00000E+00
    0.69849E-20         0.00000E+00         0.00000E+00
    0.60536E-20         0.37253E-20         0.00000E+00
    0.32254E-20        -0.27376E-21         0.00000E+00
    0.13970E-20         0.34515E-20         0.00000E+00
    0.11470E-20         0.58617E-20         0.00000E+00
    0.23283E-21        -0.74506E-20         0.00000E+00
    0.00000E+00        -0.17038E-19         0.00000E+00
    0.13970E-20        -0.14901E-19         0.00000E+00
    0.46566E-21        -0.69031E-20         0.00000E+00
    0.46566E-21        -0.37253E-20         0.00000E+00
    0.13970E-20        -0.15175E-19         0.00000E+00
    0.93132E-21        -0.22352E-19         0.00000E+00
   -0.71560E-21        -0.11450E-19         0.00000E+00
   -0.23283E-20         0.77243E-20         0.00000E+00
   -0.23283E-20         0.77243E-20         0.00000E+00
   -0.13970E-20         0.00000E+00         0.00000E+00
   -0.18455E-20         0.00000E+00         0.00000E+00
   -0.18626E-20         0.37253E-20         0.00000E+00
   -0.93132E-21         0.00000E+00         0.00000E+00
   -0.13970E-20        -0.13039E-19         0.00000E+00
   -0.15048E-20        -0.15175E-19         0.00000E+00
   -0.17377E-20        -0.93132E-20         0.00000E+00
   -0.13970E-20        -0.10902E-19         0.00000E+00
   -0.10563E-20        -0.18626E-19         0.00000E+00
   -0.34069E-21        -0.22352E-19         0.00000E+00
    0.46566E-21        -0.27940E-19         0.00000E+00
   -0.12497E-21        -0.33528E-19         0.00000E+00
    0.20955E-20        -0.31939E-19         0.00000E+00
    0.41370E-20        -0.31665E-19         0.00000E+00
    0.42449E-20        -0.33528E-19         0.00000E+00
    0.37253E-20        -0.24488E-19         0.00000E+00
    0.24178E-20        -0.13039E-19         0.00000E+00
    0.21849E-20        -0.71768E-20         0.00000E+00
    0.27940E-20        -0.15889E-20         0.00000E+00
    0.32596E-20        -0.27376E-21         0.00000E+00
    0.41910E-20        -0.54752E-21         0.00000E+00
    0.46566E-20         0.74506E-20         0.00000E+00
    0.60536E-20         0.12765E-19         0.00000E+00
    0.65535E-20         0.93132E-20         0.00000E+00
    0.46566E-20         0.21364E-20         0.00000E+00
    0.41567E-20        -0.39990E-20         0.00000E+00
    0.41910E-20        -0.17038E-19         0.00000E+00
    0.42252E-20        -0.23941E-19         0.00000E+00
    0.20613E-20        -0.26077E-19         0.00000E+00
    0.96554E-21        -0.20763E-19         0.00000E+00
   -0.46566E-21        -0.12765E-19         0.00000E+00
   -0.49988E-21        -0.16764E-19         0.00000E+00
   -0.46566E-21        -0.17038E-19         0.00000E+00
    0.96554E-21        -0.12765E-19         0.00000E+00
    0.13628E-20        -0.14627E-19         0.00000E+00
    0.23283E-20        -0.14901E-19         0.00000E+00
    0.23283E-20         0.34515E-20         0.00000E+00
    0.37253E-20         0.18353E-19         0.00000E+00
    0.28282E-20         0.14901E-19         0.00000E+00
    0.13970E-20         0.18626E-19         0.00000E+00
    0.20955E-20         0.11450E-19         0.00000E+00
    0.16127E-20        -0.11176E-19         0.00000E+00
    0.18626E-20        -0.24214E-19         0.00000E+00
    0.23283E-20        -0.26077E-19         0.00000E+00
    0.32596E-20        -0.24488E-19         0.00000E+00
    0.46566E-20        -0.16764E-19         0.00000E+00
    0.51223E-20        -0.74506E-20         0.00000E+00
    0.46566E-20         0.18626E-20         0.00000E+00
    0.32596E-20         0.14901E-19         0.00000E+00
    0.13970E-20         0.11176E-19         0.00000E+00
    0.23283E-20        -0.10902E-19         0.00000E+00
    0.23283E-20        -0.16764E-19         0.00000E+00
    0.44238E-20         0.00000E+00         0.00000E+00
    0.51223E-20         0.55879E-20         0.00000E+00
    0.51223E-20         0.15889E-20         0.00000E+00
    0.41910E-20         0.21364E-20         0.00000E+00
    0.12891E-20        -0.11915E-33         0.00000E+00
    0.00000E+00        -0.93132E-20         0.00000E+00
    0.00000E+00        -0.20489E-19         0.00000E+00
   -0.57352E-21        -0.22625E-19         0.00000E+00
   -0.12891E-20        -0.22078E-19         0.00000E+00
   -0.13970E-20        -0.26077E-19         0.00000E+00
   -0.80635E-21        -0.31939E-19         0.00000E+00
   -0.15759E-20        -0.40704E-19         0.00000E+00
   -0.41173E-21        -0.50018E-19         0.00000E+00
    0.64456E-21        -0.43115E-19         0.00000E+00
    0.98525E-21        -0.25146E-19         0.00000E+00
    0.13970E-20        -0.11833E-19         0.00000E+00
    0.11642E-20        -0.95870E-20         0.00000E+00
    0.13970E-20        -0.55879E-20         0.00000E+00
    0.18626E-20        -0.18626E-20         0.00000E+00
    0.18626E-20        -0.54752E-21         0.00000E+00
    0.32596E-20        -0.42728E-20         0.00000E+00
    0.32596E-20        -0.18626E-20         0.00000E+00
    0.36911E-20         0.39990E-20         0.00000E+00
    0.37253E-20         0.71768E-20         0.00000E+00
    0.42252E-20         0.15889E-20         0.00000E+00
    0.32596E-20        -0.11176E-19         0.00000E+00
    0.23283E-20        -0.12765E-19         0.00000E+00
    0.23625E-20        -0.11176E-19         0.00000E+00
    0.41567E-20        -0.18626E-19         0.00000E+00
    0.65193E-20        -0.22078E-19         0.00000E+00
    0.79505E-20        -0.22352E-19         0.00000E+00
    0.88476E-20        -0.15175E-19         0.00000E+00
    0.79162E-20        -0.15175E-19         0.00000E+00
    0.70191E-20        -0.10902E-19         0.00000E+00
    0.37595E-20        -0.53142E-20         0.00000E+00
    0.18626E-20        -0.77243E-20         0.00000E+00
    0.37253E-20         0.15889E-20         0.00000E+00
    0.37253E-20         0.11176E-19         0.00000E+00
    0.37253E-20         0.11176E-19         0.00000E+00
    0.46737E-20         0.37253E-20         0.00000E+00
    0.51223E-20        -0.11176E-19         0.00000E+00
    0.44238E-20        -0.18626E-19         0.00000E+00
    0.27940E-20        -0.20489E-19         0.00000E+00
    0.23283E-20        -0.20215E-19         0.00000E+00
    0.20955E-20        -0.13039E-19         0.00000E+00
    0.18626E-20        -0.11176E-19         0.00000E+00
    0.23283E-20        -0.11176E-19         0.00000E+00
    0.27940E-20         0.15889E-20         0.00000E+00
    0.32596E-20         0.11176E-19         0.00000E+00
    0.32596E-20         0.39990E-20         0.00000E+00
    0.13970E-20        -0.11176E-19         0.00000E+00
    0.44855E-21        -0.14901E-19         0.00000E+00
    0.00000E+00         0.18626E-20         0.00000E+00
   -0.93132E-21         0.53142E-20         0.00000E+00
   -0.13970E-20         0.37253E-20         0.00000E+00
   -0.93132E-21         0.55879E-20         0.00000E+00
   -0.12497E-21        -0.18626E-20         0.00000E+00
   -0.11642E-20        -0.74506E-20         0.00000E+00
   -0.12891E-20        -0.10902E-19         0.00000E+00
   -0.17377E-20        -0.20215E-19         0.00000E+00
   -0.13970E-20        -0.31665E-19         0.00000E+00
    0.80635E-21        -0.30076E-19         0.00000E+00
   -0.23283E-21        -0.31665E-19         0.00000E+00
   -0.12181E-20        -0.46292E-19         0.00000E+00
   -0.23283E-20        -0.41252E-19         0.00000E+00
   -0.51959E-21        -0.26351E-19         0.00000E+00
    0.14864E-20        -0.14627E-19         0.00000E+00
    0.28834E-20        -0.71768E-20         0.00000E+00
    0.41015E-20        -0.39990E-20         0.00000E+00
    0.41910E-20        -0.27376E-21         0.00000E+00
    0.46566E-20         0.00000E+00         0.00000E+00
    0.46566E-21         0.11723E-19         0.00000E+00
    0.00000E+00         0.95870E-20         0.00000E+00
   -0.93132E-21         0.53142E-20         0.00000E+00
    0.93132E-21         0.15889E-20         0.00000E+00
    0.32596E-20         0.00000E+00         0.00000E+00
    0.51223E-20        -0.74506E-20         0.00000E+00
    0.60536E-20        -0.22078E-19         0.00000E+00
    0.74164E-20        -0.35390E-19         0.00000E+00
    0.83819E-20        -0.39389E-19         0.00000E+00
    0.79162E-20        -0.31391E-19         0.00000E+00
    0.71835E-20        -0.27666E-19         0.00000E+00
    0.93132E-20        -0.18626E-19         0.00000E+00
    0.83819E-20        -0.39990E-20         0.00000E+00
    0.81149E-20         0.74506E-20         0.00000E+00
    0.78820E-20         0.74506E-20         0.00000E+00
    0.69849E-20         0.34515E-20         0.00000E+00
    0.51223E-20         0.95870E-20         0.00000E+00
    0.55537E-20         0.14901E-19         0.00000E+00
    0.46566E-20         0.14627E-19         0.00000E+00
    0.28111E-20         0.37253E-20         0.00000E+00
    0.32596E-20        -0.93132E-20         0.00000E+00
    0.32767E-20        -0.11176E-19         0.00000E+00
    0.37253E-20        -0.16764E-19         0.00000E+00
    0.32425E-20        -0.22078E-19         0.00000E+00
    0.25440E-20        -0.13039E-19         0.00000E+00
    0.23283E-20        -0.58617E-20         0.00000E+00
    0.23283E-20        -0.37253E-20         0.00000E+00
    0.46566E-21         0.93132E-20         0.00000E+00
    0.46566E-21         0.11176E-19         0.00000E+00
   -0.23283E-21        -0.37253E-20         0.00000E+00
   -0.13970E-20        -0.37253E-20         0.00000E+00
   -0.46395E-20         0.77243E-20         0.00000E+00
   -0.65364E-20         0.11176E-19         0.00000E+00
   -0.79162E-20         0.93132E-20         0.00000E+00
   -0.69849E-20         0.37253E-20         0.00000E+00
   -0.55879E-20        -0.58617E-20         0.00000E+00
   -0.41910E-20        -0.71768E-20         0.00000E+00
   -0.38503E-20        -0.14627E-19         0.00000E+00
   -0.29018E-20        -0.22352E-19         0.00000E+00
   -0.13970E-20        -0.24214E-19         0.00000E+00
    0.13970E-20        -0.35664E-19         0.00000E+00
    0.27940E-20        -0.37527E-19         0.00000E+00
    0.34385E-20        -0.35390E-19         0.00000E+00
    0.33136E-20        -0.39116E-19         0.00000E+00
    0.37253E-20        -0.44703E-19         0.00000E+00
    0.28479E-20        -0.42841E-19         0.00000E+00
    0.33136E-20        -0.29802E-19         0.00000E+00
    0.36358E-20        -0.22078E-19         0.00000E+00
    0.49342E-20        -0.10902E-19         0.00000E+00
    0.69849E-20        -0.39990E-20         0.00000E+00
    0.69849E-20        -0.42728E-20         0.00000E+00
   -0.93132E-21         0.74506E-20         0.00000E+00
   -0.46566E-21         0.55879E-20         0.00000E+00
   -0.34220E-22        -0.15889E-20         0.00000E+00
    0.00000E+00        -0.11176E-19         0.00000E+00
    0.00000E+00        -0.18900E-19         0.00000E+00
    0.46566E-21        -0.26077E-19         0.00000E+00
    0.18284E-20        -0.26077E-19         0.00000E+00
    0.23283E-20        -0.24214E-19         0.00000E+00
    0.49988E-21        -0.20489E-19         0.00000E+00
    0.26705E-21        -0.18626E-19         0.00000E+00
   -0.89710E-21        -0.27940E-19         0.00000E+00
   -0.93132E-21        -0.20215E-19         0.00000E+00
   -0.93132E-21        -0.10902E-19         0.00000E+00
    0.93132E-21        -0.74506E-20         0.00000E+00
    0.18626E-20        -0.27376E-21         0.00000E+00
    0.32596E-20         0.71768E-20         0.00000E+00
    0.23283E-20         0.11176E-19         0.00000E+00
    0.32938E-20         0.14901E-19         0.00000E+00
    0.32596E-20         0.22352E-19         0.00000E+00
    0.37082E-20         0.93132E-20         0.00000E+00
    0.37253E-20        -0.11176E-19         0.00000E+00
    0.44067E-20        -0.20489E-19         0.00000E+00
    0.51223E-20        -0.22352E-19         0.00000E+00
    0.53722E-20        -0.14901E-19         0.00000E+00
    0.46737E-20        -0.74506E-20         0.00000E+00
    0.46566E-20        -0.93132E-20         0.00000E+00
    0.46566E-20        -0.37253E-20         0.00000E+00
    0.60536E-20         0.11176E-19         0.00000E+00
    0.55879E-20         0.16764E-19         0.00000E+00
    0.41738E-20         0.13039E-19         0.00000E+00
    0.46566E-20         0.93132E-20         0.00000E+00
    0.46395E-20         0.11450E-19         0.00000E+00
    0.44409E-20         0.18626E-19         0.00000E+00
    0.37253E-20         0.53142E-20         0.00000E+00
    0.37253E-20        -0.74506E-20         0.00000E+00
    0.32596E-20        -0.55879E-20         0.00000E+00
    0.48894E-20        -0.11176E-19         0.00000E+00
    0.64114E-20        -0.14901E-19         0.00000E+00
    0.75756E-20        -0.22352E-19         0.00000E+00
    0.81491E-20        -0.40704E-19         0.00000E+00
    0.79162E-20        -0.52154E-19         0.00000E+00
    0.79162E-20        -0.40978E-19         0.00000E+00
    0.79702E-20        -0.35116E-19         0.00000E+00
    0.72177E-20        -0.48429E-19         0.00000E+00
    0.65193E-20        -0.39389E-19         0.00000E+00
    0.48355E-20        -0.22625E-19         0.00000E+00
    0.56774E-20        -0.18353E-19         0.00000E+00
    0.55879E-20        -0.18626E-19         0.00000E+00
    0.67521E-20        -0.18900E-19         0.00000E+00
    0.65193E-20        -0.95870E-20         0.00000E+00
    0.55879E-20        -0.42728E-20         0.00000E+00
    0.00000E+00         0.37253E-20         0.00000E+00
    0.34220E-22         0.55879E-20         0.00000E+00
   -0.11299E-20         0.37253E-20         0.00000E+00
   -0.93132E-21         0.00000E+00         0.00000E+00
   -0.11642E-20        -0.37253E-20         0.00000E+00
   -0.23283E-20        -0.18353E-19         0.00000E+00
   -0.32254E-20        -0.29802E-19         0.00000E+00
   -0.22941E-20        -0.27940E-19         0.00000E+00
   -0.13970E-20        -0.29802E-19         0.00000E+00
    0.93132E-21        -0.24488E-19         0.00000E+00
    0.23283E-20        -0.22352E-19         0.00000E+00
    0.13970E-20        -0.18626E-19         0.00000E+00
    0.13628E-20        -0.11176E-19         0.00000E+00
    0.34220E-22        -0.53142E-20         0.00000E+00
   -0.46566E-21        -0.37253E-20         0.00000E+00
    0.00000E+00        -0.27376E-21         0.00000E+00
    0.46566E-21         0.11450E-19         0.00000E+00
   -0.13970E-20         0.13039E-19         0.00000E+00
   -0.13970E-20         0.90395E-20         0.00000E+00
   -0.13799E-20         0.00000E+00         0.00000E+00
   -0.69849E-21        -0.14901E-19         0.00000E+00
    0.00000E+00        -0.18626E-19         0.00000E+00
   -0.93132E-21        -0.16764E-19         0.00000E+00
    0.00000E+00        -0.18626E-19         0.00000E+00
    0.44855E-21        -0.13039E-19         0.00000E+00
    0.93132E-21        -0.71768E-20         0.00000E+00
    0.18626E-20        -0.93132E-20         0.00000E+00
    0.18798E-20         0.34515E-20         0.00000E+00
    0.18626E-20         0.18626E-19         0.00000E+00
    0.42081E-20         0.37253E-20         0.00000E+00
    0.55879E-20        -0.37253E-20         0.00000E+00
    0.74506E-20         0.74506E-20         0.00000E+00
    0.79162E-20         0.14901E-19         0.00000E+00
    0.88476E-20         0.13039E-19         0.00000E+00
    0.88476E-20         0.55879E-20         0.00000E+00
    0.88476E-20        -0.93132E-20         0.00000E+00
    0.87397E-20        -0.24214E-19         0.00000E+00
    0.98867E-20        -0.29802E-19         0.00000E+00
    0.10818E-19        -0.29802E-19         0.00000E+00
    0.10352E-19        -0.26077E-19         0.00000E+00
    0.79162E-20        -0.35116E-19         0.00000E+00
    0.58208E-20        -0.36979E-19         0.00000E+00
    0.39042E-20        -0.31939E-19         0.00000E+00
    0.25072E-20        -0.31665E-19         0.00000E+00
    0.93132E-21        -0.33528E-19         0.00000E+00
    0.23283E-20        -0.39116E-19         0.00000E+00
    0.14864E-20        -0.32596E-19         0.00000E+00
    0.20955E-20        -0.25419E-19         0.00000E+00
    0.27756E-21        -0.16764E-19         0.00000E+00
   -0.55971E-21        -0.21364E-20         0.00000E+00
    0.00000E+00         0.31778E-20         0.00000E+00
    0.46566E-20         0.79981E-20         0.00000E+00
    0.50881E-20         0.93132E-20         0.00000E+00
    0.55879E-20         0.15889E-20         0.00000E+00
    0.55879E-20        -0.74506E-20         0.00000E+00
    0.67179E-20        -0.11176E-19         0.00000E+00
    0.74506E-20        -0.18626E-19         0.00000E+00
    0.65193E-20        -0.26077E-19         0.00000E+00
    0.64850E-20        -0.33528E-19         0.00000E+00
    0.69849E-20        -0.37253E-19         0.00000E+00
    0.74506E-20        -0.35390E-19         0.00000E+00
    0.88476E-20        -0.29802E-19         0.00000E+00
    0.97789E-20        -0.14901E-19         0.00000E+00
    0.10512E-19        -0.37253E-20         0.00000E+00
    0.10676E-19         0.18626E-20         0.00000E+00
    0.93474E-20         0.00000E+00         0.00000E+00
    0.79505E-20         0.18626E-20         0.00000E+00
    0.69849E-20         0.18626E-19         0.00000E+00
    0.65193E-20         0.24214E-19         0.00000E+00
    0.67521E-20         0.22352E-19         0.00000E+00
    0.55708E-20         0.55879E-20         0.00000E+00
    0.56050E-20        -0.18626E-19         0.00000E+00
    0.51223E-20        -0.20489E-19         0.00000E+00
    0.51223E-20        -0.22352E-19         0.00000E+00
    0.51223E-20        -0.22078E-19         0.00000E+00
    0.39752E-20        -0.13039E-19         0.00000E+00
    0.41910E-20        -0.14901E-19         0.00000E+00
    0.51223E-20        -0.74506E-20         0.00000E+00
    0.60536E-20         0.10902E-19         0.00000E+00
    0.79162E-20         0.55879E-20         0.00000E+00
    0.93132E-20        -0.74506E-20         0.00000E+00
    0.93132E-20        -0.74506E-20         0.00000E+00
    0.97789E-20         0.21364E-20         0.00000E+00
    0.10245E-19         0.11176E-19         0.00000E+00
    0.12573E-19         0.15889E-20         0.00000E+00
    0.13970E-19        -0.55879E-20         0.00000E+00
    0.13379E-19        -0.74506E-20         0.00000E+00
    0.11749E-19        -0.16764E-19         0.00000E+00
    0.94382E-20        -0.22352E-19         0.00000E+00
    0.87397E-20        -0.26077E-19         0.00000E+00
    0.83819E-20        -0.29802E-19         0.00000E+00
    0.74506E-20        -0.29802E-19         0.00000E+00
    0.64114E-20        -0.20489E-19         0.00000E+00
    0.51223E-20        -0.16764E-19         0.00000E+00
    0.49434E-20        -0.31665E-19         0.00000E+00
    0.60536E-20        -0.39116E-19         0.00000E+00
    0.58208E-20        -0.27666E-19         0.00000E+00
    0.35464E-20        -0.19558E-19         0.00000E+00
    0.23283E-21        -0.12381E-19         0.00000E+00
   -0.11642E-20        -0.55879E-20         0.00000E+00
   -0.22343E-20        -0.58617E-20         0.00000E+00
   -0.18626E-20        -0.79981E-20         0.00000E+00
    0.47497E-19         0.00000E+00         0.00000E+00
    0.47032E-19        -0.15889E-20         0.00000E+00
    0.48429E-19        -0.18626E-20         0.00000E+00
    0.46100E-19        -0.37253E-20         0.00000E+00
    0.44703E-19        -0.11176E-19         0.00000E+00
    0.43306E-19        -0.18900E-19         0.00000E+00
    0.43772E-19        -0.26077E-19         0.00000E+00
    0.43341E-19        -0.29802E-19         0.00000E+00
    0.41875E-19        -0.33528E-19         0.00000E+00
    0.41875E-19        -0.33528E-19         0.00000E+00
    0.41444E-19        -0.33528E-19         0.00000E+00
    0.40944E-19        -0.25803E-19         0.00000E+00
    0.40944E-19        -0.13312E-19         0.00000E+00
    0.41478E-19        -0.27376E-21         0.00000E+00
    0.40978E-19         0.77243E-20         0.00000E+00
    0.39581E-19         0.13039E-19         0.00000E+00
    0.38684E-19         0.18626E-19         0.00000E+00
    0.40978E-19         0.13039E-19         0.00000E+00
    0.41461E-19         0.14901E-19         0.00000E+00
    0.43324E-19         0.55879E-20         0.00000E+00
    0.44471E-19        -0.11176E-19         0.00000E+00
    0.43772E-19        -0.16764E-19         0.00000E+00
    0.44238E-19        -0.18626E-19         0.00000E+00
    0.44936E-19        -0.14627E-19         0.00000E+00
    0.44703E-19        -0.74506E-20         0.00000E+00
    0.45169E-19        -0.11176E-19         0.00000E+00
    0.43306E-19        -0.18626E-19         0.00000E+00
    0.43755E-19        -0.95870E-20         0.00000E+00
    0.42841E-19         0.18626E-20         0.00000E+00
    0.41444E-19        -0.37253E-20         0.00000E+00
    0.42841E-19        -0.55879E-20         0.00000E+00
    0.43091E-19         0.18626E-20         0.00000E+00
    0.44703E-19         0.18626E-20         0.00000E+00
    0.45635E-19        -0.55879E-20         0.00000E+00
    0.43772E-19         0.00000E+00         0.00000E+00
    0.44471E-19         0.34515E-20         0.00000E+00
    0.41677E-19        -0.55879E-20         0.00000E+00
    0.40047E-19        -0.16490E-19         0.00000E+00
    0.38059E-19        -0.22352E-19         0.00000E+00
    0.36447E-19        -0.18626E-19         0.00000E+00
    0.35390E-19        -0.25803E-19         0.00000E+00
    0.35731E-19        -0.26077E-19         0.00000E+00
    0.36787E-19        -0.26351E-19         0.00000E+00
    0.36787E-19        -0.36979E-19         0.00000E+00
    0.36322E-19        -0.33528E-19         0.00000E+00
    0.36143E-19        -0.24488E-19         0.00000E+00
    0.36411E-19        -0.67930E-20         0.00000E+00
    0.36465E-19        -0.43829E-20         0.00000E+00
    0.36510E-19        -0.69031E-20         0.00000E+00
    0.36787E-19         0.69031E-20         0.00000E+00
    0.36322E-19         0.26303E-20         0.00000E+00
    0.22911E-18         0.74506E-20         0.00000E+00
    0.22817E-18         0.37253E-20         0.00000E+00
    0.22724E-18         0.71768E-20         0.00000E+00
    0.22864E-18         0.13039E-19         0.00000E+00
    0.22821E-18         0.39990E-20         0.00000E+00
    0.22817E-18        -0.16764E-19         0.00000E+00
    0.22724E-18        -0.25803E-19         0.00000E+00
    0.22678E-18        -0.22352E-19         0.00000E+00
    0.22654E-18        -0.30076E-19         0.00000E+00
    0.22398E-18        -0.33528E-19         0.00000E+00
    0.22119E-18        -0.26077E-19         0.00000E+00
    0.21843E-18        -0.11176E-19         0.00000E+00
    0.21560E-18        -0.37253E-20         0.00000E+00
    0.21281E-18         0.27376E-21         0.00000E+00
    0.21231E-18         0.74506E-20         0.00000E+00
    0.21324E-18         0.13039E-19         0.00000E+00
    0.21464E-18         0.11176E-19         0.00000E+00
    0.21514E-18         0.90395E-20         0.00000E+00
    0.21558E-18         0.93132E-20         0.00000E+00
    0.21721E-18        -0.74506E-20         0.00000E+00
    0.21815E-18        -0.20489E-19         0.00000E+00
    0.21979E-18        -0.20489E-19         0.00000E+00
    0.22117E-18        -0.24214E-19         0.00000E+00
    0.22187E-18        -0.24214E-19         0.00000E+00
    0.22352E-18        -0.16764E-19         0.00000E+00
    0.22353E-18        -0.74506E-20         0.00000E+00
    0.22328E-18         0.00000E+00         0.00000E+00
    0.21979E-18         0.13039E-19         0.00000E+00
    0.21933E-18         0.14901E-19         0.00000E+00
    0.21840E-18        -0.55879E-20         0.00000E+00
    0.21840E-18        -0.14901E-19         0.00000E+00
    0.22002E-18        -0.11176E-19         0.00000E+00
    0.21956E-18         0.00000E+00         0.00000E+00
    0.21933E-18         0.74506E-20         0.00000E+00
    0.21933E-18         0.00000E+00         0.00000E+00
    0.21945E-18         0.37253E-20         0.00000E+00
    0.22062E-18         0.39990E-20         0.00000E+00
    0.22026E-18        -0.34515E-20         0.00000E+00
    0.21992E-18        -0.95870E-20         0.00000E+00
    0.21886E-18        -0.15175E-19         0.00000E+00
    0.21886E-18        -0.24214E-19         0.00000E+00
    0.21746E-18        -0.27940E-19         0.00000E+00
    0.21746E-18        -0.22352E-19         0.00000E+00
    0.21746E-18        -0.31665E-19         0.00000E+00
    0.21700E-18        -0.37253E-19         0.00000E+00
    0.21583E-18        -0.27940E-19         0.00000E+00
    0.21607E-18        -0.18626E-19         0.00000E+00
    0.21834E-18        -0.13039E-19         0.00000E+00
    0.21821E-18        -0.74506E-20         0.00000E+00
    0.21979E-18        -0.58617E-20         0.00000E+00
    0.21979E-18        -0.42728E-20         0.00000E+00
    0.11702E-17         0.74506E-20         0.00000E+00
    0.11716E-17         0.74506E-20         0.00000E+00
    0.11707E-17        -0.34515E-20         0.00000E+00
    0.11707E-17        -0.74506E-20         0.00000E+00
    0.11716E-17        -0.77243E-20         0.00000E+00
    0.11711E-17        -0.14901E-19         0.00000E+00
    0.11688E-17        -0.18626E-19         0.00000E+00
    0.11660E-17        -0.26077E-19         0.00000E+00
    0.11642E-17        -0.20215E-19         0.00000E+00
    0.11623E-17        -0.74506E-20         0.00000E+00
    0.11600E-17        -0.58617E-20         0.00000E+00
    0.11586E-17         0.34515E-20         0.00000E+00
    0.11567E-17         0.13039E-19         0.00000E+00
    0.11571E-17         0.15175E-19         0.00000E+00
    0.11567E-17         0.55879E-20         0.00000E+00
    0.11581E-17         0.00000E+00         0.00000E+00
    0.11581E-17         0.93132E-20         0.00000E+00
    0.11567E-17         0.11176E-19         0.00000E+00
    0.11562E-17         0.55879E-20         0.00000E+00
    0.11560E-17        -0.74506E-20         0.00000E+00
    0.11560E-17        -0.26077E-19         0.00000E+00
    0.11560E-17        -0.33528E-19         0.00000E+00
    0.11567E-17        -0.29802E-19         0.00000E+00
    0.11583E-17        -0.26077E-19         0.00000E+00
    0.11574E-17        -0.14901E-19         0.00000E+00
    0.11576E-17        -0.74506E-20         0.00000E+00
    0.11581E-17         0.00000E+00         0.00000E+00
    0.11590E-17         0.93132E-20         0.00000E+00
    0.11609E-17         0.93132E-20         0.00000E+00
    0.11623E-17        -0.18626E-20         0.00000E+00
    0.11628E-17        -0.13039E-19         0.00000E+00
    0.11634E-17        -0.37253E-20         0.00000E+00
    0.11627E-17         0.37253E-20         0.00000E+00
    0.11628E-17        -0.21364E-20         0.00000E+00
    0.11642E-17        -0.18626E-20         0.00000E+00
    0.11623E-17        -0.53142E-20         0.00000E+00
    0.11643E-17        -0.74506E-20         0.00000E+00
    0.11637E-17        -0.13039E-19         0.00000E+00
    0.11647E-17        -0.16764E-19         0.00000E+00
    0.11638E-17        -0.13039E-19         0.00000E+00
    0.11642E-17        -0.18626E-19         0.00000E+00
    0.11642E-17        -0.18626E-19         0.00000E+00
    0.11639E-17        -0.25803E-19         0.00000E+00
    0.11643E-17        -0.33528E-19         0.00000E+00
    0.11637E-17        -0.28213E-19         0.00000E+00
    0.11622E-17        -0.20489E-19         0.00000E+00
    0.11632E-17        -0.14627E-19         0.00000E+00
    0.11629E-17        -0.16764E-19         0.00000E+00
    0.11634E-17        -0.13312E-19         0.00000E+00
    0.11639E-17        -0.39990E-20         0.00000E+00
    0.11632E-17        -0.54752E-21         0.00000E+00
    0.60624E-17        -0.37253E-20         0.00000E+00
    0.60625E-17         0.18626E-20         0.00000E+00
    0.60638E-17         0.74506E-20         0.00000E+00
    0.60629E-17         0.74506E-20         0.00000E+00
    0.60643E-17         0.37253E-20         0.00000E+00
    0.60629E-17        -0.18626E-20         0.00000E+00
    0.60639E-17        -0.27376E-21         0.00000E+00
    0.60643E-17         0.51618E-33         0.00000E+00
    0.60626E-17        -0.10902E-19         0.00000E+00
    0.60646E-17        -0.13039E-19         0.00000E+00
    0.60648E-17        -0.74506E-20         0.00000E+00
    0.60652E-17         0.37253E-20         0.00000E+00
    0.60638E-17         0.37253E-20         0.00000E+00
    0.60662E-17         0.27376E-21         0.00000E+00
    0.60662E-17         0.37253E-20         0.00000E+00
    0.60659E-17         0.90395E-20         0.00000E+00
    0.60643E-17         0.18626E-19         0.00000E+00
    0.60643E-17         0.16764E-19         0.00000E+00
    0.60638E-17         0.13039E-19         0.00000E+00
    0.60639E-17        -0.37253E-20         0.00000E+00
    0.60643E-17        -0.20489E-19         0.00000E+00
    0.60634E-17        -0.26077E-19         0.00000E+00
    0.60624E-17        -0.37253E-19         0.00000E+00
    0.60627E-17        -0.29802E-19         0.00000E+00
    0.60624E-17        -0.14901E-19         0.00000E+00
    0.60620E-17        -0.93132E-20         0.00000E+00
    0.60634E-17        -0.74506E-20         0.00000E+00
    0.60657E-17         0.00000E+00         0.00000E+00
    0.60652E-17         0.18626E-20         0.00000E+00
    0.60657E-17        -0.16764E-19         0.00000E+00
    0.60666E-17        -0.24214E-19         0.00000E+00
    0.60657E-17        -0.93132E-20         0.00000E+00
    0.60676E-17         0.37253E-20         0.00000E+00
    0.60685E-17         0.00000E+00         0.00000E+00
    0.60690E-17         0.37253E-20         0.00000E+00
    0.60690E-17         0.18626E-20         0.00000E+00
    0.60684E-17        -0.37253E-20         0.00000E+00
    0.60677E-17        -0.37253E-20         0.00000E+00
    0.60658E-17        -0.93132E-20         0.00000E+00
    0.60659E-17        -0.14901E-19         0.00000E+00
    0.60657E-17        -0.27940E-19         0.00000E+00
    0.60662E-17        -0.27940E-19         0.00000E+00
    0.60672E-17        -0.20763E-19         0.00000E+00
    0.60666E-17        -0.27940E-19         0.00000E+00
    0.60655E-17        -0.27666E-19         0.00000E+00
    0.60658E-17        -0.25803E-19         0.00000E+00
    0.60661E-17        -0.23283E-19         0.00000E+00
    0.60652E-17        -0.14244E-19         0.00000E+00
    0.60641E-17        -0.11176E-19         0.00000E+00
    0.60642E-17        -0.21364E-20         0.00000E+00
    0.60648E-17         0.31778E-20         0.00000E+00
    0.31114E-16         0.74506E-20         0.00000E+00
    0.31114E-16         0.18626E-20         0.00000E+00
    0.31114E-16        -0.74506E-20         0.00000E+00
    0.31114E-16        -0.11176E-19         0.00000E+00
    0.31115E-16        -0.58617E-20         0.00000E+00
    0.31117E-16        -0.13039E-19         0.00000E+00
    0.31121E-16        -0.25803E-19         0.00000E+00
    0.31126E-16        -0.20763E-19         0.00000E+00
    0.31128E-16        -0.20489E-19         0.00000E+00
    0.31128E-16        -0.16490E-19         0.00000E+00
    0.31130E-16        -0.93132E-20         0.00000E+00
    0.31130E-16         0.55879E-20         0.00000E+00
    0.31130E-16         0.93132E-20         0.00000E+00
    0.31130E-16         0.55879E-20         0.00000E+00
    0.31130E-16         0.74506E-20         0.00000E+00
    0.31129E-16         0.11176E-19         0.00000E+00
    0.31129E-16         0.14901E-19         0.00000E+00
    0.31130E-16         0.11176E-19         0.00000E+00
    0.31130E-16         0.74506E-20         0.00000E+00
    0.31131E-16        -0.93132E-20         0.00000E+00
    0.31131E-16        -0.24214E-19         0.00000E+00
    0.31132E-16        -0.24214E-19         0.00000E+00
    0.31131E-16        -0.26077E-19         0.00000E+00
    0.31131E-16        -0.24214E-19         0.00000E+00
    0.31131E-16        -0.93132E-20         0.00000E+00
    0.31130E-16        -0.14901E-19         0.00000E+00
    0.31129E-16        -0.18626E-19         0.00000E+00
    0.31126E-16         0.00000E+00         0.00000E+00
    0.31126E-16         0.74506E-20         0.00000E+00
    0.31125E-16        -0.55879E-20         0.00000E+00
    0.31125E-16        -0.13039E-19         0.00000E+00
    0.31124E-16        -0.11176E-19         0.00000E+00
    0.31126E-16        -0.93132E-20         0.00000E+00
    0.31126E-16        -0.74506E-20         0.00000E+00
    0.31126E-16        -0.55879E-20         0.00000E+00
    0.31127E-16        -0.39990E-20         0.00000E+00
    0.31127E-16         0.25146E-33         0.00000E+00
    0.31127E-16         0.27376E-21         0.00000E+00
    0.31126E-16        -0.95870E-20         0.00000E+00
    0.31127E-16        -0.11176E-19         0.00000E+00
    0.31129E-16        -0.18353E-19         0.00000E+00
    0.31127E-16        -0.26351E-19         0.00000E+00
    0.31128E-16        -0.26351E-19         0.00000E+00
    0.31129E-16        -0.27666E-19         0.00000E+00
    0.31129E-16        -0.23941E-19         0.00000E+00
    0.31127E-16        -0.21694E-19         0.00000E+00
    0.31125E-16        -0.12107E-19         0.00000E+00
    0.31124E-16        -0.71768E-20         0.00000E+00
    0.31124E-16        -0.77243E-20         0.00000E+00
    0.31123E-16        -0.77243E-20         0.00000E+00
    0.31124E-16        -0.74506E-20         0.00000E+00
    0.15670E-15        -0.54752E-21         0.00000E+00
    0.15670E-15         0.37253E-20         0.00000E+00
    0.15669E-15         0.58617E-20         0.00000E+00
    0.15669E-15         0.27376E-21         0.00000E+00
    0.15669E-15        -0.11450E-19         0.00000E+00
    0.15669E-15        -0.34075E-19         0.00000E+00
    0.15669E-15        -0.42567E-19         0.00000E+00
    0.15669E-15        -0.33254E-19         0.00000E+00
    0.15670E-15        -0.22352E-19         0.00000E+00
    0.15670E-15        -0.20489E-19         0.00000E+00
    0.15670E-15        -0.16764E-19         0.00000E+00
    0.15670E-15         0.00000E+00         0.00000E+00
    0.15670E-15         0.55879E-20         0.00000E+00
    0.15670E-15         0.18626E-20         0.00000E+00
    0.15670E-15         0.58617E-20         0.00000E+00
    0.15670E-15         0.16490E-19         0.00000E+00
    0.15671E-15         0.14354E-19         0.00000E+00
    0.15671E-15         0.11176E-19         0.00000E+00
    0.15671E-15         0.77243E-20         0.00000E+00
    0.15671E-15        -0.71768E-20         0.00000E+00
    0.15670E-15        -0.22352E-19         0.00000E+00
    0.15670E-15        -0.26077E-19         0.00000E+00
    0.15670E-15        -0.33528E-19         0.00000E+00
    0.15670E-15        -0.29802E-19         0.00000E+00
    0.15670E-15        -0.93132E-20         0.00000E+00
    0.15670E-15         0.00000E+00         0.00000E+00
    0.15670E-15         0.74506E-20         0.00000E+00
    0.15670E-15         0.14901E-19         0.00000E+00
    0.15670E-15         0.93132E-20         0.00000E+00
    0.15670E-15        -0.11176E-19         0.00000E+00
    0.15670E-15        -0.18626E-19         0.00000E+00
    0.15670E-15        -0.11176E-19         0.00000E+00
    0.15670E-15        -0.37253E-20         0.00000E+00
    0.15670E-15        -0.37253E-20         0.00000E+00
    0.15670E-15        -0.37253E-20         0.00000E+00
    0.15670E-15        -0.27376E-21         0.00000E+00
    0.15669E-15        -0.21364E-20         0.00000E+00
    0.15670E-15        -0.37253E-20         0.00000E+00
    0.15670E-15        -0.10902E-19         0.00000E+00
    0.15670E-15        -0.24214E-19         0.00000E+00
    0.15670E-15        -0.27940E-19         0.00000E+00
    0.15670E-15        -0.23941E-19         0.00000E+00
    0.15670E-15        -0.29802E-19         0.00000E+00
    0.15670E-15        -0.33528E-19         0.00000E+00
    0.15670E-15        -0.20763E-19         0.00000E+00
    0.15670E-15        -0.74506E-20         0.00000E+00
    0.15670E-15        -0.65193E-20         0.00000E+00
    0.15670E-15        -0.67930E-20         0.00000E+00
    0.15670E-15        -0.87657E-20         0.00000E+00
    0.15670E-15        -0.37253E-20         0.00000E+00
    0.15670E-15        -0.48203E-20         0.00000E+00
    0.77269E-15         0.74506E-20         0.00000E+00
    0.77269E-15         0.37253E-20         0.00000E+00
    0.77269E-15         0.15889E-20         0.00000E+00
    0.77269E-15        -0.27376E-21         0.00000E+00
    0.77269E-15        -0.11176E-19         0.00000E+00
    0.77268E-15        -0.18353E-19         0.00000E+00
    0.77268E-15        -0.20215E-19         0.00000E+00
    0.77268E-15        -0.29802E-19         0.00000E+00
    0.77268E-15        -0.39116E-19         0.00000E+00
    0.77268E-15        -0.33528E-19         0.00000E+00
    0.77268E-15        -0.27940E-19         0.00000E+00
    0.77269E-15        -0.20489E-19         0.00000E+00
    0.77269E-15        -0.77243E-20         0.00000E+00
    0.77269E-15         0.74506E-20         0.00000E+00
    0.77269E-15         0.11723E-19         0.00000E+00
    0.77269E-15        -0.18626E-20         0.00000E+00
    0.77269E-15        -0.27376E-21         0.00000E+00
    0.77269E-15         0.93132E-20         0.00000E+00
    0.77269E-15         0.12765E-19         0.00000E+00
    0.77269E-15         0.18626E-20         0.00000E+00
    0.77269E-15        -0.12765E-19         0.00000E+00
    0.77269E-15        -0.11176E-19         0.00000E+00
    0.77269E-15        -0.18626E-19         0.00000E+00
    0.77269E-15        -0.26077E-19         0.00000E+00
    0.77269E-15        -0.11176E-19         0.00000E+00
    0.77269E-15        -0.37253E-20         0.00000E+00
    0.77269E-15        -0.18626E-20         0.00000E+00
    0.77269E-15         0.55879E-20         0.00000E+00
    0.77269E-15         0.55879E-20         0.00000E+00
    0.77269E-15         0.18626E-20         0.00000E+00
    0.77269E-15        -0.55879E-20         0.00000E+00
    0.77269E-15        -0.55879E-20         0.00000E+00
    0.77269E-15        -0.55879E-20         0.00000E+00
    0.77269E-15        -0.55879E-20         0.00000E+00
    0.77269E-15        -0.18626E-20         0.00000E+00
    0.77269E-15         0.18626E-20         0.00000E+00
    0.77269E-15         0.37253E-20         0.00000E+00
    0.77269E-15        -0.93132E-20         0.00000E+00
    0.77269E-15        -0.16764E-19         0.00000E+00
    0.77269E-15        -0.20763E-19         0.00000E+00
    0.77269E-15        -0.41252E-19         0.00000E+00
    0.77269E-15        -0.42567E-19         0.00000E+00
    0.77269E-15        -0.25803E-19         0.00000E+00
    0.77269E-15        -0.26351E-19         0.00000E+00
    0.77269E-15        -0.26351E-19         0.00000E+00
    0.77269E-15        -0.22352E-19         0.00000E+00
    0.77269E-15        -0.15559E-19         0.00000E+00
    0.77269E-15        -0.13696E-19         0.00000E+00
    0.77269E-15        -0.11176E-19         0.00000E+00
    0.77269E-15         0.15889E-20         0.00000E+00
    0.77269E-15         0.31778E-20         0.00000E+00
    0.37248E-14         0.69031E-20         0.00000E+00
    0.37248E-14         0.93132E-20         0.00000E+00
    0.37248E-14         0.11450E-19         0.00000E+00
    0.37248E-14         0.74506E-20         0.00000E+00
    0.37248E-14         0.15889E-20         0.00000E+00
    0.37248E-14        -0.13039E-19         0.00000E+00
    0.37248E-14        -0.31665E-19         0.00000E+00
    0.37248E-14        -0.39116E-19         0.00000E+00
    0.37248E-14        -0.40704E-19         0.00000E+00
    0.37248E-14        -0.31665E-19         0.00000E+00
    0.37248E-14        -0.30076E-19         0.00000E+00
    0.37248E-14        -0.22625E-19         0.00000E+00
    0.37248E-14        -0.14627E-19         0.00000E+00
    0.37248E-14        -0.10902E-19         0.00000E+00
    0.37248E-14        -0.74506E-20         0.00000E+00
    0.37248E-14         0.00000E+00         0.00000E+00
    0.37248E-14         0.11176E-19         0.00000E+00
    0.37248E-14         0.11176E-19         0.00000E+00
    0.37248E-14         0.10902E-19         0.00000E+00
    0.37248E-14         0.37253E-20         0.00000E+00
    0.37248E-14         0.27376E-21         0.00000E+00
    0.37248E-14        -0.11176E-19         0.00000E+00
    0.37248E-14        -0.31665E-19         0.00000E+00
    0.37248E-14        -0.26077E-19         0.00000E+00
    0.37248E-14        -0.93132E-20         0.00000E+00
    0.37248E-14        -0.55879E-20         0.00000E+00
    0.37248E-14         0.00000E+00         0.00000E+00
    0.37248E-14         0.13039E-19         0.00000E+00
    0.37248E-14         0.14901E-19         0.00000E+00
    0.37248E-14         0.00000E+00         0.00000E+00
    0.37248E-14        -0.11450E-19         0.00000E+00
    0.37248E-14        -0.11176E-19         0.00000E+00
    0.37248E-14        -0.71768E-20         0.00000E+00
    0.37248E-14        -0.27376E-21         0.00000E+00
    0.37248E-14         0.18626E-20         0.00000E+00
    0.37248E-14        -0.11176E-19         0.00000E+00
    0.37248E-14        -0.16764E-19         0.00000E+00
    0.37248E-14        -0.71768E-20         0.00000E+00
    0.37248E-14        -0.93132E-20         0.00000E+00
    0.37248E-14        -0.26351E-19         0.00000E+00
    0.37248E-14        -0.31939E-19         0.00000E+00
    0.37248E-14        -0.25803E-19         0.00000E+00
    0.37248E-14        -0.27666E-19         0.00000E+00
    0.37248E-14        -0.33528E-19         0.00000E+00
    0.37248E-14        -0.28213E-19         0.00000E+00
    0.37248E-14        -0.21420E-19         0.00000E+00
    0.37248E-14        -0.93132E-20         0.00000E+00
    0.37248E-14        -0.27940E-20         0.00000E+00
    0.37248E-14        -0.71768E-20         0.00000E+00
    0.37248E-14        -0.39990E-20         0.00000E+00
    0.37248E-14        -0.54752E-21         0.00000E+00
    0.17514E-13         0.31778E-20         0.00000E+00
    0.17514E-13        -0.27376E-21         0.00000E+00
    0.17514E-13         0.37253E-20         0.00000E+00
    0.17514E-13         0.74506E-20         0.00000E+00
    0.17514E-13        -0.93132E-20         0.00000E+00
    0.17514E-13        -0.23941E-19         0.00000E+00
    0.17514E-13        -0.29802E-19         0.00000E+00
    0.17514E-13        -0.29802E-19         0.00000E+00
    0.17514E-13        -0.37253E-19         0.00000E+00
    0.17514E-13        -0.39116E-19         0.00000E+00
    0.17514E-13        -0.29802E-19         0.00000E+00
    0.17514E-13        -0.20489E-19         0.00000E+00
    0.17514E-13        -0.10902E-19         0.00000E+00
    0.17514E-13        -0.74506E-20         0.00000E+00
    0.17514E-13        -0.37253E-20         0.00000E+00
    0.17514E-13         0.53142E-20         0.00000E+00
    0.17514E-13         0.74506E-20         0.00000E+00
    0.17514E-13         0.74506E-20         0.00000E+00
    0.17514E-13         0.74506E-20         0.00000E+00
    0.17514E-13        -0.34515E-20         0.00000E+00
    0.17514E-13        -0.16764E-19         0.00000E+00
    0.17514E-13        -0.24214E-19         0.00000E+00
    0.17514E-13        -0.31665E-19         0.00000E+00
    0.17514E-13        -0.24214E-19         0.00000E+00
    0.17514E-13        -0.74506E-20         0.00000E+00
    0.17514E-13        -0.55879E-20         0.00000E+00
    0.17514E-13         0.37253E-20         0.00000E+00
    0.17514E-13         0.20489E-19         0.00000E+00
    0.17514E-13         0.18626E-19         0.00000E+00
    0.17514E-13         0.00000E+00         0.00000E+00
    0.17514E-13        -0.11176E-19         0.00000E+00
    0.17514E-13        -0.74506E-20         0.00000E+00
    0.17514E-13        -0.39990E-20         0.00000E+00
    0.17514E-13        -0.11176E-19         0.00000E+00
    0.17514E-13        -0.71768E-20         0.00000E+00
    0.17514E-13         0.74506E-20         0.00000E+00
    0.17514E-13         0.74506E-20         0.00000E+00
    0.17514E-13        -0.27376E-21         0.00000E+00
    0.17514E-13         0.00000E+00         0.00000E+00
    0.17514E-13        -0.14901E-19         0.00000E+00
    0.17514E-13        -0.31665E-19         0.00000E+00
    0.17514E-13        -0.26077E-19         0.00000E+00
    0.17514E-13        -0.16764E-19         0.00000E+00
    0.17514E-13        -0.24214E-19         0.00000E+00
    0.17514E-13        -0.26351E-19         0.00000E+00
    0.17514E-13        -0.24872E-19         0.00000E+00
    0.17514E-13        -0.21420E-19         0.00000E+00
    0.17514E-13        -0.23283E-19         0.00000E+00
    0.17514E-13        -0.17421E-19         0.00000E+00
    0.17514E-13         0.34515E-20         0.00000E+00
    0.17514E-13         0.14354E-19         0.00000E+00
    0.80116E-13         0.54751E-21         0.00000E+00
    0.80116E-13         0.18626E-20         0.00000E+00
    0.80116E-13        -0.58617E-20         0.00000E+00
    0.80116E-13        -0.10902E-19         0.00000E+00
    0.80116E-13        -0.37253E-20         0.00000E+00
    0.80116E-13        -0.15175E-19         0.00000E+00
    0.80116E-13        -0.36979E-19         0.00000E+00
    0.80116E-13        -0.40704E-19         0.00000E+00
    0.80116E-13        -0.37527E-19         0.00000E+00
    0.80116E-13        -0.29802E-19         0.00000E+00
    0.80116E-13        -0.16490E-19         0.00000E+00
    0.80116E-13        -0.95870E-20         0.00000E+00
    0.80116E-13        -0.13039E-19         0.00000E+00
    0.80116E-13        -0.53142E-20         0.00000E+00
    0.80116E-13         0.18626E-20         0.00000E+00
    0.80116E-13        -0.27376E-21         0.00000E+00
    0.80116E-13         0.93132E-20         0.00000E+00
    0.80116E-13         0.14901E-19         0.00000E+00
    0.80116E-13         0.11176E-19         0.00000E+00
    0.80116E-13        -0.34515E-20         0.00000E+00
    0.80116E-13        -0.74506E-20         0.00000E+00
    0.80116E-13        -0.18626E-19         0.00000E+00
    0.80116E-13        -0.33528E-19         0.00000E+00
    0.80116E-13        -0.26077E-19         0.00000E+00
    0.80116E-13        -0.11450E-19         0.00000E+00
    0.80116E-13        -0.37253E-20         0.00000E+00
    0.80116E-13        -0.34515E-20         0.00000E+00
    0.80116E-13         0.37253E-20         0.00000E+00
    0.80116E-13        -0.18626E-20         0.00000E+00
    0.80116E-13        -0.11176E-19         0.00000E+00
    0.80116E-13        -0.55879E-20         0.00000E+00
    0.80116E-13         0.18626E-20         0.00000E+00
    0.80116E-13         0.15889E-20         0.00000E+00
    0.80116E-13         0.55879E-20         0.00000E+00
    0.80116E-13         0.37253E-20         0.00000E+00
    0.80116E-13        -0.11723E-19         0.00000E+00
    0.80116E-13        -0.14627E-19         0.00000E+00
    0.80116E-13        -0.90395E-20         0.00000E+00
    0.80116E-13        -0.27376E-21         0.00000E+00
    0.80116E-13         0.37253E-20         0.00000E+00
    0.80116E-13        -0.93132E-20         0.00000E+00
    0.80116E-13        -0.20489E-19         0.00000E+00
    0.80116E-13        -0.22352E-19         0.00000E+00
    0.80116E-13        -0.29802E-19         0.00000E+00
    0.80116E-13        -0.27940E-19         0.00000E+00
    0.80116E-13        -0.20489E-19         0.00000E+00
    0.80116E-13        -0.16764E-19         0.00000E+00
    0.80116E-13        -0.18626E-19         0.00000E+00
    0.80116E-13        -0.93132E-20         0.00000E+00
    0.80116E-13         0.18626E-20         0.00000E+00
    0.80116E-13         0.00000E+00         0.00000E+00
    0.35550E-12         0.11176E-19         0.00000E+00
    0.35550E-12         0.11450E-19         0.00000E+00
    0.35550E-12         0.11450E-19         0.00000E+00
    0.35550E-12         0.11176E-19         0.00000E+00
    0.35550E-12        -0.21364E-20         0.00000E+00
    0.35550E-12        -0.26351E-19         0.00000E+00
    0.35550E-12        -0.33254E-19         0.00000E+00
    0.35550E-12        -0.29802E-19         0.00000E+00
    0.35550E-12        -0.31665E-19         0.00000E+00
    0.35550E-12        -0.33254E-19         0.00000E+00
    0.35550E-12        -0.31939E-19         0.00000E+00
    0.35550E-12        -0.18626E-19         0.00000E+00
    0.35550E-12        -0.10902E-19         0.00000E+00
    0.35550E-12        -0.34515E-20         0.00000E+00
    0.35550E-12        -0.18626E-20         0.00000E+00
    0.35550E-12        -0.42728E-20         0.00000E+00
    0.35550E-12         0.90395E-20         0.00000E+00
    0.35550E-12         0.18626E-19         0.00000E+00
    0.35550E-12         0.20215E-19         0.00000E+00
    0.35550E-12         0.17969E-19         0.00000E+00
    0.35550E-12        -0.65758E-21         0.00000E+00
    0.35550E-12        -0.18626E-19         0.00000E+00
    0.35550E-12        -0.24214E-19         0.00000E+00
    0.35550E-12        -0.29802E-19         0.00000E+00
    0.35550E-12        -0.29802E-19         0.00000E+00
    0.35550E-12        -0.16764E-19         0.00000E+00
    0.35550E-12        -0.71768E-20         0.00000E+00
    0.35550E-12        -0.55879E-20         0.00000E+00
    0.35550E-12         0.00000E+00         0.00000E+00
    0.35550E-12        -0.37253E-20         0.00000E+00
    0.35550E-12        -0.11450E-19         0.00000E+00
    0.35550E-12        -0.37253E-20         0.00000E+00
    0.35550E-12         0.95870E-20         0.00000E+00
    0.35550E-12         0.74506E-20         0.00000E+00
    0.35550E-12         0.90395E-20         0.00000E+00
    0.35550E-12         0.14627E-19         0.00000E+00
    0.35550E-12         0.95870E-20         0.00000E+00
    0.35550E-12        -0.37253E-20         0.00000E+00
    0.35550E-12        -0.95870E-20         0.00000E+00
    0.35550E-12        -0.18626E-19         0.00000E+00
    0.35550E-12        -0.29529E-19         0.00000E+00
    0.35550E-12        -0.22352E-19         0.00000E+00
    0.35550E-12        -0.22352E-19         0.00000E+00
    0.35550E-12        -0.29529E-19         0.00000E+00
    0.35550E-12        -0.30076E-19         0.00000E+00
    0.35550E-12        -0.22625E-19         0.00000E+00
    0.35550E-12        -0.11833E-19         0.00000E+00
    0.35550E-12        -0.65193E-20         0.00000E+00
    0.35550E-12        -0.77243E-20         0.00000E+00
    0.35550E-12        -0.39990E-20         0.00000E+00
    0.35550E-12        -0.54749E-21         0.00000E+00
    0.15250E-11        -0.37253E-20         0.00000E+00
    0.15250E-11        -0.15889E-20         0.00000E+00
    0.15250E-11         0.37253E-20         0.00000E+00
    0.15250E-11         0.14627E-19         0.00000E+00
    0.15250E-11         0.74506E-20         0.00000E+00
    0.15250E-11        -0.14627E-19         0.00000E+00
    0.15250E-11        -0.23941E-19         0.00000E+00
    0.15250E-11        -0.33801E-19         0.00000E+00
    0.15250E-11        -0.39389E-19         0.00000E+00
    0.15250E-11        -0.27666E-19         0.00000E+00
    0.15250E-11        -0.22078E-19         0.00000E+00
    0.15250E-11        -0.17038E-19         0.00000E+00
    0.15250E-11        -0.11450E-19         0.00000E+00
    0.15250E-11        -0.37253E-20         0.00000E+00
    0.15250E-11         0.39990E-20         0.00000E+00
    0.15250E-11         0.11450E-19         0.00000E+00
    0.15250E-11         0.24214E-19         0.00000E+00
    0.15250E-11         0.27666E-19         0.00000E+00
    0.15250E-11         0.27666E-19         0.00000E+00
    0.15250E-11         0.17038E-19         0.00000E+00
    0.15250E-11        -0.37253E-20         0.00000E+00
    0.15250E-11        -0.18900E-19         0.00000E+00
    0.15250E-11        -0.33254E-19         0.00000E+00
    0.15250E-11        -0.33254E-19         0.00000E+00
    0.15250E-11        -0.17038E-19         0.00000E+00
    0.15250E-11        -0.93132E-20         0.00000E+00
    0.15250E-11         0.39990E-20         0.00000E+00
    0.15250E-11         0.11176E-19         0.00000E+00
    0.15250E-11         0.15889E-20         0.00000E+00
    0.15250E-11        -0.93132E-20         0.00000E+00
    0.15250E-11        -0.14627E-19         0.00000E+00
    0.15250E-11        -0.14901E-19         0.00000E+00
    0.15250E-11        -0.11176E-19         0.00000E+00
    0.15250E-11        -0.21364E-20         0.00000E+00
    0.15250E-11         0.71769E-20         0.00000E+00
    0.15250E-11         0.37253E-20         0.00000E+00
    0.15250E-11        -0.15889E-20         0.00000E+00
    0.15250E-11         0.21364E-20         0.00000E+00
    0.15250E-11         0.55879E-20         0.00000E+00
    0.15250E-11        -0.21364E-20         0.00000E+00
    0.15250E-11        -0.22352E-19         0.00000E+00
    0.15250E-11        -0.27940E-19         0.00000E+00
    0.15250E-11        -0.26351E-19         0.00000E+00
    0.15250E-11        -0.33528E-19         0.00000E+00
    0.15250E-11        -0.29802E-19         0.00000E+00
    0.15250E-11        -0.19284E-19         0.00000E+00
    0.15250E-11        -0.11833E-19         0.00000E+00
    0.15250E-11        -0.74506E-20         0.00000E+00
    0.15250E-11        -0.21364E-20         0.00000E+00
    0.15250E-11         0.31779E-20         0.00000E+00
    0.15250E-11         0.69032E-20         0.00000E+00
    0.62995E-11         0.37253E-20         0.00000E+00
    0.62995E-11         0.37253E-20         0.00000E+00
    0.62995E-11         0.21362E-20         0.00000E+00
    0.62995E-11         0.18626E-20         0.00000E+00
    0.62995E-11         0.15891E-20         0.00000E+00
    0.62995E-11        -0.74506E-20         0.00000E+00
    0.62995E-11        -0.20489E-19         0.00000E+00
    0.62995E-11        -0.20489E-19         0.00000E+00
    0.62995E-11        -0.22078E-19         0.00000E+00
    0.62995E-11        -0.23941E-19         0.00000E+00
    0.62995E-11        -0.28213E-19         0.00000E+00
    0.62995E-11        -0.24214E-19         0.00000E+00
    0.62995E-11        -0.93132E-20         0.00000E+00
    0.62995E-11        -0.10190E-32         0.00000E+00
    0.62995E-11         0.77241E-20         0.00000E+00
    0.62995E-11         0.37253E-20         0.00000E+00
    0.62995E-11         0.71770E-20         0.00000E+00
    0.62995E-11         0.14901E-19         0.00000E+00
    0.62995E-11         0.20216E-19         0.00000E+00
    0.62995E-11         0.13039E-19         0.00000E+00
    0.62995E-11        -0.13155E-20         0.00000E+00
    0.62995E-11        -0.93132E-20         0.00000E+00
    0.62995E-11        -0.22625E-19         0.00000E+00
    0.62995E-11        -0.24214E-19         0.00000E+00
    0.62995E-11        -0.14901E-19         0.00000E+00
    0.62995E-11        -0.93132E-20         0.00000E+00
    0.62995E-11         0.25146E-33         0.00000E+00
    0.62995E-11         0.14628E-19         0.00000E+00
    0.62995E-11         0.22352E-19         0.00000E+00
    0.62995E-11         0.15175E-19         0.00000E+00
    0.62995E-11         0.15891E-20         0.00000E+00
    0.62995E-11        -0.74506E-20         0.00000E+00
    0.62995E-11        -0.87661E-20         0.00000E+00
    0.62995E-11        -0.77241E-20         0.00000E+00
    0.62995E-11        -0.27357E-21         0.00000E+00
    0.62995E-11         0.00000E+00         0.00000E+00
    0.62995E-11        -0.37253E-20         0.00000E+00
    0.62995E-11        -0.71770E-20         0.00000E+00
    0.62995E-11        -0.14901E-19         0.00000E+00
    0.62995E-11        -0.22625E-19         0.00000E+00
    0.62995E-11        -0.29802E-19         0.00000E+00
    0.62995E-11        -0.20216E-19         0.00000E+00
    0.62995E-11        -0.18353E-19         0.00000E+00
    0.62995E-11        -0.26624E-19         0.00000E+00
    0.62995E-11        -0.31939E-19         0.00000E+00
    0.62995E-11        -0.29529E-19         0.00000E+00
    0.62995E-11        -0.13039E-19         0.00000E+00
    0.62995E-11        -0.37253E-20         0.00000E+00
    0.62995E-11         0.27357E-21         0.00000E+00
    0.62995E-11         0.93132E-20         0.00000E+00
    0.62995E-11         0.10629E-19         0.00000E+00
    0.24944E-10         0.00000E+00         0.00000E+00
    0.24944E-10        -0.37253E-20         0.00000E+00
    0.24944E-10         0.00000E+00         0.00000E+00
    0.24944E-10         0.74506E-20         0.00000E+00
    0.24944E-10         0.74506E-20         0.00000E+00
    0.24944E-10        -0.18626E-20         0.00000E+00
    0.24944E-10        -0.18626E-19         0.00000E+00
    0.24944E-10        -0.27667E-19         0.00000E+00
    0.24944E-10        -0.31665E-19         0.00000E+00
    0.24944E-10        -0.33801E-19         0.00000E+00
    0.24944E-10        -0.24487E-19         0.00000E+00
    0.24944E-10        -0.14901E-19         0.00000E+00
    0.24944E-10        -0.14901E-19         0.00000E+00
    0.24944E-10        -0.65832E-21         0.00000E+00
    0.24944E-10         0.89279E-20         0.00000E+00
    0.24944E-10         0.14628E-19         0.00000E+00
    0.24944E-10         0.16764E-19         0.00000E+00
    0.24944E-10         0.22079E-19         0.00000E+00
    0.24944E-10         0.20216E-19         0.00000E+00
    0.24944E-10        -0.13166E-20         0.00000E+00
    0.24944E-10        -0.90402E-20         0.00000E+00
    0.24944E-10        -0.77236E-20         0.00000E+00
    0.24944E-10        -0.26350E-19         0.00000E+00
    0.24944E-10        -0.33528E-19         0.00000E+00
    0.24944E-10        -0.14901E-19         0.00000E+00
    0.24944E-10        -0.71776E-20         0.00000E+00
    0.24944E-10         0.55879E-20         0.00000E+00
    0.24944E-10         0.22352E-19         0.00000E+00
    0.24944E-10         0.20762E-19         0.00000E+00
    0.24944E-10         0.37253E-20         0.00000E+00
    0.24944E-10        -0.15174E-19         0.00000E+00
    0.24944E-10        -0.74506E-20         0.00000E+00
    0.24944E-10        -0.18626E-20         0.00000E+00
    0.24944E-10        -0.18626E-20         0.00000E+00
    0.24944E-10         0.18626E-20         0.00000E+00
    0.24944E-10        -0.21356E-20         0.00000E+00
    0.24944E-10        -0.74506E-20         0.00000E+00
    0.24944E-10        -0.11449E-19         0.00000E+00
    0.24944E-10        -0.55879E-20         0.00000E+00
    0.24944E-10        -0.71776E-20         0.00000E+00
    0.24944E-10        -0.22079E-19         0.00000E+00
    0.24944E-10        -0.29802E-19         0.00000E+00
    0.24944E-10        -0.24214E-19         0.00000E+00
    0.24944E-10        -0.27940E-19         0.00000E+00
    0.24944E-10        -0.30075E-19         0.00000E+00
    0.24944E-10        -0.22352E-19         0.00000E+00
    0.24944E-10        -0.11176E-19         0.00000E+00
    0.24944E-10        -0.37253E-20         0.00000E+00
    0.24944E-10         0.00000E+00         0.00000E+00
    0.24944E-10         0.37253E-20         0.00000E+00
    0.24944E-10         0.37253E-20         0.00000E+00
    0.94180E-10         0.74506E-20         0.00000E+00
    0.94180E-10         0.93132E-20         0.00000E+00
    0.94180E-10         0.37253E-20         0.00000E+00
    0.94180E-10        -0.74506E-20         0.00000E+00
    0.94180E-10        -0.90423E-20         0.00000E+00
    0.94180E-10        -0.37253E-20         0.00000E+00
    0.94180E-10        -0.58588E-20         0.00000E+00
    0.94180E-10        -0.14630E-19         0.00000E+00
    0.94180E-10        -0.24214E-19         0.00000E+00
    0.94180E-10        -0.30073E-19         0.00000E+00
    0.94180E-10        -0.29531E-19         0.00000E+00
    0.94180E-10        -0.17035E-19         0.00000E+00
    0.94180E-10        -0.77215E-20         0.00000E+00
    0.94180E-10        -0.69088E-20         0.00000E+00
    0.94180E-10        -0.34544E-20         0.00000E+00
    0.94180E-10        -0.54178E-21         0.00000E+00
    0.94180E-10        -0.18626E-20         0.00000E+00
    0.94180E-10         0.93132E-20         0.00000E+00
    0.94180E-10         0.14359E-19         0.00000E+00
    0.94180E-10         0.77215E-20         0.00000E+00
    0.94180E-10        -0.14630E-19         0.00000E+00
    0.94180E-10        -0.18626E-19         0.00000E+00
    0.94180E-10        -0.16493E-19         0.00000E+00
    0.94180E-10        -0.22081E-19         0.00000E+00
    0.94180E-10        -0.98550E-20         0.00000E+00
    0.94180E-10        -0.74506E-20         0.00000E+00
    0.94180E-10        -0.15918E-20         0.00000E+00
    0.94180E-10         0.10905E-19         0.00000E+00
    0.94180E-10         0.15918E-20         0.00000E+00
    0.94180E-10        -0.53170E-20         0.00000E+00
    0.94180E-10         0.24044E-20         0.00000E+00
    0.94180E-10         0.13039E-19         0.00000E+00
    0.94180E-10         0.14359E-19         0.00000E+00
    0.94180E-10         0.37253E-20         0.00000E+00
    0.94180E-10         0.27089E-21         0.00000E+00
    0.94180E-10        -0.54178E-21         0.00000E+00
    0.94180E-10        -0.18626E-20         0.00000E+00
    0.94180E-10        -0.34544E-20         0.00000E+00
    0.94180E-10        -0.11176E-19         0.00000E+00
    0.94180E-10        -0.20760E-19         0.00000E+00
    0.94180E-10        -0.26077E-19         0.00000E+00
    0.94180E-10        -0.23943E-19         0.00000E+00
    0.94180E-10        -0.22623E-19         0.00000E+00
    0.94180E-10        -0.24214E-19         0.00000E+00
    0.94180E-10        -0.22081E-19         0.00000E+00
    0.94180E-10        -0.21691E-19         0.00000E+00
    0.94180E-10        -0.14241E-19         0.00000E+00
    0.94180E-10        -0.12497E-19         0.00000E+00
    0.94180E-10        -0.10905E-19         0.00000E+00
    0.94180E-10        -0.98550E-20         0.00000E+00
    0.94180E-10        -0.11718E-19         0.00000E+00
    0.33701E-09         0.74506E-20         0.00000E+00
    0.33701E-09         0.74506E-20         0.00000E+00
    0.33701E-09         0.00000E+00         0.00000E+00
    0.33701E-09         0.37253E-20         0.00000E+00
    0.33701E-09         0.77140E-20         0.00000E+00
    0.33701E-09        -0.95767E-20         0.00000E+00
    0.33701E-09        -0.26604E-19         0.00000E+00
    0.33701E-09        -0.27676E-19         0.00000E+00
    0.33701E-09        -0.23951E-19         0.00000E+00
    0.33701E-09        -0.20489E-19         0.00000E+00
    0.33701E-09        -0.18626E-19         0.00000E+00
    0.33701E-09        -0.14638E-19         0.00000E+00
    0.33701E-09        -0.12775E-19         0.00000E+00
    0.33701E-09        -0.74506E-20         0.00000E+00
    0.33701E-09        -0.11176E-19         0.00000E+00
    0.33701E-09        -0.74506E-20         0.00000E+00
    0.33701E-09         0.34619E-20         0.00000E+00
    0.33701E-09        -0.52685E-21         0.00000E+00
    0.33701E-09        -0.26342E-21         0.00000E+00
    0.33701E-09         0.00000E+00         0.00000E+00
    0.33701E-09        -0.13358E-20         0.00000E+00
    0.33701E-09        -0.90498E-20         0.00000E+00
    0.33701E-09        -0.15165E-19         0.00000E+00
    0.33701E-09        -0.16500E-19         0.00000E+00
    0.33701E-09        -0.39887E-20         0.00000E+00
    0.33701E-09         0.53245E-20         0.00000E+00
    0.33701E-09         0.39887E-20         0.00000E+00
    0.33701E-09         0.74506E-20         0.00000E+00
    0.33701E-09         0.11439E-19         0.00000E+00
    0.33701E-09         0.39887E-20         0.00000E+00
    0.33701E-09        -0.37253E-20         0.00000E+00
    0.33701E-09         0.37253E-20         0.00000E+00
    0.33701E-09         0.11176E-19         0.00000E+00
    0.33701E-09        -0.58514E-20         0.00000E+00
    0.33701E-09        -0.11439E-19         0.00000E+00
    0.33701E-09        -0.26342E-21         0.00000E+00
    0.33701E-09         0.11905E-33         0.00000E+00
    0.33701E-09        -0.53245E-20         0.00000E+00
    0.33701E-09        -0.95767E-20         0.00000E+00
    0.33701E-09        -0.15165E-19         0.00000E+00
    0.33701E-09        -0.20226E-19         0.00000E+00
    0.33701E-09        -0.14374E-19         0.00000E+00
    0.33701E-09        -0.14901E-19         0.00000E+00
    0.33701E-09        -0.30066E-19         0.00000E+00
    0.33701E-09        -0.29802E-19         0.00000E+00
    0.33701E-09        -0.18626E-19         0.00000E+00
    0.33701E-09        -0.74506E-20         0.00000E+00
    0.33701E-09        -0.74506E-20         0.00000E+00
    0.33701E-09        -0.74506E-20         0.00000E+00
    0.33701E-09        -0.21261E-20         0.00000E+00
    0.33701E-09        -0.42521E-20         0.00000E+00
    0.11350E-08         0.74506E-20         0.00000E+00
    0.11350E-08         0.37253E-20         0.00000E+00
    0.11350E-08         0.16240E-20         0.00000E+00
    0.11350E-08         0.34867E-20         0.00000E+00
    0.11350E-08        -0.13854E-20         0.00000E+00
    0.11350E-08        -0.16287E-19         0.00000E+00
    0.11350E-08        -0.22590E-19         0.00000E+00
    0.11350E-08        -0.20728E-19         0.00000E+00
    0.11350E-08        -0.29802E-19         0.00000E+00
    0.11350E-08        -0.28178E-19         0.00000E+00
    0.11350E-08        -0.18865E-19         0.00000E+00
    0.11350E-08        -0.10937E-19         0.00000E+00
    0.11350E-08         0.21013E-20         0.00000E+00
    0.11350E-08         0.11176E-19         0.00000E+00
    0.11350E-08         0.58266E-20         0.00000E+00
    0.11350E-08        -0.37253E-20         0.00000E+00
    0.11350E-08         0.32480E-20         0.00000E+00
    0.11350E-08         0.14663E-19         0.00000E+00
    0.11350E-08         0.20728E-19         0.00000E+00
    0.11350E-08         0.93132E-20         0.00000E+00
    0.11350E-08        -0.95519E-20         0.00000E+00
    0.11350E-08        -0.16764E-19         0.00000E+00
    0.11350E-08        -0.18388E-19         0.00000E+00
    0.11350E-08        -0.16287E-19         0.00000E+00
    0.11350E-08        -0.17002E-19         0.00000E+00
    0.11350E-08        -0.26077E-19         0.00000E+00
    0.11350E-08        -0.11176E-19         0.00000E+00
    0.11350E-08         0.16240E-20         0.00000E+00
    0.11350E-08        -0.13854E-20         0.00000E+00
    0.11350E-08        -0.72119E-20         0.00000E+00
    0.11350E-08        -0.58266E-20         0.00000E+00
    0.11350E-08        -0.18626E-20         0.00000E+00
    0.11350E-08         0.16240E-20         0.00000E+00
    0.11350E-08         0.13854E-20         0.00000E+00
    0.11350E-08         0.23863E-21         0.00000E+00
    0.11350E-08        -0.74506E-20         0.00000E+00
    0.11350E-08        -0.72119E-20         0.00000E+00
    0.11350E-08        -0.13854E-20         0.00000E+00
    0.11350E-08        -0.23863E-21         0.00000E+00
    0.11350E-08        -0.11653E-19         0.00000E+00
    0.11350E-08        -0.24453E-19         0.00000E+00
    0.11350E-08        -0.29802E-19         0.00000E+00
    0.11350E-08        -0.35152E-19         0.00000E+00
    0.11350E-08        -0.29564E-19         0.00000E+00
    0.11350E-08        -0.20489E-19         0.00000E+00
    0.11350E-08        -0.18388E-19         0.00000E+00
    0.11350E-08        -0.83819E-20         0.00000E+00
    0.11350E-08         0.44180E-20         0.00000E+00
    0.11350E-08        -0.21013E-20         0.00000E+00
    0.11350E-08        -0.58266E-20         0.00000E+00
    0.11350E-08        -0.37253E-20         0.00000E+00
    0.35685E-08         0.71266E-20         0.00000E+00
    0.35685E-08         0.74506E-20         0.00000E+00
    0.35685E-08         0.74506E-20         0.00000E+00
    0.35685E-08         0.37253E-20         0.00000E+00
    0.35685E-08        -0.34013E-20         0.00000E+00
    0.35685E-08        -0.18626E-19         0.00000E+00
    0.35685E-08        -0.28102E-19         0.00000E+00
    0.35685E-08        -0.18788E-19         0.00000E+00
    0.35685E-08        -0.19396E-19         0.00000E+00
    0.35685E-08        -0.23283E-19         0.00000E+00
    0.35685E-08        -0.20651E-19         0.00000E+00
    0.35685E-08        -0.35633E-20         0.00000E+00
    0.35685E-08         0.00000E+00         0.00000E+00
    0.35685E-08        -0.57499E-20         0.00000E+00
    0.35685E-08        -0.17006E-20         0.00000E+00
    0.35685E-08         0.96372E-20         0.00000E+00
    0.35685E-08         0.23890E-19         0.00000E+00
    0.35685E-08         0.16602E-19         0.00000E+00
    0.35685E-08         0.93132E-20         0.00000E+00
    0.35685E-08        -0.94752E-20         0.00000E+00
    0.35685E-08        -0.22190E-19         0.00000E+00
    0.35685E-08        -0.18464E-19         0.00000E+00
    0.35685E-08        -0.27940E-19         0.00000E+00
    0.35685E-08        -0.25915E-19         0.00000E+00
    0.35685E-08        -0.76126E-20         0.00000E+00
    0.35685E-08        -0.74506E-20         0.00000E+00
    0.35685E-08        -0.54259E-20         0.00000E+00
    0.35685E-08         0.54259E-20         0.00000E+00
    0.35685E-08         0.72886E-20         0.00000E+00
    0.35685E-08        -0.17006E-20         0.00000E+00
    0.35685E-08        -0.14901E-19         0.00000E+00
    0.35685E-08        -0.93132E-20         0.00000E+00
    0.35685E-08         0.20246E-20         0.00000E+00
    0.35685E-08         0.18626E-20         0.00000E+00
    0.35685E-08         0.55879E-20         0.00000E+00
    0.35685E-08        -0.32400E-21         0.00000E+00
    0.35685E-08        -0.93132E-20         0.00000E+00
    0.35685E-08        -0.74506E-20         0.00000E+00
    0.35685E-08        -0.14901E-19         0.00000E+00
    0.35685E-08        -0.13039E-19         0.00000E+00
    0.35685E-08        -0.18626E-19         0.00000E+00
    0.35685E-08        -0.35228E-19         0.00000E+00
    0.35685E-08        -0.37253E-19         0.00000E+00
    0.35685E-08        -0.33528E-19         0.00000E+00
    0.35685E-08        -0.25915E-19         0.00000E+00
    0.35685E-08        -0.17857E-19         0.00000E+00
    0.35685E-08        -0.76126E-20         0.00000E+00
    0.35685E-08        -0.26320E-20         0.00000E+00
    0.35685E-08        -0.18626E-20         0.00000E+00
    0.35685E-08         0.54259E-20         0.00000E+00
    0.35685E-08         0.71266E-20         0.00000E+00
    0.10381E-07         0.73377E-20         0.00000E+00
    0.10381E-07         0.93132E-20         0.00000E+00
    0.10381E-07         0.37253E-20         0.00000E+00
    0.10381E-07        -0.37253E-20         0.00000E+00
    0.10381E-07        -0.55315E-20         0.00000E+00
    0.10381E-07        -0.92568E-20         0.00000E+00
    0.10381E-07        -0.14901E-19         0.00000E+00
    0.10381E-07        -0.19558E-19         0.00000E+00
    0.10381E-07        -0.18626E-19         0.00000E+00
    0.10381E-07        -0.93132E-20         0.00000E+00
    0.10381E-07        -0.21420E-19         0.00000E+00
    0.10381E-07        -0.16820E-19         0.00000E+00
    0.10381E-07        -0.55879E-20         0.00000E+00
    0.10381E-07         0.27375E-20         0.00000E+00
    0.10381E-07         0.87490E-21         0.00000E+00
    0.10381E-07         0.75070E-20         0.00000E+00
    0.10381E-07         0.14901E-19         0.00000E+00
    0.10381E-07         0.93696E-20         0.00000E+00
    0.10381E-07         0.57008E-20         0.00000E+00
    0.10381E-07        -0.55879E-20         0.00000E+00
    0.10381E-07        -0.20546E-19         0.00000E+00
    0.10381E-07        -0.27996E-19         0.00000E+00
    0.10381E-07        -0.26077E-19         0.00000E+00
    0.10381E-07        -0.26133E-19         0.00000E+00
    0.10381E-07        -0.20433E-19         0.00000E+00
    0.10381E-07        -0.15832E-19         0.00000E+00
    0.10381E-07         0.00000E+00         0.00000E+00
    0.10381E-07         0.74506E-20         0.00000E+00
    0.10381E-07         0.87490E-21         0.00000E+00
    0.10381E-07        -0.37253E-20         0.00000E+00
    0.10381E-07        -0.55879E-20         0.00000E+00
    0.10381E-07         0.56419E-22         0.00000E+00
    0.10381E-07         0.37253E-20         0.00000E+00
    0.10381E-07         0.56419E-22         0.00000E+00
    0.10381E-07        -0.74506E-20         0.00000E+00
    0.10381E-07        -0.37253E-20         0.00000E+00
    0.10381E-07        -0.11176E-19         0.00000E+00
    0.10381E-07        -0.18626E-19         0.00000E+00
    0.10381E-07        -0.18626E-19         0.00000E+00
    0.10381E-07        -0.22352E-19         0.00000E+00
    0.10381E-07        -0.24214E-19         0.00000E+00
    0.10381E-07        -0.26077E-19         0.00000E+00
    0.10381E-07        -0.20433E-19         0.00000E+00
    0.10381E-07        -0.22352E-19         0.00000E+00
    0.10381E-07        -0.27121E-19         0.00000E+00
    0.10381E-07        -0.15889E-19         0.00000E+00
    0.10381E-07        -0.64628E-20         0.00000E+00
    0.10381E-07        -0.74506E-20         0.00000E+00
    0.10381E-07        -0.74506E-20         0.00000E+00
    0.10381E-07        -0.55315E-20         0.00000E+00
    0.10381E-07        -0.36125E-20         0.00000E+00
    0.27665E-07         0.00000E+00         0.00000E+00
    0.27665E-07        -0.12384E-20         0.00000E+00
    0.27665E-07        -0.37253E-20         0.00000E+00
    0.27665E-07         0.31010E-20         0.00000E+00
    0.27665E-07         0.37253E-20         0.00000E+00
    0.27665E-07        -0.93132E-20         0.00000E+00
    0.27665E-07        -0.18002E-19         0.00000E+00
    0.27665E-07        -0.19865E-19         0.00000E+00
    0.27665E-07        -0.26077E-19         0.00000E+00
    0.27665E-07        -0.27940E-19         0.00000E+00
    0.27665E-07        -0.22352E-19         0.00000E+00
    0.27665E-07        -0.77678E-20         0.00000E+00
    0.27665E-07         0.27940E-20         0.00000E+00
    0.27665E-07         0.10562E-19         0.00000E+00
    0.27665E-07         0.14584E-19         0.00000E+00
    0.27665E-07         0.55879E-20         0.00000E+00
    0.27665E-07         0.34182E-20         0.00000E+00
    0.27665E-07         0.15832E-19         0.00000E+00
    0.27665E-07         0.18319E-19         0.00000E+00
    0.27665E-07         0.00000E+00         0.00000E+00
    0.27665E-07        -0.20182E-19         0.00000E+00
    0.27665E-07        -0.18319E-19         0.00000E+00
    0.27665E-07        -0.20796E-19         0.00000E+00
    0.27665E-07        -0.28871E-19         0.00000E+00
    0.27665E-07        -0.27940E-19         0.00000E+00
    0.27665E-07        -0.24214E-19         0.00000E+00
    0.27665E-07        -0.13663E-19         0.00000E+00
    0.27665E-07         0.43496E-20         0.00000E+00
    0.27665E-07         0.80749E-20         0.00000E+00
    0.27665E-07        -0.77678E-20         0.00000E+00
    0.27665E-07        -0.11176E-19         0.00000E+00
    0.27665E-07        -0.31010E-20         0.00000E+00
    0.27665E-07        -0.93132E-21         0.00000E+00
    0.27665E-07        -0.74506E-20         0.00000E+00
    0.27665E-07        -0.11800E-19         0.00000E+00
    0.27665E-07        -0.86889E-20         0.00000E+00
    0.27665E-07        -0.10552E-19         0.00000E+00
    0.27665E-07        -0.11800E-19         0.00000E+00
    0.27665E-07        -0.99375E-20         0.00000E+00
    0.27665E-07        -0.16140E-19         0.00000E+00
    0.27665E-07        -0.24214E-19         0.00000E+00
    0.27665E-07        -0.18626E-19         0.00000E+00
    0.27665E-07        -0.27315E-19         0.00000E+00
    0.27665E-07        -0.29802E-19         0.00000E+00
    0.27665E-07        -0.13039E-19         0.00000E+00
    0.27665E-07        -0.11176E-19         0.00000E+00
    0.27665E-07        -0.43496E-20         0.00000E+00
    0.27665E-07         0.68263E-20         0.00000E+00
    0.27665E-07         0.18626E-20         0.00000E+00
    0.27665E-07        -0.68263E-20         0.00000E+00
    0.27665E-07        -0.99273E-20         0.00000E+00
    0.66811E-07         0.76359E-20         0.00000E+00
    0.66811E-07         0.14901E-19         0.00000E+00
    0.66811E-07         0.11083E-19         0.00000E+00
    0.66811E-07         0.00000E+00         0.00000E+00
    0.66811E-07        -0.74506E-20         0.00000E+00
    0.66811E-07        -0.12946E-19         0.00000E+00
    0.66811E-07        -0.20396E-19         0.00000E+00
    0.66811E-07        -0.28032E-19         0.00000E+00
    0.66811E-07        -0.33528E-19         0.00000E+00
    0.66811E-07        -0.20396E-19         0.00000E+00
    0.66811E-07        -0.56806E-20         0.00000E+00
    0.66811E-07        -0.56806E-20         0.00000E+00
    0.66811E-07         0.19553E-20         0.00000E+00
    0.66811E-07         0.37253E-20         0.00000E+00
    0.66811E-07         0.35400E-20         0.00000E+00
    0.66811E-07         0.54953E-20         0.00000E+00
    0.66811E-07         0.94059E-20         0.00000E+00
    0.66811E-07         0.15086E-19         0.00000E+00
    0.66811E-07         0.13131E-19         0.00000E+00
    0.66811E-07         0.00000E+00         0.00000E+00
    0.66811E-07        -0.11176E-19         0.00000E+00
    0.66811E-07        -0.18626E-19         0.00000E+00
    0.66811E-07        -0.28032E-19         0.00000E+00
    0.66811E-07        -0.31758E-19         0.00000E+00
    0.66811E-07        -0.22259E-19         0.00000E+00
    0.66811E-07        -0.14901E-19         0.00000E+00
    0.66811E-07        -0.75432E-20         0.00000E+00
    0.66811E-07         0.13131E-19         0.00000E+00
    0.66811E-07         0.22444E-19         0.00000E+00
    0.66811E-07         0.15647E-19         0.00000E+00
    0.66811E-07        -0.84746E-20         0.00000E+00
    0.66811E-07        -0.16764E-19         0.00000E+00
    0.66811E-07        -0.18626E-20         0.00000E+00
    0.66811E-07        -0.17700E-20         0.00000E+00
    0.66811E-07        -0.55879E-20         0.00000E+00
    0.66811E-07        -0.73579E-20         0.00000E+00
    0.66811E-07        -0.14808E-19         0.00000E+00
    0.66811E-07        -0.22444E-19         0.00000E+00
    0.66811E-07        -0.29802E-19         0.00000E+00
    0.66811E-07        -0.29710E-19         0.00000E+00
    0.66811E-07        -0.27940E-19         0.00000E+00
    0.66811E-07        -0.26077E-19         0.00000E+00
    0.66811E-07        -0.28032E-19         0.00000E+00
    0.66811E-07        -0.31758E-19         0.00000E+00
    0.66811E-07        -0.27847E-19         0.00000E+00
    0.66811E-07        -0.16764E-19         0.00000E+00
    0.66811E-07        -0.38180E-20         0.00000E+00
    0.66811E-07         0.92662E-22         0.00000E+00
    0.66811E-07         0.92662E-22         0.00000E+00
    0.66811E-07         0.00000E+00         0.00000E+00
    0.66811E-07         0.00000E+00         0.00000E+00
    0.14459E-06         0.00000E+00         0.00000E+00
    0.14459E-06        -0.27167E-20         0.00000E+00
    0.14459E-06         0.28712E-20         0.00000E+00
    0.14459E-06         0.93132E-20         0.00000E+00
    0.14459E-06        -0.28712E-20         0.00000E+00
    0.14459E-06        -0.21420E-19         0.00000E+00
    0.14459E-06        -0.28871E-19         0.00000E+00
    0.14459E-06        -0.30811E-19         0.00000E+00
    0.14459E-06        -0.27940E-19         0.00000E+00
    0.14459E-06        -0.24137E-19         0.00000E+00
    0.14459E-06        -0.27862E-19         0.00000E+00
    0.14459E-06        -0.16764E-19         0.00000E+00
    0.14459E-06        -0.16764E-19         0.00000E+00
    0.14459E-06        -0.57424E-20         0.00000E+00
    0.14459E-06         0.91588E-20         0.00000E+00
    0.14459E-06         0.94677E-20         0.00000E+00
    0.14459E-06         0.15056E-19         0.00000E+00
    0.14459E-06         0.22352E-19         0.00000E+00
    0.14459E-06         0.22352E-19         0.00000E+00
    0.14459E-06         0.74506E-20         0.00000E+00
    0.14459E-06        -0.16764E-19         0.00000E+00
    0.14459E-06        -0.21498E-19         0.00000E+00
    0.14459E-06        -0.21498E-19         0.00000E+00
    0.14459E-06        -0.16764E-19         0.00000E+00
    0.14459E-06        -0.55107E-20         0.00000E+00
    0.14459E-06        -0.18626E-20         0.00000E+00
    0.14459E-06         0.18626E-20         0.00000E+00
    0.14459E-06         0.74506E-20         0.00000E+00
    0.14459E-06        -0.76050E-20         0.00000E+00
    0.14459E-06        -0.20412E-19         0.00000E+00
    0.14459E-06        -0.14747E-19         0.00000E+00
    0.14459E-06         0.17854E-20         0.00000E+00
    0.14459E-06         0.37253E-20         0.00000E+00
    0.14459E-06        -0.36481E-20         0.00000E+00
    0.14459E-06        -0.18626E-20         0.00000E+00
    0.14459E-06        -0.93905E-20         0.00000E+00
    0.14459E-06        -0.18626E-19         0.00000E+00
    0.14459E-06        -0.26000E-19         0.00000E+00
    0.14459E-06        -0.27940E-19         0.00000E+00
    0.14459E-06        -0.26077E-19         0.00000E+00
    0.14459E-06        -0.29802E-19         0.00000E+00
    0.14459E-06        -0.22429E-19         0.00000E+00
    0.14459E-06        -0.14978E-19         0.00000E+00
    0.14459E-06        -0.30656E-19         0.00000E+00
    0.14459E-06        -0.30656E-19         0.00000E+00
    0.14459E-06        -0.16841E-19         0.00000E+00
    0.14459E-06        -0.65193E-20         0.00000E+00
    0.14459E-06        -0.45794E-20         0.00000E+00
    0.14459E-06        -0.84591E-20         0.00000E+00
    0.14459E-06         0.18626E-20         0.00000E+00
    0.14459E-06         0.57424E-20         0.00000E+00
    0.27730E-06         0.00000E+00         0.00000E+00
    0.27730E-06         0.97212E-20         0.00000E+00
    0.27730E-06         0.46566E-20         0.00000E+00
    0.27730E-06        -0.32019E-20         0.00000E+00
    0.27730E-06        -0.52339E-21         0.00000E+00
    0.27730E-06        -0.11699E-19         0.00000E+00
    0.27730E-06        -0.33004E-19         0.00000E+00
    0.27730E-06        -0.25146E-19         0.00000E+00
    0.27730E-06        -0.27008E-19         0.00000E+00
    0.27730E-06        -0.33004E-19         0.00000E+00
    0.27730E-06        -0.26077E-19         0.00000E+00
    0.27730E-06        -0.14493E-19         0.00000E+00
    0.27730E-06        -0.10768E-19         0.00000E+00
    0.27730E-06        -0.59959E-20         0.00000E+00
    0.27730E-06         0.69272E-20         0.00000E+00
    0.27730E-06         0.55879E-20         0.00000E+00
    0.27730E-06         0.57034E-20         0.00000E+00
    0.27730E-06         0.11176E-19         0.00000E+00
    0.27730E-06         0.18626E-19         0.00000E+00
    0.27730E-06         0.11176E-19         0.00000E+00
    0.27730E-06         0.40794E-21         0.00000E+00
    0.27730E-06        -0.12631E-19         0.00000E+00
    0.27730E-06        -0.25554E-19         0.00000E+00
    0.27730E-06        -0.18626E-19         0.00000E+00
    0.27730E-06        -0.93132E-20         0.00000E+00
    0.27730E-06        -0.14378E-19         0.00000E+00
    0.27730E-06        -0.93132E-20         0.00000E+00
    0.27730E-06         0.41332E-20         0.00000E+00
    0.27730E-06         0.37253E-20         0.00000E+00
    0.27730E-06        -0.59959E-20         0.00000E+00
    0.27730E-06        -0.18626E-19         0.00000E+00
    0.27730E-06        -0.14901E-19         0.00000E+00
    0.27730E-06        -0.93132E-20         0.00000E+00
    0.27730E-06        -0.55879E-20         0.00000E+00
    0.27730E-06        -0.18626E-20         0.00000E+00
    0.27730E-06        -0.37253E-20         0.00000E+00
    0.27730E-06        -0.74506E-20         0.00000E+00
    0.27730E-06        -0.93132E-20         0.00000E+00
    0.27730E-06        -0.38407E-20         0.00000E+00
    0.27730E-06        -0.13039E-19         0.00000E+00
    0.27730E-06        -0.33412E-19         0.00000E+00
    0.27730E-06        -0.35914E-19         0.00000E+00
    0.27730E-06        -0.30734E-19         0.00000E+00
    0.27730E-06        -0.17695E-19         0.00000E+00
    0.27730E-06        -0.14901E-19         0.00000E+00
    0.27730E-06        -0.16240E-19         0.00000E+00
    0.27730E-06        -0.74506E-20         0.00000E+00
    0.27730E-06         0.22706E-20         0.00000E+00
    0.27730E-06         0.37253E-20         0.00000E+00
    0.27730E-06        -0.78585E-20         0.00000E+00
    0.27730E-06        -0.14901E-19         0.00000E+00
    0.46627E-06         0.14319E-19         0.00000E+00
    0.46627E-06         0.37253E-20         0.00000E+00
    0.46627E-06        -0.18626E-20         0.00000E+00
    0.46627E-06        -0.74506E-20         0.00000E+00
    0.46627E-06        -0.16764E-19         0.00000E+00
    0.46627E-06        -0.18626E-19         0.00000E+00
    0.46627E-06        -0.22352E-19         0.00000E+00
    0.46627E-06        -0.29802E-19         0.00000E+00
    0.46627E-06        -0.20489E-19         0.00000E+00
    0.46627E-06        -0.16764E-19         0.00000E+00
    0.46627E-06        -0.16764E-19         0.00000E+00
    0.46627E-06        -0.74506E-20         0.00000E+00
    0.46627E-06        -0.37253E-20         0.00000E+00
    0.46627E-06         0.34343E-20         0.00000E+00
    0.46627E-06         0.00000E+00         0.00000E+00
    0.46627E-06        -0.52969E-20         0.00000E+00
    0.46627E-06         0.74506E-20         0.00000E+00
    0.46627E-06         0.15832E-19         0.00000E+00
    0.46627E-06         0.86729E-20         0.00000E+00
    0.46627E-06        -0.55879E-20         0.00000E+00
    0.46627E-06        -0.16764E-19         0.00000E+00
    0.46627E-06        -0.16764E-19         0.00000E+00
    0.46627E-06        -0.22352E-19         0.00000E+00
    0.46627E-06        -0.35390E-19         0.00000E+00
    0.46627E-06        -0.22352E-19         0.00000E+00
    0.46627E-06         0.64030E-21         0.00000E+00
    0.46627E-06        -0.46566E-20         0.00000E+00
    0.46627E-06         0.58790E-20         0.00000E+00
    0.46627E-06         0.11176E-19         0.00000E+00
    0.46627E-06        -0.18626E-20         0.00000E+00
    0.46627E-06        -0.30850E-20         0.00000E+00
    0.46627E-06         0.64030E-21         0.00000E+00
    0.46627E-06         0.37253E-20         0.00000E+00
    0.46627E-06        -0.64030E-21         0.00000E+00
    0.46627E-06         0.12223E-20         0.00000E+00
    0.46627E-06         0.37253E-20         0.00000E+00
    0.46627E-06        -0.37253E-20         0.00000E+00
    0.46627E-06        -0.93132E-20         0.00000E+00
    0.46627E-06        -0.13330E-19         0.00000E+00
    0.46627E-06        -0.20489E-19         0.00000E+00
    0.46627E-06        -0.24214E-19         0.00000E+00
    0.46627E-06        -0.18626E-19         0.00000E+00
    0.46627E-06        -0.25786E-19         0.00000E+00
    0.46627E-06        -0.29802E-19         0.00000E+00
    0.46627E-06        -0.22352E-19         0.00000E+00
    0.46627E-06        -0.14901E-19         0.00000E+00
    0.46627E-06        -0.93132E-20         0.00000E+00
    0.46627E-06        -0.74506E-20         0.00000E+00
    0.46627E-06        -0.74506E-20         0.00000E+00
    0.46627E-06         0.17055E-19         0.00000E+00
    0.46627E-06         0.37835E-19         0.00000E+00
    0.68101E-06         0.86712E-20         0.00000E+00
    0.68101E-06        -0.59555E-33         0.00000E+00
    0.68101E-06        -0.99236E-20         0.00000E+00
    0.68101E-06        -0.40463E-20         0.00000E+00
    0.68101E-06         0.15417E-20         0.00000E+00
    0.68101E-06        -0.15511E-19         0.00000E+00
    0.68101E-06        -0.24825E-19         0.00000E+00
    0.68101E-06        -0.26077E-19         0.00000E+00
    0.68101E-06        -0.99236E-20         0.00000E+00
    0.68101E-06        -0.24214E-19         0.00000E+00
    0.68101E-06        -0.38505E-19         0.00000E+00
    0.68101E-06        -0.14901E-19         0.00000E+00
    0.68101E-06        -0.14901E-19         0.00000E+00
    0.68101E-06        -0.37253E-20         0.00000E+00
    0.68101E-06        -0.37253E-20         0.00000E+00
    0.68101E-06        -0.74506E-20         0.00000E+00
    0.68101E-06         0.55879E-20         0.00000E+00
    0.68101E-06         0.13039E-19         0.00000E+00
    0.68101E-06         0.14901E-19         0.00000E+00
    0.68101E-06         0.55879E-20         0.00000E+00
    0.68101E-06        -0.74506E-20         0.00000E+00
    0.68101E-06        -0.14901E-19         0.00000E+00
    0.68101E-06        -0.18626E-19         0.00000E+00
    0.68101E-06        -0.14901E-19         0.00000E+00
    0.68101E-06        -0.74506E-20         0.00000E+00
    0.68101E-06        -0.74506E-20         0.00000E+00
    0.68101E-06         0.00000E+00         0.00000E+00
    0.68101E-06         0.11176E-19         0.00000E+00
    0.68101E-06         0.74506E-20         0.00000E+00
    0.68101E-06         0.00000E+00         0.00000E+00
    0.68101E-06        -0.37253E-20         0.00000E+00
    0.68101E-06         0.80609E-20         0.00000E+00
    0.68101E-06         0.46566E-20         0.00000E+00
    0.68101E-06         0.93132E-21         0.00000E+00
    0.68101E-06        -0.18626E-20         0.00000E+00
    0.68101E-06        -0.15511E-19         0.00000E+00
    0.68101E-06        -0.55879E-20         0.00000E+00
    0.68101E-06        -0.31150E-20         0.00000E+00
    0.68101E-06        -0.10245E-19         0.00000E+00
    0.68101E-06        -0.20168E-19         0.00000E+00
    0.68101E-06        -0.19879E-19         0.00000E+00
    0.68101E-06        -0.18626E-19         0.00000E+00
    0.68101E-06        -0.17374E-19         0.00000E+00
    0.68101E-06        -0.93132E-20         0.00000E+00
    0.68101E-06        -0.13039E-19         0.00000E+00
    0.68101E-06        -0.12428E-19         0.00000E+00
    0.68101E-06        -0.18626E-20         0.00000E+00
    0.68101E-06        -0.24730E-20         0.00000E+00
    0.68101E-06        -0.31150E-20         0.00000E+00
    0.68101E-06         0.13360E-19         0.00000E+00
    0.68101E-06         0.36674E-19         0.00000E+00
    0.85754E-06         0.00000E+00         0.00000E+00
    0.85754E-06        -0.20473E-19         0.00000E+00
    0.85754E-06         0.37253E-20         0.00000E+00
    0.85754E-06         0.20473E-19         0.00000E+00
    0.85754E-06        -0.28855E-19         0.00000E+00
    0.85754E-06        -0.27923E-19         0.00000E+00
    0.85754E-06         0.27612E-20         0.00000E+00
    0.85754E-06        -0.16371E-22         0.00000E+00
    0.85754E-06        -0.18610E-19         0.00000E+00
    0.85754E-06        -0.16764E-19         0.00000E+00
    0.85754E-06        -0.19558E-19         0.00000E+00
    0.85754E-06        -0.14901E-19         0.00000E+00
    0.85754E-06         0.27940E-20         0.00000E+00
    0.85754E-06        -0.20473E-19         0.00000E+00
    0.85754E-06         0.93132E-21         0.00000E+00
    0.85754E-06         0.28855E-19         0.00000E+00
    0.85754E-06         0.13039E-19         0.00000E+00
    0.85754E-06         0.55879E-20         0.00000E+00
    0.85754E-06         0.12107E-19         0.00000E+00
    0.85754E-06         0.83819E-20         0.00000E+00
    0.85754E-06        -0.83819E-20         0.00000E+00
    0.85754E-06        -0.93132E-20         0.00000E+00
    0.85754E-06        -0.13039E-19         0.00000E+00
    0.85754E-06        -0.13039E-19         0.00000E+00
    0.85754E-06        -0.65193E-20         0.00000E+00
    0.85754E-06        -0.18626E-20         0.00000E+00
    0.85754E-06        -0.93132E-21         0.00000E+00
    0.85754E-06         0.18626E-20         0.00000E+00
    0.85754E-06         0.27940E-20         0.00000E+00
    0.85754E-06        -0.18626E-20         0.00000E+00
    0.85754E-06        -0.46566E-20         0.00000E+00
    0.85754E-06        -0.14868E-19         0.00000E+00
    0.85754E-06         0.55879E-20         0.00000E+00
    0.85754E-06         0.16731E-19         0.00000E+00
    0.85754E-06         0.93132E-21         0.00000E+00
    0.85754E-06         0.18626E-20         0.00000E+00
    0.85754E-06        -0.18626E-20         0.00000E+00
    0.85754E-06        -0.65193E-20         0.00000E+00
    0.85754E-06        -0.93132E-20         0.00000E+00
    0.85754E-06        -0.55879E-20         0.00000E+00
    0.85754E-06        -0.10245E-19         0.00000E+00
    0.85754E-06        -0.16764E-19         0.00000E+00
    0.85754E-06        -0.83819E-20         0.00000E+00
    0.85754E-06        -0.28855E-19         0.00000E+00
    0.85754E-06        -0.65193E-20         0.00000E+00
    0.85754E-06         0.22335E-19         0.00000E+00
    0.85754E-06        -0.18610E-19         0.00000E+00
    0.85754E-06        -0.26061E-19         0.00000E+00
    0.85754E-06         0.26061E-19         0.00000E+00
    0.85754E-06         0.25113E-19         0.00000E+00
    0.85754E-06        -0.16797E-19         0.00000E+00
    0.92653E-06         0.00000E+00         0.00000E+00
    0.92653E-06         0.00000E+00         0.00000E+00
    0.92653E-06         0.00000E+00         0.00000E+00
    0.92653E-06         0.00000E+00         0.00000E+00
    0.92653E-06         0.00000E+00         0.00000E+00
    0.92653E-06         0.00000E+00         0.00000E+00
    0.92653E-06         0.00000E+00         0.00000E+00
    0.92653E-06         0.00000E+00         0.00000E+00
    0.92653E-06         0.00000E+00         0.00000E+00
    0.92653E-06        -0.26077E-19         0.00000E+00
    0.92653E-06         0.00000E+00         0.00000E+00
    0.92653E-06         0.26077E-19         0.00000E+00
    0.92653E-06         0.00000E+00         0.00000E+00
    0.92653E-06         0.00000E+00         0.00000E+00
    0.92653E-06         0.00000E+00         0.00000E+00
    0.92653E-06         0.00000E+00         0.00000E+00
    0.92653E-06         0.00000E+00         0.00000E+00
    0.92653E-06         0.26077E-19         0.00000E+00
    0.92653E-06         0.00000E+00         0.00000E+00
    0.92653E-06        -0.26077E-19         0.00000E+00
    0.92653E-06         0.00000E+00         0.00000E+00
    0.92653E-06         0.00000E+00         0.00000E+00
    0.92653E-06         0.00000E+00         0.00000E+00
    0.92653E-06         0.00000E+00         0.00000E+00
    0.92653E-06         0.00000E+00         0.00000E+00
    0.92653E-06         0.00000E+00         0.00000E+00
    0.92653E-06         0.00000E+00         0.00000E+00
    0.92653E-06         0.00000E+00         0.00000E+00
    0.92653E-06         0.00000E+00         0.00000E+00
    0.92653E-06         0.00000E+00         0.00000E+00
    0.92653E-06         0.00000E+00         0.00000E+00
    0.92653E-06         0.00000E+00         0.00000E+00
    0.92653E-06         0.00000E+00         0.00000E+00
    0.92653E-06         0.00000E+00         0.00000E+00
    0.92653E-06         0.00000E+00         0.00000E+00
    0.92653E-06         0.00000E+00         0.00000E+00
    0.92653E-06         0.00000E+00         0.00000E+00
    0.92653E-06         0.00000E+00         0.00000E+00
    0.92653E-06         0.00000E+00         0.00000E+00
    0.92653E-06        -0.27008E-19         0.00000E+00
    0.92653E-06        -0.26077E-19         0.00000E+00
    0.92653E-06         0.26077E-19         0.00000E+00
    0.92653E-06         0.26077E-19         0.00000E+00
    0.92653E-06         0.00000E+00         0.00000E+00
    0.92653E-06         0.00000E+00         0.00000E+00
    0.92653E-06         0.00000E+00         0.00000E+00
    0.92653E-06         0.00000E+00         0.00000E+00
    0.92653E-06         0.26077E-19         0.00000E+00
    0.92653E-06         0.93132E-21         0.00000E+00
    0.92653E-06         0.00000E+00         0.00000E+00
    0.92653E-06         0.52154E-19         0.00000E+00
CELL_DATA       5000
TENSORS stressef double 
    0.22227E+08        -0.47695E+06         0.00000E+00
   -0.47695E+06         0.17201E+08         0.00000E+00
    0.00000E+00         0.00000E+00         0.12024E+08
 
    0.21385E+08        -0.68074E+06         0.00000E+00
   -0.68074E+06         0.16956E+08         0.00000E+00
    0.00000E+00         0.00000E+00         0.10912E+08
 
    0.20588E+08        -0.81821E+06         0.00000E+00
   -0.81821E+06         0.16684E+08         0.00000E+00
    0.00000E+00         0.00000E+00         0.98822E+07
 
    0.19866E+08        -0.90832E+06         0.00000E+00
   -0.90832E+06         0.16389E+08         0.00000E+00
    0.00000E+00         0.00000E+00         0.89493E+07
 
    0.19233E+08        -0.96710E+06         0.00000E+00
   -0.96710E+06         0.16077E+08         0.00000E+00
    0.00000E+00         0.00000E+00         0.81167E+07
 
    0.18693E+08        -0.10089E+07         0.00000E+00
   -0.10089E+07         0.15750E+08         0.00000E+00
    0.00000E+00         0.00000E+00         0.73810E+07
 
    0.18111E+08        -0.10389E+07         0.00000E+00
   -0.10389E+07         0.15386E+08         0.00000E+00
    0.00000E+00         0.00000E+00         0.68463E+07
 
    0.17516E+08        -0.10402E+07         0.00000E+00
   -0.10402E+07         0.15010E+08         0.00000E+00
    0.00000E+00         0.00000E+00         0.65053E+07
 
    0.16941E+08        -0.10047E+07         0.00000E+00
   -0.10047E+07         0.14648E+08         0.00000E+00
    0.00000E+00         0.00000E+00         0.63177E+07
 
    0.16469E+08        -0.95845E+06         0.00000E+00
   -0.95845E+06         0.14296E+08         0.00000E+00
    0.00000E+00         0.00000E+00         0.61529E+07
 
    0.16074E+08        -0.90829E+06         0.00000E+00
   -0.90829E+06         0.13957E+08         0.00000E+00
    0.00000E+00         0.00000E+00         0.60063E+07
 
    0.15741E+08        -0.85762E+06         0.00000E+00
   -0.85762E+06         0.13634E+08         0.00000E+00
    0.00000E+00         0.00000E+00         0.58749E+07
 
    0.15455E+08        -0.80814E+06         0.00000E+00
   -0.80814E+06         0.13326E+08         0.00000E+00
    0.00000E+00         0.00000E+00         0.57562E+07
 
    0.15208E+08        -0.76070E+06         0.00000E+00
   -0.76070E+06         0.13033E+08         0.00000E+00
    0.00000E+00         0.00000E+00         0.56483E+07
 
    0.14992E+08        -0.71563E+06         0.00000E+00
   -0.71563E+06         0.12756E+08         0.00000E+00
    0.00000E+00         0.00000E+00         0.55497E+07
 
    0.14801E+08        -0.67305E+06         0.00000E+00
   -0.67305E+06         0.12494E+08         0.00000E+00
    0.00000E+00         0.00000E+00         0.54592E+07
 
    0.14631E+08        -0.63291E+06         0.00000E+00
   -0.63291E+06         0.12247E+08         0.00000E+00
    0.00000E+00         0.00000E+00         0.53756E+07
 
    0.14477E+08        -0.59510E+06         0.00000E+00
   -0.59510E+06         0.12013E+08         0.00000E+00
    0.00000E+00         0.00000E+00         0.52981E+07
 
    0.14337E+08        -0.55947E+06         0.00000E+00
   -0.55947E+06         0.11793E+08         0.00000E+00
    0.00000E+00         0.00000E+00         0.52260E+07
 
    0.14208E+08        -0.52587E+06         0.00000E+00
   -0.52587E+06         0.11585E+08         0.00000E+00
    0.00000E+00         0.00000E+00         0.51585E+07
 
    0.14087E+08        -0.49410E+06         0.00000E+00
   -0.49410E+06         0.11389E+08         0.00000E+00
    0.00000E+00         0.00000E+00         0.50951E+07
 
    0.13972E+08        -0.46401E+06         0.00000E+00
   -0.46401E+06         0.11205E+08         0.00000E+00
    0.00000E+00         0.00000E+00         0.50353E+07
 
    0.13862E+08        -0.43542E+06         0.00000E+00
   -0.43542E+06         0.11031E+08         0.00000E+00
    0.00000E+00         0.00000E+00         0.49786E+07
 
    0.13755E+08        -0.40816E+06         0.00000E+00
   -0.40816E+06         0.10868E+08         0.00000E+00
    0.00000E+00         0.00000E+00         0.49247E+07
 
    0.13649E+08        -0.38206E+06         0.00000E+00
   -0.38206E+06         0.10716E+08         0.00000E+00
    0.00000E+00         0.00000E+00         0.48730E+07
 
    0.13544E+08        -0.35694E+06         0.00000E+00
   -0.35694E+06         0.10573E+08         0.00000E+00
    0.00000E+00         0.00000E+00         0.48234E+07
 
    0.13438E+08        -0.33263E+06         0.00000E+00
   -0.33263E+06         0.10439E+08         0.00000E+00
    0.00000E+00         0.00000E+00         0.47754E+07
 
    0.13329E+08        -0.30894E+06         0.00000E+00
   -0.30894E+06         0.10315E+08         0.00000E+00
    0.00000E+00         0.00000E+00         0.47288E+07
 
    0.13216E+08        -0.28569E+06         0.00000E+00
   -0.28569E+06         0.10200E+08         0.00000E+00
    0.00000E+00         0.00000E+00         0.46832E+07
 
    0.13098E+08        -0.26266E+06         0.00000E+00
   -0.26266E+06         0.10094E+08         0.00000E+00
    0.00000E+00         0.00000E+00         0.46384E+07
 
    0.12974E+08        -0.23962E+06         0.00000E+00
   -0.23962E+06         0.99966E+07         0.00000E+00
    0.00000E+00         0.00000E+00         0.45941E+07
 
    0.12841E+08        -0.21632E+06         0.00000E+00
   -0.21632E+06         0.99085E+07         0.00000E+00
    0.00000E+00         0.00000E+00         0.45499E+07
 
    0.12698E+08        -0.19245E+06         0.00000E+00
   -0.19245E+06         0.98296E+07         0.00000E+00
    0.00000E+00         0.00000E+00         0.45056E+07
 
    0.12543E+08        -0.16767E+06         0.00000E+00
   -0.16767E+06         0.97603E+07         0.00000E+00
    0.00000E+00         0.00000E+00         0.44608E+07
 
    0.12375E+08        -0.14157E+06         0.00000E+00
   -0.14157E+06         0.97009E+07         0.00000E+00
    0.00000E+00         0.00000E+00         0.44151E+07
 
    0.12189E+08        -0.11363E+06         0.00000E+00
   -0.11363E+06         0.96522E+07         0.00000E+00
    0.00000E+00         0.00000E+00         0.43683E+07
 
    0.11984E+08        -0.83258E+05         0.00000E+00
   -0.83258E+05         0.96149E+07         0.00000E+00
    0.00000E+00         0.00000E+00         0.43198E+07
 
    0.11756E+08        -0.49677E+05         0.00000E+00
   -0.49677E+05         0.95901E+07         0.00000E+00
    0.00000E+00         0.00000E+00         0.42693E+07
 
    0.11501E+08        -0.11921E+05         0.00000E+00
   -0.11921E+05         0.95793E+07         0.00000E+00
    0.00000E+00         0.00000E+00         0.42161E+07
 
    0.11214E+08         0.31253E+05         0.00000E+00
    0.31253E+05         0.95842E+07         0.00000E+00
    0.00000E+00         0.00000E+00         0.41596E+07
 
    0.10888E+08         0.81465E+05         0.00000E+00
    0.81465E+05         0.96071E+07         0.00000E+00
    0.00000E+00         0.00000E+00         0.40990E+07
 
    0.10517E+08         0.14086E+06         0.00000E+00
    0.14086E+06         0.96511E+07         0.00000E+00
    0.00000E+00         0.00000E+00         0.40335E+07
 
    0.10090E+08         0.21234E+06         0.00000E+00
    0.21234E+06         0.97199E+07         0.00000E+00
    0.00000E+00         0.00000E+00         0.39620E+07
 
    0.95962E+07         0.29991E+06         0.00000E+00
    0.29991E+06         0.98184E+07         0.00000E+00
    0.00000E+00         0.00000E+00         0.38829E+07
 
    0.90200E+07         0.40921E+06         0.00000E+00
    0.40921E+06         0.99533E+07         0.00000E+00
    0.00000E+00         0.00000E+00         0.37947E+07
 
    0.83407E+07         0.54849E+06         0.00000E+00
    0.54849E+06         0.10133E+08         0.00000E+00
    0.00000E+00         0.00000E+00         0.36947E+07
 
    0.75307E+07         0.73013E+06         0.00000E+00
    0.73013E+06         0.10369E+08         0.00000E+00
    0.00000E+00         0.00000E+00         0.35799E+07
 
    0.65511E+07         0.97358E+06         0.00000E+00
    0.97358E+06         0.10677E+08         0.00000E+00
    0.00000E+00         0.00000E+00         0.34455E+07
 
    0.53452E+07         0.13109E+07         0.00000E+00
    0.13109E+07         0.11077E+08         0.00000E+00
    0.00000E+00         0.00000E+00         0.32845E+07
 
    0.38257E+07         0.17978E+07         0.00000E+00
    0.17978E+07         0.11600E+08         0.00000E+00
    0.00000E+00         0.00000E+00         0.30852E+07
 
    0.14166E+08        -0.27888E+06         0.00000E+00
   -0.27888E+06         0.10961E+08         0.00000E+00
    0.00000E+00         0.00000E+00         0.50253E+07
 
    0.13966E+08        -0.84321E+06         0.00000E+00
   -0.84321E+06         0.11120E+08         0.00000E+00
    0.00000E+00         0.00000E+00         0.50173E+07
 
    0.13636E+08        -0.12591E+07         0.00000E+00
   -0.12591E+07         0.11195E+08         0.00000E+00
    0.00000E+00         0.00000E+00         0.49663E+07
 
    0.13255E+08        -0.15638E+07         0.00000E+00
   -0.15638E+07         0.11210E+08         0.00000E+00
    0.00000E+00         0.00000E+00         0.48931E+07
 
    0.12857E+08        -0.17850E+07         0.00000E+00
   -0.17850E+07         0.11181E+08         0.00000E+00
    0.00000E+00         0.00000E+00         0.48075E+07
 
    0.12456E+08        -0.19456E+07         0.00000E+00
   -0.19456E+07         0.11117E+08         0.00000E+00
    0.00000E+00         0.00000E+00         0.47146E+07
 
    0.12061E+08        -0.20603E+07         0.00000E+00
   -0.20603E+07         0.11063E+08         0.00000E+00
    0.00000E+00         0.00000E+00         0.46249E+07
 
    0.11669E+08        -0.21237E+07         0.00000E+00
   -0.21237E+07         0.10999E+08         0.00000E+00
    0.00000E+00         0.00000E+00         0.45335E+07
 
    0.11286E+08        -0.21397E+07         0.00000E+00
   -0.21397E+07         0.10903E+08         0.00000E+00
    0.00000E+00         0.00000E+00         0.44378E+07
 
    0.10929E+08        -0.21190E+07         0.00000E+00
   -0.21190E+07         0.10789E+08         0.00000E+00
    0.00000E+00         0.00000E+00         0.43437E+07
 
    0.10603E+08        -0.20735E+07         0.00000E+00
   -0.20735E+07         0.10663E+08         0.00000E+00
    0.00000E+00         0.00000E+00         0.42533E+07
 
    0.10308E+08        -0.20119E+07         0.00000E+00
   -0.20119E+07         0.10528E+08         0.00000E+00
    0.00000E+00         0.00000E+00         0.41673E+07
 
    0.10043E+08        -0.19400E+07         0.00000E+00
   -0.19400E+07         0.10387E+08         0.00000E+00
    0.00000E+00         0.00000E+00         0.40860E+07
 
    0.98044E+07        -0.18621E+07         0.00000E+00
   -0.18621E+07         0.10242E+08         0.00000E+00
    0.00000E+00         0.00000E+00         0.40093E+07
 
    0.95890E+07        -0.17811E+07         0.00000E+00
   -0.17811E+07         0.10097E+08         0.00000E+00
    0.00000E+00         0.00000E+00         0.39371E+07
 
    0.93941E+07        -0.16989E+07         0.00000E+00
   -0.16989E+07         0.99513E+07         0.00000E+00
    0.00000E+00         0.00000E+00         0.38691E+07
 
    0.92166E+07        -0.16169E+07         0.00000E+00
   -0.16169E+07         0.98078E+07         0.00000E+00
    0.00000E+00         0.00000E+00         0.38049E+07
 
    0.90541E+07        -0.15361E+07         0.00000E+00
   -0.15361E+07         0.96671E+07         0.00000E+00
    0.00000E+00         0.00000E+00         0.37442E+07
 
    0.89042E+07        -0.14568E+07         0.00000E+00
   -0.14568E+07         0.95302E+07         0.00000E+00
    0.00000E+00         0.00000E+00         0.36869E+07
 
    0.87647E+07        -0.13796E+07         0.00000E+00
   -0.13796E+07         0.93975E+07         0.00000E+00
    0.00000E+00         0.00000E+00         0.36324E+07
 
    0.86339E+07        -0.13045E+07         0.00000E+00
   -0.13045E+07         0.92697E+07         0.00000E+00
    0.00000E+00         0.00000E+00         0.35807E+07
 
    0.85099E+07        -0.12315E+07         0.00000E+00
   -0.12315E+07         0.91470E+07         0.00000E+00
    0.00000E+00         0.00000E+00         0.35314E+07
 
    0.83913E+07        -0.11606E+07         0.00000E+00
   -0.11606E+07         0.90299E+07         0.00000E+00
    0.00000E+00         0.00000E+00         0.34842E+07
 
    0.82767E+07        -0.10916E+07         0.00000E+00
   -0.10916E+07         0.89185E+07         0.00000E+00
    0.00000E+00         0.00000E+00         0.34390E+07
 
    0.81646E+07        -0.10244E+07         0.00000E+00
   -0.10244E+07         0.88130E+07         0.00000E+00
    0.00000E+00         0.00000E+00         0.33955E+07
 
    0.80540E+07        -0.95854E+06         0.00000E+00
   -0.95854E+06         0.87136E+07         0.00000E+00
    0.00000E+00         0.00000E+00         0.33535E+07
 
    0.79435E+07        -0.89382E+06         0.00000E+00
   -0.89382E+06         0.86206E+07         0.00000E+00
    0.00000E+00         0.00000E+00         0.33128E+07
 
    0.78320E+07        -0.82985E+06         0.00000E+00
   -0.82985E+06         0.85339E+07         0.00000E+00
    0.00000E+00         0.00000E+00         0.32732E+07
 
    0.77184E+07        -0.76619E+06         0.00000E+00
   -0.76619E+06         0.84540E+07         0.00000E+00
    0.00000E+00         0.00000E+00         0.32345E+07
 
    0.76015E+07        -0.70235E+06         0.00000E+00
   -0.70235E+06         0.83809E+07         0.00000E+00
    0.00000E+00         0.00000E+00         0.31965E+07
 
    0.74801E+07        -0.63776E+06         0.00000E+00
   -0.63776E+06         0.83149E+07         0.00000E+00
    0.00000E+00         0.00000E+00         0.31590E+07
 
    0.73531E+07        -0.57175E+06         0.00000E+00
   -0.57175E+06         0.82563E+07         0.00000E+00
    0.00000E+00         0.00000E+00         0.31219E+07
 
    0.72191E+07        -0.50356E+06         0.00000E+00
   -0.50356E+06         0.82054E+07         0.00000E+00
    0.00000E+00         0.00000E+00         0.30849E+07
 
    0.70768E+07        -0.43227E+06         0.00000E+00
   -0.43227E+06         0.81628E+07         0.00000E+00
    0.00000E+00         0.00000E+00         0.30479E+07
 
    0.69247E+07        -0.35679E+06         0.00000E+00
   -0.35679E+06         0.81288E+07         0.00000E+00
    0.00000E+00         0.00000E+00         0.30107E+07
 
    0.67611E+07        -0.27582E+06         0.00000E+00
   -0.27582E+06         0.81042E+07         0.00000E+00
    0.00000E+00         0.00000E+00         0.29731E+07
 
    0.65844E+07        -0.18777E+06         0.00000E+00
   -0.18777E+06         0.80897E+07         0.00000E+00
    0.00000E+00         0.00000E+00         0.29348E+07
 
    0.63926E+07        -0.90697E+05         0.00000E+00
   -0.90697E+05         0.80861E+07         0.00000E+00
    0.00000E+00         0.00000E+00         0.28957E+07
 
    0.61836E+07         0.17791E+05         0.00000E+00
    0.17791E+05         0.80945E+07         0.00000E+00
    0.00000E+00         0.00000E+00         0.28556E+07
 
    0.59551E+07         0.14069E+06         0.00000E+00
    0.14069E+06         0.81161E+07         0.00000E+00
    0.00000E+00         0.00000E+00         0.28143E+07
 
    0.57048E+07         0.28176E+06         0.00000E+00
    0.28176E+06         0.81523E+07         0.00000E+00
    0.00000E+00         0.00000E+00         0.27714E+07
 
    0.54301E+07         0.44577E+06         0.00000E+00
    0.44577E+06         0.82048E+07         0.00000E+00
    0.00000E+00         0.00000E+00         0.27270E+07
 
    0.51286E+07         0.63884E+06         0.00000E+00
    0.63884E+06         0.82754E+07         0.00000E+00
    0.00000E+00         0.00000E+00         0.26808E+07
 
    0.47981E+07         0.86889E+06         0.00000E+00
    0.86889E+06         0.83661E+07         0.00000E+00
    0.00000E+00         0.00000E+00         0.26328E+07
 
    0.44376E+07         0.11462E+07         0.00000E+00
    0.11462E+07         0.84789E+07         0.00000E+00
    0.00000E+00         0.00000E+00         0.25833E+07
 
    0.40478E+07         0.14844E+07         0.00000E+00
    0.14844E+07         0.86160E+07         0.00000E+00
    0.00000E+00         0.00000E+00         0.25328E+07
 
    0.36340E+07         0.19015E+07         0.00000E+00
    0.19015E+07         0.87790E+07         0.00000E+00
    0.00000E+00         0.00000E+00         0.24826E+07
 
    0.32104E+07         0.24213E+07         0.00000E+00
    0.24213E+07         0.89685E+07         0.00000E+00
    0.00000E+00         0.00000E+00         0.24358E+07
 
    0.28094E+07         0.30753E+07         0.00000E+00
    0.30753E+07         0.91831E+07         0.00000E+00
    0.00000E+00         0.00000E+00         0.23985E+07
 
    0.25025E+07         0.39038E+07         0.00000E+00
    0.39038E+07         0.94181E+07         0.00000E+00
    0.00000E+00         0.00000E+00         0.23841E+07
 
    0.71803E+07        -0.31452E+06         0.00000E+00
   -0.31452E+06         0.66767E+07         0.00000E+00
    0.00000E+00         0.00000E+00         0.27714E+07
 
    0.72763E+07        -0.71019E+06         0.00000E+00
   -0.71019E+06         0.66620E+07         0.00000E+00
    0.00000E+00         0.00000E+00         0.27877E+07
 
    0.73216E+07        -0.10726E+07         0.00000E+00
   -0.10726E+07         0.66980E+07         0.00000E+00
    0.00000E+00         0.00000E+00         0.28039E+07
 
    0.73006E+07        -0.13857E+07         0.00000E+00
   -0.13857E+07         0.67596E+07         0.00000E+00
    0.00000E+00         0.00000E+00         0.28120E+07
 
    0.72206E+07        -0.16452E+07         0.00000E+00
   -0.16452E+07         0.68325E+07         0.00000E+00
    0.00000E+00         0.00000E+00         0.28106E+07
 
    0.70956E+07        -0.18516E+07         0.00000E+00
   -0.18516E+07         0.69088E+07         0.00000E+00
    0.00000E+00         0.00000E+00         0.28009E+07
 
    0.69378E+07        -0.20091E+07         0.00000E+00
   -0.20091E+07         0.69751E+07         0.00000E+00
    0.00000E+00         0.00000E+00         0.27826E+07
 
    0.67589E+07        -0.21263E+07         0.00000E+00
   -0.21263E+07         0.70352E+07         0.00000E+00
    0.00000E+00         0.00000E+00         0.27588E+07
 
    0.65663E+07        -0.22074E+07         0.00000E+00
   -0.22074E+07         0.70913E+07         0.00000E+00
    0.00000E+00         0.00000E+00         0.27315E+07
 
    0.63647E+07        -0.22556E+07         0.00000E+00
   -0.22556E+07         0.71373E+07         0.00000E+00
    0.00000E+00         0.00000E+00         0.27004E+07
 
    0.61601E+07        -0.22747E+07         0.00000E+00
   -0.22747E+07         0.71716E+07         0.00000E+00
    0.00000E+00         0.00000E+00         0.26664E+07
 
    0.59575E+07        -0.22697E+07         0.00000E+00
   -0.22697E+07         0.71940E+07         0.00000E+00
    0.00000E+00         0.00000E+00         0.26303E+07
 
    0.57603E+07        -0.22450E+07         0.00000E+00
   -0.22450E+07         0.72049E+07         0.00000E+00
    0.00000E+00         0.00000E+00         0.25930E+07
 
    0.55707E+07        -0.22048E+07         0.00000E+00
   -0.22048E+07         0.72054E+07         0.00000E+00
    0.00000E+00         0.00000E+00         0.25552E+07
 
    0.53899E+07        -0.21524E+07         0.00000E+00
   -0.21524E+07         0.71969E+07         0.00000E+00
    0.00000E+00         0.00000E+00         0.25174E+07
 
    0.52182E+07        -0.20908E+07         0.00000E+00
   -0.20908E+07         0.71805E+07         0.00000E+00
    0.00000E+00         0.00000E+00         0.24798E+07
 
    0.50557E+07        -0.20222E+07         0.00000E+00
   -0.20222E+07         0.71577E+07         0.00000E+00
    0.00000E+00         0.00000E+00         0.24427E+07
 
    0.49018E+07        -0.19485E+07         0.00000E+00
   -0.19485E+07         0.71296E+07         0.00000E+00
    0.00000E+00         0.00000E+00         0.24063E+07
 
    0.47560E+07        -0.18711E+07         0.00000E+00
   -0.18711E+07         0.70975E+07         0.00000E+00
    0.00000E+00         0.00000E+00         0.23707E+07
 
    0.46175E+07        -0.17911E+07         0.00000E+00
   -0.17911E+07         0.70623E+07         0.00000E+00
    0.00000E+00         0.00000E+00         0.23360E+07
 
    0.44855E+07        -0.17093E+07         0.00000E+00
   -0.17093E+07         0.70252E+07         0.00000E+00
    0.00000E+00         0.00000E+00         0.23021E+07
 
    0.43593E+07        -0.16263E+07         0.00000E+00
   -0.16263E+07         0.69868E+07         0.00000E+00
    0.00000E+00         0.00000E+00         0.22692E+07
 
    0.42378E+07        -0.15425E+07         0.00000E+00
   -0.15425E+07         0.69481E+07         0.00000E+00
    0.00000E+00         0.00000E+00         0.22372E+07
 
    0.41203E+07        -0.14580E+07         0.00000E+00
   -0.14580E+07         0.69098E+07         0.00000E+00
    0.00000E+00         0.00000E+00         0.22060E+07
 
    0.40060E+07        -0.13730E+07         0.00000E+00
   -0.13730E+07         0.68724E+07         0.00000E+00
    0.00000E+00         0.00000E+00         0.21757E+07
 
    0.38941E+07        -0.12874E+07         0.00000E+00
   -0.12874E+07         0.68366E+07         0.00000E+00
    0.00000E+00         0.00000E+00         0.21462E+07
 
    0.37839E+07        -0.12009E+07         0.00000E+00
   -0.12009E+07         0.68030E+07         0.00000E+00
    0.00000E+00         0.00000E+00         0.21174E+07
 
    0.36745E+07        -0.11134E+07         0.00000E+00
   -0.11134E+07         0.67719E+07         0.00000E+00
    0.00000E+00         0.00000E+00         0.20893E+07
 
    0.35654E+07        -0.10244E+07         0.00000E+00
   -0.10244E+07         0.67439E+07         0.00000E+00
    0.00000E+00         0.00000E+00         0.20619E+07
 
    0.34558E+07        -0.93333E+06         0.00000E+00
   -0.93333E+06         0.67195E+07         0.00000E+00
    0.00000E+00         0.00000E+00         0.20351E+07
 
    0.33451E+07        -0.83967E+06         0.00000E+00
   -0.83967E+06         0.66991E+07         0.00000E+00
    0.00000E+00         0.00000E+00         0.20088E+07
 
    0.32328E+07        -0.74259E+06         0.00000E+00
   -0.74259E+06         0.66830E+07         0.00000E+00
    0.00000E+00         0.00000E+00         0.19832E+07
 
    0.31182E+07        -0.64119E+06         0.00000E+00
   -0.64119E+06         0.66718E+07         0.00000E+00
    0.00000E+00         0.00000E+00         0.19580E+07
 
    0.30009E+07        -0.53437E+06         0.00000E+00
   -0.53437E+06         0.66658E+07         0.00000E+00
    0.00000E+00         0.00000E+00         0.19333E+07
 
    0.28805E+07        -0.42083E+06         0.00000E+00
   -0.42083E+06         0.66654E+07         0.00000E+00
    0.00000E+00         0.00000E+00         0.19092E+07
 
    0.27567E+07        -0.29904E+06         0.00000E+00
   -0.29904E+06         0.66710E+07         0.00000E+00
    0.00000E+00         0.00000E+00         0.18855E+07
 
    0.26294E+07        -0.16721E+06         0.00000E+00
   -0.16721E+06         0.66830E+07         0.00000E+00
    0.00000E+00         0.00000E+00         0.18625E+07
 
    0.24985E+07        -0.23198E+05         0.00000E+00
   -0.23198E+05         0.67015E+07         0.00000E+00
    0.00000E+00         0.00000E+00         0.18400E+07
 
    0.23646E+07         0.13551E+06         0.00000E+00
    0.13551E+06         0.67270E+07         0.00000E+00
    0.00000E+00         0.00000E+00         0.18183E+07
 
    0.22282E+07         0.31188E+06         0.00000E+00
    0.31188E+06         0.67593E+07         0.00000E+00
    0.00000E+00         0.00000E+00         0.17975E+07
 
    0.20908E+07         0.50940E+06         0.00000E+00
    0.50940E+06         0.67985E+07         0.00000E+00
    0.00000E+00         0.00000E+00         0.17779E+07
 
    0.19545E+07         0.73214E+06         0.00000E+00
    0.73214E+06         0.68441E+07         0.00000E+00
    0.00000E+00         0.00000E+00         0.17597E+07
 
    0.18224E+07         0.98481E+06         0.00000E+00
    0.98481E+06         0.68953E+07         0.00000E+00
    0.00000E+00         0.00000E+00         0.17435E+07
 
    0.16991E+07         0.12728E+07         0.00000E+00
    0.12728E+07         0.69506E+07         0.00000E+00
    0.00000E+00         0.00000E+00         0.17299E+07
 
    0.15913E+07         0.16019E+07         0.00000E+00
    0.16019E+07         0.70076E+07         0.00000E+00
    0.00000E+00         0.00000E+00         0.17198E+07
 
    0.15082E+07         0.19785E+07         0.00000E+00
    0.19785E+07         0.70623E+07         0.00000E+00
    0.00000E+00         0.00000E+00         0.17141E+07
 
    0.14617E+07         0.24082E+07         0.00000E+00
    0.24082E+07         0.71091E+07         0.00000E+00
    0.00000E+00         0.00000E+00         0.17142E+07
 
    0.14666E+07         0.28949E+07         0.00000E+00
    0.28949E+07         0.71388E+07         0.00000E+00
    0.00000E+00         0.00000E+00         0.17211E+07
 
    0.15369E+07         0.34381E+07         0.00000E+00
    0.34381E+07         0.71381E+07         0.00000E+00
    0.00000E+00         0.00000E+00         0.17350E+07
 
    0.16755E+07         0.40271E+07         0.00000E+00
    0.40271E+07         0.70861E+07         0.00000E+00
    0.00000E+00         0.00000E+00         0.17523E+07
 
    0.21218E+07        -0.17388E+06         0.00000E+00
   -0.17388E+06         0.35083E+07         0.00000E+00
    0.00000E+00         0.00000E+00         0.11260E+07
 
    0.24702E+07        -0.48436E+06         0.00000E+00
   -0.48436E+06         0.35630E+07         0.00000E+00
    0.00000E+00         0.00000E+00         0.12066E+07
 
    0.27227E+07        -0.75717E+06         0.00000E+00
   -0.75717E+06         0.36277E+07         0.00000E+00
    0.00000E+00         0.00000E+00         0.12701E+07
 
    0.29026E+07        -0.10001E+07         0.00000E+00
   -0.10001E+07         0.37063E+07         0.00000E+00
    0.00000E+00         0.00000E+00         0.13218E+07
 
    0.30216E+07        -0.12148E+07         0.00000E+00
   -0.12148E+07         0.37971E+07         0.00000E+00
    0.00000E+00         0.00000E+00         0.13637E+07
 
    0.30882E+07        -0.14017E+07         0.00000E+00
   -0.14017E+07         0.38962E+07         0.00000E+00
    0.00000E+00         0.00000E+00         0.13969E+07
 
    0.31107E+07        -0.15609E+07         0.00000E+00
   -0.15609E+07         0.40019E+07         0.00000E+00
    0.00000E+00         0.00000E+00         0.14225E+07
 
    0.30964E+07        -0.16920E+07         0.00000E+00
   -0.16920E+07         0.41092E+07         0.00000E+00
    0.00000E+00         0.00000E+00         0.14411E+07
 
    0.30526E+07        -0.17970E+07         0.00000E+00
   -0.17970E+07         0.42145E+07         0.00000E+00
    0.00000E+00         0.00000E+00         0.14534E+07
 
    0.29858E+07        -0.18780E+07         0.00000E+00
   -0.18780E+07         0.43172E+07         0.00000E+00
    0.00000E+00         0.00000E+00         0.14606E+07
 
    0.29010E+07        -0.19366E+07         0.00000E+00
   -0.19366E+07         0.44157E+07         0.00000E+00
    0.00000E+00         0.00000E+00         0.14633E+07
 
    0.28026E+07        -0.19747E+07         0.00000E+00
   -0.19747E+07         0.45086E+07         0.00000E+00
    0.00000E+00         0.00000E+00         0.14622E+07
 
    0.26944E+07        -0.19943E+07         0.00000E+00
   -0.19943E+07         0.45949E+07         0.00000E+00
    0.00000E+00         0.00000E+00         0.14579E+07
 
    0.25796E+07        -0.19973E+07         0.00000E+00
   -0.19973E+07         0.46742E+07         0.00000E+00
    0.00000E+00         0.00000E+00         0.14507E+07
 
    0.24608E+07        -0.19858E+07         0.00000E+00
   -0.19858E+07         0.47461E+07         0.00000E+00
    0.00000E+00         0.00000E+00         0.14414E+07
 
    0.23402E+07        -0.19617E+07         0.00000E+00
   -0.19617E+07         0.48109E+07         0.00000E+00
    0.00000E+00         0.00000E+00         0.14302E+07
 
    0.22193E+07        -0.19267E+07         0.00000E+00
   -0.19267E+07         0.48687E+07         0.00000E+00
    0.00000E+00         0.00000E+00         0.14176E+07
 
    0.20992E+07        -0.18824E+07         0.00000E+00
   -0.18824E+07         0.49201E+07         0.00000E+00
    0.00000E+00         0.00000E+00         0.14038E+07
 
    0.19807E+07        -0.18300E+07         0.00000E+00
   -0.18300E+07         0.49655E+07         0.00000E+00
    0.00000E+00         0.00000E+00         0.13892E+07
 
    0.18644E+07        -0.17708E+07         0.00000E+00
   -0.17708E+07         0.50055E+07         0.00000E+00
    0.00000E+00         0.00000E+00         0.13740E+07
 
    0.17506E+07        -0.17058E+07         0.00000E+00
   -0.17058E+07         0.50409E+07         0.00000E+00
    0.00000E+00         0.00000E+00         0.13583E+07
 
    0.16395E+07        -0.16357E+07         0.00000E+00
   -0.16357E+07         0.50722E+07         0.00000E+00
    0.00000E+00         0.00000E+00         0.13423E+07
 
    0.15311E+07        -0.15611E+07         0.00000E+00
   -0.15611E+07         0.51001E+07         0.00000E+00
    0.00000E+00         0.00000E+00         0.13262E+07
 
    0.14253E+07        -0.14824E+07         0.00000E+00
   -0.14824E+07         0.51252E+07         0.00000E+00
    0.00000E+00         0.00000E+00         0.13101E+07
 
    0.13221E+07        -0.14000E+07         0.00000E+00
   -0.14000E+07         0.51481E+07         0.00000E+00
    0.00000E+00         0.00000E+00         0.12940E+07
 
    0.12214E+07        -0.13140E+07         0.00000E+00
   -0.13140E+07         0.51693E+07         0.00000E+00
    0.00000E+00         0.00000E+00         0.12781E+07
 
    0.11229E+07        -0.12245E+07         0.00000E+00
   -0.12245E+07         0.51895E+07         0.00000E+00
    0.00000E+00         0.00000E+00         0.12625E+07
 
    0.10266E+07        -0.11313E+07         0.00000E+00
   -0.11313E+07         0.52091E+07         0.00000E+00
    0.00000E+00         0.00000E+00         0.12471E+07
 
    0.93228E+06        -0.10342E+07         0.00000E+00
   -0.10342E+07         0.52285E+07         0.00000E+00
    0.00000E+00         0.00000E+00         0.12321E+07
 
    0.84000E+06        -0.93296E+06         0.00000E+00
   -0.93296E+06         0.52481E+07         0.00000E+00
    0.00000E+00         0.00000E+00         0.12176E+07
 
    0.74971E+06        -0.82705E+06         0.00000E+00
   -0.82705E+06         0.52684E+07         0.00000E+00
    0.00000E+00         0.00000E+00         0.12036E+07
 
    0.66150E+06        -0.71591E+06         0.00000E+00
   -0.71591E+06         0.52896E+07         0.00000E+00
    0.00000E+00         0.00000E+00         0.11902E+07
 
    0.57556E+06        -0.59885E+06         0.00000E+00
   -0.59885E+06         0.53120E+07         0.00000E+00
    0.00000E+00         0.00000E+00         0.11775E+07
 
    0.49222E+06        -0.47503E+06         0.00000E+00
   -0.47503E+06         0.53358E+07         0.00000E+00
    0.00000E+00         0.00000E+00         0.11656E+07
 
    0.41198E+06        -0.34348E+06         0.00000E+00
   -0.34348E+06         0.53609E+07         0.00000E+00
    0.00000E+00         0.00000E+00         0.11546E+07
 
    0.33553E+06        -0.20310E+06         0.00000E+00
   -0.20310E+06         0.53875E+07         0.00000E+00
    0.00000E+00         0.00000E+00         0.11446E+07
 
    0.26387E+06        -0.52650E+05         0.00000E+00
   -0.52650E+05         0.54153E+07         0.00000E+00
    0.00000E+00         0.00000E+00         0.11358E+07
 
    0.19827E+06         0.10927E+06         0.00000E+00
    0.10927E+06         0.54441E+07         0.00000E+00
    0.00000E+00         0.00000E+00         0.11285E+07
 
    0.14043E+06         0.28419E+06         0.00000E+00
    0.28419E+06         0.54732E+07         0.00000E+00
    0.00000E+00         0.00000E+00         0.11227E+07
 
    0.92498E+05         0.47373E+06         0.00000E+00
    0.47373E+06         0.55019E+07         0.00000E+00
    0.00000E+00         0.00000E+00         0.11189E+07
 
    0.57204E+05         0.67960E+06         0.00000E+00
    0.67960E+06         0.55290E+07         0.00000E+00
    0.00000E+00         0.00000E+00         0.11172E+07
 
    0.37942E+05         0.90355E+06         0.00000E+00
    0.90355E+06         0.55530E+07         0.00000E+00
    0.00000E+00         0.00000E+00         0.11182E+07
 
    0.38857E+05         0.11472E+07         0.00000E+00
    0.11472E+07         0.55719E+07         0.00000E+00
    0.00000E+00         0.00000E+00         0.11221E+07
 
    0.64917E+05         0.14120E+07         0.00000E+00
    0.14120E+07         0.55829E+07         0.00000E+00
    0.00000E+00         0.00000E+00         0.11296E+07
 
    0.12190E+06         0.16989E+07         0.00000E+00
    0.16989E+07         0.55829E+07         0.00000E+00
    0.00000E+00         0.00000E+00         0.11410E+07
 
    0.21631E+06         0.20083E+07         0.00000E+00
    0.20083E+07         0.55676E+07         0.00000E+00
    0.00000E+00         0.00000E+00         0.11568E+07
 
    0.35510E+06         0.23396E+07         0.00000E+00
    0.23396E+07         0.55325E+07         0.00000E+00
    0.00000E+00         0.00000E+00         0.11775E+07
 
    0.54545E+06         0.26916E+07         0.00000E+00
    0.26916E+07         0.54722E+07         0.00000E+00
    0.00000E+00         0.00000E+00         0.12035E+07
 
    0.79529E+06         0.30629E+07         0.00000E+00
    0.30629E+07         0.53825E+07         0.00000E+00
    0.00000E+00         0.00000E+00         0.12355E+07
 
    0.11173E+07         0.34547E+07         0.00000E+00
    0.34547E+07         0.52616E+07         0.00000E+00
    0.00000E+00         0.00000E+00         0.12758E+07
 
   -0.92653E+06        -0.81000E+05         0.00000E+00
   -0.81000E+05         0.16801E+07         0.00000E+00
    0.00000E+00         0.00000E+00         0.15072E+06
 
   -0.52564E+06        -0.25418E+06         0.00000E+00
   -0.25418E+06         0.17055E+07         0.00000E+00
    0.00000E+00         0.00000E+00         0.23597E+06
 
   -0.19159E+06        -0.42823E+06         0.00000E+00
   -0.42823E+06         0.17560E+07         0.00000E+00
    0.00000E+00         0.00000E+00         0.31288E+06
 
    0.79800E+05        -0.59553E+06         0.00000E+00
   -0.59553E+06         0.18241E+07         0.00000E+00
    0.00000E+00         0.00000E+00         0.38078E+06
 
    0.29577E+06        -0.75261E+06         0.00000E+00
   -0.75261E+06         0.19057E+07         0.00000E+00
    0.00000E+00         0.00000E+00         0.44029E+06
 
    0.46328E+06        -0.89735E+06         0.00000E+00
   -0.89735E+06         0.19980E+07         0.00000E+00
    0.00000E+00         0.00000E+00         0.49225E+06
 
    0.58843E+06        -0.10284E+07         0.00000E+00
   -0.10284E+07         0.20981E+07         0.00000E+00
    0.00000E+00         0.00000E+00         0.53730E+06
 
    0.67671E+06        -0.11450E+07         0.00000E+00
   -0.11450E+07         0.22040E+07         0.00000E+00
    0.00000E+00         0.00000E+00         0.57615E+06
 
    0.73300E+06        -0.12465E+07         0.00000E+00
   -0.12465E+07         0.23139E+07         0.00000E+00
    0.00000E+00         0.00000E+00         0.60939E+06
 
    0.76185E+06        -0.13327E+07         0.00000E+00
   -0.13327E+07         0.24256E+07         0.00000E+00
    0.00000E+00         0.00000E+00         0.63749E+06
 
    0.76748E+06        -0.14036E+07         0.00000E+00
   -0.14036E+07         0.25375E+07         0.00000E+00
    0.00000E+00         0.00000E+00         0.66100E+06
 
    0.75364E+06        -0.14599E+07         0.00000E+00
   -0.14599E+07         0.26484E+07         0.00000E+00
    0.00000E+00         0.00000E+00         0.68041E+06
 
    0.72364E+06        -0.15019E+07         0.00000E+00
   -0.15019E+07         0.27572E+07         0.00000E+00
    0.00000E+00         0.00000E+00         0.69617E+06
 
    0.68039E+06        -0.15306E+07         0.00000E+00
   -0.15306E+07         0.28631E+07         0.00000E+00
    0.00000E+00         0.00000E+00         0.70870E+06
 
    0.62648E+06        -0.15465E+07         0.00000E+00
   -0.15465E+07         0.29654E+07         0.00000E+00
    0.00000E+00         0.00000E+00         0.71837E+06
 
    0.56414E+06        -0.15506E+07         0.00000E+00
   -0.15506E+07         0.30636E+07         0.00000E+00
    0.00000E+00         0.00000E+00         0.72555E+06
 
    0.49531E+06        -0.15438E+07         0.00000E+00
   -0.15438E+07         0.31574E+07         0.00000E+00
    0.00000E+00         0.00000E+00         0.73055E+06
 
    0.42164E+06        -0.15268E+07         0.00000E+00
   -0.15268E+07         0.32467E+07         0.00000E+00
    0.00000E+00         0.00000E+00         0.73367E+06
 
    0.34453E+06        -0.15006E+07         0.00000E+00
   -0.15006E+07         0.33314E+07         0.00000E+00
    0.00000E+00         0.00000E+00         0.73519E+06
 
    0.26514E+06        -0.14658E+07         0.00000E+00
   -0.14658E+07         0.34116E+07         0.00000E+00
    0.00000E+00         0.00000E+00         0.73535E+06
 
    0.18444E+06        -0.14232E+07         0.00000E+00
   -0.14232E+07         0.34875E+07         0.00000E+00
    0.00000E+00         0.00000E+00         0.73438E+06
 
    0.10325E+06        -0.13733E+07         0.00000E+00
   -0.13733E+07         0.35591E+07         0.00000E+00
    0.00000E+00         0.00000E+00         0.73247E+06
 
    0.22231E+05        -0.13167E+07         0.00000E+00
   -0.13167E+07         0.36269E+07         0.00000E+00
    0.00000E+00         0.00000E+00         0.72982E+06
 
   -0.58041E+05        -0.12539E+07         0.00000E+00
   -0.12539E+07         0.36910E+07         0.00000E+00
    0.00000E+00         0.00000E+00         0.72658E+06
 
   -0.13708E+06        -0.11851E+07         0.00000E+00
   -0.11851E+07         0.37517E+07         0.00000E+00
    0.00000E+00         0.00000E+00         0.72292E+06
 
   -0.21445E+06        -0.11106E+07         0.00000E+00
   -0.11106E+07         0.38094E+07         0.00000E+00
    0.00000E+00         0.00000E+00         0.71898E+06
 
   -0.28975E+06        -0.10305E+07         0.00000E+00
   -0.10305E+07         0.38642E+07         0.00000E+00
    0.00000E+00         0.00000E+00         0.71490E+06
 
   -0.36259E+06        -0.94499E+06         0.00000E+00
   -0.94499E+06         0.39166E+07         0.00000E+00
    0.00000E+00         0.00000E+00         0.71080E+06
 
   -0.43257E+06        -0.85399E+06         0.00000E+00
   -0.85399E+06         0.39666E+07         0.00000E+00
    0.00000E+00         0.00000E+00         0.70680E+06
 
   -0.49925E+06        -0.75741E+06         0.00000E+00
   -0.75741E+06         0.40145E+07         0.00000E+00
    0.00000E+00         0.00000E+00         0.70304E+06
 
   -0.56214E+06        -0.65508E+06         0.00000E+00
   -0.65508E+06         0.40603E+07         0.00000E+00
    0.00000E+00         0.00000E+00         0.69964E+06
 
   -0.62069E+06        -0.54676E+06         0.00000E+00
   -0.54676E+06         0.41043E+07         0.00000E+00
    0.00000E+00         0.00000E+00         0.69672E+06
 
   -0.67423E+06        -0.43215E+06         0.00000E+00
   -0.43215E+06         0.41463E+07         0.00000E+00
    0.00000E+00         0.00000E+00         0.69442E+06
 
   -0.72198E+06        -0.31089E+06         0.00000E+00
   -0.31089E+06         0.41863E+07         0.00000E+00
    0.00000E+00         0.00000E+00         0.69287E+06
 
   -0.76302E+06        -0.18257E+06         0.00000E+00
   -0.18257E+06         0.42241E+07         0.00000E+00
    0.00000E+00         0.00000E+00         0.69222E+06
 
   -0.79624E+06        -0.46760E+05         0.00000E+00
   -0.46760E+05         0.42594E+07         0.00000E+00
    0.00000E+00         0.00000E+00         0.69264E+06
 
   -0.82034E+06         0.96996E+05         0.00000E+00
    0.96996E+05         0.42918E+07         0.00000E+00
    0.00000E+00         0.00000E+00         0.69428E+06
 
   -0.83379E+06         0.24913E+06         0.00000E+00
    0.24913E+06         0.43205E+07         0.00000E+00
    0.00000E+00         0.00000E+00         0.69735E+06
 
   -0.83480E+06         0.41005E+06         0.00000E+00
    0.41005E+06         0.43450E+07         0.00000E+00
    0.00000E+00         0.00000E+00         0.70204E+06
 
   -0.82130E+06         0.58005E+06         0.00000E+00
    0.58005E+06         0.43641E+07         0.00000E+00
    0.00000E+00         0.00000E+00         0.70856E+06
 
   -0.79094E+06         0.75933E+06         0.00000E+00
    0.75933E+06         0.43767E+07         0.00000E+00
    0.00000E+00         0.00000E+00         0.71715E+06
 
   -0.74103E+06         0.94786E+06         0.00000E+00
    0.94786E+06         0.43813E+07         0.00000E+00
    0.00000E+00         0.00000E+00         0.72806E+06
 
   -0.66863E+06         0.11454E+07         0.00000E+00
    0.11454E+07         0.43763E+07         0.00000E+00
    0.00000E+00         0.00000E+00         0.74153E+06
 
   -0.57049E+06         0.13513E+07         0.00000E+00
    0.13513E+07         0.43596E+07         0.00000E+00
    0.00000E+00         0.00000E+00         0.75782E+06
 
   -0.44312E+06         0.15647E+07         0.00000E+00
    0.15647E+07         0.43291E+07         0.00000E+00
    0.00000E+00         0.00000E+00         0.77720E+06
 
   -0.28280E+06         0.17842E+07         0.00000E+00
    0.17842E+07         0.42826E+07         0.00000E+00
    0.00000E+00         0.00000E+00         0.79996E+06
 
   -0.85524E+05         0.20079E+07         0.00000E+00
    0.20079E+07         0.42175E+07         0.00000E+00
    0.00000E+00         0.00000E+00         0.82640E+06
 
    0.15304E+06         0.22335E+07         0.00000E+00
    0.22335E+07         0.41314E+07         0.00000E+00
    0.00000E+00         0.00000E+00         0.85688E+06
 
    0.43757E+06         0.24579E+07         0.00000E+00
    0.24579E+07         0.40211E+07         0.00000E+00
    0.00000E+00         0.00000E+00         0.89174E+06
 
    0.77160E+06         0.26759E+07         0.00000E+00
    0.26759E+07         0.38824E+07         0.00000E+00
    0.00000E+00         0.00000E+00         0.93079E+06
 
   -0.24822E+07        -0.20328E+05         0.00000E+00
   -0.20328E+05         0.72059E+06         0.00000E+00
    0.00000E+00         0.00000E+00        -0.35232E+06
 
   -0.21168E+07        -0.10017E+06         0.00000E+00
   -0.10017E+06         0.73847E+06         0.00000E+00
    0.00000E+00         0.00000E+00        -0.27567E+06
 
   -0.17961E+07        -0.18887E+06         0.00000E+00
   -0.18887E+06         0.77017E+06         0.00000E+00
    0.00000E+00         0.00000E+00        -0.20518E+06
 
   -0.15170E+07        -0.28323E+06         0.00000E+00
   -0.28323E+06         0.81563E+06         0.00000E+00
    0.00000E+00         0.00000E+00        -0.14028E+06
 
   -0.12773E+07        -0.37965E+06         0.00000E+00
   -0.37965E+06         0.87339E+06         0.00000E+00
    0.00000E+00         0.00000E+00        -0.80788E+05
 
   -0.10743E+07        -0.47511E+06         0.00000E+00
   -0.47511E+06         0.94170E+06         0.00000E+00
    0.00000E+00         0.00000E+00        -0.26519E+05
 
   -0.90495E+06        -0.56722E+06         0.00000E+00
   -0.56722E+06         0.10190E+07         0.00000E+00
    0.00000E+00         0.00000E+00         0.22804E+05
 
   -0.76628E+06        -0.65406E+06         0.00000E+00
   -0.65406E+06         0.11035E+07         0.00000E+00
    0.00000E+00         0.00000E+00         0.67453E+05
 
   -0.65528E+06        -0.73425E+06         0.00000E+00
   -0.73425E+06         0.11939E+07         0.00000E+00
    0.00000E+00         0.00000E+00         0.10773E+06
 
   -0.56910E+06        -0.80676E+06         0.00000E+00
   -0.80676E+06         0.12889E+07         0.00000E+00
    0.00000E+00         0.00000E+00         0.14396E+06
 
   -0.50504E+06        -0.87078E+06         0.00000E+00
   -0.87078E+06         0.13871E+07         0.00000E+00
    0.00000E+00         0.00000E+00         0.17641E+06
 
   -0.46052E+06        -0.92581E+06         0.00000E+00
   -0.92581E+06         0.14875E+07         0.00000E+00
    0.00000E+00         0.00000E+00         0.20539E+06
 
   -0.43309E+06        -0.97155E+06         0.00000E+00
   -0.97155E+06         0.15890E+07         0.00000E+00
    0.00000E+00         0.00000E+00         0.23117E+06
 
   -0.42052E+06        -0.10079E+07         0.00000E+00
   -0.10079E+07         0.16907E+07         0.00000E+00
    0.00000E+00         0.00000E+00         0.25403E+06
 
   -0.42074E+06        -0.10349E+07         0.00000E+00
   -0.10349E+07         0.17919E+07         0.00000E+00
    0.00000E+00         0.00000E+00         0.27424E+06
 
   -0.43183E+06        -0.10526E+07         0.00000E+00
   -0.10526E+07         0.18920E+07         0.00000E+00
    0.00000E+00         0.00000E+00         0.29203E+06
 
   -0.45209E+06        -0.10613E+07         0.00000E+00
   -0.10613E+07         0.19904E+07         0.00000E+00
    0.00000E+00         0.00000E+00         0.30766E+06
 
   -0.47992E+06        -0.10612E+07         0.00000E+00
   -0.10612E+07         0.20866E+07         0.00000E+00
    0.00000E+00         0.00000E+00         0.32134E+06
 
   -0.51393E+06        -0.10527E+07         0.00000E+00
   -0.10527E+07         0.21804E+07         0.00000E+00
    0.00000E+00         0.00000E+00         0.33330E+06
 
   -0.55283E+06        -0.10361E+07         0.00000E+00
   -0.10361E+07         0.22715E+07         0.00000E+00
    0.00000E+00         0.00000E+00         0.34373E+06
 
   -0.59546E+06        -0.10118E+07         0.00000E+00
   -0.10118E+07         0.23596E+07         0.00000E+00
    0.00000E+00         0.00000E+00         0.35283E+06
 
   -0.64079E+06        -0.97999E+06         0.00000E+00
   -0.97999E+06         0.24446E+07         0.00000E+00
    0.00000E+00         0.00000E+00         0.36077E+06
 
   -0.68788E+06        -0.94110E+06         0.00000E+00
   -0.94110E+06         0.25265E+07         0.00000E+00
    0.00000E+00         0.00000E+00         0.36773E+06
 
   -0.73587E+06        -0.89539E+06         0.00000E+00
   -0.89539E+06         0.26052E+07         0.00000E+00
    0.00000E+00         0.00000E+00         0.37387E+06
 
   -0.78398E+06        -0.84312E+06         0.00000E+00
   -0.84312E+06         0.26807E+07         0.00000E+00
    0.00000E+00         0.00000E+00         0.37934E+06
 
   -0.83145E+06        -0.78453E+06         0.00000E+00
   -0.78453E+06         0.27529E+07         0.00000E+00
    0.00000E+00         0.00000E+00         0.38428E+06
 
   -0.87759E+06        -0.71980E+06         0.00000E+00
   -0.71980E+06         0.28218E+07         0.00000E+00
    0.00000E+00         0.00000E+00         0.38884E+06
 
   -0.92170E+06        -0.64910E+06         0.00000E+00
   -0.64910E+06         0.28875E+07         0.00000E+00
    0.00000E+00         0.00000E+00         0.39315E+06
 
   -0.96312E+06        -0.57255E+06         0.00000E+00
   -0.57255E+06         0.29498E+07         0.00000E+00
    0.00000E+00         0.00000E+00         0.39734E+06
 
   -0.10011E+07        -0.49024E+06         0.00000E+00
   -0.49024E+06         0.30089E+07         0.00000E+00
    0.00000E+00         0.00000E+00         0.40154E+06
 
   -0.10350E+07        -0.40225E+06         0.00000E+00
   -0.40225E+06         0.30644E+07         0.00000E+00
    0.00000E+00         0.00000E+00         0.40588E+06
 
   -0.10641E+07        -0.30863E+06         0.00000E+00
   -0.30863E+06         0.31165E+07         0.00000E+00
    0.00000E+00         0.00000E+00         0.41048E+06
 
   -0.10874E+07        -0.20943E+06         0.00000E+00
   -0.20943E+06         0.31647E+07         0.00000E+00
    0.00000E+00         0.00000E+00         0.41546E+06
 
   -0.11042E+07        -0.10469E+06         0.00000E+00
   -0.10469E+06         0.32090E+07         0.00000E+00
    0.00000E+00         0.00000E+00         0.42096E+06
 
   -0.11135E+07         0.55242E+04         0.00000E+00
    0.55242E+04         0.32490E+07         0.00000E+00
    0.00000E+00         0.00000E+00         0.42709E+06
 
   -0.11143E+07         0.12112E+06         0.00000E+00
    0.12112E+06         0.32843E+07         0.00000E+00
    0.00000E+00         0.00000E+00         0.43401E+06
 
   -0.11054E+07         0.24195E+06         0.00000E+00
    0.24195E+06         0.33145E+07         0.00000E+00
    0.00000E+00         0.00000E+00         0.44182E+06
 
   -0.10855E+07         0.36781E+06         0.00000E+00
    0.36781E+06         0.33389E+07         0.00000E+00
    0.00000E+00         0.00000E+00         0.45068E+06
 
   -0.10534E+07         0.49839E+06         0.00000E+00
    0.49839E+06         0.33570E+07         0.00000E+00
    0.00000E+00         0.00000E+00         0.46071E+06
 
   -0.10077E+07         0.63325E+06         0.00000E+00
    0.63325E+06         0.33679E+07         0.00000E+00
    0.00000E+00         0.00000E+00         0.47206E+06
 
   -0.94665E+06         0.77182E+06         0.00000E+00
    0.77182E+06         0.33709E+07         0.00000E+00
    0.00000E+00         0.00000E+00         0.48485E+06
 
   -0.86883E+06         0.91332E+06         0.00000E+00
    0.91332E+06         0.33650E+07         0.00000E+00
    0.00000E+00         0.00000E+00         0.49923E+06
 
   -0.77252E+06         0.10568E+07         0.00000E+00
    0.10568E+07         0.33491E+07         0.00000E+00
    0.00000E+00         0.00000E+00         0.51533E+06
 
   -0.65599E+06         0.12010E+07         0.00000E+00
    0.12010E+07         0.33223E+07         0.00000E+00
    0.00000E+00         0.00000E+00         0.53327E+06
 
   -0.51754E+06         0.13444E+07         0.00000E+00
    0.13444E+07         0.32835E+07         0.00000E+00
    0.00000E+00         0.00000E+00         0.55319E+06
 
   -0.35543E+06         0.14853E+07         0.00000E+00
    0.14853E+07         0.32314E+07         0.00000E+00
    0.00000E+00         0.00000E+00         0.57519E+06
 
   -0.16804E+06         0.16214E+07         0.00000E+00
    0.16214E+07         0.31649E+07         0.00000E+00
    0.00000E+00         0.00000E+00         0.59938E+06
 
    0.46084E+05         0.17500E+07         0.00000E+00
    0.17500E+07         0.30830E+07         0.00000E+00
    0.00000E+00         0.00000E+00         0.62581E+06
 
    0.28805E+06         0.18681E+07         0.00000E+00
    0.18681E+07         0.29845E+07         0.00000E+00
    0.00000E+00         0.00000E+00         0.65450E+06
 
    0.55897E+06         0.19724E+07         0.00000E+00
    0.19724E+07         0.28691E+07         0.00000E+00
    0.00000E+00         0.00000E+00         0.68562E+06
 
   -0.31185E+07         0.10072E+05         0.00000E+00
    0.10072E+05         0.28148E+06         0.00000E+00
    0.00000E+00         0.00000E+00        -0.56740E+06
 
   -0.28198E+07        -0.81144E+04         0.00000E+00
   -0.81144E+04         0.28987E+06         0.00000E+00
    0.00000E+00         0.00000E+00        -0.50600E+06
 
   -0.25464E+07        -0.38722E+05         0.00000E+00
   -0.38722E+05         0.30807E+06         0.00000E+00
    0.00000E+00         0.00000E+00        -0.44766E+06
 
   -0.22983E+07        -0.78544E+05         0.00000E+00
   -0.78544E+05         0.33551E+06         0.00000E+00
    0.00000E+00         0.00000E+00        -0.39256E+06
 
   -0.20753E+07        -0.12500E+06         0.00000E+00
   -0.12500E+06         0.37180E+06         0.00000E+00
    0.00000E+00         0.00000E+00        -0.34070E+06
 
   -0.18766E+07        -0.17576E+06         0.00000E+00
   -0.17576E+06         0.41644E+06         0.00000E+00
    0.00000E+00         0.00000E+00        -0.29204E+06
 
   -0.17013E+07        -0.22876E+06         0.00000E+00
   -0.22876E+06         0.46872E+06         0.00000E+00
    0.00000E+00         0.00000E+00        -0.24652E+06
 
   -0.15482E+07        -0.28220E+06         0.00000E+00
   -0.28220E+06         0.52789E+06         0.00000E+00
    0.00000E+00         0.00000E+00        -0.20406E+06
 
   -0.14159E+07        -0.33453E+06         0.00000E+00
   -0.33453E+06         0.59312E+06         0.00000E+00
    0.00000E+00         0.00000E+00        -0.16456E+06
 
   -0.13031E+07        -0.38446E+06         0.00000E+00
   -0.38446E+06         0.66355E+06         0.00000E+00
    0.00000E+00         0.00000E+00        -0.12791E+06
 
   -0.12083E+07        -0.43092E+06         0.00000E+00
   -0.43092E+06         0.73836E+06         0.00000E+00
    0.00000E+00         0.00000E+00        -0.93982E+05
 
   -0.11299E+07        -0.47305E+06         0.00000E+00
   -0.47305E+06         0.81675E+06         0.00000E+00
    0.00000E+00         0.00000E+00        -0.62626E+05
 
   -0.10664E+07        -0.51016E+06         0.00000E+00
   -0.51016E+06         0.89795E+06         0.00000E+00
    0.00000E+00         0.00000E+00        -0.33700E+05
 
   -0.10165E+07        -0.54173E+06         0.00000E+00
   -0.54173E+06         0.98122E+06         0.00000E+00
    0.00000E+00         0.00000E+00        -0.70542E+04
 
   -0.97859E+06        -0.56735E+06         0.00000E+00
   -0.56735E+06         0.10659E+07         0.00000E+00
    0.00000E+00         0.00000E+00         0.17463E+05
 
   -0.95135E+06        -0.58675E+06         0.00000E+00
   -0.58675E+06         0.11514E+07         0.00000E+00
    0.00000E+00         0.00000E+00         0.40004E+05
 
   -0.93347E+06        -0.59976E+06         0.00000E+00
   -0.59976E+06         0.12371E+07         0.00000E+00
    0.00000E+00         0.00000E+00         0.60719E+05
 
   -0.92370E+06        -0.60628E+06         0.00000E+00
   -0.60628E+06         0.13225E+07         0.00000E+00
    0.00000E+00         0.00000E+00         0.79757E+05
 
   -0.92085E+06        -0.60627E+06         0.00000E+00
   -0.60627E+06         0.14072E+07         0.00000E+00
    0.00000E+00         0.00000E+00         0.97264E+05
 
   -0.92380E+06        -0.59978E+06         0.00000E+00
   -0.59978E+06         0.14907E+07         0.00000E+00
    0.00000E+00         0.00000E+00         0.11338E+06
 
   -0.93152E+06        -0.58686E+06         0.00000E+00
   -0.58686E+06         0.15728E+07         0.00000E+00
    0.00000E+00         0.00000E+00         0.12825E+06
 
   -0.94300E+06        -0.56763E+06         0.00000E+00
   -0.56763E+06         0.16530E+07         0.00000E+00
    0.00000E+00         0.00000E+00         0.14200E+06
 
   -0.95732E+06        -0.54220E+06         0.00000E+00
   -0.54220E+06         0.17312E+07         0.00000E+00
    0.00000E+00         0.00000E+00         0.15477E+06
 
   -0.97359E+06        -0.51073E+06         0.00000E+00
   -0.51073E+06         0.18070E+07         0.00000E+00
    0.00000E+00         0.00000E+00         0.16668E+06
 
   -0.99099E+06        -0.47336E+06         0.00000E+00
   -0.47336E+06         0.18803E+07         0.00000E+00
    0.00000E+00         0.00000E+00         0.17786E+06
 
   -0.10087E+07        -0.43027E+06         0.00000E+00
   -0.43027E+06         0.19508E+07         0.00000E+00
    0.00000E+00         0.00000E+00         0.18841E+06
 
   -0.10260E+07        -0.38163E+06         0.00000E+00
   -0.38163E+06         0.20183E+07         0.00000E+00
    0.00000E+00         0.00000E+00         0.19846E+06
 
   -0.10420E+07        -0.32762E+06         0.00000E+00
   -0.32762E+06         0.20826E+07         0.00000E+00
    0.00000E+00         0.00000E+00         0.20812E+06
 
   -0.10561E+07        -0.26841E+06         0.00000E+00
   -0.26841E+06         0.21436E+07         0.00000E+00
    0.00000E+00         0.00000E+00         0.21750E+06
 
   -0.10676E+07        -0.20420E+06         0.00000E+00
   -0.20420E+06         0.22010E+07         0.00000E+00
    0.00000E+00         0.00000E+00         0.22670E+06
 
   -0.10756E+07        -0.13520E+06         0.00000E+00
   -0.13520E+06         0.22547E+07         0.00000E+00
    0.00000E+00         0.00000E+00         0.23582E+06
 
   -0.10795E+07        -0.61624E+05         0.00000E+00
   -0.61624E+05         0.23043E+07         0.00000E+00
    0.00000E+00         0.00000E+00         0.24496E+06
 
   -0.10786E+07         0.16283E+05         0.00000E+00
    0.16283E+05         0.23497E+07         0.00000E+00
    0.00000E+00         0.00000E+00         0.25422E+06
 
   -0.10720E+07         0.98248E+05         0.00000E+00
    0.98248E+05         0.23905E+07         0.00000E+00
    0.00000E+00         0.00000E+00         0.26371E+06
 
   -0.10590E+07         0.18396E+06         0.00000E+00
    0.18396E+06         0.24265E+07         0.00000E+00
    0.00000E+00         0.00000E+00         0.27349E+06
 
   -0.10388E+07         0.27304E+06         0.00000E+00
    0.27304E+06         0.24572E+07         0.00000E+00
    0.00000E+00         0.00000E+00         0.28368E+06
 
   -0.10106E+07         0.36508E+06         0.00000E+00
    0.36508E+06         0.24823E+07         0.00000E+00
    0.00000E+00         0.00000E+00         0.29435E+06
 
   -0.97355E+06         0.45958E+06         0.00000E+00
    0.45958E+06         0.25015E+07         0.00000E+00
    0.00000E+00         0.00000E+00         0.30559E+06
 
   -0.92687E+06         0.55595E+06         0.00000E+00
    0.55595E+06         0.25143E+07         0.00000E+00
    0.00000E+00         0.00000E+00         0.31748E+06
 
   -0.86973E+06         0.65349E+06         0.00000E+00
    0.65349E+06         0.25201E+07         0.00000E+00
    0.00000E+00         0.00000E+00         0.33008E+06
 
   -0.80131E+06         0.75142E+06         0.00000E+00
    0.75142E+06         0.25187E+07         0.00000E+00
    0.00000E+00         0.00000E+00         0.34347E+06
 
   -0.72084E+06         0.84880E+06         0.00000E+00
    0.84880E+06         0.25094E+07         0.00000E+00
    0.00000E+00         0.00000E+00         0.35771E+06
 
   -0.62762E+06         0.94456E+06         0.00000E+00
    0.94456E+06         0.24918E+07         0.00000E+00
    0.00000E+00         0.00000E+00         0.37284E+06
 
   -0.52099E+06         0.10375E+07         0.00000E+00
    0.10375E+07         0.24655E+07         0.00000E+00
    0.00000E+00         0.00000E+00         0.38891E+06
 
   -0.40043E+06         0.11261E+07         0.00000E+00
    0.11261E+07         0.24302E+07         0.00000E+00
    0.00000E+00         0.00000E+00         0.40595E+06
 
   -0.26555E+06         0.12089E+07         0.00000E+00
    0.12089E+07         0.23853E+07         0.00000E+00
    0.00000E+00         0.00000E+00         0.42396E+06
 
   -0.11616E+06         0.12841E+07         0.00000E+00
    0.12841E+07         0.23309E+07         0.00000E+00
    0.00000E+00         0.00000E+00         0.44294E+06
 
    0.47696E+05         0.13496E+07         0.00000E+00
    0.13496E+07         0.22666E+07         0.00000E+00
    0.00000E+00         0.00000E+00         0.46286E+06
 
    0.22575E+06         0.14036E+07         0.00000E+00
    0.14036E+07         0.21927E+07         0.00000E+00
    0.00000E+00         0.00000E+00         0.48370E+06
 
    0.41730E+06         0.14434E+07         0.00000E+00
    0.14434E+07         0.21093E+07         0.00000E+00
    0.00000E+00         0.00000E+00         0.50533E+06
 
   -0.32618E+07         0.23946E+05         0.00000E+00
    0.23946E+05         0.10025E+06         0.00000E+00
    0.00000E+00         0.00000E+00        -0.63231E+06
 
   -0.30277E+07         0.40865E+05         0.00000E+00
    0.40865E+05         0.10433E+06         0.00000E+00
    0.00000E+00         0.00000E+00        -0.58467E+06
 
   -0.28069E+07         0.46901E+05         0.00000E+00
    0.46901E+05         0.11379E+06         0.00000E+00
    0.00000E+00         0.00000E+00        -0.53862E+06
 
   -0.26003E+07         0.43718E+05         0.00000E+00
    0.43718E+05         0.12907E+06         0.00000E+00
    0.00000E+00         0.00000E+00        -0.49426E+06
 
   -0.24085E+07         0.33026E+05         0.00000E+00
    0.33026E+05         0.15024E+06         0.00000E+00
    0.00000E+00         0.00000E+00        -0.45166E+06
 
   -0.22317E+07         0.16428E+05         0.00000E+00
    0.16428E+05         0.17727E+06         0.00000E+00
    0.00000E+00         0.00000E+00        -0.41088E+06
 
   -0.20698E+07        -0.45905E+04         0.00000E+00
   -0.45905E+04         0.20997E+06         0.00000E+00
    0.00000E+00         0.00000E+00        -0.37196E+06
 
   -0.19226E+07        -0.28660E+05         0.00000E+00
   -0.28660E+05         0.24807E+06         0.00000E+00
    0.00000E+00         0.00000E+00        -0.33491E+06
 
   -0.17898E+07        -0.54540E+05         0.00000E+00
   -0.54540E+05         0.29121E+06         0.00000E+00
    0.00000E+00         0.00000E+00        -0.29972E+06
 
   -0.16708E+07        -0.81114E+05         0.00000E+00
   -0.81114E+05         0.33899E+06         0.00000E+00
    0.00000E+00         0.00000E+00        -0.26637E+06
 
   -0.15650E+07        -0.10739E+06         0.00000E+00
   -0.10739E+06         0.39093E+06         0.00000E+00
    0.00000E+00         0.00000E+00        -0.23482E+06
 
   -0.14716E+07        -0.13250E+06         0.00000E+00
   -0.13250E+06         0.44655E+06         0.00000E+00
    0.00000E+00         0.00000E+00        -0.20502E+06
 
   -0.13899E+07        -0.15571E+06         0.00000E+00
   -0.15571E+06         0.50534E+06         0.00000E+00
    0.00000E+00         0.00000E+00        -0.17691E+06
 
   -0.13190E+07        -0.17637E+06         0.00000E+00
   -0.17637E+06         0.56680E+06         0.00000E+00
    0.00000E+00         0.00000E+00        -0.15043E+06
 
   -0.12580E+07        -0.19395E+06         0.00000E+00
   -0.19395E+06         0.63042E+06         0.00000E+00
    0.00000E+00         0.00000E+00        -0.12551E+06
 
   -0.12060E+07        -0.20801E+06         0.00000E+00
   -0.20801E+06         0.69573E+06         0.00000E+00
    0.00000E+00         0.00000E+00        -0.10206E+06
 
   -0.11623E+07        -0.21821E+06         0.00000E+00
   -0.21821E+06         0.76224E+06         0.00000E+00
    0.00000E+00         0.00000E+00        -0.80011E+05
 
   -0.11258E+07        -0.22425E+06         0.00000E+00
   -0.22425E+06         0.82950E+06         0.00000E+00
    0.00000E+00         0.00000E+00        -0.59269E+05
 
   -0.10958E+07        -0.22593E+06         0.00000E+00
   -0.22593E+06         0.89709E+06         0.00000E+00
    0.00000E+00         0.00000E+00        -0.39749E+05
 
   -0.10714E+07        -0.22311E+06         0.00000E+00
   -0.22311E+06         0.96459E+06         0.00000E+00
    0.00000E+00         0.00000E+00        -0.21365E+05
 
   -0.10518E+07        -0.21570E+06         0.00000E+00
   -0.21570E+06         0.10316E+07         0.00000E+00
    0.00000E+00         0.00000E+00        -0.40278E+04
 
   -0.10361E+07        -0.20363E+06         0.00000E+00
   -0.20363E+06         0.10978E+07         0.00000E+00
    0.00000E+00         0.00000E+00         0.12350E+05
 
   -0.10236E+07        -0.18692E+06         0.00000E+00
   -0.18692E+06         0.11629E+07         0.00000E+00
    0.00000E+00         0.00000E+00         0.27855E+05
 
   -0.10136E+07        -0.16560E+06         0.00000E+00
   -0.16560E+06         0.12264E+07         0.00000E+00
    0.00000E+00         0.00000E+00         0.42574E+05
 
   -0.10052E+07        -0.13972E+06         0.00000E+00
   -0.13972E+06         0.12882E+07         0.00000E+00
    0.00000E+00         0.00000E+00         0.56591E+05
 
   -0.99790E+06        -0.10939E+06         0.00000E+00
   -0.10939E+06         0.13479E+07         0.00000E+00
    0.00000E+00         0.00000E+00         0.69990E+05
 
   -0.99091E+06        -0.74738E+05         0.00000E+00
   -0.74738E+05         0.14052E+07         0.00000E+00
    0.00000E+00         0.00000E+00         0.82851E+05
 
   -0.98359E+06        -0.35905E+05         0.00000E+00
   -0.35905E+05         0.14599E+07         0.00000E+00
    0.00000E+00         0.00000E+00         0.95254E+05
 
   -0.97528E+06         0.69258E+04         0.00000E+00
    0.69258E+04         0.15117E+07         0.00000E+00
    0.00000E+00         0.00000E+00         0.10728E+06
 
   -0.96536E+06         0.53548E+05         0.00000E+00
    0.53548E+05         0.15603E+07         0.00000E+00
    0.00000E+00         0.00000E+00         0.11899E+06
 
   -0.95323E+06         0.10373E+06         0.00000E+00
    0.10373E+06         0.16056E+07         0.00000E+00
    0.00000E+00         0.00000E+00         0.13047E+06
 
   -0.93827E+06         0.15720E+06         0.00000E+00
    0.15720E+06         0.16471E+07         0.00000E+00
    0.00000E+00         0.00000E+00         0.14177E+06
 
   -0.91991E+06         0.21366E+06         0.00000E+00
    0.21366E+06         0.16848E+07         0.00000E+00
    0.00000E+00         0.00000E+00         0.15298E+06
 
   -0.89758E+06         0.27277E+06         0.00000E+00
    0.27277E+06         0.17183E+07         0.00000E+00
    0.00000E+00         0.00000E+00         0.16415E+06
 
   -0.87073E+06         0.33415E+06         0.00000E+00
    0.33415E+06         0.17474E+07         0.00000E+00
    0.00000E+00         0.00000E+00         0.17533E+06
 
   -0.83884E+06         0.39738E+06         0.00000E+00
    0.39738E+06         0.17718E+07         0.00000E+00
    0.00000E+00         0.00000E+00         0.18659E+06
 
   -0.80140E+06         0.46197E+06         0.00000E+00
    0.46197E+06         0.17912E+07         0.00000E+00
    0.00000E+00         0.00000E+00         0.19797E+06
 
   -0.75794E+06         0.52739E+06         0.00000E+00
    0.52739E+06         0.18055E+07         0.00000E+00
    0.00000E+00         0.00000E+00         0.20951E+06
 
   -0.70804E+06         0.59305E+06         0.00000E+00
    0.59305E+06         0.18143E+07         0.00000E+00
    0.00000E+00         0.00000E+00         0.22125E+06
 
   -0.65132E+06         0.65827E+06         0.00000E+00
    0.65827E+06         0.18175E+07         0.00000E+00
    0.00000E+00         0.00000E+00         0.23323E+06
 
   -0.58746E+06         0.72233E+06         0.00000E+00
    0.72233E+06         0.18148E+07         0.00000E+00
    0.00000E+00         0.00000E+00         0.24547E+06
 
   -0.51621E+06         0.78442E+06         0.00000E+00
    0.78442E+06         0.18061E+07         0.00000E+00
    0.00000E+00         0.00000E+00         0.25798E+06
 
   -0.43743E+06         0.84365E+06         0.00000E+00
    0.84365E+06         0.17913E+07         0.00000E+00
    0.00000E+00         0.00000E+00         0.27077E+06
 
   -0.35106E+06         0.89905E+06         0.00000E+00
    0.89905E+06         0.17702E+07         0.00000E+00
    0.00000E+00         0.00000E+00         0.28383E+06
 
   -0.25719E+06         0.94960E+06         0.00000E+00
    0.94960E+06         0.17430E+07         0.00000E+00
    0.00000E+00         0.00000E+00         0.29716E+06
 
   -0.15605E+06         0.99416E+06         0.00000E+00
    0.99416E+06         0.17096E+07         0.00000E+00
    0.00000E+00         0.00000E+00         0.31072E+06
 
   -0.48031E+05         0.10316E+07         0.00000E+00
    0.10316E+07         0.16704E+07         0.00000E+00
    0.00000E+00         0.00000E+00         0.32447E+06
 
    0.66262E+05         0.10606E+07         0.00000E+00
    0.10606E+07         0.16255E+07         0.00000E+00
    0.00000E+00         0.00000E+00         0.33836E+06
 
    0.18601E+06         0.10800E+07         0.00000E+00
    0.10800E+07         0.15755E+07         0.00000E+00
    0.00000E+00         0.00000E+00         0.35231E+06
 
    0.31016E+06         0.10885E+07         0.00000E+00
    0.10885E+07         0.15210E+07         0.00000E+00
    0.00000E+00         0.00000E+00         0.36624E+06
 
   -0.31658E+07         0.29561E+05         0.00000E+00
    0.29561E+05         0.32859E+05         0.00000E+00
    0.00000E+00         0.00000E+00        -0.62660E+06
 
   -0.29841E+07         0.65539E+05         0.00000E+00
    0.65539E+05         0.34569E+05         0.00000E+00
    0.00000E+00         0.00000E+00        -0.58991E+06
 
   -0.28092E+07         0.92772E+05         0.00000E+00
    0.92772E+05         0.39281E+05         0.00000E+00
    0.00000E+00         0.00000E+00        -0.55397E+06
 
   -0.26418E+07         0.11225E+06         0.00000E+00
    0.11225E+06         0.47329E+05         0.00000E+00
    0.00000E+00         0.00000E+00        -0.51889E+06
 
   -0.24827E+07         0.12495E+06         0.00000E+00
    0.12495E+06         0.58982E+05         0.00000E+00
    0.00000E+00         0.00000E+00        -0.48473E+06
 
   -0.23323E+07         0.13186E+06         0.00000E+00
    0.13186E+06         0.74397E+05         0.00000E+00
    0.00000E+00         0.00000E+00        -0.45157E+06
 
   -0.21909E+07         0.13395E+06         0.00000E+00
    0.13395E+06         0.93628E+05         0.00000E+00
    0.00000E+00         0.00000E+00        -0.41946E+06
 
   -0.20588E+07         0.13215E+06         0.00000E+00
    0.13215E+06         0.11665E+06         0.00000E+00
    0.00000E+00         0.00000E+00        -0.38843E+06
 
   -0.19360E+07         0.12734E+06         0.00000E+00
    0.12734E+06         0.14336E+06         0.00000E+00
    0.00000E+00         0.00000E+00        -0.35852E+06
 
   -0.18223E+07         0.12035E+06         0.00000E+00
    0.12035E+06         0.17361E+06         0.00000E+00
    0.00000E+00         0.00000E+00        -0.32974E+06
 
   -0.17177E+07         0.11197E+06         0.00000E+00
    0.11197E+06         0.20717E+06         0.00000E+00
    0.00000E+00         0.00000E+00        -0.30210E+06
 
   -0.16217E+07         0.10288E+06         0.00000E+00
    0.10288E+06         0.24379E+06         0.00000E+00
    0.00000E+00         0.00000E+00        -0.27559E+06
 
   -0.15342E+07         0.93746E+05         0.00000E+00
    0.93746E+05         0.28320E+06         0.00000E+00
    0.00000E+00         0.00000E+00        -0.25020E+06
 
   -0.14546E+07         0.85127E+05         0.00000E+00
    0.85127E+05         0.32508E+06         0.00000E+00
    0.00000E+00         0.00000E+00        -0.22590E+06
 
   -0.13825E+07         0.77536E+05         0.00000E+00
    0.77536E+05         0.36909E+06         0.00000E+00
    0.00000E+00         0.00000E+00        -0.20269E+06
 
   -0.13175E+07         0.71415E+05         0.00000E+00
    0.71415E+05         0.41491E+06         0.00000E+00
    0.00000E+00         0.00000E+00        -0.18051E+06
 
   -0.12589E+07         0.67148E+05         0.00000E+00
    0.67148E+05         0.46219E+06         0.00000E+00
    0.00000E+00         0.00000E+00        -0.15934E+06
 
   -0.12063E+07         0.65058E+05         0.00000E+00
    0.65058E+05         0.51058E+06         0.00000E+00
    0.00000E+00         0.00000E+00        -0.13914E+06
 
   -0.11590E+07         0.65411E+05         0.00000E+00
    0.65411E+05         0.55975E+06         0.00000E+00
    0.00000E+00         0.00000E+00        -0.11985E+06
 
   -0.11165E+07         0.68424E+05         0.00000E+00
    0.68424E+05         0.60934E+06         0.00000E+00
    0.00000E+00         0.00000E+00        -0.10144E+06
 
   -0.10783E+07         0.74261E+05         0.00000E+00
    0.74261E+05         0.65903E+06         0.00000E+00
    0.00000E+00         0.00000E+00        -0.83849E+05
 
   -0.10437E+07         0.83042E+05         0.00000E+00
    0.83042E+05         0.70849E+06         0.00000E+00
    0.00000E+00         0.00000E+00        -0.67035E+05
 
   -0.10121E+07         0.94844E+05         0.00000E+00
    0.94844E+05         0.75742E+06         0.00000E+00
    0.00000E+00         0.00000E+00        -0.50943E+05
 
   -0.98311E+06         0.10970E+06         0.00000E+00
    0.10970E+06         0.80550E+06         0.00000E+00
    0.00000E+00         0.00000E+00        -0.35522E+05
 
   -0.95605E+06         0.12762E+06         0.00000E+00
    0.12762E+06         0.85245E+06         0.00000E+00
    0.00000E+00         0.00000E+00        -0.20721E+05
 
   -0.93041E+06         0.14854E+06         0.00000E+00
    0.14854E+06         0.89797E+06         0.00000E+00
    0.00000E+00         0.00000E+00        -0.64893E+04
 
   -0.90567E+06         0.17242E+06         0.00000E+00
    0.17242E+06         0.94179E+06         0.00000E+00
    0.00000E+00         0.00000E+00         0.72245E+04
 
   -0.88131E+06         0.19913E+06         0.00000E+00
    0.19913E+06         0.98365E+06         0.00000E+00
    0.00000E+00         0.00000E+00         0.20469E+05
 
   -0.85684E+06         0.22854E+06         0.00000E+00
    0.22854E+06         0.10233E+07         0.00000E+00
    0.00000E+00         0.00000E+00         0.33292E+05
 
   -0.83178E+06         0.26047E+06         0.00000E+00
    0.26047E+06         0.10605E+07         0.00000E+00
    0.00000E+00         0.00000E+00         0.45740E+05
 
   -0.80569E+06         0.29473E+06         0.00000E+00
    0.29473E+06         0.10950E+07         0.00000E+00
    0.00000E+00         0.00000E+00         0.57856E+05
 
   -0.77812E+06         0.33108E+06         0.00000E+00
    0.33108E+06         0.11265E+07         0.00000E+00
    0.00000E+00         0.00000E+00         0.69682E+05
 
   -0.74868E+06         0.36925E+06         0.00000E+00
    0.36925E+06         0.11550E+07         0.00000E+00
    0.00000E+00         0.00000E+00         0.81256E+05
 
   -0.71698E+06         0.40893E+06         0.00000E+00
    0.40893E+06         0.11800E+07         0.00000E+00
    0.00000E+00         0.00000E+00         0.92614E+05
 
   -0.68266E+06         0.44980E+06         0.00000E+00
    0.44980E+06         0.12016E+07         0.00000E+00
    0.00000E+00         0.00000E+00         0.10379E+06
 
   -0.64543E+06         0.49147E+06         0.00000E+00
    0.49147E+06         0.12194E+07         0.00000E+00
    0.00000E+00         0.00000E+00         0.11480E+06
 
   -0.60500E+06         0.53353E+06         0.00000E+00
    0.53353E+06         0.12334E+07         0.00000E+00
    0.00000E+00         0.00000E+00         0.12569E+06
 
   -0.56115E+06         0.57555E+06         0.00000E+00
    0.57555E+06         0.12434E+07         0.00000E+00
    0.00000E+00         0.00000E+00         0.13646E+06
 
   -0.51369E+06         0.61703E+06         0.00000E+00
    0.61703E+06         0.12493E+07         0.00000E+00
    0.00000E+00         0.00000E+00         0.14712E+06
 
   -0.46251E+06         0.65745E+06         0.00000E+00
    0.65745E+06         0.12510E+07         0.00000E+00
    0.00000E+00         0.00000E+00         0.15770E+06
 
   -0.40756E+06         0.69626E+06         0.00000E+00
    0.69626E+06         0.12485E+07         0.00000E+00
    0.00000E+00         0.00000E+00         0.16819E+06
 
   -0.34885E+06         0.73287E+06         0.00000E+00
    0.73287E+06         0.12417E+07         0.00000E+00
    0.00000E+00         0.00000E+00         0.17858E+06
 
   -0.28649E+06         0.76666E+06         0.00000E+00
    0.76666E+06         0.12308E+07         0.00000E+00
    0.00000E+00         0.00000E+00         0.18886E+06
 
   -0.22067E+06         0.79697E+06         0.00000E+00
    0.79697E+06         0.12158E+07         0.00000E+00
    0.00000E+00         0.00000E+00         0.19902E+06
 
   -0.15171E+06         0.82315E+06         0.00000E+00
    0.82315E+06         0.11969E+07         0.00000E+00
    0.00000E+00         0.00000E+00         0.20903E+06
 
   -0.80002E+05         0.84450E+06         0.00000E+00
    0.84450E+06         0.11742E+07         0.00000E+00
    0.00000E+00         0.00000E+00         0.21885E+06
 
   -0.60885E+04         0.86034E+06         0.00000E+00
    0.86034E+06         0.11482E+07         0.00000E+00
    0.00000E+00         0.00000E+00         0.22843E+06
 
    0.69366E+05         0.86999E+06         0.00000E+00
    0.86999E+06         0.11193E+07         0.00000E+00
    0.00000E+00         0.00000E+00         0.23773E+06
 
    0.14556E+06         0.87279E+06         0.00000E+00
    0.87279E+06         0.10878E+07         0.00000E+00
    0.00000E+00         0.00000E+00         0.24668E+06
 
    0.22155E+06         0.86813E+06         0.00000E+00
    0.86813E+06         0.10545E+07         0.00000E+00
    0.00000E+00         0.00000E+00         0.25521E+06
 
   -0.29621E+07         0.31432E+05         0.00000E+00
    0.31432E+05         0.99417E+04         0.00000E+00
    0.00000E+00         0.00000E+00        -0.59043E+06
 
   -0.28207E+07         0.76988E+05         0.00000E+00
    0.76988E+05         0.10526E+05         0.00000E+00
    0.00000E+00         0.00000E+00        -0.56204E+06
 
   -0.26825E+07         0.11576E+06         0.00000E+00
    0.11576E+06         0.12581E+05         0.00000E+00
    0.00000E+00         0.00000E+00        -0.53399E+06
 
   -0.25482E+07         0.14828E+06         0.00000E+00
    0.14828E+06         0.16429E+05         0.00000E+00
    0.00000E+00         0.00000E+00        -0.50635E+06
 
   -0.24182E+07         0.17513E+06         0.00000E+00
    0.17513E+06         0.22315E+05         0.00000E+00
    0.00000E+00         0.00000E+00        -0.47918E+06
 
   -0.22931E+07         0.19690E+06         0.00000E+00
    0.19690E+06         0.30428E+05         0.00000E+00
    0.00000E+00         0.00000E+00        -0.45253E+06
 
   -0.21732E+07         0.21420E+06         0.00000E+00
    0.21420E+06         0.40895E+05         0.00000E+00
    0.00000E+00         0.00000E+00        -0.42645E+06
 
   -0.20588E+07         0.22761E+06         0.00000E+00
    0.22761E+06         0.53788E+05         0.00000E+00
    0.00000E+00         0.00000E+00        -0.40099E+06
 
   -0.19500E+07         0.23774E+06         0.00000E+00
    0.23774E+06         0.69127E+05         0.00000E+00
    0.00000E+00         0.00000E+00        -0.37618E+06
 
   -0.18471E+07         0.24516E+06         0.00000E+00
    0.24516E+06         0.86885E+05         0.00000E+00
    0.00000E+00         0.00000E+00        -0.35205E+06
 
   -0.17500E+07         0.25042E+06         0.00000E+00
    0.25042E+06         0.10699E+06         0.00000E+00
    0.00000E+00         0.00000E+00        -0.32861E+06
 
   -0.16587E+07         0.25404E+06         0.00000E+00
    0.25404E+06         0.12933E+06         0.00000E+00
    0.00000E+00         0.00000E+00        -0.30588E+06
 
   -0.15731E+07         0.25651E+06         0.00000E+00
    0.25651E+06         0.15377E+06         0.00000E+00
    0.00000E+00         0.00000E+00        -0.28386E+06
 
   -0.14930E+07         0.25828E+06         0.00000E+00
    0.25828E+06         0.18014E+06         0.00000E+00
    0.00000E+00         0.00000E+00        -0.26257E+06
 
   -0.14183E+07         0.25978E+06         0.00000E+00
    0.25978E+06         0.20825E+06         0.00000E+00
    0.00000E+00         0.00000E+00        -0.24200E+06
 
   -0.13486E+07         0.26137E+06         0.00000E+00
    0.26137E+06         0.23789E+06         0.00000E+00
    0.00000E+00         0.00000E+00        -0.22214E+06
 
   -0.12837E+07         0.26338E+06         0.00000E+00
    0.26338E+06         0.26883E+06         0.00000E+00
    0.00000E+00         0.00000E+00        -0.20298E+06
 
   -0.12234E+07         0.26613E+06         0.00000E+00
    0.26613E+06         0.30083E+06         0.00000E+00
    0.00000E+00         0.00000E+00        -0.18450E+06
 
   -0.11672E+07         0.26985E+06         0.00000E+00
    0.26985E+06         0.33366E+06         0.00000E+00
    0.00000E+00         0.00000E+00        -0.16670E+06
 
   -0.11148E+07         0.27477E+06         0.00000E+00
    0.27477E+06         0.36706E+06         0.00000E+00
    0.00000E+00         0.00000E+00        -0.14954E+06
 
   -0.10658E+07         0.28107E+06         0.00000E+00
    0.28107E+06         0.40079E+06         0.00000E+00
    0.00000E+00         0.00000E+00        -0.13301E+06
 
   -0.10200E+07         0.28889E+06         0.00000E+00
    0.28889E+06         0.43460E+06         0.00000E+00
    0.00000E+00         0.00000E+00        -0.11708E+06
 
   -0.97688E+06         0.29832E+06         0.00000E+00
    0.29832E+06         0.46822E+06         0.00000E+00
    0.00000E+00         0.00000E+00        -0.10173E+06
 
   -0.93608E+06         0.30944E+06         0.00000E+00
    0.30944E+06         0.50143E+06         0.00000E+00
    0.00000E+00         0.00000E+00        -0.86930E+05
 
   -0.89723E+06         0.32230E+06         0.00000E+00
    0.32230E+06         0.53397E+06         0.00000E+00
    0.00000E+00         0.00000E+00        -0.72653E+05
 
   -0.85998E+06         0.33688E+06         0.00000E+00
    0.33688E+06         0.56562E+06         0.00000E+00
    0.00000E+00         0.00000E+00        -0.58872E+05
 
   -0.82394E+06         0.35316E+06         0.00000E+00
    0.35316E+06         0.59614E+06         0.00000E+00
    0.00000E+00         0.00000E+00        -0.45561E+05
 
   -0.78878E+06         0.37108E+06         0.00000E+00
    0.37108E+06         0.62532E+06         0.00000E+00
    0.00000E+00         0.00000E+00        -0.32693E+05
 
   -0.75416E+06         0.39056E+06         0.00000E+00
    0.39056E+06         0.65294E+06         0.00000E+00
    0.00000E+00         0.00000E+00        -0.20243E+05
 
   -0.71974E+06         0.41148E+06         0.00000E+00
    0.41148E+06         0.67881E+06         0.00000E+00
    0.00000E+00         0.00000E+00        -0.81861E+04
 
   -0.68524E+06         0.43368E+06         0.00000E+00
    0.43368E+06         0.70274E+06         0.00000E+00
    0.00000E+00         0.00000E+00         0.35007E+04
 
   -0.65036E+06         0.45700E+06         0.00000E+00
    0.45700E+06         0.72455E+06         0.00000E+00
    0.00000E+00         0.00000E+00         0.14839E+05
 
   -0.61485E+06         0.48124E+06         0.00000E+00
    0.48124E+06         0.74409E+06         0.00000E+00
    0.00000E+00         0.00000E+00         0.25848E+05
 
   -0.57848E+06         0.50617E+06         0.00000E+00
    0.50617E+06         0.76120E+06         0.00000E+00
    0.00000E+00         0.00000E+00         0.36544E+05
 
   -0.54104E+06         0.53154E+06         0.00000E+00
    0.53154E+06         0.77575E+06         0.00000E+00
    0.00000E+00         0.00000E+00         0.46942E+05
 
   -0.50239E+06         0.55707E+06         0.00000E+00
    0.55707E+06         0.78765E+06         0.00000E+00
    0.00000E+00         0.00000E+00         0.57053E+05
 
   -0.46237E+06         0.58247E+06         0.00000E+00
    0.58247E+06         0.79680E+06         0.00000E+00
    0.00000E+00         0.00000E+00         0.66886E+05
 
   -0.42091E+06         0.60741E+06         0.00000E+00
    0.60741E+06         0.80314E+06         0.00000E+00
    0.00000E+00         0.00000E+00         0.76446E+05
 
   -0.37797E+06         0.63156E+06         0.00000E+00
    0.63156E+06         0.80664E+06         0.00000E+00
    0.00000E+00         0.00000E+00         0.85733E+05
 
   -0.33355E+06         0.65457E+06         0.00000E+00
    0.65457E+06         0.80728E+06         0.00000E+00
    0.00000E+00         0.00000E+00         0.94745E+05
 
   -0.28772E+06         0.67605E+06         0.00000E+00
    0.67605E+06         0.80509E+06         0.00000E+00
    0.00000E+00         0.00000E+00         0.10347E+06
 
   -0.24060E+06         0.69564E+06         0.00000E+00
    0.69564E+06         0.80015E+06         0.00000E+00
    0.00000E+00         0.00000E+00         0.11191E+06
 
   -0.19236E+06         0.71293E+06         0.00000E+00
    0.71293E+06         0.79254E+06         0.00000E+00
    0.00000E+00         0.00000E+00         0.12004E+06
 
   -0.14326E+06         0.72755E+06         0.00000E+00
    0.72755E+06         0.78241E+06         0.00000E+00
    0.00000E+00         0.00000E+00         0.12783E+06
 
   -0.93609E+05         0.73911E+06         0.00000E+00
    0.73911E+06         0.76996E+06         0.00000E+00
    0.00000E+00         0.00000E+00         0.13527E+06
 
   -0.43810E+05         0.74723E+06         0.00000E+00
    0.74723E+06         0.75542E+06         0.00000E+00
    0.00000E+00         0.00000E+00         0.14232E+06
 
    0.56762E+04         0.75155E+06         0.00000E+00
    0.75155E+06         0.73908E+06         0.00000E+00
    0.00000E+00         0.00000E+00         0.14895E+06
 
    0.54305E+05         0.75175E+06         0.00000E+00
    0.75175E+06         0.72128E+06         0.00000E+00
    0.00000E+00         0.00000E+00         0.15512E+06
 
    0.10145E+06         0.74753E+06         0.00000E+00
    0.74753E+06         0.70242E+06         0.00000E+00
    0.00000E+00         0.00000E+00         0.16078E+06
 
    0.14643E+06         0.73865E+06         0.00000E+00
    0.73865E+06         0.68295E+06         0.00000E+00
    0.00000E+00         0.00000E+00         0.16588E+06
 
   -0.27142E+07         0.31444E+05         0.00000E+00
    0.31444E+05         0.28179E+04         0.00000E+00
    0.00000E+00         0.00000E+00        -0.54228E+06
 
   -0.26039E+07         0.81071E+05         0.00000E+00
    0.81071E+05         0.27593E+04         0.00000E+00
    0.00000E+00         0.00000E+00        -0.52023E+06
 
   -0.24948E+07         0.12538E+06         0.00000E+00
    0.12538E+06         0.32704E+04         0.00000E+00
    0.00000E+00         0.00000E+00        -0.49830E+06
 
   -0.23873E+07         0.16469E+06         0.00000E+00
    0.16469E+06         0.45851E+04         0.00000E+00
    0.00000E+00         0.00000E+00        -0.47654E+06
 
   -0.22819E+07         0.19934E+06         0.00000E+00
    0.19934E+06         0.69074E+04         0.00000E+00
    0.00000E+00         0.00000E+00        -0.45500E+06
 
   -0.21790E+07         0.22969E+06         0.00000E+00
    0.22969E+06         0.10406E+05         0.00000E+00
    0.00000E+00         0.00000E+00        -0.43371E+06
 
   -0.20788E+07         0.25612E+06         0.00000E+00
    0.25612E+06         0.15212E+05         0.00000E+00
    0.00000E+00         0.00000E+00        -0.41272E+06
 
   -0.19818E+07         0.27902E+06         0.00000E+00
    0.27902E+06         0.21425E+05         0.00000E+00
    0.00000E+00         0.00000E+00        -0.39207E+06
 
   -0.18880E+07         0.29876E+06         0.00000E+00
    0.29876E+06         0.29106E+05         0.00000E+00
    0.00000E+00         0.00000E+00        -0.37178E+06
 
   -0.17977E+07         0.31573E+06         0.00000E+00
    0.31573E+06         0.38289E+05         0.00000E+00
    0.00000E+00         0.00000E+00        -0.35188E+06
 
   -0.17109E+07         0.33031E+06         0.00000E+00
    0.33031E+06         0.48971E+05         0.00000E+00
    0.00000E+00         0.00000E+00        -0.33239E+06
 
   -0.16279E+07         0.34287E+06         0.00000E+00
    0.34287E+06         0.61125E+05         0.00000E+00
    0.00000E+00         0.00000E+00        -0.31335E+06
 
   -0.15484E+07         0.35375E+06         0.00000E+00
    0.35375E+06         0.74696E+05         0.00000E+00
    0.00000E+00         0.00000E+00        -0.29475E+06
 
   -0.14727E+07         0.36328E+06         0.00000E+00
    0.36328E+06         0.89606E+05         0.00000E+00
    0.00000E+00         0.00000E+00        -0.27661E+06
 
   -0.14005E+07         0.37179E+06         0.00000E+00
    0.37179E+06         0.10576E+06         0.00000E+00
    0.00000E+00         0.00000E+00        -0.25894E+06
 
   -0.13318E+07         0.37955E+06         0.00000E+00
    0.37955E+06         0.12303E+06         0.00000E+00
    0.00000E+00         0.00000E+00        -0.24175E+06
 
   -0.12665E+07         0.38684E+06         0.00000E+00
    0.38684E+06         0.14129E+06         0.00000E+00
    0.00000E+00         0.00000E+00        -0.22504E+06
 
   -0.12045E+07         0.39389E+06         0.00000E+00
    0.39389E+06         0.16040E+06         0.00000E+00
    0.00000E+00         0.00000E+00        -0.20881E+06
 
   -0.11455E+07         0.40092E+06         0.00000E+00
    0.40092E+06         0.18019E+06         0.00000E+00
    0.00000E+00         0.00000E+00        -0.19306E+06
 
   -0.10894E+07         0.40811E+06         0.00000E+00
    0.40811E+06         0.20051E+06         0.00000E+00
    0.00000E+00         0.00000E+00        -0.17778E+06
 
   -0.10360E+07         0.41563E+06         0.00000E+00
    0.41563E+06         0.22118E+06         0.00000E+00
    0.00000E+00         0.00000E+00        -0.16297E+06
 
   -0.98510E+06         0.42361E+06         0.00000E+00
    0.42361E+06         0.24204E+06         0.00000E+00
    0.00000E+00         0.00000E+00        -0.14861E+06
 
   -0.93643E+06         0.43215E+06         0.00000E+00
    0.43215E+06         0.26289E+06         0.00000E+00
    0.00000E+00         0.00000E+00        -0.13471E+06
 
   -0.88979E+06         0.44134E+06         0.00000E+00
    0.44134E+06         0.28357E+06         0.00000E+00
    0.00000E+00         0.00000E+00        -0.12124E+06
 
   -0.84495E+06         0.45123E+06         0.00000E+00
    0.45123E+06         0.30390E+06         0.00000E+00
    0.00000E+00         0.00000E+00        -0.10821E+06
 
   -0.80169E+06         0.46185E+06         0.00000E+00
    0.46185E+06         0.32372E+06         0.00000E+00
    0.00000E+00         0.00000E+00        -0.95594E+05
 
   -0.75977E+06         0.47320E+06         0.00000E+00
    0.47320E+06         0.34284E+06         0.00000E+00
    0.00000E+00         0.00000E+00        -0.83386E+05
 
   -0.71899E+06         0.48526E+06         0.00000E+00
    0.48526E+06         0.36111E+06         0.00000E+00
    0.00000E+00         0.00000E+00        -0.71575E+05
 
   -0.67913E+06         0.49799E+06         0.00000E+00
    0.49799E+06         0.37838E+06         0.00000E+00
    0.00000E+00         0.00000E+00        -0.60149E+05
 
   -0.64001E+06         0.51133E+06         0.00000E+00
    0.51133E+06         0.39451E+06         0.00000E+00
    0.00000E+00         0.00000E+00        -0.49100E+05
 
   -0.60143E+06         0.52518E+06         0.00000E+00
    0.52518E+06         0.40934E+06         0.00000E+00
    0.00000E+00         0.00000E+00        -0.38417E+05
 
   -0.56323E+06         0.53944E+06         0.00000E+00
    0.53944E+06         0.42277E+06         0.00000E+00
    0.00000E+00         0.00000E+00        -0.28092E+05
 
   -0.52527E+06         0.55398E+06         0.00000E+00
    0.55398E+06         0.43468E+06         0.00000E+00
    0.00000E+00         0.00000E+00        -0.18118E+05
 
   -0.48743E+06         0.56866E+06         0.00000E+00
    0.56866E+06         0.44498E+06         0.00000E+00
    0.00000E+00         0.00000E+00        -0.84905E+04
 
   -0.44960E+06         0.58332E+06         0.00000E+00
    0.58332E+06         0.45358E+06         0.00000E+00
    0.00000E+00         0.00000E+00         0.79532E+03
 
   -0.41171E+06         0.59777E+06         0.00000E+00
    0.59777E+06         0.46042E+06         0.00000E+00
    0.00000E+00         0.00000E+00         0.97413E+04
 
   -0.37372E+06         0.61183E+06         0.00000E+00
    0.61183E+06         0.46545E+06         0.00000E+00
    0.00000E+00         0.00000E+00         0.18347E+05
 
   -0.33561E+06         0.62530E+06         0.00000E+00
    0.62530E+06         0.46867E+06         0.00000E+00
    0.00000E+00         0.00000E+00         0.26611E+05
 
   -0.29741E+06         0.63796E+06         0.00000E+00
    0.63796E+06         0.47005E+06         0.00000E+00
    0.00000E+00         0.00000E+00         0.34528E+05
 
   -0.25917E+06         0.64961E+06         0.00000E+00
    0.64961E+06         0.46963E+06         0.00000E+00
    0.00000E+00         0.00000E+00         0.42092E+05
 
   -0.22099E+06         0.66002E+06         0.00000E+00
    0.66002E+06         0.46745E+06         0.00000E+00
    0.00000E+00         0.00000E+00         0.49292E+05
 
   -0.18301E+06         0.66898E+06         0.00000E+00
    0.66898E+06         0.46359E+06         0.00000E+00
    0.00000E+00         0.00000E+00         0.56117E+05
 
   -0.14540E+06         0.67626E+06         0.00000E+00
    0.67626E+06         0.45815E+06         0.00000E+00
    0.00000E+00         0.00000E+00         0.62552E+05
 
   -0.10837E+06         0.68166E+06         0.00000E+00
    0.68166E+06         0.45126E+06         0.00000E+00
    0.00000E+00         0.00000E+00         0.68578E+05
 
   -0.72196E+05         0.68499E+06         0.00000E+00
    0.68499E+06         0.44308E+06         0.00000E+00
    0.00000E+00         0.00000E+00         0.74177E+05
 
   -0.37177E+05         0.68606E+06         0.00000E+00
    0.68606E+06         0.43380E+06         0.00000E+00
    0.00000E+00         0.00000E+00         0.79325E+05
 
   -0.36635E+04         0.68471E+06         0.00000E+00
    0.68471E+06         0.42364E+06         0.00000E+00
    0.00000E+00         0.00000E+00         0.83996E+05
 
    0.27956E+05         0.68083E+06         0.00000E+00
    0.68083E+06         0.41286E+06         0.00000E+00
    0.00000E+00         0.00000E+00         0.88163E+05
 
    0.57251E+05         0.67429E+06         0.00000E+00
    0.67429E+06         0.40173E+06         0.00000E+00
    0.00000E+00         0.00000E+00         0.91795E+05
 
    0.83754E+05         0.66505E+06         0.00000E+00
    0.66505E+06         0.39055E+06         0.00000E+00
    0.00000E+00         0.00000E+00         0.94861E+05
 
   -0.24533E+07         0.30366E+05         0.00000E+00
    0.30366E+05         0.80569E+03         0.00000E+00
    0.00000E+00         0.00000E+00        -0.49049E+06
 
   -0.23673E+07         0.80683E+05         0.00000E+00
    0.80683E+05         0.34524E+03         0.00000E+00
    0.00000E+00         0.00000E+00        -0.47339E+06
 
   -0.22813E+07         0.12677E+06         0.00000E+00
    0.12677E+06        -0.12022E+03         0.00000E+00
    0.00000E+00         0.00000E+00        -0.45629E+06
 
   -0.21956E+07         0.16882E+06         0.00000E+00
    0.16882E+06        -0.41030E+03         0.00000E+00
    0.00000E+00         0.00000E+00        -0.43921E+06
 
   -0.21107E+07         0.20704E+06         0.00000E+00
    0.20704E+06        -0.36493E+03         0.00000E+00
    0.00000E+00         0.00000E+00        -0.42221E+06
 
   -0.20267E+07         0.24166E+06         0.00000E+00
    0.24166E+06         0.15581E+03         0.00000E+00
    0.00000E+00         0.00000E+00        -0.40530E+06
 
   -0.19439E+07         0.27293E+06         0.00000E+00
    0.27293E+06         0.12705E+04         0.00000E+00
    0.00000E+00         0.00000E+00        -0.38853E+06
 
   -0.18627E+07         0.30108E+06         0.00000E+00
    0.30108E+06         0.30759E+04         0.00000E+00
    0.00000E+00         0.00000E+00        -0.37192E+06
 
   -0.17832E+07         0.32636E+06         0.00000E+00
    0.32636E+06         0.56468E+04         0.00000E+00
    0.00000E+00         0.00000E+00        -0.35551E+06
 
   -0.17056E+07         0.34904E+06         0.00000E+00
    0.34904E+06         0.90364E+04         0.00000E+00
    0.00000E+00         0.00000E+00        -0.33930E+06
 
   -0.16300E+07         0.36935E+06         0.00000E+00
    0.36935E+06         0.13277E+05         0.00000E+00
    0.00000E+00         0.00000E+00        -0.32334E+06
 
   -0.15565E+07         0.38756E+06         0.00000E+00
    0.38756E+06         0.18381E+05         0.00000E+00
    0.00000E+00         0.00000E+00        -0.30763E+06
 
   -0.14853E+07         0.40391E+06         0.00000E+00
    0.40391E+06         0.24341E+05         0.00000E+00
    0.00000E+00         0.00000E+00        -0.29219E+06
 
   -0.14163E+07         0.41862E+06         0.00000E+00
    0.41862E+06         0.31134E+05         0.00000E+00
    0.00000E+00         0.00000E+00        -0.27704E+06
 
   -0.13497E+07         0.43193E+06         0.00000E+00
    0.43193E+06         0.38718E+05         0.00000E+00
    0.00000E+00         0.00000E+00        -0.26220E+06
 
   -0.12854E+07         0.44405E+06         0.00000E+00
    0.44405E+06         0.47037E+05         0.00000E+00
    0.00000E+00         0.00000E+00        -0.24767E+06
 
   -0.12233E+07         0.45517E+06         0.00000E+00
    0.45517E+06         0.56024E+05         0.00000E+00
    0.00000E+00         0.00000E+00        -0.23346E+06
 
   -0.11635E+07         0.46547E+06         0.00000E+00
    0.46547E+06         0.65599E+05         0.00000E+00
    0.00000E+00         0.00000E+00        -0.21958E+06
 
   -0.11059E+07         0.47513E+06         0.00000E+00
    0.47513E+06         0.75670E+05         0.00000E+00
    0.00000E+00         0.00000E+00        -0.20604E+06
 
   -0.10503E+07         0.48430E+06         0.00000E+00
    0.48430E+06         0.86141E+05         0.00000E+00
    0.00000E+00         0.00000E+00        -0.19284E+06
 
   -0.99682E+06         0.49310E+06         0.00000E+00
    0.49310E+06         0.96907E+05         0.00000E+00
    0.00000E+00         0.00000E+00        -0.17998E+06
 
   -0.94521E+06         0.50166E+06         0.00000E+00
    0.50166E+06         0.10786E+06         0.00000E+00
    0.00000E+00         0.00000E+00        -0.16747E+06
 
   -0.89540E+06         0.51006E+06         0.00000E+00
    0.51006E+06         0.11888E+06         0.00000E+00
    0.00000E+00         0.00000E+00        -0.15530E+06
 
   -0.84727E+06         0.51839E+06         0.00000E+00
    0.51839E+06         0.12986E+06         0.00000E+00
    0.00000E+00         0.00000E+00        -0.14348E+06
 
   -0.80071E+06         0.52671E+06         0.00000E+00
    0.52671E+06         0.14068E+06         0.00000E+00
    0.00000E+00         0.00000E+00        -0.13200E+06
 
   -0.75559E+06         0.53505E+06         0.00000E+00
    0.53505E+06         0.15124E+06         0.00000E+00
    0.00000E+00         0.00000E+00        -0.12087E+06
 
   -0.71181E+06         0.54346E+06         0.00000E+00
    0.54346E+06         0.16140E+06         0.00000E+00
    0.00000E+00         0.00000E+00        -0.11008E+06
 
   -0.66923E+06         0.55192E+06         0.00000E+00
    0.55192E+06         0.17108E+06         0.00000E+00
    0.00000E+00         0.00000E+00        -0.99630E+05
 
   -0.62776E+06         0.56043E+06         0.00000E+00
    0.56043E+06         0.18017E+06         0.00000E+00
    0.00000E+00         0.00000E+00        -0.89518E+05
 
   -0.58728E+06         0.56898E+06         0.00000E+00
    0.56898E+06         0.18856E+06         0.00000E+00
    0.00000E+00         0.00000E+00        -0.79744E+05
 
   -0.54771E+06         0.57751E+06         0.00000E+00
    0.57751E+06         0.19617E+06         0.00000E+00
    0.00000E+00         0.00000E+00        -0.70306E+05
 
   -0.50895E+06         0.58597E+06         0.00000E+00
    0.58597E+06         0.20293E+06         0.00000E+00
    0.00000E+00         0.00000E+00        -0.61205E+05
 
   -0.47095E+06         0.59431E+06         0.00000E+00
    0.59431E+06         0.20876E+06         0.00000E+00
    0.00000E+00         0.00000E+00        -0.52439E+05
 
   -0.43365E+06         0.60243E+06         0.00000E+00
    0.60243E+06         0.21360E+06         0.00000E+00
    0.00000E+00         0.00000E+00        -0.44011E+05
 
   -0.39701E+06         0.61026E+06         0.00000E+00
    0.61026E+06         0.21740E+06         0.00000E+00
    0.00000E+00         0.00000E+00        -0.35922E+05
 
   -0.36101E+06         0.61770E+06         0.00000E+00
    0.61770E+06         0.22014E+06         0.00000E+00
    0.00000E+00         0.00000E+00        -0.28174E+05
 
   -0.32566E+06         0.62464E+06         0.00000E+00
    0.62464E+06         0.22179E+06         0.00000E+00
    0.00000E+00         0.00000E+00        -0.20773E+05
 
   -0.29096E+06         0.63097E+06         0.00000E+00
    0.63097E+06         0.22235E+06         0.00000E+00
    0.00000E+00         0.00000E+00        -0.13723E+05
 
   -0.25698E+06         0.63659E+06         0.00000E+00
    0.63659E+06         0.22183E+06         0.00000E+00
    0.00000E+00         0.00000E+00        -0.70300E+04
 
   -0.22377E+06         0.64138E+06         0.00000E+00
    0.64138E+06         0.22026E+06         0.00000E+00
    0.00000E+00         0.00000E+00        -0.70288E+03
 
   -0.19144E+06         0.64522E+06         0.00000E+00
    0.64522E+06         0.21768E+06         0.00000E+00
    0.00000E+00         0.00000E+00         0.52495E+04
 
   -0.16008E+06         0.64802E+06         0.00000E+00
    0.64802E+06         0.21417E+06         0.00000E+00
    0.00000E+00         0.00000E+00         0.10817E+05
 
   -0.12986E+06         0.64966E+06         0.00000E+00
    0.64966E+06         0.20979E+06         0.00000E+00
    0.00000E+00         0.00000E+00         0.15986E+05
 
   -0.10093E+06         0.65007E+06         0.00000E+00
    0.65007E+06         0.20465E+06         0.00000E+00
    0.00000E+00         0.00000E+00         0.20745E+05
 
   -0.73482E+05         0.64915E+06         0.00000E+00
    0.64915E+06         0.19887E+06         0.00000E+00
    0.00000E+00         0.00000E+00         0.25079E+05
 
   -0.47738E+05         0.64684E+06         0.00000E+00
    0.64684E+06         0.19259E+06         0.00000E+00
    0.00000E+00         0.00000E+00         0.28970E+05
 
   -0.23933E+05         0.64310E+06         0.00000E+00
    0.64310E+06         0.18595E+06         0.00000E+00
    0.00000E+00         0.00000E+00         0.32403E+05
 
   -0.23278E+04         0.63790E+06         0.00000E+00
    0.63790E+06         0.17912E+06         0.00000E+00
    0.00000E+00         0.00000E+00         0.35359E+05
 
    0.16800E+05         0.63124E+06         0.00000E+00
    0.63124E+06         0.17229E+06         0.00000E+00
    0.00000E+00         0.00000E+00         0.37819E+05
 
    0.33155E+05         0.62314E+06         0.00000E+00
    0.62314E+06         0.16565E+06         0.00000E+00
    0.00000E+00         0.00000E+00         0.39762E+05
 
   -0.21956E+07         0.28567E+05         0.00000E+00
    0.28567E+05         0.31262E+03         0.00000E+00
    0.00000E+00         0.00000E+00        -0.43905E+06
 
   -0.21290E+07         0.77418E+05         0.00000E+00
    0.77418E+05        -0.41208E+03         0.00000E+00
    0.00000E+00         0.00000E+00        -0.42588E+06
 
   -0.20616E+07         0.12287E+06         0.00000E+00
    0.12287E+06        -0.15080E+04         0.00000E+00
    0.00000E+00         0.00000E+00        -0.41262E+06
 
   -0.19938E+07         0.16503E+06         0.00000E+00
    0.16503E+06        -0.28336E+04         0.00000E+00
    0.00000E+00         0.00000E+00        -0.39932E+06
 
   -0.19257E+07         0.20405E+06         0.00000E+00
    0.20405E+06        -0.42590E+04         0.00000E+00
    0.00000E+00         0.00000E+00        -0.38599E+06
 
   -0.18577E+07         0.24007E+06         0.00000E+00
    0.24007E+06        -0.56679E+04         0.00000E+00
    0.00000E+00         0.00000E+00        -0.37267E+06
 
   -0.17900E+07         0.27323E+06         0.00000E+00
    0.27323E+06        -0.69575E+04         0.00000E+00
    0.00000E+00         0.00000E+00        -0.35938E+06
 
   -0.17227E+07         0.30370E+06         0.00000E+00
    0.30370E+06        -0.80391E+04         0.00000E+00
    0.00000E+00         0.00000E+00        -0.34615E+06
 
   -0.16562E+07         0.33164E+06         0.00000E+00
    0.33164E+06        -0.88383E+04         0.00000E+00
    0.00000E+00         0.00000E+00        -0.33300E+06
 
   -0.15905E+07         0.35721E+06         0.00000E+00
    0.35721E+06        -0.92950E+04         0.00000E+00
    0.00000E+00         0.00000E+00        -0.31995E+06
 
   -0.15257E+07         0.38058E+06         0.00000E+00
    0.38058E+06        -0.93632E+04         0.00000E+00
    0.00000E+00         0.00000E+00        -0.30702E+06
 
   -0.14621E+07         0.40193E+06         0.00000E+00
    0.40193E+06        -0.90107E+04         0.00000E+00
    0.00000E+00         0.00000E+00        -0.29423E+06
 
   -0.13998E+07         0.42141E+06         0.00000E+00
    0.42141E+06        -0.82187E+04         0.00000E+00
    0.00000E+00         0.00000E+00        -0.28160E+06
 
   -0.13387E+07         0.43919E+06         0.00000E+00
    0.43919E+06        -0.69809E+04         0.00000E+00
    0.00000E+00         0.00000E+00        -0.26914E+06
 
   -0.12790E+07         0.45542E+06         0.00000E+00
    0.45542E+06        -0.53028E+04         0.00000E+00
    0.00000E+00         0.00000E+00        -0.25687E+06
 
   -0.12208E+07         0.47027E+06         0.00000E+00
    0.47027E+06        -0.32012E+04         0.00000E+00
    0.00000E+00         0.00000E+00        -0.24480E+06
 
   -0.11640E+07         0.48386E+06         0.00000E+00
    0.48386E+06        -0.70259E+03         0.00000E+00
    0.00000E+00         0.00000E+00        -0.23294E+06
 
   -0.11087E+07         0.49634E+06         0.00000E+00
    0.49634E+06         0.21571E+04         0.00000E+00
    0.00000E+00         0.00000E+00        -0.22131E+06
 
   -0.10549E+07         0.50783E+06         0.00000E+00
    0.50783E+06         0.53343E+04         0.00000E+00
    0.00000E+00         0.00000E+00        -0.20991E+06
 
   -0.10025E+07         0.51845E+06         0.00000E+00
    0.51845E+06         0.87783E+04         0.00000E+00
    0.00000E+00         0.00000E+00        -0.19875E+06
 
   -0.95163E+06         0.52830E+06         0.00000E+00
    0.52830E+06         0.12433E+05         0.00000E+00
    0.00000E+00         0.00000E+00        -0.18784E+06
 
   -0.90216E+06         0.53748E+06         0.00000E+00
    0.53748E+06         0.16237E+05         0.00000E+00
    0.00000E+00         0.00000E+00        -0.17718E+06
 
   -0.85408E+06         0.54607E+06         0.00000E+00
    0.54607E+06         0.20126E+05         0.00000E+00
    0.00000E+00         0.00000E+00        -0.16679E+06
 
   -0.80734E+06         0.55413E+06         0.00000E+00
    0.55413E+06         0.24034E+05         0.00000E+00
    0.00000E+00         0.00000E+00        -0.15666E+06
 
   -0.76191E+06         0.56174E+06         0.00000E+00
    0.56174E+06         0.27892E+05         0.00000E+00
    0.00000E+00         0.00000E+00        -0.14680E+06
 
   -0.71774E+06         0.56893E+06         0.00000E+00
    0.56893E+06         0.31632E+05         0.00000E+00
    0.00000E+00         0.00000E+00        -0.13722E+06
 
   -0.67478E+06         0.57575E+06         0.00000E+00
    0.57575E+06         0.35188E+05         0.00000E+00
    0.00000E+00         0.00000E+00        -0.12792E+06
 
   -0.63298E+06         0.58221E+06         0.00000E+00
    0.58221E+06         0.38494E+05         0.00000E+00
    0.00000E+00         0.00000E+00        -0.11890E+06
 
   -0.59230E+06         0.58833E+06         0.00000E+00
    0.58833E+06         0.41488E+05         0.00000E+00
    0.00000E+00         0.00000E+00        -0.11016E+06
 
   -0.55270E+06         0.59412E+06         0.00000E+00
    0.59412E+06         0.44113E+05         0.00000E+00
    0.00000E+00         0.00000E+00        -0.10172E+06
 
   -0.51413E+06         0.59957E+06         0.00000E+00
    0.59957E+06         0.46316E+05         0.00000E+00
    0.00000E+00         0.00000E+00        -0.93563E+05
 
   -0.47658E+06         0.60466E+06         0.00000E+00
    0.60466E+06         0.48050E+05         0.00000E+00
    0.00000E+00         0.00000E+00        -0.85706E+05
 
   -0.44002E+06         0.60937E+06         0.00000E+00
    0.60937E+06         0.49274E+05         0.00000E+00
    0.00000E+00         0.00000E+00        -0.78149E+05
 
   -0.40444E+06         0.61368E+06         0.00000E+00
    0.61368E+06         0.49956E+05         0.00000E+00
    0.00000E+00         0.00000E+00        -0.70896E+05
 
   -0.36983E+06         0.61755E+06         0.00000E+00
    0.61755E+06         0.50072E+05         0.00000E+00
    0.00000E+00         0.00000E+00        -0.63953E+05
 
   -0.33622E+06         0.62094E+06         0.00000E+00
    0.62094E+06         0.49606E+05         0.00000E+00
    0.00000E+00         0.00000E+00        -0.57323E+05
 
   -0.30362E+06         0.62380E+06         0.00000E+00
    0.62380E+06         0.48552E+05         0.00000E+00
    0.00000E+00         0.00000E+00        -0.51013E+05
 
   -0.27206E+06         0.62610E+06         0.00000E+00
    0.62610E+06         0.46916E+05         0.00000E+00
    0.00000E+00         0.00000E+00        -0.45028E+05
 
   -0.24159E+06         0.62778E+06         0.00000E+00
    0.62778E+06         0.44710E+05         0.00000E+00
    0.00000E+00         0.00000E+00        -0.39376E+05
 
   -0.21228E+06         0.62880E+06         0.00000E+00
    0.62880E+06         0.41962E+05         0.00000E+00
    0.00000E+00         0.00000E+00        -0.34064E+05
 
   -0.18420E+06         0.62913E+06         0.00000E+00
    0.62913E+06         0.38708E+05         0.00000E+00
    0.00000E+00         0.00000E+00        -0.29099E+05
 
   -0.15745E+06         0.62872E+06         0.00000E+00
    0.62872E+06         0.34994E+05         0.00000E+00
    0.00000E+00         0.00000E+00        -0.24491E+05
 
   -0.13212E+06         0.62754E+06         0.00000E+00
    0.62754E+06         0.30880E+05         0.00000E+00
    0.00000E+00         0.00000E+00        -0.20248E+05
 
   -0.10833E+06         0.62558E+06         0.00000E+00
    0.62558E+06         0.26434E+05         0.00000E+00
    0.00000E+00         0.00000E+00        -0.16380E+05
 
   -0.86221E+05         0.62281E+06         0.00000E+00
    0.62281E+06         0.21735E+05         0.00000E+00
    0.00000E+00         0.00000E+00        -0.12897E+05
 
   -0.65928E+05         0.61924E+06         0.00000E+00
    0.61924E+06         0.16873E+05         0.00000E+00
    0.00000E+00         0.00000E+00        -0.98109E+04
 
   -0.47605E+05         0.61488E+06         0.00000E+00
    0.61488E+06         0.11945E+05         0.00000E+00
    0.00000E+00         0.00000E+00        -0.71320E+04
 
   -0.31417E+05         0.60975E+06         0.00000E+00
    0.60975E+06         0.70557E+04         0.00000E+00
    0.00000E+00         0.00000E+00        -0.48722E+04
 
   -0.17534E+05         0.60391E+06         0.00000E+00
    0.60391E+06         0.23174E+04         0.00000E+00
    0.00000E+00         0.00000E+00        -0.30433E+04
 
   -0.61336E+04         0.59741E+06         0.00000E+00
    0.59741E+06        -0.21530E+04         0.00000E+00
    0.00000E+00         0.00000E+00        -0.16573E+04
 
   -0.19504E+07         0.26305E+05         0.00000E+00
    0.26305E+05         0.22531E+03         0.00000E+00
    0.00000E+00         0.00000E+00        -0.39003E+06
 
   -0.18993E+07         0.72319E+05         0.00000E+00
    0.72319E+05        -0.65972E+03         0.00000E+00
    0.00000E+00         0.00000E+00        -0.37999E+06
 
   -0.18470E+07         0.11560E+06         0.00000E+00
    0.11560E+06        -0.21437E+04         0.00000E+00
    0.00000E+00         0.00000E+00        -0.36983E+06
 
   -0.17937E+07         0.15621E+06         0.00000E+00
    0.15621E+06        -0.41104E+04         0.00000E+00
    0.00000E+00         0.00000E+00        -0.35956E+06
 
   -0.17397E+07         0.19423E+06         0.00000E+00
    0.19423E+06        -0.64522E+04         0.00000E+00
    0.00000E+00         0.00000E+00        -0.34922E+06
 
   -0.16851E+07         0.22976E+06         0.00000E+00
    0.22976E+06        -0.90704E+04         0.00000E+00
    0.00000E+00         0.00000E+00        -0.33883E+06
 
   -0.16302E+07         0.26288E+06         0.00000E+00
    0.26288E+06        -0.11876E+05         0.00000E+00
    0.00000E+00         0.00000E+00        -0.32841E+06
 
   -0.15751E+07         0.29370E+06         0.00000E+00
    0.29370E+06        -0.14788E+05         0.00000E+00
    0.00000E+00         0.00000E+00        -0.31797E+06
 
   -0.15200E+07         0.32232E+06         0.00000E+00
    0.32232E+06        -0.17737E+05         0.00000E+00
    0.00000E+00         0.00000E+00        -0.30754E+06
 
   -0.14650E+07         0.34885E+06         0.00000E+00
    0.34885E+06        -0.20663E+05         0.00000E+00
    0.00000E+00         0.00000E+00        -0.29714E+06
 
   -0.14104E+07         0.37340E+06         0.00000E+00
    0.37340E+06        -0.23514E+05         0.00000E+00
    0.00000E+00         0.00000E+00        -0.28679E+06
 
   -0.13562E+07         0.39608E+06         0.00000E+00
    0.39608E+06        -0.26249E+05         0.00000E+00
    0.00000E+00         0.00000E+00        -0.27650E+06
 
   -0.13026E+07         0.41701E+06         0.00000E+00
    0.41701E+06        -0.28836E+05         0.00000E+00
    0.00000E+00         0.00000E+00        -0.26629E+06
 
   -0.12496E+07         0.43628E+06         0.00000E+00
    0.43628E+06        -0.31252E+05         0.00000E+00
    0.00000E+00         0.00000E+00        -0.25617E+06
 
   -0.11973E+07         0.45402E+06         0.00000E+00
    0.45402E+06        -0.33482E+05         0.00000E+00
    0.00000E+00         0.00000E+00        -0.24616E+06
 
   -0.11459E+07         0.47033E+06         0.00000E+00
    0.47033E+06        -0.35518E+05         0.00000E+00
    0.00000E+00         0.00000E+00        -0.23628E+06
 
   -0.10953E+07         0.48530E+06         0.00000E+00
    0.48530E+06        -0.37362E+05         0.00000E+00
    0.00000E+00         0.00000E+00        -0.22653E+06
 
   -0.10456E+07         0.49905E+06         0.00000E+00
    0.49905E+06        -0.39021E+05         0.00000E+00
    0.00000E+00         0.00000E+00        -0.21692E+06
 
   -0.99686E+06         0.51165E+06         0.00000E+00
    0.51165E+06        -0.40507E+05         0.00000E+00
    0.00000E+00         0.00000E+00        -0.20747E+06
 
   -0.94912E+06         0.52320E+06         0.00000E+00
    0.52320E+06        -0.41841E+05         0.00000E+00
    0.00000E+00         0.00000E+00        -0.19819E+06
 
   -0.90239E+06         0.53379E+06         0.00000E+00
    0.53379E+06        -0.43045E+05         0.00000E+00
    0.00000E+00         0.00000E+00        -0.18909E+06
 
   -0.85669E+06         0.54348E+06         0.00000E+00
    0.54348E+06        -0.44147E+05         0.00000E+00
    0.00000E+00         0.00000E+00        -0.18017E+06
 
   -0.81202E+06         0.55234E+06         0.00000E+00
    0.55234E+06        -0.45176E+05         0.00000E+00
    0.00000E+00         0.00000E+00        -0.17144E+06
 
   -0.76840E+06         0.56044E+06         0.00000E+00
    0.56044E+06        -0.46166E+05         0.00000E+00
    0.00000E+00         0.00000E+00        -0.16291E+06
 
   -0.72582E+06         0.56783E+06         0.00000E+00
    0.56783E+06        -0.47151E+05         0.00000E+00
    0.00000E+00         0.00000E+00        -0.15459E+06
 
   -0.68428E+06         0.57455E+06         0.00000E+00
    0.57455E+06        -0.48166E+05         0.00000E+00
    0.00000E+00         0.00000E+00        -0.14649E+06
 
   -0.64378E+06         0.58065E+06         0.00000E+00
    0.58065E+06        -0.49246E+05         0.00000E+00
    0.00000E+00         0.00000E+00        -0.13861E+06
 
   -0.60432E+06         0.58617E+06         0.00000E+00
    0.58617E+06        -0.50424E+05         0.00000E+00
    0.00000E+00         0.00000E+00        -0.13095E+06
 
   -0.56589E+06         0.59112E+06         0.00000E+00
    0.59112E+06        -0.51733E+05         0.00000E+00
    0.00000E+00         0.00000E+00        -0.12352E+06
 
   -0.52849E+06         0.59553E+06         0.00000E+00
    0.59553E+06        -0.53204E+05         0.00000E+00
    0.00000E+00         0.00000E+00        -0.11634E+06
 
   -0.49212E+06         0.59942E+06         0.00000E+00
    0.59942E+06        -0.54864E+05         0.00000E+00
    0.00000E+00         0.00000E+00        -0.10940E+06
 
   -0.45678E+06         0.60280E+06         0.00000E+00
    0.60280E+06        -0.56737E+05         0.00000E+00
    0.00000E+00         0.00000E+00        -0.10270E+06
 
   -0.42248E+06         0.60566E+06         0.00000E+00
    0.60566E+06        -0.58842E+05         0.00000E+00
    0.00000E+00         0.00000E+00        -0.96265E+05
 
   -0.38924E+06         0.60803E+06         0.00000E+00
    0.60803E+06        -0.61196E+05         0.00000E+00
    0.00000E+00         0.00000E+00        -0.90088E+05
 
   -0.35707E+06         0.60988E+06         0.00000E+00
    0.60988E+06        -0.63807E+05         0.00000E+00
    0.00000E+00         0.00000E+00        -0.84176E+05
 
   -0.32600E+06         0.61123E+06         0.00000E+00
    0.61123E+06        -0.66682E+05         0.00000E+00
    0.00000E+00         0.00000E+00        -0.78535E+05
 
   -0.29604E+06         0.61207E+06         0.00000E+00
    0.61207E+06        -0.69817E+05         0.00000E+00
    0.00000E+00         0.00000E+00        -0.73172E+05
 
   -0.26726E+06         0.61239E+06         0.00000E+00
    0.61239E+06        -0.73207E+05         0.00000E+00
    0.00000E+00         0.00000E+00        -0.68093E+05
 
   -0.23967E+06         0.61219E+06         0.00000E+00
    0.61219E+06        -0.76838E+05         0.00000E+00
    0.00000E+00         0.00000E+00        -0.63302E+05
 
   -0.21335E+06         0.61146E+06         0.00000E+00
    0.61146E+06        -0.80689E+05         0.00000E+00
    0.00000E+00         0.00000E+00        -0.58808E+05
 
   -0.18834E+06         0.61022E+06         0.00000E+00
    0.61022E+06        -0.84734E+05         0.00000E+00
    0.00000E+00         0.00000E+00        -0.54615E+05
 
   -0.16472E+06         0.60846E+06         0.00000E+00
    0.60846E+06        -0.88942E+05         0.00000E+00
    0.00000E+00         0.00000E+00        -0.50732E+05
 
   -0.14255E+06         0.60619E+06         0.00000E+00
    0.60619E+06        -0.93272E+05         0.00000E+00
    0.00000E+00         0.00000E+00        -0.47164E+05
 
   -0.12191E+06         0.60343E+06         0.00000E+00
    0.60343E+06        -0.97681E+05         0.00000E+00
    0.00000E+00         0.00000E+00        -0.43918E+05
 
   -0.10289E+06         0.60020E+06         0.00000E+00
    0.60020E+06        -0.10212E+06         0.00000E+00
    0.00000E+00         0.00000E+00        -0.41003E+05
 
   -0.85584E+05         0.59654E+06         0.00000E+00
    0.59654E+06        -0.10653E+06         0.00000E+00
    0.00000E+00         0.00000E+00        -0.38423E+05
 
   -0.70076E+05         0.59248E+06         0.00000E+00
    0.59248E+06        -0.11086E+06         0.00000E+00
    0.00000E+00         0.00000E+00        -0.36188E+05
 
   -0.56467E+05         0.58808E+06         0.00000E+00
    0.58808E+06        -0.11505E+06         0.00000E+00
    0.00000E+00         0.00000E+00        -0.34303E+05
 
   -0.44857E+05         0.58339E+06         0.00000E+00
    0.58339E+06        -0.11902E+06         0.00000E+00
    0.00000E+00         0.00000E+00        -0.32775E+05
 
   -0.35343E+05         0.57849E+06         0.00000E+00
    0.57849E+06        -0.12272E+06         0.00000E+00
    0.00000E+00         0.00000E+00        -0.31612E+05
 
   -0.17230E+07         0.23792E+05         0.00000E+00
    0.23792E+05         0.22692E+03         0.00000E+00
    0.00000E+00         0.00000E+00        -0.34456E+06
 
   -0.16843E+07         0.66163E+05         0.00000E+00
    0.66163E+05        -0.73537E+03         0.00000E+00
    0.00000E+00         0.00000E+00        -0.33701E+06
 
   -0.16442E+07         0.10634E+06         0.00000E+00
    0.10634E+06        -0.24236E+04         0.00000E+00
    0.00000E+00         0.00000E+00        -0.32932E+06
 
   -0.16028E+07         0.14437E+06         0.00000E+00
    0.14437E+06        -0.47407E+04         0.00000E+00
    0.00000E+00         0.00000E+00        -0.32150E+06
 
   -0.15603E+07         0.18029E+06         0.00000E+00
    0.18029E+06        -0.75959E+04         0.00000E+00
    0.00000E+00         0.00000E+00        -0.31357E+06
 
   -0.15169E+07         0.21414E+06         0.00000E+00
    0.21414E+06        -0.10905E+05         0.00000E+00
    0.00000E+00         0.00000E+00        -0.30556E+06
 
   -0.14727E+07         0.24599E+06         0.00000E+00
    0.24599E+06        -0.14589E+05         0.00000E+00
    0.00000E+00         0.00000E+00        -0.29747E+06
 
   -0.14281E+07         0.27590E+06         0.00000E+00
    0.27590E+06        -0.18576E+05         0.00000E+00
    0.00000E+00         0.00000E+00        -0.28933E+06
 
   -0.13829E+07         0.30392E+06         0.00000E+00
    0.30392E+06        -0.22803E+05         0.00000E+00
    0.00000E+00         0.00000E+00        -0.28115E+06
 
   -0.13375E+07         0.33013E+06         0.00000E+00
    0.33013E+06        -0.27211E+05         0.00000E+00
    0.00000E+00         0.00000E+00        -0.27295E+06
 
   -0.12920E+07         0.35460E+06         0.00000E+00
    0.35460E+06        -0.31748E+05         0.00000E+00
    0.00000E+00         0.00000E+00        -0.26475E+06
 
   -0.12464E+07         0.37740E+06         0.00000E+00
    0.37740E+06        -0.36371E+05         0.00000E+00
    0.00000E+00         0.00000E+00        -0.25656E+06
 
   -0.12010E+07         0.39860E+06         0.00000E+00
    0.39860E+06        -0.41039E+05         0.00000E+00
    0.00000E+00         0.00000E+00        -0.24840E+06
 
   -0.11557E+07         0.41827E+06         0.00000E+00
    0.41827E+06        -0.45722E+05         0.00000E+00
    0.00000E+00         0.00000E+00        -0.24028E+06
 
   -0.11106E+07         0.43650E+06         0.00000E+00
    0.43650E+06        -0.50393E+05         0.00000E+00
    0.00000E+00         0.00000E+00        -0.23221E+06
 
   -0.10660E+07         0.45335E+06         0.00000E+00
    0.45335E+06        -0.55032E+05         0.00000E+00
    0.00000E+00         0.00000E+00        -0.22421E+06
 
   -0.10218E+07         0.46890E+06         0.00000E+00
    0.46890E+06        -0.59623E+05         0.00000E+00
    0.00000E+00         0.00000E+00        -0.21628E+06
 
   -0.97808E+06         0.48321E+06         0.00000E+00
    0.48321E+06        -0.64158E+05         0.00000E+00
    0.00000E+00         0.00000E+00        -0.20845E+06
 
   -0.93494E+06         0.49636E+06         0.00000E+00
    0.49636E+06        -0.68630E+05         0.00000E+00
    0.00000E+00         0.00000E+00        -0.20071E+06
 
   -0.89241E+06         0.50841E+06         0.00000E+00
    0.50841E+06        -0.73037E+05         0.00000E+00
    0.00000E+00         0.00000E+00        -0.19309E+06
 
   -0.85055E+06         0.51943E+06         0.00000E+00
    0.51943E+06        -0.77383E+05         0.00000E+00
    0.00000E+00         0.00000E+00        -0.18559E+06
 
   -0.80940E+06         0.52946E+06         0.00000E+00
    0.52946E+06        -0.81673E+05         0.00000E+00
    0.00000E+00         0.00000E+00        -0.17821E+06
 
   -0.76898E+06         0.53857E+06         0.00000E+00
    0.53857E+06        -0.85913E+05         0.00000E+00
    0.00000E+00         0.00000E+00        -0.17098E+06
 
   -0.72934E+06         0.54682E+06         0.00000E+00
    0.54682E+06        -0.90116E+05         0.00000E+00
    0.00000E+00         0.00000E+00        -0.16389E+06
 
   -0.69050E+06         0.55424E+06         0.00000E+00
    0.55424E+06        -0.94291E+05         0.00000E+00
    0.00000E+00         0.00000E+00        -0.15696E+06
 
   -0.65249E+06         0.56088E+06         0.00000E+00
    0.56088E+06        -0.98453E+05         0.00000E+00
    0.00000E+00         0.00000E+00        -0.15019E+06
 
   -0.61532E+06         0.56679E+06         0.00000E+00
    0.56679E+06        -0.10261E+06         0.00000E+00
    0.00000E+00         0.00000E+00        -0.14359E+06
 
   -0.57902E+06         0.57199E+06         0.00000E+00
    0.57199E+06        -0.10679E+06         0.00000E+00
    0.00000E+00         0.00000E+00        -0.13716E+06
 
   -0.54362E+06         0.57653E+06         0.00000E+00
    0.57653E+06        -0.11099E+06         0.00000E+00
    0.00000E+00         0.00000E+00        -0.13092E+06
 
   -0.50912E+06         0.58044E+06         0.00000E+00
    0.58044E+06        -0.11522E+06         0.00000E+00
    0.00000E+00         0.00000E+00        -0.12487E+06
 
   -0.47555E+06         0.58373E+06         0.00000E+00
    0.58373E+06        -0.11951E+06         0.00000E+00
    0.00000E+00         0.00000E+00        -0.11901E+06
 
   -0.44294E+06         0.58645E+06         0.00000E+00
    0.58645E+06        -0.12385E+06         0.00000E+00
    0.00000E+00         0.00000E+00        -0.11336E+06
 
   -0.41129E+06         0.58860E+06         0.00000E+00
    0.58860E+06        -0.12825E+06         0.00000E+00
    0.00000E+00         0.00000E+00        -0.10791E+06
 
   -0.38065E+06         0.59021E+06         0.00000E+00
    0.59021E+06        -0.13272E+06         0.00000E+00
    0.00000E+00         0.00000E+00        -0.10267E+06
 
   -0.35104E+06         0.59129E+06         0.00000E+00
    0.59129E+06        -0.13726E+06         0.00000E+00
    0.00000E+00         0.00000E+00        -0.97659E+05
 
   -0.32247E+06         0.59188E+06         0.00000E+00
    0.59188E+06        -0.14187E+06         0.00000E+00
    0.00000E+00         0.00000E+00        -0.92868E+05
 
   -0.29499E+06         0.59198E+06         0.00000E+00
    0.59198E+06        -0.14654E+06         0.00000E+00
    0.00000E+00         0.00000E+00        -0.88307E+05
 
   -0.26864E+06         0.59161E+06         0.00000E+00
    0.59161E+06        -0.15127E+06         0.00000E+00
    0.00000E+00         0.00000E+00        -0.83981E+05
 
   -0.24344E+06         0.59079E+06         0.00000E+00
    0.59079E+06        -0.15604E+06         0.00000E+00
    0.00000E+00         0.00000E+00        -0.79896E+05
 
   -0.21944E+06         0.58956E+06         0.00000E+00
    0.58956E+06        -0.16084E+06         0.00000E+00
    0.00000E+00         0.00000E+00        -0.76056E+05
 
   -0.19668E+06         0.58792E+06         0.00000E+00
    0.58792E+06        -0.16565E+06         0.00000E+00
    0.00000E+00         0.00000E+00        -0.72466E+05
 
   -0.17521E+06         0.58590E+06         0.00000E+00
    0.58590E+06        -0.17045E+06         0.00000E+00
    0.00000E+00         0.00000E+00        -0.69133E+05
 
   -0.15508E+06         0.58355E+06         0.00000E+00
    0.58355E+06        -0.17522E+06         0.00000E+00
    0.00000E+00         0.00000E+00        -0.66060E+05
 
   -0.13634E+06         0.58088E+06         0.00000E+00
    0.58088E+06        -0.17993E+06         0.00000E+00
    0.00000E+00         0.00000E+00        -0.63253E+05
 
   -0.11903E+06         0.57795E+06         0.00000E+00
    0.57795E+06        -0.18454E+06         0.00000E+00
    0.00000E+00         0.00000E+00        -0.60716E+05
 
   -0.10322E+06         0.57480E+06         0.00000E+00
    0.57480E+06        -0.18904E+06         0.00000E+00
    0.00000E+00         0.00000E+00        -0.58453E+05
 
   -0.88957E+05         0.57147E+06         0.00000E+00
    0.57147E+06        -0.19339E+06         0.00000E+00
    0.00000E+00         0.00000E+00        -0.56469E+05
 
   -0.76291E+05         0.56804E+06         0.00000E+00
    0.56804E+06        -0.19755E+06         0.00000E+00
    0.00000E+00         0.00000E+00        -0.54769E+05
 
   -0.65278E+05         0.56455E+06         0.00000E+00
    0.56455E+06        -0.20149E+06         0.00000E+00
    0.00000E+00         0.00000E+00        -0.53354E+05
 
   -0.55966E+05         0.56110E+06         0.00000E+00
    0.56110E+06        -0.20519E+06         0.00000E+00
    0.00000E+00         0.00000E+00        -0.52230E+05
 
   -0.15163E+07         0.21205E+05         0.00000E+00
    0.21205E+05         0.23601E+03         0.00000E+00
    0.00000E+00         0.00000E+00        -0.30320E+06
 
   -0.14874E+07         0.59542E+05         0.00000E+00
    0.59542E+05        -0.73892E+03         0.00000E+00
    0.00000E+00         0.00000E+00        -0.29763E+06
 
   -0.14570E+07         0.96145E+05         0.00000E+00
    0.96145E+05        -0.24933E+04         0.00000E+00
    0.00000E+00         0.00000E+00        -0.29190E+06
 
   -0.14252E+07         0.13103E+06         0.00000E+00
    0.13103E+06        -0.49460E+04         0.00000E+00
    0.00000E+00         0.00000E+00        -0.28602E+06
 
   -0.13921E+07         0.16420E+06         0.00000E+00
    0.16420E+06        -0.80199E+04         0.00000E+00
    0.00000E+00         0.00000E+00        -0.28002E+06
 
   -0.13579E+07         0.19569E+06         0.00000E+00
    0.19569E+06        -0.11643E+05         0.00000E+00
    0.00000E+00         0.00000E+00        -0.27391E+06
 
   -0.13228E+07         0.22553E+06         0.00000E+00
    0.22553E+06        -0.15746E+05         0.00000E+00
    0.00000E+00         0.00000E+00        -0.26771E+06
 
   -0.12869E+07         0.25375E+06         0.00000E+00
    0.25375E+06        -0.20267E+05         0.00000E+00
    0.00000E+00         0.00000E+00        -0.26143E+06
 
   -0.12503E+07         0.28038E+06         0.00000E+00
    0.28038E+06        -0.25146E+05         0.00000E+00
    0.00000E+00         0.00000E+00        -0.25509E+06
 
   -0.12131E+07         0.30547E+06         0.00000E+00
    0.30547E+06        -0.30330E+05         0.00000E+00
    0.00000E+00         0.00000E+00        -0.24870E+06
 
   -0.11756E+07         0.32905E+06         0.00000E+00
    0.32905E+06        -0.35769E+05         0.00000E+00
    0.00000E+00         0.00000E+00        -0.24227E+06
 
   -0.11377E+07         0.35117E+06         0.00000E+00
    0.35117E+06        -0.41418E+05         0.00000E+00
    0.00000E+00         0.00000E+00        -0.23582E+06
 
   -0.10996E+07         0.37188E+06         0.00000E+00
    0.37188E+06        -0.47238E+05         0.00000E+00
    0.00000E+00         0.00000E+00        -0.22936E+06
 
   -0.10613E+07         0.39123E+06         0.00000E+00
    0.39123E+06        -0.53192E+05         0.00000E+00
    0.00000E+00         0.00000E+00        -0.22291E+06
 
   -0.10231E+07         0.40926E+06         0.00000E+00
    0.40926E+06        -0.59250E+05         0.00000E+00
    0.00000E+00         0.00000E+00        -0.21647E+06
 
   -0.98489E+06         0.42602E+06         0.00000E+00
    0.42602E+06        -0.65382E+05         0.00000E+00
    0.00000E+00         0.00000E+00        -0.21005E+06
 
   -0.94683E+06         0.44157E+06         0.00000E+00
    0.44157E+06        -0.71567E+05         0.00000E+00
    0.00000E+00         0.00000E+00        -0.20368E+06
 
   -0.90898E+06         0.45596E+06         0.00000E+00
    0.45596E+06        -0.77784E+05         0.00000E+00
    0.00000E+00         0.00000E+00        -0.19735E+06
 
   -0.87140E+06         0.46923E+06         0.00000E+00
    0.46923E+06        -0.84017E+05         0.00000E+00
    0.00000E+00         0.00000E+00        -0.19108E+06
 
   -0.83417E+06         0.48143E+06         0.00000E+00
    0.48143E+06        -0.90252E+05         0.00000E+00
    0.00000E+00         0.00000E+00        -0.18488E+06
 
   -0.79733E+06         0.49261E+06         0.00000E+00
    0.49261E+06        -0.96479E+05         0.00000E+00
    0.00000E+00         0.00000E+00        -0.17876E+06
 
   -0.76094E+06         0.50282E+06         0.00000E+00
    0.50282E+06        -0.10269E+06         0.00000E+00
    0.00000E+00         0.00000E+00        -0.17273E+06
 
   -0.72505E+06         0.51210E+06         0.00000E+00
    0.51210E+06        -0.10888E+06         0.00000E+00
    0.00000E+00         0.00000E+00        -0.16679E+06
 
   -0.68970E+06         0.52049E+06         0.00000E+00
    0.52049E+06        -0.11504E+06         0.00000E+00
    0.00000E+00         0.00000E+00        -0.16095E+06
 
   -0.65493E+06         0.52804E+06         0.00000E+00
    0.52804E+06        -0.12118E+06         0.00000E+00
    0.00000E+00         0.00000E+00        -0.15522E+06
 
   -0.62078E+06         0.53479E+06         0.00000E+00
    0.53479E+06        -0.12728E+06         0.00000E+00
    0.00000E+00         0.00000E+00        -0.14961E+06
 
   -0.58729E+06         0.54077E+06         0.00000E+00
    0.54077E+06        -0.13336E+06         0.00000E+00
    0.00000E+00         0.00000E+00        -0.14413E+06
 
   -0.55449E+06         0.54602E+06         0.00000E+00
    0.54602E+06        -0.13940E+06         0.00000E+00
    0.00000E+00         0.00000E+00        -0.13878E+06
 
   -0.52242E+06         0.55058E+06         0.00000E+00
    0.55058E+06        -0.14542E+06         0.00000E+00
    0.00000E+00         0.00000E+00        -0.13357E+06
 
   -0.49110E+06         0.55447E+06         0.00000E+00
    0.55447E+06        -0.15141E+06         0.00000E+00
    0.00000E+00         0.00000E+00        -0.12850E+06
 
   -0.46057E+06         0.55774E+06         0.00000E+00
    0.55774E+06        -0.15737E+06         0.00000E+00
    0.00000E+00         0.00000E+00        -0.12359E+06
 
   -0.43085E+06         0.56040E+06         0.00000E+00
    0.56040E+06        -0.16329E+06         0.00000E+00
    0.00000E+00         0.00000E+00        -0.11883E+06
 
   -0.40198E+06         0.56250E+06         0.00000E+00
    0.56250E+06        -0.16919E+06         0.00000E+00
    0.00000E+00         0.00000E+00        -0.11423E+06
 
   -0.37398E+06         0.56406E+06         0.00000E+00
    0.56406E+06        -0.17506E+06         0.00000E+00
    0.00000E+00         0.00000E+00        -0.10981E+06
 
   -0.34688E+06         0.56510E+06         0.00000E+00
    0.56510E+06        -0.18089E+06         0.00000E+00
    0.00000E+00         0.00000E+00        -0.10555E+06
 
   -0.32072E+06         0.56567E+06         0.00000E+00
    0.56567E+06        -0.18668E+06         0.00000E+00
    0.00000E+00         0.00000E+00        -0.10148E+06
 
   -0.29552E+06         0.56578E+06         0.00000E+00
    0.56578E+06        -0.19242E+06         0.00000E+00
    0.00000E+00         0.00000E+00        -0.97588E+05
 
   -0.27132E+06         0.56547E+06         0.00000E+00
    0.56547E+06        -0.19810E+06         0.00000E+00
    0.00000E+00         0.00000E+00        -0.93884E+05
 
   -0.24813E+06         0.56478E+06         0.00000E+00
    0.56478E+06        -0.20373E+06         0.00000E+00
    0.00000E+00         0.00000E+00        -0.90372E+05
 
   -0.22601E+06         0.56372E+06         0.00000E+00
    0.56372E+06        -0.20928E+06         0.00000E+00
    0.00000E+00         0.00000E+00        -0.87057E+05
 
   -0.20497E+06         0.56234E+06         0.00000E+00
    0.56234E+06        -0.21474E+06         0.00000E+00
    0.00000E+00         0.00000E+00        -0.83942E+05
 
   -0.18505E+06         0.56068E+06         0.00000E+00
    0.56068E+06        -0.22010E+06         0.00000E+00
    0.00000E+00         0.00000E+00        -0.81031E+05
 
   -0.16628E+06         0.55877E+06         0.00000E+00
    0.55877E+06        -0.22536E+06         0.00000E+00
    0.00000E+00         0.00000E+00        -0.78327E+05
 
   -0.14869E+06         0.55665E+06         0.00000E+00
    0.55665E+06        -0.23048E+06         0.00000E+00
    0.00000E+00         0.00000E+00        -0.75834E+05
 
   -0.13231E+06         0.55438E+06         0.00000E+00
    0.55438E+06        -0.23547E+06         0.00000E+00
    0.00000E+00         0.00000E+00        -0.73555E+05
 
   -0.11717E+06         0.55199E+06         0.00000E+00
    0.55199E+06        -0.24029E+06         0.00000E+00
    0.00000E+00         0.00000E+00        -0.71493E+05
 
   -0.10330E+06         0.54956E+06         0.00000E+00
    0.54956E+06        -0.24494E+06         0.00000E+00
    0.00000E+00         0.00000E+00        -0.69650E+05
 
   -0.90729E+05         0.54712E+06         0.00000E+00
    0.54712E+06        -0.24941E+06         0.00000E+00
    0.00000E+00         0.00000E+00        -0.68027E+05
 
   -0.79471E+05         0.54475E+06         0.00000E+00
    0.54475E+06        -0.25367E+06         0.00000E+00
    0.00000E+00         0.00000E+00        -0.66628E+05
 
   -0.69547E+05         0.54251E+06         0.00000E+00
    0.54251E+06        -0.25772E+06         0.00000E+00
    0.00000E+00         0.00000E+00        -0.65453E+05
 
   -0.13310E+07         0.18676E+05         0.00000E+00
    0.18676E+05         0.23604E+03         0.00000E+00
    0.00000E+00         0.00000E+00        -0.26616E+06
 
   -0.13099E+07         0.52894E+05         0.00000E+00
    0.52894E+05        -0.70492E+03         0.00000E+00
    0.00000E+00         0.00000E+00        -0.26212E+06
 
   -0.12872E+07         0.85757E+05         0.00000E+00
    0.85757E+05        -0.24267E+04         0.00000E+00
    0.00000E+00         0.00000E+00        -0.25792E+06
 
   -0.12630E+07         0.11726E+06         0.00000E+00
    0.11726E+06        -0.48618E+04         0.00000E+00
    0.00000E+00         0.00000E+00        -0.25357E+06
 
   -0.12375E+07         0.14740E+06         0.00000E+00
    0.14740E+06        -0.79454E+04         0.00000E+00
    0.00000E+00         0.00000E+00        -0.24910E+06
 
   -0.12109E+07         0.17619E+06         0.00000E+00
    0.17619E+06        -0.11616E+05         0.00000E+00
    0.00000E+00         0.00000E+00        -0.24450E+06
 
   -0.11832E+07         0.20363E+06         0.00000E+00
    0.20363E+06        -0.15815E+05         0.00000E+00
    0.00000E+00         0.00000E+00        -0.23981E+06
 
   -0.11546E+07         0.22973E+06         0.00000E+00
    0.22973E+06        -0.20487E+05         0.00000E+00
    0.00000E+00         0.00000E+00        -0.23502E+06
 
   -0.11252E+07         0.25451E+06         0.00000E+00
    0.25451E+06        -0.25579E+05         0.00000E+00
    0.00000E+00         0.00000E+00        -0.23015E+06
 
   -0.10951E+07         0.27800E+06         0.00000E+00
    0.27800E+06        -0.31043E+05         0.00000E+00
    0.00000E+00         0.00000E+00        -0.22522E+06
 
   -0.10643E+07         0.30021E+06         0.00000E+00
    0.30021E+06        -0.36833E+05         0.00000E+00
    0.00000E+00         0.00000E+00        -0.22024E+06
 
   -0.10331E+07         0.32117E+06         0.00000E+00
    0.32117E+06        -0.42907E+05         0.00000E+00
    0.00000E+00         0.00000E+00        -0.21521E+06
 
   -0.10015E+07         0.34091E+06         0.00000E+00
    0.34091E+06        -0.49224E+05         0.00000E+00
    0.00000E+00         0.00000E+00        -0.21014E+06
 
   -0.96955E+06         0.35946E+06         0.00000E+00
    0.35946E+06        -0.55750E+05         0.00000E+00
    0.00000E+00         0.00000E+00        -0.20506E+06
 
   -0.93738E+06         0.37685E+06         0.00000E+00
    0.37685E+06        -0.62450E+05         0.00000E+00
    0.00000E+00         0.00000E+00        -0.19997E+06
 
   -0.90506E+06         0.39311E+06         0.00000E+00
    0.39311E+06        -0.69294E+05         0.00000E+00
    0.00000E+00         0.00000E+00        -0.19487E+06
 
   -0.87266E+06         0.40827E+06         0.00000E+00
    0.40827E+06        -0.76257E+05         0.00000E+00
    0.00000E+00         0.00000E+00        -0.18978E+06
 
   -0.84027E+06         0.42238E+06         0.00000E+00
    0.42238E+06        -0.83311E+05         0.00000E+00
    0.00000E+00         0.00000E+00        -0.18472E+06
 
   -0.80795E+06         0.43546E+06         0.00000E+00
    0.43546E+06        -0.90436E+05         0.00000E+00
    0.00000E+00         0.00000E+00        -0.17968E+06
 
   -0.77575E+06         0.44756E+06         0.00000E+00
    0.44756E+06        -0.97613E+05         0.00000E+00
    0.00000E+00         0.00000E+00        -0.17467E+06
 
   -0.74375E+06         0.45870E+06         0.00000E+00
    0.45870E+06        -0.10482E+06         0.00000E+00
    0.00000E+00         0.00000E+00        -0.16971E+06
 
   -0.71199E+06         0.46892E+06         0.00000E+00
    0.46892E+06        -0.11205E+06         0.00000E+00
    0.00000E+00         0.00000E+00        -0.16481E+06
 
   -0.68053E+06         0.47826E+06         0.00000E+00
    0.47826E+06        -0.11928E+06         0.00000E+00
    0.00000E+00         0.00000E+00        -0.15996E+06
 
   -0.64941E+06         0.48676E+06         0.00000E+00
    0.48676E+06        -0.12651E+06         0.00000E+00
    0.00000E+00         0.00000E+00        -0.15518E+06
 
   -0.61870E+06         0.49444E+06         0.00000E+00
    0.49444E+06        -0.13371E+06         0.00000E+00
    0.00000E+00         0.00000E+00        -0.15048E+06
 
   -0.58842E+06         0.50135E+06         0.00000E+00
    0.50135E+06        -0.14089E+06         0.00000E+00
    0.00000E+00         0.00000E+00        -0.14586E+06
 
   -0.55862E+06         0.50751E+06         0.00000E+00
    0.50751E+06        -0.14803E+06         0.00000E+00
    0.00000E+00         0.00000E+00        -0.14133E+06
 
   -0.52934E+06         0.51296E+06         0.00000E+00
    0.51296E+06        -0.15513E+06         0.00000E+00
    0.00000E+00         0.00000E+00        -0.13689E+06
 
   -0.50062E+06         0.51774E+06         0.00000E+00
    0.51774E+06        -0.16218E+06         0.00000E+00
    0.00000E+00         0.00000E+00        -0.13256E+06
 
   -0.47249E+06         0.52187E+06         0.00000E+00
    0.52187E+06        -0.16917E+06         0.00000E+00
    0.00000E+00         0.00000E+00        -0.12833E+06
 
   -0.44499E+06         0.52539E+06         0.00000E+00
    0.52539E+06        -0.17610E+06         0.00000E+00
    0.00000E+00         0.00000E+00        -0.12422E+06
 
   -0.41815E+06         0.52832E+06         0.00000E+00
    0.52832E+06        -0.18296E+06         0.00000E+00
    0.00000E+00         0.00000E+00        -0.12022E+06
 
   -0.39199E+06         0.53071E+06         0.00000E+00
    0.53071E+06        -0.18974E+06         0.00000E+00
    0.00000E+00         0.00000E+00        -0.11635E+06
 
   -0.36656E+06         0.53259E+06         0.00000E+00
    0.53259E+06        -0.19644E+06         0.00000E+00
    0.00000E+00         0.00000E+00        -0.11260E+06
 
   -0.34187E+06         0.53397E+06         0.00000E+00
    0.53397E+06        -0.20306E+06         0.00000E+00
    0.00000E+00         0.00000E+00        -0.10899E+06
 
   -0.31796E+06         0.53491E+06         0.00000E+00
    0.53491E+06        -0.20959E+06         0.00000E+00
    0.00000E+00         0.00000E+00        -0.10551E+06
 
   -0.29485E+06         0.53543E+06         0.00000E+00
    0.53543E+06        -0.21601E+06         0.00000E+00
    0.00000E+00         0.00000E+00        -0.10217E+06
 
   -0.27257E+06         0.53557E+06         0.00000E+00
    0.53557E+06        -0.22233E+06         0.00000E+00
    0.00000E+00         0.00000E+00        -0.98981E+05
 
   -0.25114E+06         0.53535E+06         0.00000E+00
    0.53535E+06        -0.22854E+06         0.00000E+00
    0.00000E+00         0.00000E+00        -0.95937E+05
 
   -0.23060E+06         0.53483E+06         0.00000E+00
    0.53483E+06        -0.23462E+06         0.00000E+00
    0.00000E+00         0.00000E+00        -0.93044E+05
 
   -0.21095E+06         0.53403E+06         0.00000E+00
    0.53403E+06        -0.24058E+06         0.00000E+00
    0.00000E+00         0.00000E+00        -0.90306E+05
 
   -0.19222E+06         0.53299E+06         0.00000E+00
    0.53299E+06        -0.24641E+06         0.00000E+00
    0.00000E+00         0.00000E+00        -0.87725E+05
 
   -0.17444E+06         0.53176E+06         0.00000E+00
    0.53176E+06        -0.25209E+06         0.00000E+00
    0.00000E+00         0.00000E+00        -0.85304E+05
 
   -0.15761E+06         0.53038E+06         0.00000E+00
    0.53038E+06        -0.25762E+06         0.00000E+00
    0.00000E+00         0.00000E+00        -0.83045E+05
 
   -0.14176E+06         0.52889E+06         0.00000E+00
    0.52889E+06        -0.26299E+06         0.00000E+00
    0.00000E+00         0.00000E+00        -0.80950E+05
 
   -0.12690E+06         0.52734E+06         0.00000E+00
    0.52734E+06        -0.26820E+06         0.00000E+00
    0.00000E+00         0.00000E+00        -0.79021E+05
 
   -0.11304E+06         0.52578E+06         0.00000E+00
    0.52578E+06        -0.27325E+06         0.00000E+00
    0.00000E+00         0.00000E+00        -0.77258E+05
 
   -0.10020E+06         0.52427E+06         0.00000E+00
    0.52427E+06        -0.27812E+06         0.00000E+00
    0.00000E+00         0.00000E+00        -0.75663E+05
 
   -0.88362E+05         0.52285E+06         0.00000E+00
    0.52285E+06        -0.28282E+06         0.00000E+00
    0.00000E+00         0.00000E+00        -0.74235E+05
 
   -0.77544E+05         0.52159E+06         0.00000E+00
    0.52159E+06        -0.28734E+06         0.00000E+00
    0.00000E+00         0.00000E+00        -0.72977E+05
 
   -0.11671E+07         0.16298E+05         0.00000E+00
    0.16298E+05         0.22666E+03         0.00000E+00
    0.00000E+00         0.00000E+00        -0.23337E+06
 
   -0.11518E+07         0.46521E+05         0.00000E+00
    0.46521E+05        -0.64986E+03         0.00000E+00
    0.00000E+00         0.00000E+00        -0.23050E+06
 
   -0.11351E+07         0.75702E+05         0.00000E+00
    0.75702E+05        -0.22735E+04         0.00000E+00
    0.00000E+00         0.00000E+00        -0.22747E+06
 
   -0.11170E+07         0.10382E+06         0.00000E+00
    0.10382E+06        -0.45889E+04         0.00000E+00
    0.00000E+00         0.00000E+00        -0.22432E+06
 
   -0.10976E+07         0.13087E+06         0.00000E+00
    0.13087E+06        -0.75424E+04         0.00000E+00
    0.00000E+00         0.00000E+00        -0.22103E+06
 
   -0.10770E+07         0.15684E+06         0.00000E+00
    0.15684E+06        -0.11082E+05         0.00000E+00
    0.00000E+00         0.00000E+00        -0.21762E+06
 
   -0.10554E+07         0.18173E+06         0.00000E+00
    0.18173E+06        -0.15159E+05         0.00000E+00
    0.00000E+00         0.00000E+00        -0.21411E+06
 
   -0.10328E+07         0.20553E+06         0.00000E+00
    0.20553E+06        -0.19724E+05         0.00000E+00
    0.00000E+00         0.00000E+00        -0.21051E+06
 
   -0.10093E+07         0.22825E+06         0.00000E+00
    0.22825E+06        -0.24732E+05         0.00000E+00
    0.00000E+00         0.00000E+00        -0.20681E+06
 
   -0.98509E+06         0.24990E+06         0.00000E+00
    0.24990E+06        -0.30141E+05         0.00000E+00
    0.00000E+00         0.00000E+00        -0.20305E+06
 
   -0.96016E+06         0.27049E+06         0.00000E+00
    0.27049E+06        -0.35908E+05         0.00000E+00
    0.00000E+00         0.00000E+00        -0.19921E+06
 
   -0.93463E+06         0.29002E+06         0.00000E+00
    0.29002E+06        -0.41995E+05         0.00000E+00
    0.00000E+00         0.00000E+00        -0.19532E+06
 
   -0.90858E+06         0.30851E+06         0.00000E+00
    0.30851E+06        -0.48366E+05         0.00000E+00
    0.00000E+00         0.00000E+00        -0.19139E+06
 
   -0.88211E+06         0.32598E+06         0.00000E+00
    0.32598E+06        -0.54985E+05         0.00000E+00
    0.00000E+00         0.00000E+00        -0.18742E+06
 
   -0.85527E+06         0.34245E+06         0.00000E+00
    0.34245E+06        -0.61821E+05         0.00000E+00
    0.00000E+00         0.00000E+00        -0.18342E+06
 
   -0.82815E+06         0.35794E+06         0.00000E+00
    0.35794E+06        -0.68842E+05         0.00000E+00
    0.00000E+00         0.00000E+00        -0.17940E+06
 
   -0.80082E+06         0.37247E+06         0.00000E+00
    0.37247E+06        -0.76022E+05         0.00000E+00
    0.00000E+00         0.00000E+00        -0.17537E+06
 
   -0.77334E+06         0.38606E+06         0.00000E+00
    0.38606E+06        -0.83334E+05         0.00000E+00
    0.00000E+00         0.00000E+00        -0.17133E+06
 
   -0.74577E+06         0.39874E+06         0.00000E+00
    0.39874E+06        -0.90754E+05         0.00000E+00
    0.00000E+00         0.00000E+00        -0.16731E+06
 
   -0.71819E+06         0.41054E+06         0.00000E+00
    0.41054E+06        -0.98259E+05         0.00000E+00
    0.00000E+00         0.00000E+00        -0.16329E+06
 
   -0.69064E+06         0.42147E+06         0.00000E+00
    0.42147E+06        -0.10583E+06         0.00000E+00
    0.00000E+00         0.00000E+00        -0.15929E+06
 
   -0.66318E+06         0.43157E+06         0.00000E+00
    0.43157E+06        -0.11344E+06         0.00000E+00
    0.00000E+00         0.00000E+00        -0.15532E+06
 
   -0.63586E+06         0.44086E+06         0.00000E+00
    0.44086E+06        -0.12109E+06         0.00000E+00
    0.00000E+00         0.00000E+00        -0.15139E+06
 
   -0.60873E+06         0.44938E+06         0.00000E+00
    0.44938E+06        -0.12874E+06         0.00000E+00
    0.00000E+00         0.00000E+00        -0.14750E+06
 
   -0.58184E+06         0.45714E+06         0.00000E+00
    0.45714E+06        -0.13640E+06         0.00000E+00
    0.00000E+00         0.00000E+00        -0.14365E+06
 
   -0.55523E+06         0.46419E+06         0.00000E+00
    0.46419E+06        -0.14403E+06         0.00000E+00
    0.00000E+00         0.00000E+00        -0.13985E+06
 
   -0.52895E+06         0.47054E+06         0.00000E+00
    0.47054E+06        -0.15164E+06         0.00000E+00
    0.00000E+00         0.00000E+00        -0.13612E+06
 
   -0.50303E+06         0.47623E+06         0.00000E+00
    0.47623E+06        -0.15921E+06         0.00000E+00
    0.00000E+00         0.00000E+00        -0.13245E+06
 
   -0.47751E+06         0.48128E+06         0.00000E+00
    0.48128E+06        -0.16673E+06         0.00000E+00
    0.00000E+00         0.00000E+00        -0.12885E+06
 
   -0.45242E+06         0.48573E+06         0.00000E+00
    0.48573E+06        -0.17419E+06         0.00000E+00
    0.00000E+00         0.00000E+00        -0.12532E+06
 
   -0.42781E+06         0.48961E+06         0.00000E+00
    0.48961E+06        -0.18157E+06         0.00000E+00
    0.00000E+00         0.00000E+00        -0.12188E+06
 
   -0.40369E+06         0.49294E+06         0.00000E+00
    0.49294E+06        -0.18888E+06         0.00000E+00
    0.00000E+00         0.00000E+00        -0.11852E+06
 
   -0.38011E+06         0.49576E+06         0.00000E+00
    0.49576E+06        -0.19610E+06         0.00000E+00
    0.00000E+00         0.00000E+00        -0.11524E+06
 
   -0.35709E+06         0.49810E+06         0.00000E+00
    0.49810E+06        -0.20323E+06         0.00000E+00
    0.00000E+00         0.00000E+00        -0.11206E+06
 
   -0.33466E+06         0.49999E+06         0.00000E+00
    0.49999E+06        -0.21025E+06         0.00000E+00
    0.00000E+00         0.00000E+00        -0.10898E+06
 
   -0.31284E+06         0.50146E+06         0.00000E+00
    0.50146E+06        -0.21717E+06         0.00000E+00
    0.00000E+00         0.00000E+00        -0.10600E+06
 
   -0.29165E+06         0.50254E+06         0.00000E+00
    0.50254E+06        -0.22397E+06         0.00000E+00
    0.00000E+00         0.00000E+00        -0.10312E+06
 
   -0.27112E+06         0.50328E+06         0.00000E+00
    0.50328E+06        -0.23065E+06         0.00000E+00
    0.00000E+00         0.00000E+00        -0.10035E+06
 
   -0.25127E+06         0.50369E+06         0.00000E+00
    0.50369E+06        -0.23720E+06         0.00000E+00
    0.00000E+00         0.00000E+00        -0.97693E+05
 
   -0.23211E+06         0.50382E+06         0.00000E+00
    0.50382E+06        -0.24362E+06         0.00000E+00
    0.00000E+00         0.00000E+00        -0.95145E+05
 
   -0.21366E+06         0.50371E+06         0.00000E+00
    0.50371E+06        -0.24990E+06         0.00000E+00
    0.00000E+00         0.00000E+00        -0.92712E+05
 
   -0.19594E+06         0.50338E+06         0.00000E+00
    0.50338E+06        -0.25604E+06         0.00000E+00
    0.00000E+00         0.00000E+00        -0.90397E+05
 
   -0.17896E+06         0.50289E+06         0.00000E+00
    0.50289E+06        -0.26204E+06         0.00000E+00
    0.00000E+00         0.00000E+00        -0.88200E+05
 
   -0.16272E+06         0.50227E+06         0.00000E+00
    0.50227E+06        -0.26789E+06         0.00000E+00
    0.00000E+00         0.00000E+00        -0.86123E+05
 
   -0.14725E+06         0.50155E+06         0.00000E+00
    0.50155E+06        -0.27359E+06         0.00000E+00
    0.00000E+00         0.00000E+00        -0.84168E+05
 
   -0.13253E+06         0.50079E+06         0.00000E+00
    0.50079E+06        -0.27915E+06         0.00000E+00
    0.00000E+00         0.00000E+00        -0.82335E+05
 
   -0.11857E+06         0.50003E+06         0.00000E+00
    0.50003E+06        -0.28455E+06         0.00000E+00
    0.00000E+00         0.00000E+00        -0.80625E+05
 
   -0.10538E+06         0.49930E+06         0.00000E+00
    0.49930E+06        -0.28981E+06         0.00000E+00
    0.00000E+00         0.00000E+00        -0.79037E+05
 
   -0.92939E+05         0.49867E+06         0.00000E+00
    0.49867E+06        -0.29493E+06         0.00000E+00
    0.00000E+00         0.00000E+00        -0.77573E+05
 
   -0.81250E+05         0.49817E+06         0.00000E+00
    0.49817E+06        -0.29991E+06         0.00000E+00
    0.00000E+00         0.00000E+00        -0.76231E+05
 
   -0.10231E+07         0.14125E+05         0.00000E+00
    0.14125E+05         0.21075E+03         0.00000E+00
    0.00000E+00         0.00000E+00        -0.20459E+06
 
   -0.10124E+07         0.40614E+05         0.00000E+00
    0.40614E+05        -0.58408E+03         0.00000E+00
    0.00000E+00         0.00000E+00        -0.20260E+06
 
   -0.10003E+07         0.66313E+05         0.00000E+00
    0.66313E+05        -0.20710E+04         0.00000E+00
    0.00000E+00         0.00000E+00        -0.20048E+06
 
   -0.98691E+06         0.91199E+05         0.00000E+00
    0.91199E+05        -0.42051E+04         0.00000E+00
    0.00000E+00         0.00000E+00        -0.19822E+06
 
   -0.97229E+06         0.11525E+06         0.00000E+00
    0.11525E+06        -0.69426E+04         0.00000E+00
    0.00000E+00         0.00000E+00        -0.19585E+06
 
   -0.95655E+06         0.13846E+06         0.00000E+00
    0.13846E+06        -0.10241E+05         0.00000E+00
    0.00000E+00         0.00000E+00        -0.19336E+06
 
   -0.93978E+06         0.16080E+06         0.00000E+00
    0.16080E+06        -0.14058E+05         0.00000E+00
    0.00000E+00         0.00000E+00        -0.19077E+06
 
   -0.92205E+06         0.18228E+06         0.00000E+00
    0.18228E+06        -0.18354E+05         0.00000E+00
    0.00000E+00         0.00000E+00        -0.18808E+06
 
   -0.90345E+06         0.20288E+06         0.00000E+00
    0.20288E+06        -0.23090E+05         0.00000E+00
    0.00000E+00         0.00000E+00        -0.18531E+06
 
   -0.88406E+06         0.22261E+06         0.00000E+00
    0.22261E+06        -0.28228E+05         0.00000E+00
    0.00000E+00         0.00000E+00        -0.18246E+06
 
   -0.86395E+06         0.24146E+06         0.00000E+00
    0.24146E+06        -0.33733E+05         0.00000E+00
    0.00000E+00         0.00000E+00        -0.17954E+06
 
   -0.84320E+06         0.25944E+06         0.00000E+00
    0.25944E+06        -0.39569E+05         0.00000E+00
    0.00000E+00         0.00000E+00        -0.17655E+06
 
   -0.82188E+06         0.27655E+06         0.00000E+00
    0.27655E+06        -0.45704E+05         0.00000E+00
    0.00000E+00         0.00000E+00        -0.17352E+06
 
   -0.80006E+06         0.29280E+06         0.00000E+00
    0.29280E+06        -0.52106E+05         0.00000E+00
    0.00000E+00         0.00000E+00        -0.17043E+06
 
   -0.77781E+06         0.30820E+06         0.00000E+00
    0.30820E+06        -0.58745E+05         0.00000E+00
    0.00000E+00         0.00000E+00        -0.16731E+06
 
   -0.75519E+06         0.32276E+06         0.00000E+00
    0.32276E+06        -0.65592E+05         0.00000E+00
    0.00000E+00         0.00000E+00        -0.16416E+06
 
   -0.73227E+06         0.33650E+06         0.00000E+00
    0.33650E+06        -0.72621E+05         0.00000E+00
    0.00000E+00         0.00000E+00        -0.16098E+06
 
   -0.70910E+06         0.34942E+06         0.00000E+00
    0.34942E+06        -0.79806E+05         0.00000E+00
    0.00000E+00         0.00000E+00        -0.15778E+06
 
   -0.68575E+06         0.36155E+06         0.00000E+00
    0.36155E+06        -0.87123E+05         0.00000E+00
    0.00000E+00         0.00000E+00        -0.15457E+06
 
   -0.66226E+06         0.37290E+06         0.00000E+00
    0.37290E+06        -0.94549E+05         0.00000E+00
    0.00000E+00         0.00000E+00        -0.15136E+06
 
   -0.63870E+06         0.38350E+06         0.00000E+00
    0.38350E+06        -0.10206E+06         0.00000E+00
    0.00000E+00         0.00000E+00        -0.14815E+06
 
   -0.61511E+06         0.39335E+06         0.00000E+00
    0.39335E+06        -0.10965E+06         0.00000E+00
    0.00000E+00         0.00000E+00        -0.14495E+06
 
   -0.59154E+06         0.40249E+06         0.00000E+00
    0.40249E+06        -0.11728E+06         0.00000E+00
    0.00000E+00         0.00000E+00        -0.14176E+06
 
   -0.56803E+06         0.41093E+06         0.00000E+00
    0.41093E+06        -0.12494E+06         0.00000E+00
    0.00000E+00         0.00000E+00        -0.13859E+06
 
   -0.54463E+06         0.41870E+06         0.00000E+00
    0.41870E+06        -0.13262E+06         0.00000E+00
    0.00000E+00         0.00000E+00        -0.13545E+06
 
   -0.52139E+06         0.42582E+06         0.00000E+00
    0.42582E+06        -0.14030E+06         0.00000E+00
    0.00000E+00         0.00000E+00        -0.13234E+06
 
   -0.49833E+06         0.43231E+06         0.00000E+00
    0.43231E+06        -0.14796E+06         0.00000E+00
    0.00000E+00         0.00000E+00        -0.12926E+06
 
   -0.47550E+06         0.43820E+06         0.00000E+00
    0.43820E+06        -0.15560E+06         0.00000E+00
    0.00000E+00         0.00000E+00        -0.12622E+06
 
   -0.45294E+06         0.44351E+06         0.00000E+00
    0.44351E+06        -0.16320E+06         0.00000E+00
    0.00000E+00         0.00000E+00        -0.12323E+06
 
   -0.43067E+06         0.44827E+06         0.00000E+00
    0.44827E+06        -0.17074E+06         0.00000E+00
    0.00000E+00         0.00000E+00        -0.12028E+06
 
   -0.40873E+06         0.45251E+06         0.00000E+00
    0.45251E+06        -0.17823E+06         0.00000E+00
    0.00000E+00         0.00000E+00        -0.11739E+06
 
   -0.38715E+06         0.45624E+06         0.00000E+00
    0.45624E+06        -0.18564E+06         0.00000E+00
    0.00000E+00         0.00000E+00        -0.11456E+06
 
   -0.36595E+06         0.45951E+06         0.00000E+00
    0.45951E+06        -0.19297E+06         0.00000E+00
    0.00000E+00         0.00000E+00        -0.11178E+06
 
   -0.34517E+06         0.46233E+06         0.00000E+00
    0.46233E+06        -0.20021E+06         0.00000E+00
    0.00000E+00         0.00000E+00        -0.10908E+06
 
   -0.32482E+06         0.46474E+06         0.00000E+00
    0.46474E+06        -0.20735E+06         0.00000E+00
    0.00000E+00         0.00000E+00        -0.10643E+06
 
   -0.30492E+06         0.46676E+06         0.00000E+00
    0.46676E+06        -0.21440E+06         0.00000E+00
    0.00000E+00         0.00000E+00        -0.10386E+06
 
   -0.28551E+06         0.46843E+06         0.00000E+00
    0.46843E+06        -0.22133E+06         0.00000E+00
    0.00000E+00         0.00000E+00        -0.10137E+06
 
   -0.26658E+06         0.46977E+06         0.00000E+00
    0.46977E+06        -0.22814E+06         0.00000E+00
    0.00000E+00         0.00000E+00        -0.98945E+05
 
   -0.24817E+06         0.47082E+06         0.00000E+00
    0.47082E+06        -0.23484E+06         0.00000E+00
    0.00000E+00         0.00000E+00        -0.96602E+05
 
   -0.23029E+06         0.47161E+06         0.00000E+00
    0.47161E+06        -0.24141E+06         0.00000E+00
    0.00000E+00         0.00000E+00        -0.94340E+05
 
   -0.21294E+06         0.47216E+06         0.00000E+00
    0.47216E+06        -0.24786E+06         0.00000E+00
    0.00000E+00         0.00000E+00        -0.92159E+05
 
   -0.19614E+06         0.47252E+06         0.00000E+00
    0.47252E+06        -0.25417E+06         0.00000E+00
    0.00000E+00         0.00000E+00        -0.90062E+05
 
   -0.17989E+06         0.47272E+06         0.00000E+00
    0.47272E+06        -0.26036E+06         0.00000E+00
    0.00000E+00         0.00000E+00        -0.88050E+05
 
   -0.16420E+06         0.47279E+06         0.00000E+00
    0.47279E+06        -0.26641E+06         0.00000E+00
    0.00000E+00         0.00000E+00        -0.86123E+05
 
   -0.14908E+06         0.47277E+06         0.00000E+00
    0.47277E+06        -0.27234E+06         0.00000E+00
    0.00000E+00         0.00000E+00        -0.84284E+05
 
   -0.13451E+06         0.47269E+06         0.00000E+00
    0.47269E+06        -0.27814E+06         0.00000E+00
    0.00000E+00         0.00000E+00        -0.82531E+05
 
   -0.12051E+06         0.47259E+06         0.00000E+00
    0.47259E+06        -0.28382E+06         0.00000E+00
    0.00000E+00         0.00000E+00        -0.80865E+05
 
   -0.10705E+06         0.47251E+06         0.00000E+00
    0.47251E+06        -0.28938E+06         0.00000E+00
    0.00000E+00         0.00000E+00        -0.79286E+05
 
   -0.94142E+05         0.47249E+06         0.00000E+00
    0.47249E+06        -0.29483E+06         0.00000E+00
    0.00000E+00         0.00000E+00        -0.77794E+05
 
   -0.81763E+05         0.47256E+06         0.00000E+00
    0.47256E+06        -0.30017E+06         0.00000E+00
    0.00000E+00         0.00000E+00        -0.76387E+05
 
   -0.89768E+06         0.12186E+05         0.00000E+00
    0.12186E+05         0.19121E+03         0.00000E+00
    0.00000E+00         0.00000E+00        -0.17950E+06
 
   -0.89031E+06         0.35275E+05         0.00000E+00
    0.35275E+05        -0.51477E+03         0.00000E+00
    0.00000E+00         0.00000E+00        -0.17816E+06
 
   -0.88169E+06         0.57776E+05         0.00000E+00
    0.57776E+05        -0.18465E+04         0.00000E+00
    0.00000E+00         0.00000E+00        -0.17671E+06
 
   -0.87189E+06         0.79662E+05         0.00000E+00
    0.79662E+05        -0.37683E+04         0.00000E+00
    0.00000E+00         0.00000E+00        -0.17513E+06
 
   -0.86098E+06         0.10091E+06         0.00000E+00
    0.10091E+06        -0.62449E+04         0.00000E+00
    0.00000E+00         0.00000E+00        -0.17344E+06
 
   -0.84903E+06         0.12150E+06         0.00000E+00
    0.12150E+06        -0.92416E+04         0.00000E+00
    0.00000E+00         0.00000E+00        -0.17165E+06
 
   -0.83610E+06         0.14142E+06         0.00000E+00
    0.14142E+06        -0.12724E+05         0.00000E+00
    0.00000E+00         0.00000E+00        -0.16977E+06
 
   -0.82227E+06         0.16065E+06         0.00000E+00
    0.16065E+06        -0.16660E+05         0.00000E+00
    0.00000E+00         0.00000E+00        -0.16779E+06
 
   -0.80760E+06         0.17918E+06         0.00000E+00
    0.17918E+06        -0.21015E+05         0.00000E+00
    0.00000E+00         0.00000E+00        -0.16572E+06
 
   -0.79216E+06         0.19701E+06         0.00000E+00
    0.19701E+06        -0.25758E+05         0.00000E+00
    0.00000E+00         0.00000E+00        -0.16358E+06
 
   -0.77601E+06         0.21413E+06         0.00000E+00
    0.21413E+06        -0.30858E+05         0.00000E+00
    0.00000E+00         0.00000E+00        -0.16137E+06
 
   -0.75922E+06         0.23053E+06         0.00000E+00
    0.23053E+06        -0.36285E+05         0.00000E+00
    0.00000E+00         0.00000E+00        -0.15910E+06
 
   -0.74184E+06         0.24621E+06         0.00000E+00
    0.24621E+06        -0.42011E+05         0.00000E+00
    0.00000E+00         0.00000E+00        -0.15677E+06
 
   -0.72393E+06         0.26118E+06         0.00000E+00
    0.26118E+06        -0.48007E+05         0.00000E+00
    0.00000E+00         0.00000E+00        -0.15439E+06
 
   -0.70556E+06         0.27544E+06         0.00000E+00
    0.27544E+06        -0.54246E+05         0.00000E+00
    0.00000E+00         0.00000E+00        -0.15196E+06
 
   -0.68677E+06         0.28900E+06         0.00000E+00
    0.28900E+06        -0.60702E+05         0.00000E+00
    0.00000E+00         0.00000E+00        -0.14949E+06
 
   -0.66763E+06         0.30185E+06         0.00000E+00
    0.30185E+06        -0.67352E+05         0.00000E+00
    0.00000E+00         0.00000E+00        -0.14700E+06
 
   -0.64817E+06         0.31402E+06         0.00000E+00
    0.31402E+06        -0.74170E+05         0.00000E+00
    0.00000E+00         0.00000E+00        -0.14447E+06
 
   -0.62847E+06         0.32550E+06         0.00000E+00
    0.32550E+06        -0.81134E+05         0.00000E+00
    0.00000E+00         0.00000E+00        -0.14192E+06
 
   -0.60855E+06         0.33632E+06         0.00000E+00
    0.33632E+06        -0.88224E+05         0.00000E+00
    0.00000E+00         0.00000E+00        -0.13936E+06
 
   -0.58848E+06         0.34647E+06         0.00000E+00
    0.34647E+06        -0.95418E+05         0.00000E+00
    0.00000E+00         0.00000E+00        -0.13678E+06
 
   -0.56829E+06         0.35599E+06         0.00000E+00
    0.35599E+06        -0.10270E+06         0.00000E+00
    0.00000E+00         0.00000E+00        -0.13420E+06
 
   -0.54803E+06         0.36488E+06         0.00000E+00
    0.36488E+06        -0.11004E+06         0.00000E+00
    0.00000E+00         0.00000E+00        -0.13161E+06
 
   -0.52774E+06         0.37316E+06         0.00000E+00
    0.37316E+06        -0.11744E+06         0.00000E+00
    0.00000E+00         0.00000E+00        -0.12904E+06
 
   -0.50746E+06         0.38084E+06         0.00000E+00
    0.38084E+06        -0.12486E+06         0.00000E+00
    0.00000E+00         0.00000E+00        -0.12646E+06
 
   -0.48722E+06         0.38795E+06         0.00000E+00
    0.38795E+06        -0.13231E+06         0.00000E+00
    0.00000E+00         0.00000E+00        -0.12391E+06
 
   -0.46707E+06         0.39450E+06         0.00000E+00
    0.39450E+06        -0.13976E+06         0.00000E+00
    0.00000E+00         0.00000E+00        -0.12137E+06
 
   -0.44703E+06         0.40052E+06         0.00000E+00
    0.40052E+06        -0.14719E+06         0.00000E+00
    0.00000E+00         0.00000E+00        -0.11884E+06
 
   -0.42714E+06         0.40602E+06         0.00000E+00
    0.40602E+06        -0.15461E+06         0.00000E+00
    0.00000E+00         0.00000E+00        -0.11635E+06
 
   -0.40742E+06         0.41102E+06         0.00000E+00
    0.41102E+06        -0.16199E+06         0.00000E+00
    0.00000E+00         0.00000E+00        -0.11388E+06
 
   -0.38792E+06         0.41555E+06         0.00000E+00
    0.41555E+06        -0.16932E+06         0.00000E+00
    0.00000E+00         0.00000E+00        -0.11145E+06
 
   -0.36864E+06         0.41963E+06         0.00000E+00
    0.41963E+06        -0.17660E+06         0.00000E+00
    0.00000E+00         0.00000E+00        -0.10905E+06
 
   -0.34962E+06         0.42328E+06         0.00000E+00
    0.42328E+06        -0.18381E+06         0.00000E+00
    0.00000E+00         0.00000E+00        -0.10669E+06
 
   -0.33088E+06         0.42653E+06         0.00000E+00
    0.42653E+06        -0.19095E+06         0.00000E+00
    0.00000E+00         0.00000E+00        -0.10437E+06
 
   -0.31245E+06         0.42940E+06         0.00000E+00
    0.42940E+06        -0.19801E+06         0.00000E+00
    0.00000E+00         0.00000E+00        -0.10209E+06
 
   -0.29433E+06         0.43192E+06         0.00000E+00
    0.43192E+06        -0.20498E+06         0.00000E+00
    0.00000E+00         0.00000E+00        -0.99861E+05
 
   -0.27654E+06         0.43411E+06         0.00000E+00
    0.43411E+06        -0.21186E+06         0.00000E+00
    0.00000E+00         0.00000E+00        -0.97680E+05
 
   -0.25911E+06         0.43600E+06         0.00000E+00
    0.43600E+06        -0.21863E+06         0.00000E+00
    0.00000E+00         0.00000E+00        -0.95550E+05
 
   -0.24205E+06         0.43761E+06         0.00000E+00
    0.43761E+06        -0.22531E+06         0.00000E+00
    0.00000E+00         0.00000E+00        -0.93472E+05
 
   -0.22536E+06         0.43898E+06         0.00000E+00
    0.43898E+06        -0.23188E+06         0.00000E+00
    0.00000E+00         0.00000E+00        -0.91449E+05
 
   -0.20906E+06         0.44013E+06         0.00000E+00
    0.44013E+06        -0.23835E+06         0.00000E+00
    0.00000E+00         0.00000E+00        -0.89481E+05
 
   -0.19314E+06         0.44108E+06         0.00000E+00
    0.44108E+06        -0.24470E+06         0.00000E+00
    0.00000E+00         0.00000E+00        -0.87569E+05
 
   -0.17763E+06         0.44188E+06         0.00000E+00
    0.44188E+06        -0.25095E+06         0.00000E+00
    0.00000E+00         0.00000E+00        -0.85715E+05
 
   -0.16251E+06         0.44254E+06         0.00000E+00
    0.44254E+06        -0.25709E+06         0.00000E+00
    0.00000E+00         0.00000E+00        -0.83920E+05
 
   -0.14779E+06         0.44309E+06         0.00000E+00
    0.44309E+06        -0.26312E+06         0.00000E+00
    0.00000E+00         0.00000E+00        -0.82183E+05
 
   -0.13347E+06         0.44357E+06         0.00000E+00
    0.44357E+06        -0.26906E+06         0.00000E+00
    0.00000E+00         0.00000E+00        -0.80505E+05
 
   -0.11953E+06         0.44401E+06         0.00000E+00
    0.44401E+06        -0.27489E+06         0.00000E+00
    0.00000E+00         0.00000E+00        -0.78886E+05
 
   -0.10598E+06         0.44443E+06         0.00000E+00
    0.44443E+06        -0.28064E+06         0.00000E+00
    0.00000E+00         0.00000E+00        -0.77325E+05
 
   -0.92806E+05         0.44487E+06         0.00000E+00
    0.44487E+06        -0.28630E+06         0.00000E+00
    0.00000E+00         0.00000E+00        -0.75822E+05
 
   -0.79988E+05         0.44535E+06         0.00000E+00
    0.44535E+06        -0.29189E+06         0.00000E+00
    0.00000E+00         0.00000E+00        -0.74376E+05
 
   -0.78874E+06         0.10485E+05         0.00000E+00
    0.10485E+05         0.17027E+03         0.00000E+00
    0.00000E+00         0.00000E+00        -0.15771E+06
 
   -0.78383E+06         0.30541E+05         0.00000E+00
    0.30541E+05        -0.44679E+03         0.00000E+00
    0.00000E+00         0.00000E+00        -0.15686E+06
 
   -0.77781E+06         0.50167E+05         0.00000E+00
    0.50167E+05        -0.16193E+04         0.00000E+00
    0.00000E+00         0.00000E+00        -0.15589E+06
 
   -0.77074E+06         0.69337E+05         0.00000E+00
    0.69337E+05        -0.33195E+04         0.00000E+00
    0.00000E+00         0.00000E+00        -0.15481E+06
 
   -0.76266E+06         0.88025E+05         0.00000E+00
    0.88025E+05        -0.55195E+04         0.00000E+00
    0.00000E+00         0.00000E+00        -0.15364E+06
 
   -0.75364E+06         0.10621E+06         0.00000E+00
    0.10621E+06        -0.81914E+04         0.00000E+00
    0.00000E+00         0.00000E+00        -0.15237E+06
 
   -0.74373E+06         0.12388E+06         0.00000E+00
    0.12388E+06        -0.11308E+05         0.00000E+00
    0.00000E+00         0.00000E+00        -0.15101E+06
 
   -0.73298E+06         0.14100E+06         0.00000E+00
    0.14100E+06        -0.14841E+05         0.00000E+00
    0.00000E+00         0.00000E+00        -0.14956E+06
 
   -0.72145E+06         0.15758E+06         0.00000E+00
    0.15758E+06        -0.18765E+05         0.00000E+00
    0.00000E+00         0.00000E+00        -0.14804E+06
 
   -0.70919E+06         0.17359E+06         0.00000E+00
    0.17359E+06        -0.23052E+05         0.00000E+00
    0.00000E+00         0.00000E+00        -0.14645E+06
 
   -0.69625E+06         0.18904E+06         0.00000E+00
    0.18904E+06        -0.27677E+05         0.00000E+00
    0.00000E+00         0.00000E+00        -0.14479E+06
 
   -0.68269E+06         0.20390E+06         0.00000E+00
    0.20390E+06        -0.32615E+05         0.00000E+00
    0.00000E+00         0.00000E+00        -0.14306E+06
 
   -0.66855E+06         0.21818E+06         0.00000E+00
    0.21818E+06        -0.37840E+05         0.00000E+00
    0.00000E+00         0.00000E+00        -0.14128E+06
 
   -0.65388E+06         0.23188E+06         0.00000E+00
    0.23188E+06        -0.43328E+05         0.00000E+00
    0.00000E+00         0.00000E+00        -0.13944E+06
 
   -0.63874E+06         0.24498E+06         0.00000E+00
    0.24498E+06        -0.49056E+05         0.00000E+00
    0.00000E+00         0.00000E+00        -0.13756E+06
 
   -0.62317E+06         0.25751E+06         0.00000E+00
    0.25751E+06        -0.55002E+05         0.00000E+00
    0.00000E+00         0.00000E+00        -0.13563E+06
 
   -0.60721E+06         0.26944E+06         0.00000E+00
    0.26944E+06        -0.61143E+05         0.00000E+00
    0.00000E+00         0.00000E+00        -0.13367E+06
 
   -0.59091E+06         0.28080E+06         0.00000E+00
    0.28080E+06        -0.67457E+05         0.00000E+00
    0.00000E+00         0.00000E+00        -0.13167E+06
 
   -0.57432E+06         0.29158E+06         0.00000E+00
    0.29158E+06        -0.73926E+05         0.00000E+00
    0.00000E+00         0.00000E+00        -0.12965E+06
 
   -0.55747E+06         0.30179E+06         0.00000E+00
    0.30179E+06        -0.80528E+05         0.00000E+00
    0.00000E+00         0.00000E+00        -0.12760E+06
 
   -0.54040E+06         0.31145E+06         0.00000E+00
    0.31145E+06        -0.87246E+05         0.00000E+00
    0.00000E+00         0.00000E+00        -0.12553E+06
 
   -0.52316E+06         0.32055E+06         0.00000E+00
    0.32055E+06        -0.94061E+05         0.00000E+00
    0.00000E+00         0.00000E+00        -0.12344E+06
 
   -0.50578E+06         0.32911E+06         0.00000E+00
    0.32911E+06        -0.10096E+06         0.00000E+00
    0.00000E+00         0.00000E+00        -0.12135E+06
 
   -0.48830E+06         0.33714E+06         0.00000E+00
    0.33714E+06        -0.10791E+06         0.00000E+00
    0.00000E+00         0.00000E+00        -0.11924E+06
 
   -0.47075E+06         0.34466E+06         0.00000E+00
    0.34466E+06        -0.11492E+06         0.00000E+00
    0.00000E+00         0.00000E+00        -0.11713E+06
 
   -0.45316E+06         0.35167E+06         0.00000E+00
    0.35167E+06        -0.12196E+06         0.00000E+00
    0.00000E+00         0.00000E+00        -0.11503E+06
 
   -0.43557E+06         0.35820E+06         0.00000E+00
    0.35820E+06        -0.12902E+06         0.00000E+00
    0.00000E+00         0.00000E+00        -0.11292E+06
 
   -0.41801E+06         0.36425E+06         0.00000E+00
    0.36425E+06        -0.13609E+06         0.00000E+00
    0.00000E+00         0.00000E+00        -0.11082E+06
 
   -0.40050E+06         0.36985E+06         0.00000E+00
    0.36985E+06        -0.14316E+06         0.00000E+00
    0.00000E+00         0.00000E+00        -0.10873E+06
 
   -0.38307E+06         0.37500E+06         0.00000E+00
    0.37500E+06        -0.15020E+06         0.00000E+00
    0.00000E+00         0.00000E+00        -0.10665E+06
 
   -0.36574E+06         0.37974E+06         0.00000E+00
    0.37974E+06        -0.15722E+06         0.00000E+00
    0.00000E+00         0.00000E+00        -0.10459E+06
 
   -0.34855E+06         0.38407E+06         0.00000E+00
    0.38407E+06        -0.16421E+06         0.00000E+00
    0.00000E+00         0.00000E+00        -0.10255E+06
 
   -0.33150E+06         0.38802E+06         0.00000E+00
    0.38802E+06        -0.17115E+06         0.00000E+00
    0.00000E+00         0.00000E+00        -0.10053E+06
 
   -0.31462E+06         0.39161E+06         0.00000E+00
    0.39161E+06        -0.17803E+06         0.00000E+00
    0.00000E+00         0.00000E+00        -0.98530E+05
 
   -0.29793E+06         0.39485E+06         0.00000E+00
    0.39485E+06        -0.18486E+06         0.00000E+00
    0.00000E+00         0.00000E+00        -0.96557E+05
 
   -0.28144E+06         0.39776E+06         0.00000E+00
    0.39776E+06        -0.19161E+06         0.00000E+00
    0.00000E+00         0.00000E+00        -0.94611E+05
 
   -0.26517E+06         0.40038E+06         0.00000E+00
    0.40038E+06        -0.19830E+06         0.00000E+00
    0.00000E+00         0.00000E+00        -0.92695E+05
 
   -0.24914E+06         0.40271E+06         0.00000E+00
    0.40271E+06        -0.20491E+06         0.00000E+00
    0.00000E+00         0.00000E+00        -0.90809E+05
 
   -0.23334E+06         0.40479E+06         0.00000E+00
    0.40479E+06        -0.21144E+06         0.00000E+00
    0.00000E+00         0.00000E+00        -0.88956E+05
 
   -0.21779E+06         0.40663E+06         0.00000E+00
    0.40663E+06        -0.21789E+06         0.00000E+00
    0.00000E+00         0.00000E+00        -0.87136E+05
 
   -0.20251E+06         0.40825E+06         0.00000E+00
    0.40825E+06        -0.22425E+06         0.00000E+00
    0.00000E+00         0.00000E+00        -0.85352E+05
 
   -0.18748E+06         0.40969E+06         0.00000E+00
    0.40969E+06        -0.23053E+06         0.00000E+00
    0.00000E+00         0.00000E+00        -0.83602E+05
 
   -0.17272E+06         0.41096E+06         0.00000E+00
    0.41096E+06        -0.23672E+06         0.00000E+00
    0.00000E+00         0.00000E+00        -0.81889E+05
 
   -0.15823E+06         0.41209E+06         0.00000E+00
    0.41209E+06        -0.24284E+06         0.00000E+00
    0.00000E+00         0.00000E+00        -0.80213E+05
 
   -0.14400E+06         0.41310E+06         0.00000E+00
    0.41310E+06        -0.24887E+06         0.00000E+00
    0.00000E+00         0.00000E+00        -0.78573E+05
 
   -0.13003E+06         0.41401E+06         0.00000E+00
    0.41401E+06        -0.25482E+06         0.00000E+00
    0.00000E+00         0.00000E+00        -0.76971E+05
 
   -0.11633E+06         0.41485E+06         0.00000E+00
    0.41485E+06        -0.26070E+06         0.00000E+00
    0.00000E+00         0.00000E+00        -0.75405E+05
 
   -0.10286E+06         0.41564E+06         0.00000E+00
    0.41564E+06        -0.26651E+06         0.00000E+00
    0.00000E+00         0.00000E+00        -0.73876E+05
 
   -0.89643E+05         0.41641E+06         0.00000E+00
    0.41641E+06        -0.27227E+06         0.00000E+00
    0.00000E+00         0.00000E+00        -0.72382E+05
 
   -0.76647E+05         0.41717E+06         0.00000E+00
    0.41717E+06        -0.27797E+06         0.00000E+00
    0.00000E+00         0.00000E+00        -0.70924E+05
 
   -0.69439E+06         0.90132E+04         0.00000E+00
    0.90132E+04         0.14949E+03         0.00000E+00
    0.00000E+00         0.00000E+00        -0.13885E+06
 
   -0.69124E+06         0.26406E+05         0.00000E+00
    0.26406E+05        -0.38322E+03         0.00000E+00
    0.00000E+00         0.00000E+00        -0.13832E+06
 
   -0.68712E+06         0.43491E+05         0.00000E+00
    0.43491E+05        -0.14023E+04         0.00000E+00
    0.00000E+00         0.00000E+00        -0.13770E+06
 
   -0.68207E+06         0.60241E+05         0.00000E+00
    0.60241E+05        -0.28862E+04         0.00000E+00
    0.00000E+00         0.00000E+00        -0.13699E+06
 
   -0.67614E+06         0.76634E+05         0.00000E+00
    0.76634E+05        -0.48134E+04         0.00000E+00
    0.00000E+00         0.00000E+00        -0.13619E+06
 
   -0.66936E+06         0.92648E+05         0.00000E+00
    0.92648E+05        -0.71619E+04         0.00000E+00
    0.00000E+00         0.00000E+00        -0.13530E+06
 
   -0.66178E+06         0.10826E+06         0.00000E+00
    0.10826E+06        -0.99099E+04         0.00000E+00
    0.00000E+00         0.00000E+00        -0.13434E+06
 
   -0.65344E+06         0.12346E+06         0.00000E+00
    0.12346E+06        -0.13035E+05         0.00000E+00
    0.00000E+00         0.00000E+00        -0.13330E+06
 
   -0.64438E+06         0.13823E+06         0.00000E+00
    0.13823E+06        -0.16517E+05         0.00000E+00
    0.00000E+00         0.00000E+00        -0.13218E+06
 
   -0.63466E+06         0.15256E+06         0.00000E+00
    0.15256E+06        -0.20332E+05         0.00000E+00
    0.00000E+00         0.00000E+00        -0.13100E+06
 
   -0.62429E+06         0.16643E+06         0.00000E+00
    0.16643E+06        -0.24460E+05         0.00000E+00
    0.00000E+00         0.00000E+00        -0.12975E+06
 
   -0.61334E+06         0.17984E+06         0.00000E+00
    0.17984E+06        -0.28880E+05         0.00000E+00
    0.00000E+00         0.00000E+00        -0.12844E+06
 
   -0.60184E+06         0.19278E+06         0.00000E+00
    0.19278E+06        -0.33570E+05         0.00000E+00
    0.00000E+00         0.00000E+00        -0.12708E+06
 
   -0.58983E+06         0.20524E+06         0.00000E+00
    0.20524E+06        -0.38511E+05         0.00000E+00
    0.00000E+00         0.00000E+00        -0.12567E+06
 
   -0.57736E+06         0.21722E+06         0.00000E+00
    0.21722E+06        -0.43682E+05         0.00000E+00
    0.00000E+00         0.00000E+00        -0.12421E+06
 
   -0.56445E+06         0.22872E+06         0.00000E+00
    0.22872E+06        -0.49063E+05         0.00000E+00
    0.00000E+00         0.00000E+00        -0.12270E+06
 
   -0.55115E+06         0.23974E+06         0.00000E+00
    0.23974E+06        -0.54637E+05         0.00000E+00
    0.00000E+00         0.00000E+00        -0.12116E+06
 
   -0.53750E+06         0.25027E+06         0.00000E+00
    0.25027E+06        -0.60383E+05         0.00000E+00
    0.00000E+00         0.00000E+00        -0.11958E+06
 
   -0.52352E+06         0.26032E+06         0.00000E+00
    0.26032E+06        -0.66286E+05         0.00000E+00
    0.00000E+00         0.00000E+00        -0.11796E+06
 
   -0.50927E+06         0.26990E+06         0.00000E+00
    0.26990E+06        -0.72326E+05         0.00000E+00
    0.00000E+00         0.00000E+00        -0.11632E+06
 
   -0.49476E+06         0.27900E+06         0.00000E+00
    0.27900E+06        -0.78488E+05         0.00000E+00
    0.00000E+00         0.00000E+00        -0.11465E+06
 
   -0.48004E+06         0.28763E+06         0.00000E+00
    0.28763E+06        -0.84755E+05         0.00000E+00
    0.00000E+00         0.00000E+00        -0.11296E+06
 
   -0.46514E+06         0.29580E+06         0.00000E+00
    0.29580E+06        -0.91112E+05         0.00000E+00
    0.00000E+00         0.00000E+00        -0.11125E+06
 
   -0.45008E+06         0.30352E+06         0.00000E+00
    0.30352E+06        -0.97544E+05         0.00000E+00
    0.00000E+00         0.00000E+00        -0.10953E+06
 
   -0.43490E+06         0.31079E+06         0.00000E+00
    0.31079E+06        -0.10404E+06         0.00000E+00
    0.00000E+00         0.00000E+00        -0.10779E+06
 
   -0.41962E+06         0.31763E+06         0.00000E+00
    0.31763E+06        -0.11058E+06         0.00000E+00
    0.00000E+00         0.00000E+00        -0.10604E+06
 
   -0.40427E+06         0.32405E+06         0.00000E+00
    0.32405E+06        -0.11716E+06         0.00000E+00
    0.00000E+00         0.00000E+00        -0.10429E+06
 
   -0.38888E+06         0.33005E+06         0.00000E+00
    0.33005E+06        -0.12376E+06         0.00000E+00
    0.00000E+00         0.00000E+00        -0.10253E+06
 
   -0.37347E+06         0.33566E+06         0.00000E+00
    0.33566E+06        -0.13037E+06         0.00000E+00
    0.00000E+00         0.00000E+00        -0.10077E+06
 
   -0.35807E+06         0.34088E+06         0.00000E+00
    0.34088E+06        -0.13699E+06         0.00000E+00
    0.00000E+00         0.00000E+00        -0.99010E+05
 
   -0.34268E+06         0.34572E+06         0.00000E+00
    0.34572E+06        -0.14359E+06         0.00000E+00
    0.00000E+00         0.00000E+00        -0.97255E+05
 
   -0.32735E+06         0.35020E+06         0.00000E+00
    0.35020E+06        -0.15018E+06         0.00000E+00
    0.00000E+00         0.00000E+00        -0.95506E+05
 
   -0.31207E+06         0.35435E+06         0.00000E+00
    0.35435E+06        -0.15675E+06         0.00000E+00
    0.00000E+00         0.00000E+00        -0.93764E+05
 
   -0.29688E+06         0.35816E+06         0.00000E+00
    0.35816E+06        -0.16328E+06         0.00000E+00
    0.00000E+00         0.00000E+00        -0.92032E+05
 
   -0.28178E+06         0.36166E+06         0.00000E+00
    0.36166E+06        -0.16977E+06         0.00000E+00
    0.00000E+00         0.00000E+00        -0.90311E+05
 
   -0.26679E+06         0.36487E+06         0.00000E+00
    0.36487E+06        -0.17622E+06         0.00000E+00
    0.00000E+00         0.00000E+00        -0.88603E+05
 
   -0.25192E+06         0.36779E+06         0.00000E+00
    0.36779E+06        -0.18262E+06         0.00000E+00
    0.00000E+00         0.00000E+00        -0.86909E+05
 
   -0.23719E+06         0.37046E+06         0.00000E+00
    0.37046E+06        -0.18897E+06         0.00000E+00
    0.00000E+00         0.00000E+00        -0.85231E+05
 
   -0.22260E+06         0.37288E+06         0.00000E+00
    0.37288E+06        -0.19526E+06         0.00000E+00
    0.00000E+00         0.00000E+00        -0.83571E+05
 
   -0.20815E+06         0.37508E+06         0.00000E+00
    0.37508E+06        -0.20148E+06         0.00000E+00
    0.00000E+00         0.00000E+00        -0.81928E+05
 
   -0.19386E+06         0.37707E+06         0.00000E+00
    0.37707E+06        -0.20765E+06         0.00000E+00
    0.00000E+00         0.00000E+00        -0.80303E+05
 
   -0.17973E+06         0.37887E+06         0.00000E+00
    0.37887E+06        -0.21376E+06         0.00000E+00
    0.00000E+00         0.00000E+00        -0.78698E+05
 
   -0.16576E+06         0.38050E+06         0.00000E+00
    0.38050E+06        -0.21980E+06         0.00000E+00
    0.00000E+00         0.00000E+00        -0.77114E+05
 
   -0.15196E+06         0.38198E+06         0.00000E+00
    0.38198E+06        -0.22579E+06         0.00000E+00
    0.00000E+00         0.00000E+00        -0.75549E+05
 
   -0.13831E+06         0.38332E+06         0.00000E+00
    0.38332E+06        -0.23172E+06         0.00000E+00
    0.00000E+00         0.00000E+00        -0.74005E+05
 
   -0.12482E+06         0.38455E+06         0.00000E+00
    0.38455E+06        -0.23759E+06         0.00000E+00
    0.00000E+00         0.00000E+00        -0.72481E+05
 
   -0.11148E+06         0.38568E+06         0.00000E+00
    0.38568E+06        -0.24341E+06         0.00000E+00
    0.00000E+00         0.00000E+00        -0.70978E+05
 
   -0.98289E+05         0.38673E+06         0.00000E+00
    0.38673E+06        -0.24918E+06         0.00000E+00
    0.00000E+00         0.00000E+00        -0.69495E+05
 
   -0.85233E+05         0.38772E+06         0.00000E+00
    0.38772E+06        -0.25492E+06         0.00000E+00
    0.00000E+00         0.00000E+00        -0.68031E+05
 
   -0.72303E+05         0.38867E+06         0.00000E+00
    0.38867E+06        -0.26063E+06         0.00000E+00
    0.00000E+00         0.00000E+00        -0.66586E+05
 
   -0.61273E+06         0.77531E+04         0.00000E+00
    0.77531E+04         0.12985E+03         0.00000E+00
    0.00000E+00         0.00000E+00        -0.12252E+06
 
   -0.61081E+06         0.22834E+05         0.00000E+00
    0.22834E+05        -0.32575E+03         0.00000E+00
    0.00000E+00         0.00000E+00        -0.12223E+06
 
   -0.60806E+06         0.37699E+05         0.00000E+00
    0.37699E+05        -0.12027E+04         0.00000E+00
    0.00000E+00         0.00000E+00        -0.12185E+06
 
   -0.60450E+06         0.52325E+05         0.00000E+00
    0.52325E+05        -0.24848E+04         0.00000E+00
    0.00000E+00         0.00000E+00        -0.12140E+06
 
   -0.60016E+06         0.66688E+05         0.00000E+00
    0.66688E+05        -0.41555E+04         0.00000E+00
    0.00000E+00         0.00000E+00        -0.12086E+06
 
   -0.59507E+06         0.80769E+05         0.00000E+00
    0.80769E+05        -0.61978E+04         0.00000E+00
    0.00000E+00         0.00000E+00        -0.12025E+06
 
   -0.58927E+06         0.94549E+05         0.00000E+00
    0.94549E+05        -0.85946E+04         0.00000E+00
    0.00000E+00         0.00000E+00        -0.11957E+06
 
   -0.58279E+06         0.10801E+06         0.00000E+00
    0.10801E+06        -0.11329E+05         0.00000E+00
    0.00000E+00         0.00000E+00        -0.11882E+06
 
   -0.57567E+06         0.12114E+06         0.00000E+00
    0.12114E+06        -0.14382E+05         0.00000E+00
    0.00000E+00         0.00000E+00        -0.11801E+06
 
   -0.56794E+06         0.13392E+06         0.00000E+00
    0.13392E+06        -0.17738E+05         0.00000E+00
    0.00000E+00         0.00000E+00        -0.11714E+06
 
   -0.55962E+06         0.14635E+06         0.00000E+00
    0.14635E+06        -0.21380E+05         0.00000E+00
    0.00000E+00         0.00000E+00        -0.11620E+06
 
   -0.55076E+06         0.15841E+06         0.00000E+00
    0.15841E+06        -0.25288E+05         0.00000E+00
    0.00000E+00         0.00000E+00        -0.11521E+06
 
   -0.54139E+06         0.17009E+06         0.00000E+00
    0.17009E+06        -0.29448E+05         0.00000E+00
    0.00000E+00         0.00000E+00        -0.11417E+06
 
   -0.53154E+06         0.18138E+06         0.00000E+00
    0.18138E+06        -0.33840E+05         0.00000E+00
    0.00000E+00         0.00000E+00        -0.11308E+06
 
   -0.52124E+06         0.19229E+06         0.00000E+00
    0.19229E+06        -0.38450E+05         0.00000E+00
    0.00000E+00         0.00000E+00        -0.11194E+06
 
   -0.51052E+06         0.20280E+06         0.00000E+00
    0.20280E+06        -0.43260E+05         0.00000E+00
    0.00000E+00         0.00000E+00        -0.11076E+06
 
   -0.49942E+06         0.21292E+06         0.00000E+00
    0.21292E+06        -0.48255E+05         0.00000E+00
    0.00000E+00         0.00000E+00        -0.10954E+06
 
   -0.48797E+06         0.22264E+06         0.00000E+00
    0.22264E+06        -0.53418E+05         0.00000E+00
    0.00000E+00         0.00000E+00        -0.10828E+06
 
   -0.47619E+06         0.23196E+06         0.00000E+00
    0.23196E+06        -0.58734E+05         0.00000E+00
    0.00000E+00         0.00000E+00        -0.10698E+06
 
   -0.46411E+06         0.24087E+06         0.00000E+00
    0.24087E+06        -0.64189E+05         0.00000E+00
    0.00000E+00         0.00000E+00        -0.10566E+06
 
   -0.45177E+06         0.24940E+06         0.00000E+00
    0.24940E+06        -0.69767E+05         0.00000E+00
    0.00000E+00         0.00000E+00        -0.10431E+06
 
   -0.43919E+06         0.25752E+06         0.00000E+00
    0.25752E+06        -0.75455E+05         0.00000E+00
    0.00000E+00         0.00000E+00        -0.10293E+06
 
   -0.42639E+06         0.26526E+06         0.00000E+00
    0.26526E+06        -0.81240E+05         0.00000E+00
    0.00000E+00         0.00000E+00        -0.10153E+06
 
   -0.41341E+06         0.27261E+06         0.00000E+00
    0.27261E+06        -0.87109E+05         0.00000E+00
    0.00000E+00         0.00000E+00        -0.10010E+06
 
   -0.40026E+06         0.27959E+06         0.00000E+00
    0.27959E+06        -0.93048E+05         0.00000E+00
    0.00000E+00         0.00000E+00        -0.98662E+05
 
   -0.38698E+06         0.28619E+06         0.00000E+00
    0.28619E+06        -0.99047E+05         0.00000E+00
    0.00000E+00         0.00000E+00        -0.97204E+05
 
   -0.37357E+06         0.29242E+06         0.00000E+00
    0.29242E+06        -0.10509E+06         0.00000E+00
    0.00000E+00         0.00000E+00        -0.95734E+05
 
   -0.36008E+06         0.29830E+06         0.00000E+00
    0.29830E+06        -0.11118E+06         0.00000E+00
    0.00000E+00         0.00000E+00        -0.94251E+05
 
   -0.34651E+06         0.30382E+06         0.00000E+00
    0.30382E+06        -0.11729E+06         0.00000E+00
    0.00000E+00         0.00000E+00        -0.92760E+05
 
   -0.33288E+06         0.30901E+06         0.00000E+00
    0.30901E+06        -0.12342E+06         0.00000E+00
    0.00000E+00         0.00000E+00        -0.91261E+05
 
   -0.31922E+06         0.31387E+06         0.00000E+00
    0.31387E+06        -0.12956E+06         0.00000E+00
    0.00000E+00         0.00000E+00        -0.89756E+05
 
   -0.30554E+06         0.31841E+06         0.00000E+00
    0.31841E+06        -0.13570E+06         0.00000E+00
    0.00000E+00         0.00000E+00        -0.88248E+05
 
   -0.29186E+06         0.32265E+06         0.00000E+00
    0.32265E+06        -0.14183E+06         0.00000E+00
    0.00000E+00         0.00000E+00        -0.86738E+05
 
   -0.27818E+06         0.32659E+06         0.00000E+00
    0.32659E+06        -0.14795E+06         0.00000E+00
    0.00000E+00         0.00000E+00        -0.85227E+05
 
   -0.26453E+06         0.33025E+06         0.00000E+00
    0.33025E+06        -0.15405E+06         0.00000E+00
    0.00000E+00         0.00000E+00        -0.83717E+05
 
   -0.25092E+06         0.33364E+06         0.00000E+00
    0.33364E+06        -0.16013E+06         0.00000E+00
    0.00000E+00         0.00000E+00        -0.82210E+05
 
   -0.23735E+06         0.33677E+06         0.00000E+00
    0.33677E+06        -0.16618E+06         0.00000E+00
    0.00000E+00         0.00000E+00        -0.80706E+05
 
   -0.22384E+06         0.33966E+06         0.00000E+00
    0.33966E+06        -0.17219E+06         0.00000E+00
    0.00000E+00         0.00000E+00        -0.79206E+05
 
   -0.21039E+06         0.34231E+06         0.00000E+00
    0.34231E+06        -0.17817E+06         0.00000E+00
    0.00000E+00         0.00000E+00        -0.77712E+05
 
   -0.19701E+06         0.34476E+06         0.00000E+00
    0.34476E+06        -0.18411E+06         0.00000E+00
    0.00000E+00         0.00000E+00        -0.76224E+05
 
   -0.18370E+06         0.34700E+06         0.00000E+00
    0.34700E+06        -0.19001E+06         0.00000E+00
    0.00000E+00         0.00000E+00        -0.74743E+05
 
   -0.17047E+06         0.34905E+06         0.00000E+00
    0.34905E+06        -0.19588E+06         0.00000E+00
    0.00000E+00         0.00000E+00        -0.73270E+05
 
   -0.15732E+06         0.35093E+06         0.00000E+00
    0.35093E+06        -0.20170E+06         0.00000E+00
    0.00000E+00         0.00000E+00        -0.71804E+05
 
   -0.14426E+06         0.35265E+06         0.00000E+00
    0.35265E+06        -0.20748E+06         0.00000E+00
    0.00000E+00         0.00000E+00        -0.70347E+05
 
   -0.13127E+06         0.35422E+06         0.00000E+00
    0.35422E+06        -0.21322E+06         0.00000E+00
    0.00000E+00         0.00000E+00        -0.68897E+05
 
   -0.11836E+06         0.35566E+06         0.00000E+00
    0.35566E+06        -0.21893E+06         0.00000E+00
    0.00000E+00         0.00000E+00        -0.67457E+05
 
   -0.10552E+06         0.35699E+06         0.00000E+00
    0.35699E+06        -0.22460E+06         0.00000E+00
    0.00000E+00         0.00000E+00        -0.66024E+05
 
   -0.92751E+05         0.35821E+06         0.00000E+00
    0.35821E+06        -0.23025E+06         0.00000E+00
    0.00000E+00         0.00000E+00        -0.64599E+05
 
   -0.80041E+05         0.35933E+06         0.00000E+00
    0.35933E+06        -0.23587E+06         0.00000E+00
    0.00000E+00         0.00000E+00        -0.63182E+05
 
   -0.67384E+05         0.36038E+06         0.00000E+00
    0.36038E+06        -0.24147E+06         0.00000E+00
    0.00000E+00         0.00000E+00        -0.61771E+05
 
   -0.54200E+06         0.66827E+04         0.00000E+00
    0.66827E+04         0.11191E+03         0.00000E+00
    0.00000E+00         0.00000E+00        -0.10838E+06
 
   -0.54093E+06         0.19775E+05         0.00000E+00
    0.19775E+05        -0.27513E+03         0.00000E+00
    0.00000E+00         0.00000E+00        -0.10824E+06
 
   -0.53913E+06         0.32720E+05         0.00000E+00
    0.32720E+05        -0.10244E+04         0.00000E+00
    0.00000E+00         0.00000E+00        -0.10803E+06
 
   -0.53664E+06         0.45496E+05         0.00000E+00
    0.45496E+05        -0.21240E+04         0.00000E+00
    0.00000E+00         0.00000E+00        -0.10775E+06
 
   -0.53347E+06         0.58083E+05         0.00000E+00
    0.58083E+05        -0.35612E+04         0.00000E+00
    0.00000E+00         0.00000E+00        -0.10741E+06
 
   -0.52964E+06         0.70463E+05         0.00000E+00
    0.70463E+05        -0.53234E+04         0.00000E+00
    0.00000E+00         0.00000E+00        -0.10699E+06
 
   -0.52519E+06         0.82617E+05         0.00000E+00
    0.82617E+05        -0.73972E+04         0.00000E+00
    0.00000E+00         0.00000E+00        -0.10652E+06
 
   -0.52014E+06         0.94531E+05         0.00000E+00
    0.94531E+05        -0.97691E+04         0.00000E+00
    0.00000E+00         0.00000E+00        -0.10598E+06
 
   -0.51452E+06         0.10619E+06         0.00000E+00
    0.10619E+06        -0.12426E+05         0.00000E+00
    0.00000E+00         0.00000E+00        -0.10539E+06
 
   -0.50834E+06         0.11758E+06         0.00000E+00
    0.11758E+06        -0.15353E+05         0.00000E+00
    0.00000E+00         0.00000E+00        -0.10474E+06
 
   -0.50165E+06         0.12869E+06         0.00000E+00
    0.12869E+06        -0.18537E+05         0.00000E+00
    0.00000E+00         0.00000E+00        -0.10404E+06
 
   -0.49445E+06         0.13951E+06         0.00000E+00
    0.13951E+06        -0.21963E+05         0.00000E+00
    0.00000E+00         0.00000E+00        -0.10328E+06
 
   -0.48678E+06         0.15003E+06         0.00000E+00
    0.15003E+06        -0.25619E+05         0.00000E+00
    0.00000E+00         0.00000E+00        -0.10248E+06
 
   -0.47867E+06         0.16024E+06         0.00000E+00
    0.16024E+06        -0.29490E+05         0.00000E+00
    0.00000E+00         0.00000E+00        -0.10163E+06
 
   -0.47014E+06         0.17014E+06         0.00000E+00
    0.17014E+06        -0.33562E+05         0.00000E+00
    0.00000E+00         0.00000E+00        -0.10074E+06
 
   -0.46121E+06         0.17972E+06         0.00000E+00
    0.17972E+06        -0.37821E+05         0.00000E+00
    0.00000E+00         0.00000E+00        -0.99806E+05
 
   -0.45191E+06         0.18897E+06         0.00000E+00
    0.18897E+06        -0.42255E+05         0.00000E+00
    0.00000E+00         0.00000E+00        -0.98834E+05
 
   -0.44227E+06         0.19790E+06         0.00000E+00
    0.19790E+06        -0.46850E+05         0.00000E+00
    0.00000E+00         0.00000E+00        -0.97825E+05
 
   -0.43231E+06         0.20650E+06         0.00000E+00
    0.20650E+06        -0.51594E+05         0.00000E+00
    0.00000E+00         0.00000E+00        -0.96781E+05
 
   -0.42205E+06         0.21476E+06         0.00000E+00
    0.21476E+06        -0.56472E+05         0.00000E+00
    0.00000E+00         0.00000E+00        -0.95705E+05
 
   -0.41152E+06         0.22270E+06         0.00000E+00
    0.22270E+06        -0.61475E+05         0.00000E+00
    0.00000E+00         0.00000E+00        -0.94600E+05
 
   -0.40074E+06         0.23030E+06         0.00000E+00
    0.23030E+06        -0.66588E+05         0.00000E+00
    0.00000E+00         0.00000E+00        -0.93466E+05
 
   -0.38973E+06         0.23758E+06         0.00000E+00
    0.23758E+06        -0.71801E+05         0.00000E+00
    0.00000E+00         0.00000E+00        -0.92307E+05
 
   -0.37851E+06         0.24453E+06         0.00000E+00
    0.24453E+06        -0.77103E+05         0.00000E+00
    0.00000E+00         0.00000E+00        -0.91124E+05
 
   -0.36711E+06         0.25115E+06         0.00000E+00
    0.25115E+06        -0.82483E+05         0.00000E+00
    0.00000E+00         0.00000E+00        -0.89919E+05
 
   -0.35554E+06         0.25746E+06         0.00000E+00
    0.25746E+06        -0.87930E+05         0.00000E+00
    0.00000E+00         0.00000E+00        -0.88694E+05
 
   -0.34382E+06         0.26345E+06         0.00000E+00
    0.26345E+06        -0.93436E+05         0.00000E+00
    0.00000E+00         0.00000E+00        -0.87451E+05
 
   -0.33197E+06         0.26913E+06         0.00000E+00
    0.26913E+06        -0.98989E+05         0.00000E+00
    0.00000E+00         0.00000E+00        -0.86191E+05
 
   -0.32000E+06         0.27451E+06         0.00000E+00
    0.27451E+06        -0.10458E+06         0.00000E+00
    0.00000E+00         0.00000E+00        -0.84917E+05
 
   -0.30794E+06         0.27959E+06         0.00000E+00
    0.27959E+06        -0.11021E+06         0.00000E+00
    0.00000E+00         0.00000E+00        -0.83630E+05
 
   -0.29580E+06         0.28439E+06         0.00000E+00
    0.28439E+06        -0.11586E+06         0.00000E+00
    0.00000E+00         0.00000E+00        -0.82331E+05
 
   -0.28359E+06         0.28890E+06         0.00000E+00
    0.28890E+06        -0.12152E+06         0.00000E+00
    0.00000E+00         0.00000E+00        -0.81023E+05
 
   -0.27133E+06         0.29314E+06         0.00000E+00
    0.29314E+06        -0.12719E+06         0.00000E+00
    0.00000E+00         0.00000E+00        -0.79705E+05
 
   -0.25903E+06         0.29712E+06         0.00000E+00
    0.29712E+06        -0.13287E+06         0.00000E+00
    0.00000E+00         0.00000E+00        -0.78380E+05
 
   -0.24669E+06         0.30084E+06         0.00000E+00
    0.30084E+06        -0.13855E+06         0.00000E+00
    0.00000E+00         0.00000E+00        -0.77048E+05
 
   -0.23434E+06         0.30431E+06         0.00000E+00
    0.30431E+06        -0.14422E+06         0.00000E+00
    0.00000E+00         0.00000E+00        -0.75711E+05
 
   -0.22197E+06         0.30755E+06         0.00000E+00
    0.30755E+06        -0.14988E+06         0.00000E+00
    0.00000E+00         0.00000E+00        -0.74369E+05
 
   -0.20960E+06         0.31056E+06         0.00000E+00
    0.31056E+06        -0.15552E+06         0.00000E+00
    0.00000E+00         0.00000E+00        -0.73024E+05
 
   -0.19723E+06         0.31336E+06         0.00000E+00
    0.31336E+06        -0.16115E+06         0.00000E+00
    0.00000E+00         0.00000E+00        -0.71676E+05
 
   -0.18488E+06         0.31595E+06         0.00000E+00
    0.31595E+06        -0.16675E+06         0.00000E+00
    0.00000E+00         0.00000E+00        -0.70326E+05
 
   -0.17254E+06         0.31834E+06         0.00000E+00
    0.31834E+06        -0.17234E+06         0.00000E+00
    0.00000E+00         0.00000E+00        -0.68975E+05
 
   -0.16021E+06         0.32055E+06         0.00000E+00
    0.32055E+06        -0.17790E+06         0.00000E+00
    0.00000E+00         0.00000E+00        -0.67622E+05
 
   -0.14790E+06         0.32259E+06         0.00000E+00
    0.32259E+06        -0.18344E+06         0.00000E+00
    0.00000E+00         0.00000E+00        -0.66268E+05
 
   -0.13562E+06         0.32445E+06         0.00000E+00
    0.32445E+06        -0.18896E+06         0.00000E+00
    0.00000E+00         0.00000E+00        -0.64914E+05
 
   -0.12335E+06         0.32617E+06         0.00000E+00
    0.32617E+06        -0.19445E+06         0.00000E+00
    0.00000E+00         0.00000E+00        -0.63560E+05
 
   -0.11110E+06         0.32774E+06         0.00000E+00
    0.32774E+06        -0.19993E+06         0.00000E+00
    0.00000E+00         0.00000E+00        -0.62205E+05
 
   -0.98864E+05         0.32918E+06         0.00000E+00
    0.32918E+06        -0.20538E+06         0.00000E+00
    0.00000E+00         0.00000E+00        -0.60850E+05
 
   -0.86642E+05         0.33049E+06         0.00000E+00
    0.33049E+06        -0.21083E+06         0.00000E+00
    0.00000E+00         0.00000E+00        -0.59494E+05
 
   -0.74425E+05         0.33169E+06         0.00000E+00
    0.33169E+06        -0.21626E+06         0.00000E+00
    0.00000E+00         0.00000E+00        -0.58137E+05
 
   -0.62208E+05         0.33278E+06         0.00000E+00
    0.33278E+06        -0.22168E+06         0.00000E+00
    0.00000E+00         0.00000E+00        -0.56779E+05
 
   -0.48063E+06         0.57784E+04         0.00000E+00
    0.57784E+04         0.95930E+02         0.00000E+00
    0.00000E+00         0.00000E+00        -0.96106E+05
 
   -0.48011E+06         0.17170E+05         0.00000E+00
    0.17170E+05        -0.23139E+03         0.00000E+00
    0.00000E+00         0.00000E+00        -0.96067E+05
 
   -0.47897E+06         0.28464E+05         0.00000E+00
    0.28464E+05        -0.86852E+03         0.00000E+00
    0.00000E+00         0.00000E+00        -0.95967E+05
 
   -0.47723E+06         0.39643E+05         0.00000E+00
    0.39643E+05        -0.18067E+04         0.00000E+00
    0.00000E+00         0.00000E+00        -0.95807E+05
 
   -0.47490E+06         0.50687E+05         0.00000E+00
    0.50687E+05        -0.30367E+04         0.00000E+00
    0.00000E+00         0.00000E+00        -0.95588E+05
 
   -0.47201E+06         0.61580E+05         0.00000E+00
    0.61580E+05        -0.45489E+04         0.00000E+00
    0.00000E+00         0.00000E+00        -0.95312E+05
 
   -0.46857E+06         0.72307E+05         0.00000E+00
    0.72307E+05        -0.63332E+04         0.00000E+00
    0.00000E+00         0.00000E+00        -0.94982E+05
 
   -0.46461E+06         0.82853E+05         0.00000E+00
    0.82853E+05        -0.83793E+04         0.00000E+00
    0.00000E+00         0.00000E+00        -0.94598E+05
 
   -0.46014E+06         0.93204E+05         0.00000E+00
    0.93204E+05        -0.10677E+05         0.00000E+00
    0.00000E+00         0.00000E+00        -0.94162E+05
 
   -0.45517E+06         0.10335E+06         0.00000E+00
    0.10335E+06        -0.13214E+05         0.00000E+00
    0.00000E+00         0.00000E+00        -0.93677E+05
 
   -0.44974E+06         0.11328E+06         0.00000E+00
    0.11328E+06        -0.15981E+05         0.00000E+00
    0.00000E+00         0.00000E+00        -0.93144E+05
 
   -0.44386E+06         0.12297E+06         0.00000E+00
    0.12297E+06        -0.18967E+05         0.00000E+00
    0.00000E+00         0.00000E+00        -0.92565E+05
 
   -0.43755E+06         0.13244E+06         0.00000E+00
    0.13244E+06        -0.22159E+05         0.00000E+00
    0.00000E+00         0.00000E+00        -0.91942E+05
 
   -0.43083E+06         0.14165E+06         0.00000E+00
    0.14165E+06        -0.25548E+05         0.00000E+00
    0.00000E+00         0.00000E+00        -0.91276E+05
 
   -0.42373E+06         0.15061E+06         0.00000E+00
    0.15061E+06        -0.29122E+05         0.00000E+00
    0.00000E+00         0.00000E+00        -0.90570E+05
 
   -0.41626E+06         0.15932E+06         0.00000E+00
    0.15932E+06        -0.32869E+05         0.00000E+00
    0.00000E+00         0.00000E+00        -0.89825E+05
 
   -0.40843E+06         0.16776E+06         0.00000E+00
    0.16776E+06        -0.36779E+05         0.00000E+00
    0.00000E+00         0.00000E+00        -0.89043E+05
 
   -0.40029E+06         0.17593E+06         0.00000E+00
    0.17593E+06        -0.40841E+05         0.00000E+00
    0.00000E+00         0.00000E+00        -0.88225E+05
 
   -0.39183E+06         0.18383E+06         0.00000E+00
    0.18383E+06        -0.45044E+05         0.00000E+00
    0.00000E+00         0.00000E+00        -0.87375E+05
 
   -0.38308E+06         0.19146E+06         0.00000E+00
    0.19146E+06        -0.49378E+05         0.00000E+00
    0.00000E+00         0.00000E+00        -0.86492E+05
 
   -0.37407E+06         0.19881E+06         0.00000E+00
    0.19881E+06        -0.53832E+05         0.00000E+00
    0.00000E+00         0.00000E+00        -0.85580E+05
 
   -0.36480E+06         0.20589E+06         0.00000E+00
    0.20589E+06        -0.58396E+05         0.00000E+00
    0.00000E+00         0.00000E+00        -0.84639E+05
 
   -0.35529E+06         0.21269E+06         0.00000E+00
    0.21269E+06        -0.63061E+05         0.00000E+00
    0.00000E+00         0.00000E+00        -0.83671E+05
 
   -0.34557E+06         0.21921E+06         0.00000E+00
    0.21921E+06        -0.67817E+05         0.00000E+00
    0.00000E+00         0.00000E+00        -0.82678E+05
 
   -0.33565E+06         0.22546E+06         0.00000E+00
    0.22546E+06        -0.72655E+05         0.00000E+00
    0.00000E+00         0.00000E+00        -0.81662E+05
 
   -0.32555E+06         0.23143E+06         0.00000E+00
    0.23143E+06        -0.77566E+05         0.00000E+00
    0.00000E+00         0.00000E+00        -0.80623E+05
 
   -0.31528E+06         0.23714E+06         0.00000E+00
    0.23714E+06        -0.82542E+05         0.00000E+00
    0.00000E+00         0.00000E+00        -0.79564E+05
 
   -0.30485E+06         0.24258E+06         0.00000E+00
    0.24258E+06        -0.87574E+05         0.00000E+00
    0.00000E+00         0.00000E+00        -0.78485E+05
 
   -0.29429E+06         0.24775E+06         0.00000E+00
    0.24775E+06        -0.92655E+05         0.00000E+00
    0.00000E+00         0.00000E+00        -0.77388E+05
 
   -0.28360E+06         0.25267E+06         0.00000E+00
    0.25267E+06        -0.97778E+05         0.00000E+00
    0.00000E+00         0.00000E+00        -0.76275E+05
 
   -0.27280E+06         0.25733E+06         0.00000E+00
    0.25733E+06        -0.10294E+06         0.00000E+00
    0.00000E+00         0.00000E+00        -0.75146E+05
 
   -0.26189E+06         0.26175E+06         0.00000E+00
    0.26175E+06        -0.10812E+06         0.00000E+00
    0.00000E+00         0.00000E+00        -0.74003E+05
 
   -0.25090E+06         0.26592E+06         0.00000E+00
    0.26592E+06        -0.11333E+06         0.00000E+00
    0.00000E+00         0.00000E+00        -0.72846E+05
 
   -0.23983E+06         0.26985E+06         0.00000E+00
    0.26985E+06        -0.11856E+06         0.00000E+00
    0.00000E+00         0.00000E+00        -0.71677E+05
 
   -0.22869E+06         0.27356E+06         0.00000E+00
    0.27356E+06        -0.12379E+06         0.00000E+00
    0.00000E+00         0.00000E+00        -0.70497E+05
 
   -0.21749E+06         0.27704E+06         0.00000E+00
    0.27704E+06        -0.12904E+06         0.00000E+00
    0.00000E+00         0.00000E+00        -0.69306E+05
 
   -0.20623E+06         0.28030E+06         0.00000E+00
    0.28030E+06        -0.13429E+06         0.00000E+00
    0.00000E+00         0.00000E+00        -0.68105E+05
 
   -0.19493E+06         0.28335E+06         0.00000E+00
    0.28335E+06        -0.13954E+06         0.00000E+00
    0.00000E+00         0.00000E+00        -0.66895E+05
 
   -0.18359E+06         0.28620E+06         0.00000E+00
    0.28620E+06        -0.14479E+06         0.00000E+00
    0.00000E+00         0.00000E+00        -0.65677E+05
 
   -0.17222E+06         0.28885E+06         0.00000E+00
    0.28885E+06        -0.15003E+06         0.00000E+00
    0.00000E+00         0.00000E+00        -0.64450E+05
 
   -0.16081E+06         0.29132E+06         0.00000E+00
    0.29132E+06        -0.15527E+06         0.00000E+00
    0.00000E+00         0.00000E+00        -0.63217E+05
 
   -0.14938E+06         0.29360E+06         0.00000E+00
    0.29360E+06        -0.16050E+06         0.00000E+00
    0.00000E+00         0.00000E+00        -0.61976E+05
 
   -0.13792E+06         0.29571E+06         0.00000E+00
    0.29571E+06        -0.16572E+06         0.00000E+00
    0.00000E+00         0.00000E+00        -0.60728E+05
 
   -0.12644E+06         0.29765E+06         0.00000E+00
    0.29765E+06        -0.17093E+06         0.00000E+00
    0.00000E+00         0.00000E+00        -0.59474E+05
 
   -0.11494E+06         0.29944E+06         0.00000E+00
    0.29944E+06        -0.17613E+06         0.00000E+00
    0.00000E+00         0.00000E+00        -0.58214E+05
 
   -0.10341E+06         0.30107E+06         0.00000E+00
    0.30107E+06        -0.18133E+06         0.00000E+00
    0.00000E+00         0.00000E+00        -0.56947E+05
 
   -0.91851E+05         0.30256E+06         0.00000E+00
    0.30256E+06        -0.18652E+06         0.00000E+00
    0.00000E+00         0.00000E+00        -0.55674E+05
 
   -0.80267E+05         0.30391E+06         0.00000E+00
    0.30391E+06        -0.19171E+06         0.00000E+00
    0.00000E+00         0.00000E+00        -0.54395E+05
 
   -0.68653E+05         0.30513E+06         0.00000E+00
    0.30513E+06        -0.19689E+06         0.00000E+00
    0.00000E+00         0.00000E+00        -0.53108E+05
 
   -0.57002E+05         0.30622E+06         0.00000E+00
    0.30622E+06        -0.20207E+06         0.00000E+00
    0.00000E+00         0.00000E+00        -0.51815E+05
 
   -0.42721E+06         0.50168E+04         0.00000E+00
    0.50168E+04         0.81954E+02         0.00000E+00
    0.00000E+00         0.00000E+00        -0.85426E+05
 
   -0.42704E+06         0.14960E+05         0.00000E+00
    0.14960E+05        -0.19417E+03         0.00000E+00
    0.00000E+00         0.00000E+00        -0.85447E+05
 
   -0.42634E+06         0.24842E+05         0.00000E+00
    0.24842E+05        -0.73441E+03         0.00000E+00
    0.00000E+00         0.00000E+00        -0.85414E+05
 
   -0.42512E+06         0.34646E+05         0.00000E+00
    0.34646E+05        -0.15325E+04         0.00000E+00
    0.00000E+00         0.00000E+00        -0.85330E+05
 
   -0.42340E+06         0.44357E+05         0.00000E+00
    0.44357E+05        -0.25818E+04         0.00000E+00
    0.00000E+00         0.00000E+00        -0.85196E+05
 
   -0.42119E+06         0.53959E+05         0.00000E+00
    0.53959E+05        -0.38751E+04         0.00000E+00
    0.00000E+00         0.00000E+00        -0.85013E+05
 
   -0.41851E+06         0.63439E+05         0.00000E+00
    0.63439E+05        -0.54049E+04         0.00000E+00
    0.00000E+00         0.00000E+00        -0.84782E+05
 
   -0.41536E+06         0.72784E+05         0.00000E+00
    0.72784E+05        -0.71635E+04         0.00000E+00
    0.00000E+00         0.00000E+00        -0.84504E+05
 
   -0.41176E+06         0.81982E+05         0.00000E+00
    0.81982E+05        -0.91427E+04         0.00000E+00
    0.00000E+00         0.00000E+00        -0.84181E+05
 
   -0.40774E+06         0.91020E+05         0.00000E+00
    0.91020E+05        -0.11334E+05         0.00000E+00
    0.00000E+00         0.00000E+00        -0.83815E+05
 
   -0.40330E+06         0.99890E+05         0.00000E+00
    0.99890E+05        -0.13729E+05         0.00000E+00
    0.00000E+00         0.00000E+00        -0.83405E+05
 
   -0.39845E+06         0.10858E+06         0.00000E+00
    0.10858E+06        -0.16320E+05         0.00000E+00
    0.00000E+00         0.00000E+00        -0.82954E+05
 
   -0.39322E+06         0.11708E+06         0.00000E+00
    0.11708E+06        -0.19096E+05         0.00000E+00
    0.00000E+00         0.00000E+00        -0.82463E+05
 
   -0.38762E+06         0.12539E+06         0.00000E+00
    0.12539E+06        -0.22050E+05         0.00000E+00
    0.00000E+00         0.00000E+00        -0.81934E+05
 
   -0.38166E+06         0.13350E+06         0.00000E+00
    0.13350E+06        -0.25172E+05         0.00000E+00
    0.00000E+00         0.00000E+00        -0.81367E+05
 
   -0.37537E+06         0.14139E+06         0.00000E+00
    0.14139E+06        -0.28453E+05         0.00000E+00
    0.00000E+00         0.00000E+00        -0.80765E+05
 
   -0.36875E+06         0.14907E+06         0.00000E+00
    0.14907E+06        -0.31886E+05         0.00000E+00
    0.00000E+00         0.00000E+00        -0.80128E+05
 
   -0.36183E+06         0.15654E+06         0.00000E+00
    0.15654E+06        -0.35459E+05         0.00000E+00
    0.00000E+00         0.00000E+00        -0.79458E+05
 
   -0.35461E+06         0.16378E+06         0.00000E+00
    0.16378E+06        -0.39166E+05         0.00000E+00
    0.00000E+00         0.00000E+00        -0.78756E+05
 
   -0.34712E+06         0.17079E+06         0.00000E+00
    0.17079E+06        -0.42997E+05         0.00000E+00
    0.00000E+00         0.00000E+00        -0.78024E+05
 
   -0.33937E+06         0.17757E+06         0.00000E+00
    0.17757E+06        -0.46943E+05         0.00000E+00
    0.00000E+00         0.00000E+00        -0.77262E+05
 
   -0.33137E+06         0.18412E+06         0.00000E+00
    0.18412E+06        -0.50997E+05         0.00000E+00
    0.00000E+00         0.00000E+00        -0.76473E+05
 
   -0.32313E+06         0.19044E+06         0.00000E+00
    0.19044E+06        -0.55150E+05         0.00000E+00
    0.00000E+00         0.00000E+00        -0.75657E+05
 
   -0.31468E+06         0.19653E+06         0.00000E+00
    0.19653E+06        -0.59394E+05         0.00000E+00
    0.00000E+00         0.00000E+00        -0.74815E+05
 
   -0.30603E+06         0.20238E+06         0.00000E+00
    0.20238E+06        -0.63722E+05         0.00000E+00
    0.00000E+00         0.00000E+00        -0.73949E+05
 
   -0.29718E+06         0.20801E+06         0.00000E+00
    0.20801E+06        -0.68126E+05         0.00000E+00
    0.00000E+00         0.00000E+00        -0.73061E+05
 
   -0.28815E+06         0.21339E+06         0.00000E+00
    0.21339E+06        -0.72598E+05         0.00000E+00
    0.00000E+00         0.00000E+00        -0.72150E+05
 
   -0.27896E+06         0.21855E+06         0.00000E+00
    0.21855E+06        -0.77133E+05         0.00000E+00
    0.00000E+00         0.00000E+00        -0.71219E+05
 
   -0.26961E+06         0.22348E+06         0.00000E+00
    0.22348E+06        -0.81722E+05         0.00000E+00
    0.00000E+00         0.00000E+00        -0.70267E+05
 
   -0.26013E+06         0.22819E+06         0.00000E+00
    0.22819E+06        -0.86361E+05         0.00000E+00
    0.00000E+00         0.00000E+00        -0.69297E+05
 
   -0.25050E+06         0.23267E+06         0.00000E+00
    0.23267E+06        -0.91043E+05         0.00000E+00
    0.00000E+00         0.00000E+00        -0.68309E+05
 
   -0.24076E+06         0.23693E+06         0.00000E+00
    0.23693E+06        -0.95763E+05         0.00000E+00
    0.00000E+00         0.00000E+00        -0.67305E+05
 
   -0.23090E+06         0.24097E+06         0.00000E+00
    0.24097E+06        -0.10051E+06         0.00000E+00
    0.00000E+00         0.00000E+00        -0.66284E+05
 
   -0.22094E+06         0.24481E+06         0.00000E+00
    0.24481E+06        -0.10529E+06         0.00000E+00
    0.00000E+00         0.00000E+00        -0.65247E+05
 
   -0.21089E+06         0.24843E+06         0.00000E+00
    0.24843E+06        -0.11010E+06         0.00000E+00
    0.00000E+00         0.00000E+00        -0.64197E+05
 
   -0.20074E+06         0.25185E+06         0.00000E+00
    0.25185E+06        -0.11492E+06         0.00000E+00
    0.00000E+00         0.00000E+00        -0.63132E+05
 
   -0.19051E+06         0.25507E+06         0.00000E+00
    0.25507E+06        -0.11976E+06         0.00000E+00
    0.00000E+00         0.00000E+00        -0.62054E+05
 
   -0.18021E+06         0.25809E+06         0.00000E+00
    0.25809E+06        -0.12461E+06         0.00000E+00
    0.00000E+00         0.00000E+00        -0.60964E+05
 
   -0.16984E+06         0.26093E+06         0.00000E+00
    0.26093E+06        -0.12947E+06         0.00000E+00
    0.00000E+00         0.00000E+00        -0.59861E+05
 
   -0.15940E+06         0.26358E+06         0.00000E+00
    0.26358E+06        -0.13433E+06         0.00000E+00
    0.00000E+00         0.00000E+00        -0.58747E+05
 
   -0.14890E+06         0.26605E+06         0.00000E+00
    0.26605E+06        -0.13921E+06         0.00000E+00
    0.00000E+00         0.00000E+00        -0.57621E+05
 
   -0.13834E+06         0.26834E+06         0.00000E+00
    0.26834E+06        -0.14408E+06         0.00000E+00
    0.00000E+00         0.00000E+00        -0.56485E+05
 
   -0.12773E+06         0.27046E+06         0.00000E+00
    0.27046E+06        -0.14896E+06         0.00000E+00
    0.00000E+00         0.00000E+00        -0.55338E+05
 
   -0.11706E+06         0.27242E+06         0.00000E+00
    0.27242E+06        -0.15384E+06         0.00000E+00
    0.00000E+00         0.00000E+00        -0.54180E+05
 
   -0.10634E+06         0.27422E+06         0.00000E+00
    0.27422E+06        -0.15872E+06         0.00000E+00
    0.00000E+00         0.00000E+00        -0.53012E+05
 
   -0.95566E+05         0.27586E+06         0.00000E+00
    0.27586E+06        -0.16361E+06         0.00000E+00
    0.00000E+00         0.00000E+00        -0.51834E+05
 
   -0.84739E+05         0.27735E+06         0.00000E+00
    0.27735E+06        -0.16849E+06         0.00000E+00
    0.00000E+00         0.00000E+00        -0.50646E+05
 
   -0.73857E+05         0.27870E+06         0.00000E+00
    0.27870E+06        -0.17338E+06         0.00000E+00
    0.00000E+00         0.00000E+00        -0.49448E+05
 
   -0.62919E+05         0.27990E+06         0.00000E+00
    0.27990E+06        -0.17828E+06         0.00000E+00
    0.00000E+00         0.00000E+00        -0.48239E+05
 
   -0.51922E+05         0.28096E+06         0.00000E+00
    0.28096E+06        -0.18318E+06         0.00000E+00
    0.00000E+00         0.00000E+00        -0.47020E+05
 
   -0.38056E+06         0.43764E+04         0.00000E+00
    0.43764E+04         0.69902E+02         0.00000E+00
    0.00000E+00         0.00000E+00        -0.76097E+05
 
   -0.38058E+06         0.13089E+05         0.00000E+00
    0.13089E+05        -0.16288E+03         0.00000E+00
    0.00000E+00         0.00000E+00        -0.76149E+05
 
   -0.38016E+06         0.21765E+05         0.00000E+00
    0.21765E+05        -0.62048E+03         0.00000E+00
    0.00000E+00         0.00000E+00        -0.76156E+05
 
   -0.37930E+06         0.30391E+05         0.00000E+00
    0.30391E+05        -0.12986E+04         0.00000E+00
    0.00000E+00         0.00000E+00        -0.76119E+05
 
   -0.37800E+06         0.38953E+05         0.00000E+00
    0.38953E+05        -0.21924E+04         0.00000E+00
    0.00000E+00         0.00000E+00        -0.76039E+05
 
   -0.37629E+06         0.47437E+05         0.00000E+00
    0.47437E+05        -0.32967E+04         0.00000E+00
    0.00000E+00         0.00000E+00        -0.75917E+05
 
   -0.37416E+06         0.55833E+05         0.00000E+00
    0.55833E+05        -0.46061E+04         0.00000E+00
    0.00000E+00         0.00000E+00        -0.75753E+05
 
   -0.37163E+06         0.64128E+05         0.00000E+00
    0.64128E+05        -0.61146E+04         0.00000E+00
    0.00000E+00         0.00000E+00        -0.75548E+05
 
   -0.36870E+06         0.72311E+05         0.00000E+00
    0.72311E+05        -0.78162E+04         0.00000E+00
    0.00000E+00         0.00000E+00        -0.75304E+05
 
   -0.36540E+06         0.80372E+05         0.00000E+00
    0.80372E+05        -0.97046E+04         0.00000E+00
    0.00000E+00         0.00000E+00        -0.75021E+05
 
   -0.36173E+06         0.88303E+05         0.00000E+00
    0.88303E+05        -0.11773E+05         0.00000E+00
    0.00000E+00         0.00000E+00        -0.74701E+05
 
   -0.35770E+06         0.96093E+05         0.00000E+00
    0.96093E+05        -0.14015E+05         0.00000E+00
    0.00000E+00         0.00000E+00        -0.74343E+05
 
   -0.35333E+06         0.10373E+06         0.00000E+00
    0.10373E+06        -0.16423E+05         0.00000E+00
    0.00000E+00         0.00000E+00        -0.73950E+05
 
   -0.34862E+06         0.11122E+06         0.00000E+00
    0.11122E+06        -0.18991E+05         0.00000E+00
    0.00000E+00         0.00000E+00        -0.73522E+05
 
   -0.34359E+06         0.11854E+06         0.00000E+00
    0.11854E+06        -0.21711E+05         0.00000E+00
    0.00000E+00         0.00000E+00        -0.73060E+05
 
   -0.33825E+06         0.12570E+06         0.00000E+00
    0.12570E+06        -0.24577E+05         0.00000E+00
    0.00000E+00         0.00000E+00        -0.72566E+05
 
   -0.33262E+06         0.13268E+06         0.00000E+00
    0.13268E+06        -0.27581E+05         0.00000E+00
    0.00000E+00         0.00000E+00        -0.72039E+05
 
   -0.32670E+06         0.13948E+06         0.00000E+00
    0.13948E+06        -0.30715E+05         0.00000E+00
    0.00000E+00         0.00000E+00        -0.71482E+05
 
   -0.32050E+06         0.14610E+06         0.00000E+00
    0.14610E+06        -0.33974E+05         0.00000E+00
    0.00000E+00         0.00000E+00        -0.70895E+05
 
   -0.31405E+06         0.15253E+06         0.00000E+00
    0.15253E+06        -0.37349E+05         0.00000E+00
    0.00000E+00         0.00000E+00        -0.70280E+05
 
   -0.30735E+06         0.15876E+06         0.00000E+00
    0.15876E+06        -0.40834E+05         0.00000E+00
    0.00000E+00         0.00000E+00        -0.69637E+05
 
   -0.30041E+06         0.16481E+06         0.00000E+00
    0.16481E+06        -0.44422E+05         0.00000E+00
    0.00000E+00         0.00000E+00        -0.68967E+05
 
   -0.29325E+06         0.17066E+06         0.00000E+00
    0.17066E+06        -0.48106E+05         0.00000E+00
    0.00000E+00         0.00000E+00        -0.68271E+05
 
   -0.28588E+06         0.17631E+06         0.00000E+00
    0.17631E+06        -0.51879E+05         0.00000E+00
    0.00000E+00         0.00000E+00        -0.67551E+05
 
   -0.27830E+06         0.18176E+06         0.00000E+00
    0.18176E+06        -0.55736E+05         0.00000E+00
    0.00000E+00         0.00000E+00        -0.66807E+05
 
   -0.27053E+06         0.18702E+06         0.00000E+00
    0.18702E+06        -0.59669E+05         0.00000E+00
    0.00000E+00         0.00000E+00        -0.66039E+05
 
   -0.26258E+06         0.19207E+06         0.00000E+00
    0.19207E+06        -0.63673E+05         0.00000E+00
    0.00000E+00         0.00000E+00        -0.65250E+05
 
   -0.25445E+06         0.19693E+06         0.00000E+00
    0.19693E+06        -0.67742E+05         0.00000E+00
    0.00000E+00         0.00000E+00        -0.64439E+05
 
   -0.24617E+06         0.20158E+06         0.00000E+00
    0.20158E+06        -0.71870E+05         0.00000E+00
    0.00000E+00         0.00000E+00        -0.63608E+05
 
   -0.23773E+06         0.20604E+06         0.00000E+00
    0.20604E+06        -0.76052E+05         0.00000E+00
    0.00000E+00         0.00000E+00        -0.62757E+05
 
   -0.22915E+06         0.21030E+06         0.00000E+00
    0.21030E+06        -0.80283E+05         0.00000E+00
    0.00000E+00         0.00000E+00        -0.61887E+05
 
   -0.22044E+06         0.21437E+06         0.00000E+00
    0.21437E+06        -0.84558E+05         0.00000E+00
    0.00000E+00         0.00000E+00        -0.60999E+05
 
   -0.21160E+06         0.21825E+06         0.00000E+00
    0.21825E+06        -0.88872E+05         0.00000E+00
    0.00000E+00         0.00000E+00        -0.60094E+05
 
   -0.20264E+06         0.22193E+06         0.00000E+00
    0.22193E+06        -0.93221E+05         0.00000E+00
    0.00000E+00         0.00000E+00        -0.59172E+05
 
   -0.19356E+06         0.22543E+06         0.00000E+00
    0.22543E+06        -0.97601E+05         0.00000E+00
    0.00000E+00         0.00000E+00        -0.58233E+05
 
   -0.18438E+06         0.22873E+06         0.00000E+00
    0.22873E+06        -0.10201E+06         0.00000E+00
    0.00000E+00         0.00000E+00        -0.57279E+05
 
   -0.17510E+06         0.23186E+06         0.00000E+00
    0.23186E+06        -0.10644E+06         0.00000E+00
    0.00000E+00         0.00000E+00        -0.56309E+05
 
   -0.16573E+06         0.23481E+06         0.00000E+00
    0.23481E+06        -0.11089E+06         0.00000E+00
    0.00000E+00         0.00000E+00        -0.55325E+05
 
   -0.15626E+06         0.23757E+06         0.00000E+00
    0.23757E+06        -0.11537E+06         0.00000E+00
    0.00000E+00         0.00000E+00        -0.54326E+05
 
   -0.14672E+06         0.24017E+06         0.00000E+00
    0.24017E+06        -0.11985E+06         0.00000E+00
    0.00000E+00         0.00000E+00        -0.53314E+05
 
   -0.13708E+06         0.24259E+06         0.00000E+00
    0.24259E+06        -0.12436E+06         0.00000E+00
    0.00000E+00         0.00000E+00        -0.52288E+05
 
   -0.12737E+06         0.24485E+06         0.00000E+00
    0.24485E+06        -0.12887E+06         0.00000E+00
    0.00000E+00         0.00000E+00        -0.51249E+05
 
   -0.11759E+06         0.24694E+06         0.00000E+00
    0.24694E+06        -0.13340E+06         0.00000E+00
    0.00000E+00         0.00000E+00        -0.50197E+05
 
   -0.10773E+06         0.24886E+06         0.00000E+00
    0.24886E+06        -0.13793E+06         0.00000E+00
    0.00000E+00         0.00000E+00        -0.49132E+05
 
   -0.97797E+05         0.25063E+06         0.00000E+00
    0.25063E+06        -0.14248E+06         0.00000E+00
    0.00000E+00         0.00000E+00        -0.48055E+05
 
   -0.87794E+05         0.25225E+06         0.00000E+00
    0.25225E+06        -0.14703E+06         0.00000E+00
    0.00000E+00         0.00000E+00        -0.46965E+05
 
   -0.77720E+05         0.25371E+06         0.00000E+00
    0.25371E+06        -0.15159E+06         0.00000E+00
    0.00000E+00         0.00000E+00        -0.45863E+05
 
   -0.67576E+05         0.25502E+06         0.00000E+00
    0.25502E+06        -0.15617E+06         0.00000E+00
    0.00000E+00         0.00000E+00        -0.44748E+05
 
   -0.57360E+05         0.25618E+06         0.00000E+00
    0.25618E+06        -0.16075E+06         0.00000E+00
    0.00000E+00         0.00000E+00        -0.43621E+05
 
   -0.47072E+05         0.25719E+06         0.00000E+00
    0.25719E+06        -0.16534E+06         0.00000E+00
    0.00000E+00         0.00000E+00        -0.42482E+05
 
   -0.33962E+06         0.38377E+04         0.00000E+00
    0.38377E+04         0.59617E+02         0.00000E+00
    0.00000E+00         0.00000E+00        -0.67913E+05
 
   -0.33975E+06         0.11505E+05         0.00000E+00
    0.11505E+05        -0.13680E+03         0.00000E+00
    0.00000E+00         0.00000E+00        -0.67978E+05
 
   -0.33950E+06         0.19153E+05         0.00000E+00
    0.19153E+05        -0.52460E+03         0.00000E+00
    0.00000E+00         0.00000E+00        -0.68005E+05
 
   -0.33887E+06         0.26770E+05         0.00000E+00
    0.26770E+05        -0.11009E+04         0.00000E+00
    0.00000E+00         0.00000E+00        -0.67995E+05
 
   -0.33788E+06         0.34343E+05         0.00000E+00
    0.34343E+05        -0.18623E+04         0.00000E+00
    0.00000E+00         0.00000E+00        -0.67948E+05
 
   -0.33651E+06         0.41862E+05         0.00000E+00
    0.41862E+05        -0.28051E+04         0.00000E+00
    0.00000E+00         0.00000E+00        -0.67864E+05
 
   -0.33480E+06         0.49315E+05         0.00000E+00
    0.49315E+05        -0.39255E+04         0.00000E+00
    0.00000E+00         0.00000E+00        -0.67744E+05
 
   -0.33273E+06         0.56695E+05         0.00000E+00
    0.56695E+05        -0.52190E+04         0.00000E+00
    0.00000E+00         0.00000E+00        -0.67589E+05
 
   -0.33032E+06         0.63989E+05         0.00000E+00
    0.63989E+05        -0.66811E+04         0.00000E+00
    0.00000E+00         0.00000E+00        -0.67399E+05
 
   -0.32757E+06         0.71190E+05         0.00000E+00
    0.71190E+05        -0.83071E+04         0.00000E+00
    0.00000E+00         0.00000E+00        -0.67176E+05
 
   -0.32450E+06         0.78289E+05         0.00000E+00
    0.78289E+05        -0.10092E+05         0.00000E+00
    0.00000E+00         0.00000E+00        -0.66919E+05
 
   -0.32112E+06         0.85278E+05         0.00000E+00
    0.85278E+05        -0.12030E+05         0.00000E+00
    0.00000E+00         0.00000E+00        -0.66629E+05
 
   -0.31742E+06         0.92149E+05         0.00000E+00
    0.92149E+05        -0.14117E+05         0.00000E+00
    0.00000E+00         0.00000E+00        -0.66308E+05
 
   -0.31343E+06         0.98896E+05         0.00000E+00
    0.98896E+05        -0.16347E+05         0.00000E+00
    0.00000E+00         0.00000E+00        -0.65955E+05
 
   -0.30915E+06         0.10551E+06         0.00000E+00
    0.10551E+06        -0.18713E+05         0.00000E+00
    0.00000E+00         0.00000E+00        -0.65572E+05
 
   -0.30458E+06         0.11199E+06         0.00000E+00
    0.11199E+06        -0.21212E+05         0.00000E+00
    0.00000E+00         0.00000E+00        -0.65159E+05
 
   -0.29975E+06         0.11833E+06         0.00000E+00
    0.11833E+06        -0.23836E+05         0.00000E+00
    0.00000E+00         0.00000E+00        -0.64718E+05
 
   -0.29466E+06         0.12452E+06         0.00000E+00
    0.12452E+06        -0.26581E+05         0.00000E+00
    0.00000E+00         0.00000E+00        -0.64248E+05
 
   -0.28931E+06         0.13055E+06         0.00000E+00
    0.13055E+06        -0.29440E+05         0.00000E+00
    0.00000E+00         0.00000E+00        -0.63751E+05
 
   -0.28373E+06         0.13643E+06         0.00000E+00
    0.13643E+06        -0.32408E+05         0.00000E+00
    0.00000E+00         0.00000E+00        -0.63227E+05
 
   -0.27791E+06         0.14215E+06         0.00000E+00
    0.14215E+06        -0.35479E+05         0.00000E+00
    0.00000E+00         0.00000E+00        -0.62677E+05
 
   -0.27186E+06         0.14771E+06         0.00000E+00
    0.14771E+06        -0.38647E+05         0.00000E+00
    0.00000E+00         0.00000E+00        -0.62102E+05
 
   -0.26561E+06         0.15311E+06         0.00000E+00
    0.15311E+06        -0.41907E+05         0.00000E+00
    0.00000E+00         0.00000E+00        -0.61503E+05
 
   -0.25915E+06         0.15833E+06         0.00000E+00
    0.15833E+06        -0.45253E+05         0.00000E+00
    0.00000E+00         0.00000E+00        -0.60880E+05
 
   -0.25249E+06         0.16339E+06         0.00000E+00
    0.16339E+06        -0.48681E+05         0.00000E+00
    0.00000E+00         0.00000E+00        -0.60234E+05
 
   -0.24565E+06         0.16827E+06         0.00000E+00
    0.16827E+06        -0.52184E+05         0.00000E+00
    0.00000E+00         0.00000E+00        -0.59566E+05
 
   -0.23862E+06         0.17299E+06         0.00000E+00
    0.17299E+06        -0.55758E+05         0.00000E+00
    0.00000E+00         0.00000E+00        -0.58876E+05
 
   -0.23143E+06         0.17753E+06         0.00000E+00
    0.17753E+06        -0.59398E+05         0.00000E+00
    0.00000E+00         0.00000E+00        -0.58165E+05
 
   -0.22407E+06         0.18190E+06         0.00000E+00
    0.18190E+06        -0.63099E+05         0.00000E+00
    0.00000E+00         0.00000E+00        -0.57434E+05
 
   -0.21656E+06         0.18609E+06         0.00000E+00
    0.18609E+06        -0.66857E+05         0.00000E+00
    0.00000E+00         0.00000E+00        -0.56683E+05
 
   -0.20890E+06         0.19011E+06         0.00000E+00
    0.19011E+06        -0.70666E+05         0.00000E+00
    0.00000E+00         0.00000E+00        -0.55914E+05
 
   -0.20110E+06         0.19396E+06         0.00000E+00
    0.19396E+06        -0.74523E+05         0.00000E+00
    0.00000E+00         0.00000E+00        -0.55125E+05
 
   -0.19317E+06         0.19763E+06         0.00000E+00
    0.19763E+06        -0.78424E+05         0.00000E+00
    0.00000E+00         0.00000E+00        -0.54319E+05
 
   -0.18511E+06         0.20114E+06         0.00000E+00
    0.20114E+06        -0.82365E+05         0.00000E+00
    0.00000E+00         0.00000E+00        -0.53495E+05
 
   -0.17693E+06         0.20447E+06         0.00000E+00
    0.20447E+06        -0.86343E+05         0.00000E+00
    0.00000E+00         0.00000E+00        -0.52654E+05
 
   -0.16863E+06         0.20763E+06         0.00000E+00
    0.20763E+06        -0.90354E+05         0.00000E+00
    0.00000E+00         0.00000E+00        -0.51797E+05
 
   -0.16022E+06         0.21063E+06         0.00000E+00
    0.21063E+06        -0.94395E+05         0.00000E+00
    0.00000E+00         0.00000E+00        -0.50924E+05
 
   -0.15171E+06         0.21346E+06         0.00000E+00
    0.21346E+06        -0.98464E+05         0.00000E+00
    0.00000E+00         0.00000E+00        -0.50035E+05
 
   -0.14310E+06         0.21612E+06         0.00000E+00
    0.21612E+06        -0.10256E+06         0.00000E+00
    0.00000E+00         0.00000E+00        -0.49130E+05
 
   -0.13438E+06         0.21862E+06         0.00000E+00
    0.21862E+06        -0.10667E+06         0.00000E+00
    0.00000E+00         0.00000E+00        -0.48211E+05
 
   -0.12558E+06         0.22096E+06         0.00000E+00
    0.22096E+06        -0.11081E+06         0.00000E+00
    0.00000E+00         0.00000E+00        -0.47277E+05
 
   -0.11668E+06         0.22314E+06         0.00000E+00
    0.22314E+06        -0.11496E+06         0.00000E+00
    0.00000E+00         0.00000E+00        -0.46329E+05
 
   -0.10770E+06         0.22516E+06         0.00000E+00
    0.22516E+06        -0.11914E+06         0.00000E+00
    0.00000E+00         0.00000E+00        -0.45367E+05
 
   -0.98630E+05         0.22703E+06         0.00000E+00
    0.22703E+06        -0.12332E+06         0.00000E+00
    0.00000E+00         0.00000E+00        -0.44391E+05
 
   -0.89479E+05         0.22874E+06         0.00000E+00
    0.22874E+06        -0.12753E+06         0.00000E+00
    0.00000E+00         0.00000E+00        -0.43401E+05
 
   -0.80245E+05         0.23029E+06         0.00000E+00
    0.23029E+06        -0.13174E+06         0.00000E+00
    0.00000E+00         0.00000E+00        -0.42397E+05
 
   -0.70931E+05         0.23170E+06         0.00000E+00
    0.23170E+06        -0.13597E+06         0.00000E+00
    0.00000E+00         0.00000E+00        -0.41380E+05
 
   -0.61538E+05         0.23295E+06         0.00000E+00
    0.23295E+06        -0.14021E+06         0.00000E+00
    0.00000E+00         0.00000E+00        -0.40350E+05
 
   -0.52065E+05         0.23405E+06         0.00000E+00
    0.23405E+06        -0.14447E+06         0.00000E+00
    0.00000E+00         0.00000E+00        -0.39306E+05
 
   -0.42513E+05         0.23501E+06         0.00000E+00
    0.23501E+06        -0.14873E+06         0.00000E+00
    0.00000E+00         0.00000E+00        -0.38249E+05
 
   -0.30355E+06         0.33837E+04         0.00000E+00
    0.33837E+04         0.50905E+02         0.00000E+00
    0.00000E+00         0.00000E+00        -0.60699E+05
 
   -0.30372E+06         0.10163E+05         0.00000E+00
    0.10163E+05        -0.11519E+03         0.00000E+00
    0.00000E+00         0.00000E+00        -0.60766E+05
 
   -0.30356E+06         0.16933E+05         0.00000E+00
    0.16933E+05        -0.44443E+03         0.00000E+00
    0.00000E+00         0.00000E+00        -0.60801E+05
 
   -0.30309E+06         0.23685E+05         0.00000E+00
    0.23685E+05        -0.93491E+03         0.00000E+00
    0.00000E+00         0.00000E+00        -0.60804E+05
 
   -0.30229E+06         0.30408E+05         0.00000E+00
    0.30408E+05        -0.15844E+04         0.00000E+00
    0.00000E+00         0.00000E+00        -0.60775E+05
 
   -0.30118E+06         0.37092E+05         0.00000E+00
    0.37092E+05        -0.23903E+04         0.00000E+00
    0.00000E+00         0.00000E+00        -0.60715E+05
 
   -0.29977E+06         0.43730E+05         0.00000E+00
    0.43730E+05        -0.33498E+04         0.00000E+00
    0.00000E+00         0.00000E+00        -0.60623E+05
 
   -0.29805E+06         0.50311E+05         0.00000E+00
    0.50311E+05        -0.44598E+04         0.00000E+00
    0.00000E+00         0.00000E+00        -0.60501E+05
 
   -0.29603E+06         0.56829E+05         0.00000E+00
    0.56829E+05        -0.57169E+04         0.00000E+00
    0.00000E+00         0.00000E+00        -0.60349E+05
 
   -0.29371E+06         0.63274E+05         0.00000E+00
    0.63274E+05        -0.71175E+04         0.00000E+00
    0.00000E+00         0.00000E+00        -0.60166E+05
 
   -0.29112E+06         0.69639E+05         0.00000E+00
    0.69639E+05        -0.86580E+04         0.00000E+00
    0.00000E+00         0.00000E+00        -0.59955E+05
 
   -0.28824E+06         0.75917E+05         0.00000E+00
    0.75917E+05        -0.10334E+05         0.00000E+00
    0.00000E+00         0.00000E+00        -0.59715E+05
 
   -0.28509E+06         0.82101E+05         0.00000E+00
    0.82101E+05        -0.12142E+05         0.00000E+00
    0.00000E+00         0.00000E+00        -0.59446E+05
 
   -0.28167E+06         0.88185E+05         0.00000E+00
    0.88185E+05        -0.14078E+05         0.00000E+00
    0.00000E+00         0.00000E+00        -0.59150E+05
 
   -0.27800E+06         0.94162E+05         0.00000E+00
    0.94162E+05        -0.16136E+05         0.00000E+00
    0.00000E+00         0.00000E+00        -0.58826E+05
 
   -0.27407E+06         0.10003E+06         0.00000E+00
    0.10003E+06        -0.18314E+05         0.00000E+00
    0.00000E+00         0.00000E+00        -0.58476E+05
 
   -0.26989E+06         0.10578E+06         0.00000E+00
    0.10578E+06        -0.20605E+05         0.00000E+00
    0.00000E+00         0.00000E+00        -0.58100E+05
 
   -0.26548E+06         0.11140E+06         0.00000E+00
    0.11140E+06        -0.23007E+05         0.00000E+00
    0.00000E+00         0.00000E+00        -0.57698E+05
 
   -0.26084E+06         0.11691E+06         0.00000E+00
    0.11691E+06        -0.25513E+05         0.00000E+00
    0.00000E+00         0.00000E+00        -0.57271E+05
 
   -0.25598E+06         0.12228E+06         0.00000E+00
    0.12228E+06        -0.28120E+05         0.00000E+00
    0.00000E+00         0.00000E+00        -0.56820E+05
 
   -0.25090E+06         0.12751E+06         0.00000E+00
    0.12751E+06        -0.30823E+05         0.00000E+00
    0.00000E+00         0.00000E+00        -0.56344E+05
 
   -0.24561E+06         0.13261E+06         0.00000E+00
    0.13261E+06        -0.33617E+05         0.00000E+00
    0.00000E+00         0.00000E+00        -0.55846E+05
 
   -0.24012E+06         0.13757E+06         0.00000E+00
    0.13757E+06        -0.36498E+05         0.00000E+00
    0.00000E+00         0.00000E+00        -0.55324E+05
 
   -0.23444E+06         0.14239E+06         0.00000E+00
    0.14239E+06        -0.39461E+05         0.00000E+00
    0.00000E+00         0.00000E+00        -0.54781E+05
 
   -0.22858E+06         0.14706E+06         0.00000E+00
    0.14706E+06        -0.42501E+05         0.00000E+00
    0.00000E+00         0.00000E+00        -0.54215E+05
 
   -0.22253E+06         0.15158E+06         0.00000E+00
    0.15158E+06        -0.45616E+05         0.00000E+00
    0.00000E+00         0.00000E+00        -0.53629E+05
 
   -0.21631E+06         0.15595E+06         0.00000E+00
    0.15595E+06        -0.48799E+05         0.00000E+00
    0.00000E+00         0.00000E+00        -0.53022E+05
 
   -0.20993E+06         0.16018E+06         0.00000E+00
    0.16018E+06        -0.52048E+05         0.00000E+00
    0.00000E+00         0.00000E+00        -0.52395E+05
 
   -0.20338E+06         0.16425E+06         0.00000E+00
    0.16425E+06        -0.55358E+05         0.00000E+00
    0.00000E+00         0.00000E+00        -0.51748E+05
 
   -0.19669E+06         0.16817E+06         0.00000E+00
    0.16817E+06        -0.58725E+05         0.00000E+00
    0.00000E+00         0.00000E+00        -0.51082E+05
 
   -0.18985E+06         0.17193E+06         0.00000E+00
    0.17193E+06        -0.62145E+05         0.00000E+00
    0.00000E+00         0.00000E+00        -0.50398E+05
 
   -0.18286E+06         0.17555E+06         0.00000E+00
    0.17555E+06        -0.65615E+05         0.00000E+00
    0.00000E+00         0.00000E+00        -0.49695E+05
 
   -0.17574E+06         0.17900E+06         0.00000E+00
    0.17900E+06        -0.69131E+05         0.00000E+00
    0.00000E+00         0.00000E+00        -0.48975E+05
 
   -0.16850E+06         0.18231E+06         0.00000E+00
    0.18231E+06        -0.72690E+05         0.00000E+00
    0.00000E+00         0.00000E+00        -0.48237E+05
 
   -0.16112E+06         0.18546E+06         0.00000E+00
    0.18546E+06        -0.76288E+05         0.00000E+00
    0.00000E+00         0.00000E+00        -0.47483E+05
 
   -0.15363E+06         0.18845E+06         0.00000E+00
    0.18845E+06        -0.79924E+05         0.00000E+00
    0.00000E+00         0.00000E+00        -0.46712E+05
 
   -0.14603E+06         0.19129E+06         0.00000E+00
    0.19129E+06        -0.83594E+05         0.00000E+00
    0.00000E+00         0.00000E+00        -0.45924E+05
 
   -0.13831E+06         0.19398E+06         0.00000E+00
    0.19398E+06        -0.87294E+05         0.00000E+00
    0.00000E+00         0.00000E+00        -0.45121E+05
 
   -0.13049E+06         0.19651E+06         0.00000E+00
    0.19651E+06        -0.91024E+05         0.00000E+00
    0.00000E+00         0.00000E+00        -0.44302E+05
 
   -0.12256E+06         0.19890E+06         0.00000E+00
    0.19890E+06        -0.94781E+05         0.00000E+00
    0.00000E+00         0.00000E+00        -0.43469E+05
 
   -0.11454E+06         0.20113E+06         0.00000E+00
    0.20113E+06        -0.98562E+05         0.00000E+00
    0.00000E+00         0.00000E+00        -0.42620E+05
 
   -0.10642E+06         0.20321E+06         0.00000E+00
    0.20321E+06        -0.10237E+06         0.00000E+00
    0.00000E+00         0.00000E+00        -0.41756E+05
 
   -0.98203E+05         0.20513E+06         0.00000E+00
    0.20513E+06        -0.10619E+06         0.00000E+00
    0.00000E+00         0.00000E+00        -0.40879E+05
 
   -0.89898E+05         0.20691E+06         0.00000E+00
    0.20691E+06        -0.11003E+06         0.00000E+00
    0.00000E+00         0.00000E+00        -0.39986E+05
 
   -0.81505E+05         0.20854E+06         0.00000E+00
    0.20854E+06        -0.11390E+06         0.00000E+00
    0.00000E+00         0.00000E+00        -0.39080E+05
 
   -0.73026E+05         0.21002E+06         0.00000E+00
    0.21002E+06        -0.11778E+06         0.00000E+00
    0.00000E+00         0.00000E+00        -0.38160E+05
 
   -0.64463E+05         0.21136E+06         0.00000E+00
    0.21136E+06        -0.12167E+06         0.00000E+00
    0.00000E+00         0.00000E+00        -0.37227E+05
 
   -0.55816E+05         0.21254E+06         0.00000E+00
    0.21254E+06        -0.12558E+06         0.00000E+00
    0.00000E+00         0.00000E+00        -0.36279E+05
 
   -0.47088E+05         0.21358E+06         0.00000E+00
    0.21358E+06        -0.12950E+06         0.00000E+00
    0.00000E+00         0.00000E+00        -0.35318E+05
 
   -0.38278E+05         0.21446E+06         0.00000E+00
    0.21446E+06        -0.13344E+06         0.00000E+00
    0.00000E+00         0.00000E+00        -0.34344E+05
 
   -0.27159E+06         0.30000E+04         0.00000E+00
    0.30000E+04         0.43560E+02         0.00000E+00
    0.00000E+00         0.00000E+00        -0.54310E+05
 
   -0.27176E+06         0.90222E+04         0.00000E+00
    0.90222E+04        -0.97362E+02         0.00000E+00
    0.00000E+00         0.00000E+00        -0.54372E+05
 
   -0.27166E+06         0.15042E+05         0.00000E+00
    0.15042E+05        -0.37767E+03         0.00000E+00
    0.00000E+00         0.00000E+00        -0.54407E+05
 
   -0.27128E+06         0.21052E+05         0.00000E+00
    0.21052E+05        -0.79620E+03         0.00000E+00
    0.00000E+00         0.00000E+00        -0.54415E+05
 
   -0.27062E+06         0.27043E+05         0.00000E+00
    0.27043E+05        -0.13515E+04         0.00000E+00
    0.00000E+00         0.00000E+00        -0.54395E+05
 
   -0.26970E+06         0.33007E+05         0.00000E+00
    0.33007E+05        -0.20417E+04         0.00000E+00
    0.00000E+00         0.00000E+00        -0.54348E+05
 
   -0.26850E+06         0.38936E+05         0.00000E+00
    0.38936E+05        -0.28650E+04         0.00000E+00
    0.00000E+00         0.00000E+00        -0.54274E+05
 
   -0.26705E+06         0.44824E+05         0.00000E+00
    0.44824E+05        -0.38191E+04         0.00000E+00
    0.00000E+00         0.00000E+00        -0.54173E+05
 
   -0.26533E+06         0.50661E+05         0.00000E+00
    0.50661E+05        -0.49016E+04         0.00000E+00
    0.00000E+00         0.00000E+00        -0.54046E+05
 
   -0.26336E+06         0.56443E+05         0.00000E+00
    0.56443E+05        -0.61098E+04         0.00000E+00
    0.00000E+00         0.00000E+00        -0.53893E+05
 
   -0.26113E+06         0.62161E+05         0.00000E+00
    0.62161E+05        -0.74409E+04         0.00000E+00
    0.00000E+00         0.00000E+00        -0.53714E+05
 
   -0.25866E+06         0.67809E+05         0.00000E+00
    0.67809E+05        -0.88919E+04         0.00000E+00
    0.00000E+00         0.00000E+00        -0.53510E+05
 
   -0.25595E+06         0.73382E+05         0.00000E+00
    0.73382E+05        -0.10460E+05         0.00000E+00
    0.00000E+00         0.00000E+00        -0.53281E+05
 
   -0.25300E+06         0.78874E+05         0.00000E+00
    0.78874E+05        -0.12141E+05         0.00000E+00
    0.00000E+00         0.00000E+00        -0.53027E+05
 
   -0.24981E+06         0.84279E+05         0.00000E+00
    0.84279E+05        -0.13933E+05         0.00000E+00
    0.00000E+00         0.00000E+00        -0.52749E+05
 
   -0.24641E+06         0.89592E+05         0.00000E+00
    0.89592E+05        -0.15831E+05         0.00000E+00
    0.00000E+00         0.00000E+00        -0.52447E+05
 
   -0.24278E+06         0.94808E+05         0.00000E+00
    0.94808E+05        -0.17832E+05         0.00000E+00
    0.00000E+00         0.00000E+00        -0.52122E+05
 
   -0.23893E+06         0.99923E+05         0.00000E+00
    0.99923E+05        -0.19933E+05         0.00000E+00
    0.00000E+00         0.00000E+00        -0.51773E+05
 
   -0.23488E+06         0.10493E+06         0.00000E+00
    0.10493E+06        -0.22130E+05         0.00000E+00
    0.00000E+00         0.00000E+00        -0.51402E+05
 
   -0.23063E+06         0.10983E+06         0.00000E+00
    0.10983E+06        -0.24419E+05         0.00000E+00
    0.00000E+00         0.00000E+00        -0.51009E+05
 
   -0.22617E+06         0.11462E+06         0.00000E+00
    0.11462E+06        -0.26797E+05         0.00000E+00
    0.00000E+00         0.00000E+00        -0.50594E+05
 
   -0.22153E+06         0.11929E+06         0.00000E+00
    0.11929E+06        -0.29259E+05         0.00000E+00
    0.00000E+00         0.00000E+00        -0.50157E+05
 
   -0.21670E+06         0.12383E+06         0.00000E+00
    0.12383E+06        -0.31803E+05         0.00000E+00
    0.00000E+00         0.00000E+00        -0.49700E+05
 
   -0.21168E+06         0.12826E+06         0.00000E+00
    0.12826E+06        -0.34424E+05         0.00000E+00
    0.00000E+00         0.00000E+00        -0.49222E+05
 
   -0.20650E+06         0.13256E+06         0.00000E+00
    0.13256E+06        -0.37118E+05         0.00000E+00
    0.00000E+00         0.00000E+00        -0.48723E+05
 
   -0.20114E+06         0.13674E+06         0.00000E+00
    0.13674E+06        -0.39883E+05         0.00000E+00
    0.00000E+00         0.00000E+00        -0.48205E+05
 
   -0.19563E+06         0.14078E+06         0.00000E+00
    0.14078E+06        -0.42715E+05         0.00000E+00
    0.00000E+00         0.00000E+00        -0.47668E+05
 
   -0.18995E+06         0.14469E+06         0.00000E+00
    0.14469E+06        -0.45609E+05         0.00000E+00
    0.00000E+00         0.00000E+00        -0.47112E+05
 
   -0.18412E+06         0.14847E+06         0.00000E+00
    0.14847E+06        -0.48563E+05         0.00000E+00
    0.00000E+00         0.00000E+00        -0.46537E+05
 
   -0.17815E+06         0.15211E+06         0.00000E+00
    0.15211E+06        -0.51574E+05         0.00000E+00
    0.00000E+00         0.00000E+00        -0.45944E+05
 
   -0.17203E+06         0.15562E+06         0.00000E+00
    0.15562E+06        -0.54638E+05         0.00000E+00
    0.00000E+00         0.00000E+00        -0.45333E+05
 
   -0.16578E+06         0.15899E+06         0.00000E+00
    0.15899E+06        -0.57751E+05         0.00000E+00
    0.00000E+00         0.00000E+00        -0.44705E+05
 
   -0.15939E+06         0.16222E+06         0.00000E+00
    0.16222E+06        -0.60912E+05         0.00000E+00
    0.00000E+00         0.00000E+00        -0.44060E+05
 
   -0.15288E+06         0.16531E+06         0.00000E+00
    0.16531E+06        -0.64116E+05         0.00000E+00
    0.00000E+00         0.00000E+00        -0.43398E+05
 
   -0.14624E+06         0.16827E+06         0.00000E+00
    0.16827E+06        -0.67362E+05         0.00000E+00
    0.00000E+00         0.00000E+00        -0.42720E+05
 
   -0.13948E+06         0.17108E+06         0.00000E+00
    0.17108E+06        -0.70647E+05         0.00000E+00
    0.00000E+00         0.00000E+00        -0.42026E+05
 
   -0.13261E+06         0.17375E+06         0.00000E+00
    0.17375E+06        -0.73967E+05         0.00000E+00
    0.00000E+00         0.00000E+00        -0.41316E+05
 
   -0.12563E+06         0.17628E+06         0.00000E+00
    0.17628E+06        -0.77321E+05         0.00000E+00
    0.00000E+00         0.00000E+00        -0.40591E+05
 
   -0.11855E+06         0.17867E+06         0.00000E+00
    0.17867E+06        -0.80706E+05         0.00000E+00
    0.00000E+00         0.00000E+00        -0.39850E+05
 
   -0.11135E+06         0.18092E+06         0.00000E+00
    0.18092E+06        -0.84120E+05         0.00000E+00
    0.00000E+00         0.00000E+00        -0.39095E+05
 
   -0.10406E+06         0.18302E+06         0.00000E+00
    0.18302E+06        -0.87561E+05         0.00000E+00
    0.00000E+00         0.00000E+00        -0.38325E+05
 
   -0.96674E+05         0.18499E+06         0.00000E+00
    0.18499E+06        -0.91027E+05         0.00000E+00
    0.00000E+00         0.00000E+00        -0.37540E+05
 
   -0.89192E+05         0.18681E+06         0.00000E+00
    0.18681E+06        -0.94517E+05         0.00000E+00
    0.00000E+00         0.00000E+00        -0.36742E+05
 
   -0.81617E+05         0.18849E+06         0.00000E+00
    0.18849E+06        -0.98028E+05         0.00000E+00
    0.00000E+00         0.00000E+00        -0.35929E+05
 
   -0.73954E+05         0.19002E+06         0.00000E+00
    0.19002E+06        -0.10156E+06         0.00000E+00
    0.00000E+00         0.00000E+00        -0.35103E+05
 
   -0.66204E+05         0.19142E+06         0.00000E+00
    0.19142E+06        -0.10511E+06         0.00000E+00
    0.00000E+00         0.00000E+00        -0.34263E+05
 
   -0.58370E+05         0.19267E+06         0.00000E+00
    0.19267E+06        -0.10868E+06         0.00000E+00
    0.00000E+00         0.00000E+00        -0.33409E+05
 
   -0.50453E+05         0.19377E+06         0.00000E+00
    0.19377E+06        -0.11226E+06         0.00000E+00
    0.00000E+00         0.00000E+00        -0.32543E+05
 
   -0.42455E+05         0.19474E+06         0.00000E+00
    0.19474E+06        -0.11586E+06         0.00000E+00
    0.00000E+00         0.00000E+00        -0.31663E+05
 
   -0.34378E+05         0.19556E+06         0.00000E+00
    0.19556E+06        -0.11947E+06         0.00000E+00
    0.00000E+00         0.00000E+00        -0.30770E+05
 
   -0.24315E+06         0.26744E+04         0.00000E+00
    0.26744E+04         0.37381E+02         0.00000E+00
    0.00000E+00         0.00000E+00        -0.48623E+05
 
   -0.24330E+06         0.80499E+04         0.00000E+00
    0.80499E+04        -0.82665E+02         0.00000E+00
    0.00000E+00         0.00000E+00        -0.48677E+05
 
   -0.24322E+06         0.13427E+05         0.00000E+00
    0.13427E+05        -0.32217E+03         0.00000E+00
    0.00000E+00         0.00000E+00        -0.48707E+05
 
   -0.24289E+06         0.18799E+05         0.00000E+00
    0.18799E+05        -0.68045E+03         0.00000E+00
    0.00000E+00         0.00000E+00        -0.48714E+05
 
   -0.24233E+06         0.24159E+05         0.00000E+00
    0.24159E+05        -0.11566E+04         0.00000E+00
    0.00000E+00         0.00000E+00        -0.48698E+05
 
   -0.24154E+06         0.29500E+05         0.00000E+00
    0.29500E+05        -0.17495E+04         0.00000E+00
    0.00000E+00         0.00000E+00        -0.48658E+05
 
   -0.24051E+06         0.34814E+05         0.00000E+00
    0.34814E+05        -0.24577E+04         0.00000E+00
    0.00000E+00         0.00000E+00        -0.48594E+05
 
   -0.23926E+06         0.40097E+05         0.00000E+00
    0.40097E+05        -0.32798E+04         0.00000E+00
    0.00000E+00         0.00000E+00        -0.48508E+05
 
   -0.23778E+06         0.45340E+05         0.00000E+00
    0.45340E+05        -0.42138E+04         0.00000E+00
    0.00000E+00         0.00000E+00        -0.48398E+05
 
   -0.23607E+06         0.50539E+05         0.00000E+00
    0.50539E+05        -0.52580E+04         0.00000E+00
    0.00000E+00         0.00000E+00        -0.48266E+05
 
   -0.23414E+06         0.55688E+05         0.00000E+00
    0.55688E+05        -0.64102E+04         0.00000E+00
    0.00000E+00         0.00000E+00        -0.48111E+05
 
   -0.23200E+06         0.60780E+05         0.00000E+00
    0.60780E+05        -0.76682E+04         0.00000E+00
    0.00000E+00         0.00000E+00        -0.47934E+05
 
   -0.22964E+06         0.65810E+05         0.00000E+00
    0.65810E+05        -0.90297E+04         0.00000E+00
    0.00000E+00         0.00000E+00        -0.47734E+05
 
   -0.22707E+06         0.70774E+05         0.00000E+00
    0.70774E+05        -0.10492E+05         0.00000E+00
    0.00000E+00         0.00000E+00        -0.47513E+05
 
   -0.22430E+06         0.75666E+05         0.00000E+00
    0.75666E+05        -0.12053E+05         0.00000E+00
    0.00000E+00         0.00000E+00        -0.47271E+05
 
   -0.22132E+06         0.80481E+05         0.00000E+00
    0.80481E+05        -0.13709E+05         0.00000E+00
    0.00000E+00         0.00000E+00        -0.47007E+05
 
   -0.21815E+06         0.85216E+05         0.00000E+00
    0.85216E+05        -0.15458E+05         0.00000E+00
    0.00000E+00         0.00000E+00        -0.46722E+05
 
   -0.21478E+06         0.89865E+05         0.00000E+00
    0.89865E+05        -0.17297E+05         0.00000E+00
    0.00000E+00         0.00000E+00        -0.46416E+05
 
   -0.21123E+06         0.94425E+05         0.00000E+00
    0.94425E+05        -0.19224E+05         0.00000E+00
    0.00000E+00         0.00000E+00        -0.46090E+05
 
   -0.20749E+06         0.98892E+05         0.00000E+00
    0.98892E+05        -0.21234E+05         0.00000E+00
    0.00000E+00         0.00000E+00        -0.45744E+05
 
   -0.20357E+06         0.10326E+06         0.00000E+00
    0.10326E+06        -0.23325E+05         0.00000E+00
    0.00000E+00         0.00000E+00        -0.45378E+05
 
   -0.19947E+06         0.10753E+06         0.00000E+00
    0.10753E+06        -0.25495E+05         0.00000E+00
    0.00000E+00         0.00000E+00        -0.44993E+05
 
   -0.19520E+06         0.11170E+06         0.00000E+00
    0.11170E+06        -0.27740E+05         0.00000E+00
    0.00000E+00         0.00000E+00        -0.44588E+05
 
   -0.19077E+06         0.11576E+06         0.00000E+00
    0.11576E+06        -0.30057E+05         0.00000E+00
    0.00000E+00         0.00000E+00        -0.44165E+05
 
   -0.18617E+06         0.11971E+06         0.00000E+00
    0.11971E+06        -0.32443E+05         0.00000E+00
    0.00000E+00         0.00000E+00        -0.43723E+05
 
   -0.18142E+06         0.12355E+06         0.00000E+00
    0.12355E+06        -0.34895E+05         0.00000E+00
    0.00000E+00         0.00000E+00        -0.43263E+05
 
   -0.17652E+06         0.12728E+06         0.00000E+00
    0.12728E+06        -0.37411E+05         0.00000E+00
    0.00000E+00         0.00000E+00        -0.42785E+05
 
   -0.17146E+06         0.13089E+06         0.00000E+00
    0.13089E+06        -0.39986E+05         0.00000E+00
    0.00000E+00         0.00000E+00        -0.42290E+05
 
   -0.16627E+06         0.13438E+06         0.00000E+00
    0.13438E+06        -0.42619E+05         0.00000E+00
    0.00000E+00         0.00000E+00        -0.41777E+05
 
   -0.16093E+06         0.13776E+06         0.00000E+00
    0.13776E+06        -0.45307E+05         0.00000E+00
    0.00000E+00         0.00000E+00        -0.41248E+05
 
   -0.15546E+06         0.14101E+06         0.00000E+00
    0.14101E+06        -0.48046E+05         0.00000E+00
    0.00000E+00         0.00000E+00        -0.40702E+05
 
   -0.14986E+06         0.14414E+06         0.00000E+00
    0.14414E+06        -0.50834E+05         0.00000E+00
    0.00000E+00         0.00000E+00        -0.40139E+05
 
   -0.14413E+06         0.14714E+06         0.00000E+00
    0.14714E+06        -0.53668E+05         0.00000E+00
    0.00000E+00         0.00000E+00        -0.39560E+05
 
   -0.13828E+06         0.15002E+06         0.00000E+00
    0.15002E+06        -0.56547E+05         0.00000E+00
    0.00000E+00         0.00000E+00        -0.38966E+05
 
   -0.13232E+06         0.15277E+06         0.00000E+00
    0.15277E+06        -0.59466E+05         0.00000E+00
    0.00000E+00         0.00000E+00        -0.38356E+05
 
   -0.12623E+06         0.15540E+06         0.00000E+00
    0.15540E+06        -0.62425E+05         0.00000E+00
    0.00000E+00         0.00000E+00        -0.37731E+05
 
   -0.12004E+06         0.15789E+06         0.00000E+00
    0.15789E+06        -0.65420E+05         0.00000E+00
    0.00000E+00         0.00000E+00        -0.37091E+05
 
   -0.11373E+06         0.16026E+06         0.00000E+00
    0.16026E+06        -0.68449E+05         0.00000E+00
    0.00000E+00         0.00000E+00        -0.36437E+05
 
   -0.10733E+06         0.16249E+06         0.00000E+00
    0.16249E+06        -0.71510E+05         0.00000E+00
    0.00000E+00         0.00000E+00        -0.35768E+05
 
   -0.10082E+06         0.16460E+06         0.00000E+00
    0.16460E+06        -0.74601E+05         0.00000E+00
    0.00000E+00         0.00000E+00        -0.35084E+05
 
   -0.94214E+05         0.16657E+06         0.00000E+00
    0.16657E+06        -0.77721E+05         0.00000E+00
    0.00000E+00         0.00000E+00        -0.34387E+05
 
   -0.87513E+05         0.16841E+06         0.00000E+00
    0.16841E+06        -0.80866E+05         0.00000E+00
    0.00000E+00         0.00000E+00        -0.33676E+05
 
   -0.80721E+05         0.17011E+06         0.00000E+00
    0.17011E+06        -0.84036E+05         0.00000E+00
    0.00000E+00         0.00000E+00        -0.32951E+05
 
   -0.73838E+05         0.17168E+06         0.00000E+00
    0.17168E+06        -0.87229E+05         0.00000E+00
    0.00000E+00         0.00000E+00        -0.32213E+05
 
   -0.66870E+05         0.17312E+06         0.00000E+00
    0.17312E+06        -0.90442E+05         0.00000E+00
    0.00000E+00         0.00000E+00        -0.31462E+05
 
   -0.59817E+05         0.17442E+06         0.00000E+00
    0.17442E+06        -0.93675E+05         0.00000E+00
    0.00000E+00         0.00000E+00        -0.30698E+05
 
   -0.52682E+05         0.17559E+06         0.00000E+00
    0.17559E+06        -0.96926E+05         0.00000E+00
    0.00000E+00         0.00000E+00        -0.29922E+05
 
   -0.45467E+05         0.17662E+06         0.00000E+00
    0.17662E+06        -0.10019E+06         0.00000E+00
    0.00000E+00         0.00000E+00        -0.29132E+05
 
   -0.38175E+05         0.17751E+06         0.00000E+00
    0.17751E+06        -0.10348E+06         0.00000E+00
    0.00000E+00         0.00000E+00        -0.28330E+05
 
   -0.30808E+05         0.17826E+06         0.00000E+00
    0.17826E+06        -0.10677E+06         0.00000E+00
    0.00000E+00         0.00000E+00        -0.27516E+05
 
   -0.21771E+06         0.23969E+04         0.00000E+00
    0.23969E+04         0.32181E+02         0.00000E+00
    0.00000E+00         0.00000E+00        -0.43535E+05
 
   -0.21783E+06         0.72179E+04         0.00000E+00
    0.72179E+04        -0.70536E+02         0.00000E+00
    0.00000E+00         0.00000E+00        -0.43580E+05
 
   -0.21774E+06         0.12043E+05         0.00000E+00
    0.12043E+05        -0.27598E+03         0.00000E+00
    0.00000E+00         0.00000E+00        -0.43604E+05
 
   -0.21746E+06         0.16865E+05         0.00000E+00
    0.16865E+05        -0.58382E+03         0.00000E+00
    0.00000E+00         0.00000E+00        -0.43608E+05
 
   -0.21696E+06         0.21679E+05         0.00000E+00
    0.21679E+05        -0.99351E+03         0.00000E+00
    0.00000E+00         0.00000E+00        -0.43591E+05
 
   -0.21627E+06         0.26480E+05         0.00000E+00
    0.26480E+05        -0.15043E+04         0.00000E+00
    0.00000E+00         0.00000E+00        -0.43554E+05
 
   -0.21537E+06         0.31260E+05         0.00000E+00
    0.31260E+05        -0.21154E+04         0.00000E+00
    0.00000E+00         0.00000E+00        -0.43497E+05
 
   -0.21427E+06         0.36015E+05         0.00000E+00
    0.36015E+05        -0.28255E+04         0.00000E+00
    0.00000E+00         0.00000E+00        -0.43420E+05
 
   -0.21298E+06         0.40739E+05         0.00000E+00
    0.40739E+05        -0.36336E+04         0.00000E+00
    0.00000E+00         0.00000E+00        -0.43323E+05
 
   -0.21149E+06         0.45427E+05         0.00000E+00
    0.45427E+05        -0.45381E+04         0.00000E+00
    0.00000E+00         0.00000E+00        -0.43205E+05
 
   -0.20980E+06         0.50074E+05         0.00000E+00
    0.50074E+05        -0.55376E+04         0.00000E+00
    0.00000E+00         0.00000E+00        -0.43068E+05
 
   -0.20793E+06         0.54674E+05         0.00000E+00
    0.54674E+05        -0.66303E+04         0.00000E+00
    0.00000E+00         0.00000E+00        -0.42912E+05
 
   -0.20586E+06         0.59224E+05         0.00000E+00
    0.59224E+05        -0.78146E+04         0.00000E+00
    0.00000E+00         0.00000E+00        -0.42736E+05
 
   -0.20361E+06         0.63718E+05         0.00000E+00
    0.63718E+05        -0.90884E+04         0.00000E+00
    0.00000E+00         0.00000E+00        -0.42540E+05
 
   -0.20118E+06         0.68152E+05         0.00000E+00
    0.68152E+05        -0.10450E+05         0.00000E+00
    0.00000E+00         0.00000E+00        -0.42326E+05
 
   -0.19857E+06         0.72521E+05         0.00000E+00
    0.72521E+05        -0.11897E+05         0.00000E+00
    0.00000E+00         0.00000E+00        -0.42093E+05
 
   -0.19578E+06         0.76822E+05         0.00000E+00
    0.76822E+05        -0.13427E+05         0.00000E+00
    0.00000E+00         0.00000E+00        -0.41840E+05
 
   -0.19281E+06         0.81050E+05         0.00000E+00
    0.81050E+05        -0.15038E+05         0.00000E+00
    0.00000E+00         0.00000E+00        -0.41570E+05
 
   -0.18968E+06         0.85203E+05         0.00000E+00
    0.85203E+05        -0.16728E+05         0.00000E+00
    0.00000E+00         0.00000E+00        -0.41281E+05
 
   -0.18638E+06         0.89275E+05         0.00000E+00
    0.89275E+05        -0.18494E+05         0.00000E+00
    0.00000E+00         0.00000E+00        -0.40974E+05
 
   -0.18291E+06         0.93264E+05         0.00000E+00
    0.93264E+05        -0.20334E+05         0.00000E+00
    0.00000E+00         0.00000E+00        -0.40649E+05
 
   -0.17929E+06         0.97167E+05         0.00000E+00
    0.97167E+05        -0.22246E+05         0.00000E+00
    0.00000E+00         0.00000E+00        -0.40307E+05
 
   -0.17551E+06         0.10098E+06         0.00000E+00
    0.10098E+06        -0.24227E+05         0.00000E+00
    0.00000E+00         0.00000E+00        -0.39948E+05
 
   -0.17158E+06         0.10470E+06         0.00000E+00
    0.10470E+06        -0.26275E+05         0.00000E+00
    0.00000E+00         0.00000E+00        -0.39571E+05
 
   -0.16750E+06         0.10833E+06         0.00000E+00
    0.10833E+06        -0.28386E+05         0.00000E+00
    0.00000E+00         0.00000E+00        -0.39178E+05
 
   -0.16328E+06         0.11185E+06         0.00000E+00
    0.11185E+06        -0.30560E+05         0.00000E+00
    0.00000E+00         0.00000E+00        -0.38767E+05
 
   -0.15891E+06         0.11528E+06         0.00000E+00
    0.11528E+06        -0.32792E+05         0.00000E+00
    0.00000E+00         0.00000E+00        -0.38341E+05
 
   -0.15441E+06         0.11861E+06         0.00000E+00
    0.11861E+06        -0.35082E+05         0.00000E+00
    0.00000E+00         0.00000E+00        -0.37898E+05
 
   -0.14978E+06         0.12183E+06         0.00000E+00
    0.12183E+06        -0.37425E+05         0.00000E+00
    0.00000E+00         0.00000E+00        -0.37440E+05
 
   -0.14501E+06         0.12494E+06         0.00000E+00
    0.12494E+06        -0.39820E+05         0.00000E+00
    0.00000E+00         0.00000E+00        -0.36966E+05
 
   -0.14012E+06         0.12794E+06         0.00000E+00
    0.12794E+06        -0.42265E+05         0.00000E+00
    0.00000E+00         0.00000E+00        -0.36477E+05
 
   -0.13510E+06         0.13084E+06         0.00000E+00
    0.13084E+06        -0.44757E+05         0.00000E+00
    0.00000E+00         0.00000E+00        -0.35972E+05
 
   -0.12997E+06         0.13362E+06         0.00000E+00
    0.13362E+06        -0.47294E+05         0.00000E+00
    0.00000E+00         0.00000E+00        -0.35453E+05
 
   -0.12472E+06         0.13629E+06         0.00000E+00
    0.13629E+06        -0.49873E+05         0.00000E+00
    0.00000E+00         0.00000E+00        -0.34919E+05
 
   -0.11936E+06         0.13884E+06         0.00000E+00
    0.13884E+06        -0.52492E+05         0.00000E+00
    0.00000E+00         0.00000E+00        -0.34371E+05
 
   -0.11389E+06         0.14128E+06         0.00000E+00
    0.14128E+06        -0.55150E+05         0.00000E+00
    0.00000E+00         0.00000E+00        -0.33808E+05
 
   -0.10832E+06         0.14360E+06         0.00000E+00
    0.14360E+06        -0.57844E+05         0.00000E+00
    0.00000E+00         0.00000E+00        -0.33232E+05
 
   -0.10264E+06         0.14580E+06         0.00000E+00
    0.14580E+06        -0.60571E+05         0.00000E+00
    0.00000E+00         0.00000E+00        -0.32642E+05
 
   -0.96860E+05         0.14788E+06         0.00000E+00
    0.14788E+06        -0.63331E+05         0.00000E+00
    0.00000E+00         0.00000E+00        -0.32038E+05
 
   -0.90986E+05         0.14984E+06         0.00000E+00
    0.14984E+06        -0.66120E+05         0.00000E+00
    0.00000E+00         0.00000E+00        -0.31421E+05
 
   -0.85018E+05         0.15167E+06         0.00000E+00
    0.15167E+06        -0.68938E+05         0.00000E+00
    0.00000E+00         0.00000E+00        -0.30791E+05
 
   -0.78960E+05         0.15338E+06         0.00000E+00
    0.15338E+06        -0.71781E+05         0.00000E+00
    0.00000E+00         0.00000E+00        -0.30148E+05
 
   -0.72814E+05         0.15497E+06         0.00000E+00
    0.15497E+06        -0.74649E+05         0.00000E+00
    0.00000E+00         0.00000E+00        -0.29493E+05
 
   -0.66583E+05         0.15643E+06         0.00000E+00
    0.15643E+06        -0.77540E+05         0.00000E+00
    0.00000E+00         0.00000E+00        -0.28825E+05
 
   -0.60270E+05         0.15777E+06         0.00000E+00
    0.15777E+06        -0.80452E+05         0.00000E+00
    0.00000E+00         0.00000E+00        -0.28144E+05
 
   -0.53877E+05         0.15898E+06         0.00000E+00
    0.15898E+06        -0.83383E+05         0.00000E+00
    0.00000E+00         0.00000E+00        -0.27452E+05
 
   -0.47406E+05         0.16006E+06         0.00000E+00
    0.16006E+06        -0.86332E+05         0.00000E+00
    0.00000E+00         0.00000E+00        -0.26748E+05
 
   -0.40861E+05         0.16101E+06         0.00000E+00
    0.16101E+06        -0.89298E+05         0.00000E+00
    0.00000E+00         0.00000E+00        -0.26032E+05
 
   -0.34243E+05         0.16183E+06         0.00000E+00
    0.16183E+06        -0.92278E+05         0.00000E+00
    0.00000E+00         0.00000E+00        -0.25304E+05
 
   -0.27554E+05         0.16251E+06         0.00000E+00
    0.16251E+06        -0.95271E+05         0.00000E+00
    0.00000E+00         0.00000E+00        -0.24565E+05
 
   -0.19484E+06         0.21591E+04         0.00000E+00
    0.21591E+04         0.27797E+02         0.00000E+00
    0.00000E+00         0.00000E+00        -0.38963E+05
 
   -0.19493E+06         0.65031E+04         0.00000E+00
    0.65031E+04        -0.60492E+02         0.00000E+00
    0.00000E+00         0.00000E+00        -0.38998E+05
 
   -0.19484E+06         0.10851E+05         0.00000E+00
    0.10851E+05        -0.23743E+03         0.00000E+00
    0.00000E+00         0.00000E+00        -0.39015E+05
 
   -0.19457E+06         0.15199E+05         0.00000E+00
    0.15199E+05        -0.50290E+03         0.00000E+00
    0.00000E+00         0.00000E+00        -0.39015E+05
 
   -0.19413E+06         0.19541E+05         0.00000E+00
    0.19541E+05        -0.85662E+03         0.00000E+00
    0.00000E+00         0.00000E+00        -0.38996E+05
 
   -0.19351E+06         0.23871E+05         0.00000E+00
    0.23871E+05        -0.12982E+04         0.00000E+00
    0.00000E+00         0.00000E+00        -0.38961E+05
 
   -0.19271E+06         0.28187E+05         0.00000E+00
    0.28187E+05        -0.18269E+04         0.00000E+00
    0.00000E+00         0.00000E+00        -0.38907E+05
 
   -0.19174E+06         0.32481E+05         0.00000E+00
    0.32481E+05        -0.24421E+04         0.00000E+00
    0.00000E+00         0.00000E+00        -0.38837E+05
 
   -0.19060E+06         0.36751E+05         0.00000E+00
    0.36751E+05        -0.31429E+04         0.00000E+00
    0.00000E+00         0.00000E+00        -0.38748E+05
 
   -0.18928E+06         0.40990E+05         0.00000E+00
    0.40990E+05        -0.39283E+04         0.00000E+00
    0.00000E+00         0.00000E+00        -0.38642E+05
 
   -0.18780E+06         0.45195E+05         0.00000E+00
    0.45195E+05        -0.47972E+04         0.00000E+00
    0.00000E+00         0.00000E+00        -0.38519E+05
 
   -0.18615E+06         0.49362E+05         0.00000E+00
    0.49362E+05        -0.57482E+04         0.00000E+00
    0.00000E+00         0.00000E+00        -0.38379E+05
 
   -0.18433E+06         0.53486E+05         0.00000E+00
    0.53486E+05        -0.67801E+04         0.00000E+00
    0.00000E+00         0.00000E+00        -0.38221E+05
 
   -0.18234E+06         0.57562E+05         0.00000E+00
    0.57562E+05        -0.78914E+04         0.00000E+00
    0.00000E+00         0.00000E+00        -0.38047E+05
 
   -0.18020E+06         0.61588E+05         0.00000E+00
    0.61588E+05        -0.90805E+04         0.00000E+00
    0.00000E+00         0.00000E+00        -0.37855E+05
 
   -0.17789E+06         0.65558E+05         0.00000E+00
    0.65558E+05        -0.10346E+05         0.00000E+00
    0.00000E+00         0.00000E+00        -0.37647E+05
 
   -0.17543E+06         0.69470E+05         0.00000E+00
    0.69470E+05        -0.11686E+05         0.00000E+00
    0.00000E+00         0.00000E+00        -0.37422E+05
 
   -0.17281E+06         0.73319E+05         0.00000E+00
    0.73319E+05        -0.13098E+05         0.00000E+00
    0.00000E+00         0.00000E+00        -0.37181E+05
 
   -0.17004E+06         0.77103E+05         0.00000E+00
    0.77103E+05        -0.14582E+05         0.00000E+00
    0.00000E+00         0.00000E+00        -0.36924E+05
 
   -0.16712E+06         0.80818E+05         0.00000E+00
    0.80818E+05        -0.16134E+05         0.00000E+00
    0.00000E+00         0.00000E+00        -0.36650E+05
 
   -0.16405E+06         0.84460E+05         0.00000E+00
    0.84460E+05        -0.17754E+05         0.00000E+00
    0.00000E+00         0.00000E+00        -0.36361E+05
 
   -0.16084E+06         0.88027E+05         0.00000E+00
    0.88027E+05        -0.19439E+05         0.00000E+00
    0.00000E+00         0.00000E+00        -0.36055E+05
 
   -0.15749E+06         0.91515E+05         0.00000E+00
    0.91515E+05        -0.21186E+05         0.00000E+00
    0.00000E+00         0.00000E+00        -0.35734E+05
 
   -0.15399E+06         0.94922E+05         0.00000E+00
    0.94922E+05        -0.22995E+05         0.00000E+00
    0.00000E+00         0.00000E+00        -0.35398E+05
 
   -0.15037E+06         0.98245E+05         0.00000E+00
    0.98245E+05        -0.24863E+05         0.00000E+00
    0.00000E+00         0.00000E+00        -0.35046E+05
 
   -0.14661E+06         0.10148E+06         0.00000E+00
    0.10148E+06        -0.26788E+05         0.00000E+00
    0.00000E+00         0.00000E+00        -0.34680E+05
 
   -0.14273E+06         0.10463E+06         0.00000E+00
    0.10463E+06        -0.28768E+05         0.00000E+00
    0.00000E+00         0.00000E+00        -0.34299E+05
 
   -0.13871E+06         0.10769E+06         0.00000E+00
    0.10769E+06        -0.30800E+05         0.00000E+00
    0.00000E+00         0.00000E+00        -0.33903E+05
 
   -0.13458E+06         0.11065E+06         0.00000E+00
    0.11065E+06        -0.32883E+05         0.00000E+00
    0.00000E+00         0.00000E+00        -0.33492E+05
 
   -0.13032E+06         0.11352E+06         0.00000E+00
    0.11352E+06        -0.35015E+05         0.00000E+00
    0.00000E+00         0.00000E+00        -0.33068E+05
 
   -0.12595E+06         0.11629E+06         0.00000E+00
    0.11629E+06        -0.37194E+05         0.00000E+00
    0.00000E+00         0.00000E+00        -0.32629E+05
 
   -0.12147E+06         0.11896E+06         0.00000E+00
    0.11896E+06        -0.39417E+05         0.00000E+00
    0.00000E+00         0.00000E+00        -0.32177E+05
 
   -0.11687E+06         0.12153E+06         0.00000E+00
    0.12153E+06        -0.41682E+05         0.00000E+00
    0.00000E+00         0.00000E+00        -0.31710E+05
 
   -0.11217E+06         0.12399E+06         0.00000E+00
    0.12399E+06        -0.43988E+05         0.00000E+00
    0.00000E+00         0.00000E+00        -0.31231E+05
 
   -0.10736E+06         0.12635E+06         0.00000E+00
    0.12635E+06        -0.46333E+05         0.00000E+00
    0.00000E+00         0.00000E+00        -0.30738E+05
 
   -0.10245E+06         0.12861E+06         0.00000E+00
    0.12861E+06        -0.48714E+05         0.00000E+00
    0.00000E+00         0.00000E+00        -0.30233E+05
 
   -0.97441E+05         0.13075E+06         0.00000E+00
    0.13075E+06        -0.51130E+05         0.00000E+00
    0.00000E+00         0.00000E+00        -0.29714E+05
 
   -0.92337E+05         0.13279E+06         0.00000E+00
    0.13279E+06        -0.53578E+05         0.00000E+00
    0.00000E+00         0.00000E+00        -0.29183E+05
 
   -0.87139E+05         0.13472E+06         0.00000E+00
    0.13472E+06        -0.56058E+05         0.00000E+00
    0.00000E+00         0.00000E+00        -0.28639E+05
 
   -0.81852E+05         0.13653E+06         0.00000E+00
    0.13653E+06        -0.58567E+05         0.00000E+00
    0.00000E+00         0.00000E+00        -0.28084E+05
 
   -0.76477E+05         0.13824E+06         0.00000E+00
    0.13824E+06        -0.61103E+05         0.00000E+00
    0.00000E+00         0.00000E+00        -0.27516E+05
 
   -0.71017E+05         0.13982E+06         0.00000E+00
    0.13982E+06        -0.63664E+05         0.00000E+00
    0.00000E+00         0.00000E+00        -0.26936E+05
 
   -0.65475E+05         0.14129E+06         0.00000E+00
    0.14129E+06        -0.66250E+05         0.00000E+00
    0.00000E+00         0.00000E+00        -0.26345E+05
 
   -0.59853E+05         0.14265E+06         0.00000E+00
    0.14265E+06        -0.68857E+05         0.00000E+00
    0.00000E+00         0.00000E+00        -0.25742E+05
 
   -0.54154E+05         0.14388E+06         0.00000E+00
    0.14388E+06        -0.71485E+05         0.00000E+00
    0.00000E+00         0.00000E+00        -0.25128E+05
 
   -0.48382E+05         0.14500E+06         0.00000E+00
    0.14500E+06        -0.74132E+05         0.00000E+00
    0.00000E+00         0.00000E+00        -0.24503E+05
 
   -0.42537E+05         0.14599E+06         0.00000E+00
    0.14599E+06        -0.76796E+05         0.00000E+00
    0.00000E+00         0.00000E+00        -0.23867E+05
 
   -0.36623E+05         0.14687E+06         0.00000E+00
    0.14687E+06        -0.79476E+05         0.00000E+00
    0.00000E+00         0.00000E+00        -0.23220E+05
 
   -0.30642E+05         0.14762E+06         0.00000E+00
    0.14762E+06        -0.82169E+05         0.00000E+00
    0.00000E+00         0.00000E+00        -0.22562E+05
 
   -0.24596E+05         0.14825E+06         0.00000E+00
    0.14825E+06        -0.84875E+05         0.00000E+00
    0.00000E+00         0.00000E+00        -0.21894E+05
 
   -0.17419E+06         0.19545E+04         0.00000E+00
    0.19545E+04         0.24084E+02         0.00000E+00
    0.00000E+00         0.00000E+00        -0.34834E+05
 
   -0.17425E+06         0.58864E+04         0.00000E+00
    0.58864E+04        -0.52125E+02         0.00000E+00
    0.00000E+00         0.00000E+00        -0.34860E+05
 
   -0.17415E+06         0.98224E+04         0.00000E+00
    0.98224E+04        -0.20508E+03         0.00000E+00
    0.00000E+00         0.00000E+00        -0.34870E+05
 
   -0.17389E+06         0.13758E+05         0.00000E+00
    0.13758E+05        -0.43481E+03         0.00000E+00
    0.00000E+00         0.00000E+00        -0.34866E+05
 
   -0.17349E+06         0.17690E+05         0.00000E+00
    0.17690E+05        -0.74118E+03         0.00000E+00
    0.00000E+00         0.00000E+00        -0.34845E+05
 
   -0.17293E+06         0.21612E+05         0.00000E+00
    0.21612E+05        -0.11239E+04         0.00000E+00
    0.00000E+00         0.00000E+00        -0.34810E+05
 
   -0.17221E+06         0.25522E+05         0.00000E+00
    0.25522E+05        -0.15827E+04         0.00000E+00
    0.00000E+00         0.00000E+00        -0.34759E+05
 
   -0.17135E+06         0.29414E+05         0.00000E+00
    0.29414E+05        -0.21170E+04         0.00000E+00
    0.00000E+00         0.00000E+00        -0.34693E+05
 
   -0.17033E+06         0.33285E+05         0.00000E+00
    0.33285E+05        -0.27263E+04         0.00000E+00
    0.00000E+00         0.00000E+00        -0.34612E+05
 
   -0.16917E+06         0.37131E+05         0.00000E+00
    0.37131E+05        -0.34097E+04         0.00000E+00
    0.00000E+00         0.00000E+00        -0.34515E+05
 
   -0.16785E+06         0.40948E+05         0.00000E+00
    0.40948E+05        -0.41664E+04         0.00000E+00
    0.00000E+00         0.00000E+00        -0.34403E+05
 
   -0.16639E+06         0.44731E+05         0.00000E+00
    0.44731E+05        -0.49955E+04         0.00000E+00
    0.00000E+00         0.00000E+00        -0.34276E+05
 
   -0.16477E+06         0.48478E+05         0.00000E+00
    0.48478E+05        -0.58961E+04         0.00000E+00
    0.00000E+00         0.00000E+00        -0.34134E+05
 
   -0.16302E+06         0.52185E+05         0.00000E+00
    0.52185E+05        -0.68669E+04         0.00000E+00
    0.00000E+00         0.00000E+00        -0.33977E+05
 
   -0.16112E+06         0.55847E+05         0.00000E+00
    0.55847E+05        -0.79068E+04         0.00000E+00
    0.00000E+00         0.00000E+00        -0.33805E+05
 
   -0.15908E+06         0.59462E+05         0.00000E+00
    0.59462E+05        -0.90145E+04         0.00000E+00
    0.00000E+00         0.00000E+00        -0.33618E+05
 
   -0.15690E+06         0.63025E+05         0.00000E+00
    0.63025E+05        -0.10189E+05         0.00000E+00
    0.00000E+00         0.00000E+00        -0.33417E+05
 
   -0.15458E+06         0.66535E+05         0.00000E+00
    0.66535E+05        -0.11428E+05         0.00000E+00
    0.00000E+00         0.00000E+00        -0.33201E+05
 
   -0.15212E+06         0.69987E+05         0.00000E+00
    0.69987E+05        -0.12731E+05         0.00000E+00
    0.00000E+00         0.00000E+00        -0.32971E+05
 
   -0.14953E+06         0.73378E+05         0.00000E+00
    0.73378E+05        -0.14096E+05         0.00000E+00
    0.00000E+00         0.00000E+00        -0.32726E+05
 
   -0.14681E+06         0.76706E+05         0.00000E+00
    0.76706E+05        -0.15521E+05         0.00000E+00
    0.00000E+00         0.00000E+00        -0.32467E+05
 
   -0.14396E+06         0.79968E+05         0.00000E+00
    0.79968E+05        -0.17005E+05         0.00000E+00
    0.00000E+00         0.00000E+00        -0.32193E+05
 
   -0.14099E+06         0.83160E+05         0.00000E+00
    0.83160E+05        -0.18547E+05         0.00000E+00
    0.00000E+00         0.00000E+00        -0.31906E+05
 
   -0.13788E+06         0.86280E+05         0.00000E+00
    0.86280E+05        -0.20144E+05         0.00000E+00
    0.00000E+00         0.00000E+00        -0.31606E+05
 
   -0.13466E+06         0.89326E+05         0.00000E+00
    0.89326E+05        -0.21795E+05         0.00000E+00
    0.00000E+00         0.00000E+00        -0.31291E+05
 
   -0.13132E+06         0.92295E+05         0.00000E+00
    0.92295E+05        -0.23498E+05         0.00000E+00
    0.00000E+00         0.00000E+00        -0.30963E+05
 
   -0.12786E+06         0.95184E+05         0.00000E+00
    0.95184E+05        -0.25252E+05         0.00000E+00
    0.00000E+00         0.00000E+00        -0.30622E+05
 
   -0.12428E+06         0.97992E+05         0.00000E+00
    0.97992E+05        -0.27054E+05         0.00000E+00
    0.00000E+00         0.00000E+00        -0.30267E+05
 
   -0.12060E+06         0.10072E+06         0.00000E+00
    0.10072E+06        -0.28903E+05         0.00000E+00
    0.00000E+00         0.00000E+00        -0.29900E+05
 
   -0.11680E+06         0.10335E+06         0.00000E+00
    0.10335E+06        -0.30797E+05         0.00000E+00
    0.00000E+00         0.00000E+00        -0.29519E+05
 
   -0.11290E+06         0.10590E+06         0.00000E+00
    0.10590E+06        -0.32735E+05         0.00000E+00
    0.00000E+00         0.00000E+00        -0.29126E+05
 
   -0.10889E+06         0.10836E+06         0.00000E+00
    0.10836E+06        -0.34714E+05         0.00000E+00
    0.00000E+00         0.00000E+00        -0.28721E+05
 
   -0.10478E+06         0.11073E+06         0.00000E+00
    0.11073E+06        -0.36733E+05         0.00000E+00
    0.00000E+00         0.00000E+00        -0.28303E+05
 
   -0.10057E+06         0.11300E+06         0.00000E+00
    0.11300E+06        -0.38790E+05         0.00000E+00
    0.00000E+00         0.00000E+00        -0.27873E+05
 
   -0.96271E+05         0.11518E+06         0.00000E+00
    0.11518E+06        -0.40883E+05         0.00000E+00
    0.00000E+00         0.00000E+00        -0.27431E+05
 
   -0.91874E+05         0.11726E+06         0.00000E+00
    0.11726E+06        -0.43011E+05         0.00000E+00
    0.00000E+00         0.00000E+00        -0.26977E+05
 
   -0.87385E+05         0.11925E+06         0.00000E+00
    0.11925E+06        -0.45172E+05         0.00000E+00
    0.00000E+00         0.00000E+00        -0.26511E+05
 
   -0.82809E+05         0.12113E+06         0.00000E+00
    0.12113E+06        -0.47363E+05         0.00000E+00
    0.00000E+00         0.00000E+00        -0.26034E+05
 
   -0.78146E+05         0.12291E+06         0.00000E+00
    0.12291E+06        -0.49585E+05         0.00000E+00
    0.00000E+00         0.00000E+00        -0.25546E+05
 
   -0.73400E+05         0.12459E+06         0.00000E+00
    0.12459E+06        -0.51833E+05         0.00000E+00
    0.00000E+00         0.00000E+00        -0.25047E+05
 
   -0.68573E+05         0.12616E+06         0.00000E+00
    0.12616E+06        -0.54108E+05         0.00000E+00
    0.00000E+00         0.00000E+00        -0.24536E+05
 
   -0.63668E+05         0.12762E+06         0.00000E+00
    0.12762E+06        -0.56408E+05         0.00000E+00
    0.00000E+00         0.00000E+00        -0.24015E+05
 
   -0.58687E+05         0.12898E+06         0.00000E+00
    0.12898E+06        -0.58729E+05         0.00000E+00
    0.00000E+00         0.00000E+00        -0.23483E+05
 
   -0.53633E+05         0.13023E+06         0.00000E+00
    0.13023E+06        -0.61073E+05         0.00000E+00
    0.00000E+00         0.00000E+00        -0.22941E+05
 
   -0.48509E+05         0.13137E+06         0.00000E+00
    0.13137E+06        -0.63435E+05         0.00000E+00
    0.00000E+00         0.00000E+00        -0.22389E+05
 
   -0.43316E+05         0.13240E+06         0.00000E+00
    0.13240E+06        -0.65815E+05         0.00000E+00
    0.00000E+00         0.00000E+00        -0.21826E+05
 
   -0.38057E+05         0.13332E+06         0.00000E+00
    0.13332E+06        -0.68212E+05         0.00000E+00
    0.00000E+00         0.00000E+00        -0.21254E+05
 
   -0.32735E+05         0.13412E+06         0.00000E+00
    0.13412E+06        -0.70623E+05         0.00000E+00
    0.00000E+00         0.00000E+00        -0.20672E+05
 
   -0.27352E+05         0.13480E+06         0.00000E+00
    0.13480E+06        -0.73048E+05         0.00000E+00
    0.00000E+00         0.00000E+00        -0.20080E+05
 
   -0.21911E+05         0.13538E+06         0.00000E+00
    0.13538E+06        -0.75484E+05         0.00000E+00
    0.00000E+00         0.00000E+00        -0.19479E+05
 
   -0.15546E+06         0.17777E+04         0.00000E+00
    0.17777E+04         0.20918E+02         0.00000E+00
    0.00000E+00         0.00000E+00        -0.31089E+05
 
   -0.15549E+06         0.53525E+04         0.00000E+00
    0.53525E+04        -0.45096E+02         0.00000E+00
    0.00000E+00         0.00000E+00        -0.31106E+05
 
   -0.15538E+06         0.89309E+04         0.00000E+00
    0.89309E+04        -0.17774E+03         0.00000E+00
    0.00000E+00         0.00000E+00        -0.31111E+05
 
   -0.15513E+06         0.12509E+05         0.00000E+00
    0.12509E+05        -0.37709E+03         0.00000E+00
    0.00000E+00         0.00000E+00        -0.31102E+05
 
   -0.15476E+06         0.16083E+05         0.00000E+00
    0.16083E+05        -0.64314E+03         0.00000E+00
    0.00000E+00         0.00000E+00        -0.31080E+05
 
   -0.15425E+06         0.19650E+05         0.00000E+00
    0.19650E+05        -0.97577E+03         0.00000E+00
    0.00000E+00         0.00000E+00        -0.31045E+05
 
   -0.15361E+06         0.23205E+05         0.00000E+00
    0.23205E+05        -0.13747E+04         0.00000E+00
    0.00000E+00         0.00000E+00        -0.30996E+05
 
   -0.15283E+06         0.26746E+05         0.00000E+00
    0.26746E+05        -0.18397E+04         0.00000E+00
    0.00000E+00         0.00000E+00        -0.30934E+05
 
   -0.15192E+06         0.30268E+05         0.00000E+00
    0.30268E+05        -0.23702E+04         0.00000E+00
    0.00000E+00         0.00000E+00        -0.30858E+05
 
   -0.15088E+06         0.33769E+05         0.00000E+00
    0.33769E+05        -0.29658E+04         0.00000E+00
    0.00000E+00         0.00000E+00        -0.30770E+05
 
   -0.14971E+06         0.37243E+05         0.00000E+00
    0.37243E+05        -0.36259E+04         0.00000E+00
    0.00000E+00         0.00000E+00        -0.30668E+05
 
   -0.14841E+06         0.40690E+05         0.00000E+00
    0.40690E+05        -0.43496E+04         0.00000E+00
    0.00000E+00         0.00000E+00        -0.30552E+05
 
   -0.14698E+06         0.44104E+05         0.00000E+00
    0.44104E+05        -0.51364E+04         0.00000E+00
    0.00000E+00         0.00000E+00        -0.30423E+05
 
   -0.14542E+06         0.47482E+05         0.00000E+00
    0.47482E+05        -0.59852E+04         0.00000E+00
    0.00000E+00         0.00000E+00        -0.30282E+05
 
   -0.14374E+06         0.50822E+05         0.00000E+00
    0.50822E+05        -0.68952E+04         0.00000E+00
    0.00000E+00         0.00000E+00        -0.30127E+05
 
   -0.14193E+06         0.54120E+05         0.00000E+00
    0.54120E+05        -0.78654E+04         0.00000E+00
    0.00000E+00         0.00000E+00        -0.29959E+05
 
   -0.13999E+06         0.57374E+05         0.00000E+00
    0.57374E+05        -0.88946E+04         0.00000E+00
    0.00000E+00         0.00000E+00        -0.29778E+05
 
   -0.13794E+06         0.60579E+05         0.00000E+00
    0.60579E+05        -0.99819E+04         0.00000E+00
    0.00000E+00         0.00000E+00        -0.29584E+05
 
   -0.13576E+06         0.63734E+05         0.00000E+00
    0.63734E+05        -0.11126E+05         0.00000E+00
    0.00000E+00         0.00000E+00        -0.29377E+05
 
   -0.13346E+06         0.66835E+05         0.00000E+00
    0.66835E+05        -0.12326E+05         0.00000E+00
    0.00000E+00         0.00000E+00        -0.29158E+05
 
   -0.13105E+06         0.69880E+05         0.00000E+00
    0.69880E+05        -0.13580E+05         0.00000E+00
    0.00000E+00         0.00000E+00        -0.28926E+05
 
   -0.12852E+06         0.72866E+05         0.00000E+00
    0.72866E+05        -0.14887E+05         0.00000E+00
    0.00000E+00         0.00000E+00        -0.28681E+05
 
   -0.12587E+06         0.75790E+05         0.00000E+00
    0.75790E+05        -0.16245E+05         0.00000E+00
    0.00000E+00         0.00000E+00        -0.28424E+05
 
   -0.12312E+06         0.78649E+05         0.00000E+00
    0.78649E+05        -0.17654E+05         0.00000E+00
    0.00000E+00         0.00000E+00        -0.28155E+05
 
   -0.12025E+06         0.81442E+05         0.00000E+00
    0.81442E+05        -0.19112E+05         0.00000E+00
    0.00000E+00         0.00000E+00        -0.27873E+05
 
   -0.11728E+06         0.84166E+05         0.00000E+00
    0.84166E+05        -0.20617E+05         0.00000E+00
    0.00000E+00         0.00000E+00        -0.27580E+05
 
   -0.11420E+06         0.86819E+05         0.00000E+00
    0.86819E+05        -0.22168E+05         0.00000E+00
    0.00000E+00         0.00000E+00        -0.27275E+05
 
   -0.11102E+06         0.89398E+05         0.00000E+00
    0.89398E+05        -0.23764E+05         0.00000E+00
    0.00000E+00         0.00000E+00        -0.26957E+05
 
   -0.10774E+06         0.91901E+05         0.00000E+00
    0.91901E+05        -0.25402E+05         0.00000E+00
    0.00000E+00         0.00000E+00        -0.26629E+05
 
   -0.10436E+06         0.94327E+05         0.00000E+00
    0.94327E+05        -0.27082E+05         0.00000E+00
    0.00000E+00         0.00000E+00        -0.26288E+05
 
   -0.10088E+06         0.96672E+05         0.00000E+00
    0.96672E+05        -0.28802E+05         0.00000E+00
    0.00000E+00         0.00000E+00        -0.25936E+05
 
   -0.97308E+05         0.98936E+05         0.00000E+00
    0.98936E+05        -0.30560E+05         0.00000E+00
    0.00000E+00         0.00000E+00        -0.25574E+05
 
   -0.93643E+05         0.10112E+06         0.00000E+00
    0.10112E+06        -0.32355E+05         0.00000E+00
    0.00000E+00         0.00000E+00        -0.25199E+05
 
   -0.89888E+05         0.10321E+06         0.00000E+00
    0.10321E+06        -0.34185E+05         0.00000E+00
    0.00000E+00         0.00000E+00        -0.24815E+05
 
   -0.86045E+05         0.10522E+06         0.00000E+00
    0.10522E+06        -0.36049E+05         0.00000E+00
    0.00000E+00         0.00000E+00        -0.24419E+05
 
   -0.82117E+05         0.10714E+06         0.00000E+00
    0.10714E+06        -0.37945E+05         0.00000E+00
    0.00000E+00         0.00000E+00        -0.24012E+05
 
   -0.78106E+05         0.10896E+06         0.00000E+00
    0.10896E+06        -0.39871E+05         0.00000E+00
    0.00000E+00         0.00000E+00        -0.23595E+05
 
   -0.74014E+05         0.11070E+06         0.00000E+00
    0.11070E+06        -0.41827E+05         0.00000E+00
    0.00000E+00         0.00000E+00        -0.23168E+05
 
   -0.69844E+05         0.11234E+06         0.00000E+00
    0.11234E+06        -0.43810E+05         0.00000E+00
    0.00000E+00         0.00000E+00        -0.22731E+05
 
   -0.65598E+05         0.11389E+06         0.00000E+00
    0.11389E+06        -0.45819E+05         0.00000E+00
    0.00000E+00         0.00000E+00        -0.22283E+05
 
   -0.61278E+05         0.11534E+06         0.00000E+00
    0.11534E+06        -0.47852E+05         0.00000E+00
    0.00000E+00         0.00000E+00        -0.21826E+05
 
   -0.56887E+05         0.11669E+06         0.00000E+00
    0.11669E+06        -0.49908E+05         0.00000E+00
    0.00000E+00         0.00000E+00        -0.21359E+05
 
   -0.52427E+05         0.11794E+06         0.00000E+00
    0.11794E+06        -0.51986E+05         0.00000E+00
    0.00000E+00         0.00000E+00        -0.20882E+05
 
   -0.47900E+05         0.11910E+06         0.00000E+00
    0.11910E+06        -0.54083E+05         0.00000E+00
    0.00000E+00         0.00000E+00        -0.20397E+05
 
   -0.43309E+05         0.12014E+06         0.00000E+00
    0.12014E+06        -0.56198E+05         0.00000E+00
    0.00000E+00         0.00000E+00        -0.19901E+05
 
   -0.38656E+05         0.12109E+06         0.00000E+00
    0.12109E+06        -0.58330E+05         0.00000E+00
    0.00000E+00         0.00000E+00        -0.19397E+05
 
   -0.33944E+05         0.12193E+06         0.00000E+00
    0.12193E+06        -0.60477E+05         0.00000E+00
    0.00000E+00         0.00000E+00        -0.18884E+05
 
   -0.29174E+05         0.12267E+06         0.00000E+00
    0.12267E+06        -0.62638E+05         0.00000E+00
    0.00000E+00         0.00000E+00        -0.18362E+05
 
   -0.24350E+05         0.12329E+06         0.00000E+00
    0.12329E+06        -0.64811E+05         0.00000E+00
    0.00000E+00         0.00000E+00        -0.17832E+05
 
   -0.19473E+05         0.12381E+06         0.00000E+00
    0.12381E+06        -0.66994E+05         0.00000E+00
    0.00000E+00         0.00000E+00        -0.17293E+05
 
   -0.13839E+06         0.16244E+04         0.00000E+00
    0.16244E+04         0.18198E+02         0.00000E+00
    0.00000E+00         0.00000E+00        -0.27675E+05
 
   -0.13839E+06         0.48891E+04         0.00000E+00
    0.48891E+04        -0.39132E+02         0.00000E+00
    0.00000E+00         0.00000E+00        -0.27687E+05
 
   -0.13828E+06         0.81565E+04         0.00000E+00
    0.81565E+04        -0.15440E+03         0.00000E+00
    0.00000E+00         0.00000E+00        -0.27686E+05
 
   -0.13804E+06         0.11423E+05         0.00000E+00
    0.11423E+05        -0.32773E+03         0.00000E+00
    0.00000E+00         0.00000E+00        -0.27674E+05
 
   -0.13770E+06         0.14687E+05         0.00000E+00
    0.14687E+05        -0.55917E+03         0.00000E+00
    0.00000E+00         0.00000E+00        -0.27651E+05
 
   -0.13723E+06         0.17943E+05         0.00000E+00
    0.17943E+05        -0.84866E+03         0.00000E+00
    0.00000E+00         0.00000E+00        -0.27616E+05
 
   -0.13665E+06         0.21189E+05         0.00000E+00
    0.21189E+05        -0.11961E+04         0.00000E+00
    0.00000E+00         0.00000E+00        -0.27569E+05
 
   -0.13595E+06         0.24422E+05         0.00000E+00
    0.24422E+05        -0.16012E+04         0.00000E+00
    0.00000E+00         0.00000E+00        -0.27511E+05
 
   -0.13514E+06         0.27638E+05         0.00000E+00
    0.27638E+05        -0.20636E+04         0.00000E+00
    0.00000E+00         0.00000E+00        -0.27441E+05
 
   -0.13421E+06         0.30835E+05         0.00000E+00
    0.30835E+05        -0.25831E+04         0.00000E+00
    0.00000E+00         0.00000E+00        -0.27359E+05
 
   -0.13317E+06         0.34010E+05         0.00000E+00
    0.34010E+05        -0.31592E+04         0.00000E+00
    0.00000E+00         0.00000E+00        -0.27266E+05
 
   -0.13201E+06         0.37159E+05         0.00000E+00
    0.37159E+05        -0.37913E+04         0.00000E+00
    0.00000E+00         0.00000E+00        -0.27160E+05
 
   -0.13074E+06         0.40279E+05         0.00000E+00
    0.40279E+05        -0.44788E+04         0.00000E+00
    0.00000E+00         0.00000E+00        -0.27044E+05
 
   -0.12936E+06         0.43368E+05         0.00000E+00
    0.43368E+05        -0.52210E+04         0.00000E+00
    0.00000E+00         0.00000E+00        -0.26916E+05
 
   -0.12786E+06         0.46423E+05         0.00000E+00
    0.46423E+05        -0.60173E+04         0.00000E+00
    0.00000E+00         0.00000E+00        -0.26776E+05
 
   -0.12626E+06         0.49440E+05         0.00000E+00
    0.49440E+05        -0.68669E+04         0.00000E+00
    0.00000E+00         0.00000E+00        -0.26625E+05
 
   -0.12454E+06         0.52418E+05         0.00000E+00
    0.52418E+05        -0.77688E+04         0.00000E+00
    0.00000E+00         0.00000E+00        -0.26462E+05
 
   -0.12272E+06         0.55353E+05         0.00000E+00
    0.55353E+05        -0.87223E+04         0.00000E+00
    0.00000E+00         0.00000E+00        -0.26288E+05
 
   -0.12079E+06         0.58242E+05         0.00000E+00
    0.58242E+05        -0.97262E+04         0.00000E+00
    0.00000E+00         0.00000E+00        -0.26102E+05
 
   -0.11875E+06         0.61083E+05         0.00000E+00
    0.61083E+05        -0.10780E+05         0.00000E+00
    0.00000E+00         0.00000E+00        -0.25906E+05
 
   -0.11661E+06         0.63874E+05         0.00000E+00
    0.63874E+05        -0.11882E+05         0.00000E+00
    0.00000E+00         0.00000E+00        -0.25698E+05
 
   -0.11437E+06         0.66612E+05         0.00000E+00
    0.66612E+05        -0.13031E+05         0.00000E+00
    0.00000E+00         0.00000E+00        -0.25479E+05
 
   -0.11202E+06         0.69295E+05         0.00000E+00
    0.69295E+05        -0.14227E+05         0.00000E+00
    0.00000E+00         0.00000E+00        -0.25250E+05
 
   -0.10958E+06         0.71919E+05         0.00000E+00
    0.71919E+05        -0.15468E+05         0.00000E+00
    0.00000E+00         0.00000E+00        -0.25009E+05
 
   -0.10703E+06         0.74484E+05         0.00000E+00
    0.74484E+05        -0.16753E+05         0.00000E+00
    0.00000E+00         0.00000E+00        -0.24757E+05
 
   -0.10440E+06         0.76986E+05         0.00000E+00
    0.76986E+05        -0.18081E+05         0.00000E+00
    0.00000E+00         0.00000E+00        -0.24495E+05
 
   -0.10166E+06         0.79423E+05         0.00000E+00
    0.79423E+05        -0.19450E+05         0.00000E+00
    0.00000E+00         0.00000E+00        -0.24223E+05
 
   -0.98837E+05         0.81794E+05         0.00000E+00
    0.81794E+05        -0.20859E+05         0.00000E+00
    0.00000E+00         0.00000E+00        -0.23939E+05
 
   -0.95920E+05         0.84096E+05         0.00000E+00
    0.84096E+05        -0.22308E+05         0.00000E+00
    0.00000E+00         0.00000E+00        -0.23646E+05
 
   -0.92915E+05         0.86328E+05         0.00000E+00
    0.86328E+05        -0.23794E+05         0.00000E+00
    0.00000E+00         0.00000E+00        -0.23342E+05
 
   -0.89823E+05         0.88486E+05         0.00000E+00
    0.88486E+05        -0.25316E+05         0.00000E+00
    0.00000E+00         0.00000E+00        -0.23028E+05
 
   -0.86645E+05         0.90570E+05         0.00000E+00
    0.90570E+05        -0.26874E+05         0.00000E+00
    0.00000E+00         0.00000E+00        -0.22704E+05
 
   -0.83384E+05         0.92578E+05         0.00000E+00
    0.92578E+05        -0.28465E+05         0.00000E+00
    0.00000E+00         0.00000E+00        -0.22370E+05
 
   -0.80043E+05         0.94507E+05         0.00000E+00
    0.94507E+05        -0.30088E+05         0.00000E+00
    0.00000E+00         0.00000E+00        -0.22026E+05
 
   -0.76622E+05         0.96357E+05         0.00000E+00
    0.96357E+05        -0.31742E+05         0.00000E+00
    0.00000E+00         0.00000E+00        -0.21673E+05
 
   -0.73124E+05         0.98125E+05         0.00000E+00
    0.98125E+05        -0.33426E+05         0.00000E+00
    0.00000E+00         0.00000E+00        -0.21310E+05
 
   -0.69551E+05         0.99810E+05         0.00000E+00
    0.99810E+05        -0.35138E+05         0.00000E+00
    0.00000E+00         0.00000E+00        -0.20938E+05
 
   -0.65906E+05         0.10141E+06         0.00000E+00
    0.10141E+06        -0.36877E+05         0.00000E+00
    0.00000E+00         0.00000E+00        -0.20557E+05
 
   -0.62189E+05         0.10292E+06         0.00000E+00
    0.10292E+06        -0.38641E+05         0.00000E+00
    0.00000E+00         0.00000E+00        -0.20166E+05
 
   -0.58404E+05         0.10435E+06         0.00000E+00
    0.10435E+06        -0.40429E+05         0.00000E+00
    0.00000E+00         0.00000E+00        -0.19767E+05
 
   -0.54553E+05         0.10569E+06         0.00000E+00
    0.10569E+06        -0.42239E+05         0.00000E+00
    0.00000E+00         0.00000E+00        -0.19358E+05
 
   -0.50637E+05         0.10693E+06         0.00000E+00
    0.10693E+06        -0.44070E+05         0.00000E+00
    0.00000E+00         0.00000E+00        -0.18941E+05
 
   -0.46659E+05         0.10809E+06         0.00000E+00
    0.10809E+06        -0.45921E+05         0.00000E+00
    0.00000E+00         0.00000E+00        -0.18516E+05
 
   -0.42621E+05         0.10915E+06         0.00000E+00
    0.10915E+06        -0.47791E+05         0.00000E+00
    0.00000E+00         0.00000E+00        -0.18082E+05
 
   -0.38525E+05         0.11011E+06         0.00000E+00
    0.11011E+06        -0.49677E+05         0.00000E+00
    0.00000E+00         0.00000E+00        -0.17640E+05
 
   -0.34374E+05         0.11098E+06         0.00000E+00
    0.11098E+06        -0.51578E+05         0.00000E+00
    0.00000E+00         0.00000E+00        -0.17190E+05
 
   -0.30169E+05         0.11175E+06         0.00000E+00
    0.11175E+06        -0.53493E+05         0.00000E+00
    0.00000E+00         0.00000E+00        -0.16732E+05
 
   -0.25913E+05         0.11243E+06         0.00000E+00
    0.11243E+06        -0.55421E+05         0.00000E+00
    0.00000E+00         0.00000E+00        -0.16267E+05
 
   -0.21609E+05         0.11300E+06         0.00000E+00
    0.11300E+06        -0.57359E+05         0.00000E+00
    0.00000E+00         0.00000E+00        -0.15794E+05
 
   -0.17258E+05         0.11348E+06         0.00000E+00
    0.11348E+06        -0.59307E+05         0.00000E+00
    0.00000E+00         0.00000E+00        -0.15313E+05
 
   -0.12277E+06         0.14912E+04         0.00000E+00
    0.14912E+04         0.15839E+02         0.00000E+00
    0.00000E+00         0.00000E+00        -0.24551E+05
 
   -0.12275E+06         0.44862E+04         0.00000E+00
    0.44862E+04        -0.34009E+02         0.00000E+00
    0.00000E+00         0.00000E+00        -0.24557E+05
 
   -0.12263E+06         0.74829E+04         0.00000E+00
    0.74829E+04        -0.13427E+03         0.00000E+00
    0.00000E+00         0.00000E+00        -0.24553E+05
 
   -0.12241E+06         0.10479E+05         0.00000E+00
    0.10479E+05        -0.28508E+03         0.00000E+00
    0.00000E+00         0.00000E+00        -0.24539E+05
 
   -0.12209E+06         0.13471E+05         0.00000E+00
    0.13471E+05        -0.48651E+03         0.00000E+00
    0.00000E+00         0.00000E+00        -0.24515E+05
 
   -0.12166E+06         0.16456E+05         0.00000E+00
    0.16456E+05        -0.73854E+03         0.00000E+00
    0.00000E+00         0.00000E+00        -0.24480E+05
 
   -0.12114E+06         0.19432E+05         0.00000E+00
    0.19432E+05        -0.10411E+04         0.00000E+00
    0.00000E+00         0.00000E+00        -0.24436E+05
 
   -0.12051E+06         0.22396E+05         0.00000E+00
    0.22396E+05        -0.13940E+04         0.00000E+00
    0.00000E+00         0.00000E+00        -0.24381E+05
 
   -0.11978E+06         0.25345E+05         0.00000E+00
    0.25345E+05        -0.17972E+04         0.00000E+00
    0.00000E+00         0.00000E+00        -0.24316E+05
 
   -0.11896E+06         0.28276E+05         0.00000E+00
    0.28276E+05        -0.22501E+04         0.00000E+00
    0.00000E+00         0.00000E+00        -0.24241E+05
 
   -0.11803E+06         0.31187E+05         0.00000E+00
    0.31187E+05        -0.27527E+04         0.00000E+00
    0.00000E+00         0.00000E+00        -0.24156E+05
 
   -0.11700E+06         0.34075E+05         0.00000E+00
    0.34075E+05        -0.33044E+04         0.00000E+00
    0.00000E+00         0.00000E+00        -0.24060E+05
 
   -0.11587E+06         0.36937E+05         0.00000E+00
    0.36937E+05        -0.39047E+04         0.00000E+00
    0.00000E+00         0.00000E+00        -0.23955E+05
 
   -0.11464E+06         0.39771E+05         0.00000E+00
    0.39771E+05        -0.45532E+04         0.00000E+00
    0.00000E+00         0.00000E+00        -0.23839E+05
 
   -0.11332E+06         0.42574E+05         0.00000E+00
    0.42574E+05        -0.52493E+04         0.00000E+00
    0.00000E+00         0.00000E+00        -0.23713E+05
 
   -0.11189E+06         0.45343E+05         0.00000E+00
    0.45343E+05        -0.59923E+04         0.00000E+00
    0.00000E+00         0.00000E+00        -0.23577E+05
 
   -0.11038E+06         0.48076E+05         0.00000E+00
    0.48076E+05        -0.67816E+04         0.00000E+00
    0.00000E+00         0.00000E+00        -0.23431E+05
 
   -0.10876E+06         0.50770E+05         0.00000E+00
    0.50770E+05        -0.76164E+04         0.00000E+00
    0.00000E+00         0.00000E+00        -0.23276E+05
 
   -0.10705E+06         0.53424E+05         0.00000E+00
    0.53424E+05        -0.84961E+04         0.00000E+00
    0.00000E+00         0.00000E+00        -0.23110E+05
 
   -0.10525E+06         0.56034E+05         0.00000E+00
    0.56034E+05        -0.94196E+04         0.00000E+00
    0.00000E+00         0.00000E+00        -0.22934E+05
 
   -0.10336E+06         0.58599E+05         0.00000E+00
    0.58599E+05        -0.10386E+05         0.00000E+00
    0.00000E+00         0.00000E+00        -0.22748E+05
 
   -0.10137E+06         0.61115E+05         0.00000E+00
    0.61115E+05        -0.11395E+05         0.00000E+00
    0.00000E+00         0.00000E+00        -0.22553E+05
 
   -0.99296E+05         0.63582E+05         0.00000E+00
    0.63582E+05        -0.12445E+05         0.00000E+00
    0.00000E+00         0.00000E+00        -0.22348E+05
 
   -0.97132E+05         0.65995E+05         0.00000E+00
    0.65995E+05        -0.13536E+05         0.00000E+00
    0.00000E+00         0.00000E+00        -0.22134E+05
 
   -0.94882E+05         0.68355E+05         0.00000E+00
    0.68355E+05        -0.14666E+05         0.00000E+00
    0.00000E+00         0.00000E+00        -0.21910E+05
 
   -0.92546E+05         0.70657E+05         0.00000E+00
    0.70657E+05        -0.15834E+05         0.00000E+00
    0.00000E+00         0.00000E+00        -0.21676E+05
 
   -0.90127E+05         0.72901E+05         0.00000E+00
    0.72901E+05        -0.17039E+05         0.00000E+00
    0.00000E+00         0.00000E+00        -0.21433E+05
 
   -0.87624E+05         0.75084E+05         0.00000E+00
    0.75084E+05        -0.18280E+05         0.00000E+00
    0.00000E+00         0.00000E+00        -0.21181E+05
 
   -0.85041E+05         0.77204E+05         0.00000E+00
    0.77204E+05        -0.19557E+05         0.00000E+00
    0.00000E+00         0.00000E+00        -0.20920E+05
 
   -0.82379E+05         0.79259E+05         0.00000E+00
    0.79259E+05        -0.20867E+05         0.00000E+00
    0.00000E+00         0.00000E+00        -0.20649E+05
 
   -0.79639E+05         0.81248E+05         0.00000E+00
    0.81248E+05        -0.22211E+05         0.00000E+00
    0.00000E+00         0.00000E+00        -0.20370E+05
 
   -0.76823E+05         0.83169E+05         0.00000E+00
    0.83169E+05        -0.23586E+05         0.00000E+00
    0.00000E+00         0.00000E+00        -0.20082E+05
 
   -0.73932E+05         0.85020E+05         0.00000E+00
    0.85020E+05        -0.24991E+05         0.00000E+00
    0.00000E+00         0.00000E+00        -0.19785E+05
 
   -0.70970E+05         0.86799E+05         0.00000E+00
    0.86799E+05        -0.26425E+05         0.00000E+00
    0.00000E+00         0.00000E+00        -0.19479E+05
 
   -0.67936E+05         0.88504E+05         0.00000E+00
    0.88504E+05        -0.27888E+05         0.00000E+00
    0.00000E+00         0.00000E+00        -0.19165E+05
 
   -0.64834E+05         0.90135E+05         0.00000E+00
    0.90135E+05        -0.29377E+05         0.00000E+00
    0.00000E+00         0.00000E+00        -0.18842E+05
 
   -0.61664E+05         0.91688E+05         0.00000E+00
    0.91688E+05        -0.30892E+05         0.00000E+00
    0.00000E+00         0.00000E+00        -0.18511E+05
 
   -0.58430E+05         0.93164E+05         0.00000E+00
    0.93164E+05        -0.32432E+05         0.00000E+00
    0.00000E+00         0.00000E+00        -0.18172E+05
 
   -0.55132E+05         0.94560E+05         0.00000E+00
    0.94560E+05        -0.33994E+05         0.00000E+00
    0.00000E+00         0.00000E+00        -0.17825E+05
 
   -0.51773E+05         0.95875E+05         0.00000E+00
    0.95875E+05        -0.35578E+05         0.00000E+00
    0.00000E+00         0.00000E+00        -0.17470E+05
 
   -0.48354E+05         0.97107E+05         0.00000E+00
    0.97107E+05        -0.37183E+05         0.00000E+00
    0.00000E+00         0.00000E+00        -0.17107E+05
 
   -0.44878E+05         0.98256E+05         0.00000E+00
    0.98256E+05        -0.38807E+05         0.00000E+00
    0.00000E+00         0.00000E+00        -0.16737E+05
 
   -0.41346E+05         0.99319E+05         0.00000E+00
    0.99319E+05        -0.40448E+05         0.00000E+00
    0.00000E+00         0.00000E+00        -0.16359E+05
 
   -0.37761E+05         0.10030E+06         0.00000E+00
    0.10030E+06        -0.42107E+05         0.00000E+00
    0.00000E+00         0.00000E+00        -0.15973E+05
 
   -0.34124E+05         0.10119E+06         0.00000E+00
    0.10119E+06        -0.43780E+05         0.00000E+00
    0.00000E+00         0.00000E+00        -0.15581E+05
 
   -0.30438E+05         0.10199E+06         0.00000E+00
    0.10199E+06        -0.45468E+05         0.00000E+00
    0.00000E+00         0.00000E+00        -0.15181E+05
 
   -0.26704E+05         0.10270E+06         0.00000E+00
    0.10270E+06        -0.47168E+05         0.00000E+00
    0.00000E+00         0.00000E+00        -0.14774E+05
 
   -0.22925E+05         0.10331E+06         0.00000E+00
    0.10331E+06        -0.48879E+05         0.00000E+00
    0.00000E+00         0.00000E+00        -0.14361E+05
 
   -0.19103E+05         0.10384E+06         0.00000E+00
    0.10384E+06        -0.50600E+05         0.00000E+00
    0.00000E+00         0.00000E+00        -0.13941E+05
 
   -0.15240E+05         0.10427E+06         0.00000E+00
    0.10427E+06        -0.52329E+05         0.00000E+00
    0.00000E+00         0.00000E+00        -0.13514E+05
 
   -0.10840E+06         0.13754E+04         0.00000E+00
    0.13754E+04         0.13770E+02         0.00000E+00
    0.00000E+00         0.00000E+00        -0.21678E+05
 
   -0.10837E+06         0.41357E+04         0.00000E+00
    0.41357E+04        -0.29552E+02         0.00000E+00
    0.00000E+00         0.00000E+00        -0.21680E+05
 
   -0.10825E+06         0.68971E+04         0.00000E+00
    0.68971E+04        -0.11670E+03         0.00000E+00
    0.00000E+00         0.00000E+00        -0.21673E+05
 
   -0.10804E+06         0.96569E+04         0.00000E+00
    0.96569E+04        -0.24779E+03         0.00000E+00
    0.00000E+00         0.00000E+00        -0.21658E+05
 
   -0.10774E+06         0.12413E+05         0.00000E+00
    0.12413E+05        -0.42292E+03         0.00000E+00
    0.00000E+00         0.00000E+00        -0.21633E+05
 
   -0.10736E+06         0.15162E+05         0.00000E+00
    0.15162E+05        -0.64208E+03         0.00000E+00
    0.00000E+00         0.00000E+00        -0.21600E+05
 
   -0.10689E+06         0.17903E+05         0.00000E+00
    0.17903E+05        -0.90524E+03         0.00000E+00
    0.00000E+00         0.00000E+00        -0.21558E+05
 
   -0.10633E+06         0.20632E+05         0.00000E+00
    0.20632E+05        -0.12123E+04         0.00000E+00
    0.00000E+00         0.00000E+00        -0.21508E+05
 
   -0.10568E+06         0.23347E+05         0.00000E+00
    0.23347E+05        -0.15631E+04         0.00000E+00
    0.00000E+00         0.00000E+00        -0.21448E+05
 
   -0.10494E+06         0.26046E+05         0.00000E+00
    0.26046E+05        -0.19574E+04         0.00000E+00
    0.00000E+00         0.00000E+00        -0.21379E+05
 
   -0.10411E+06         0.28726E+05         0.00000E+00
    0.28726E+05        -0.23950E+04         0.00000E+00
    0.00000E+00         0.00000E+00        -0.21302E+05
 
   -0.10320E+06         0.31385E+05         0.00000E+00
    0.31385E+05        -0.28756E+04         0.00000E+00
    0.00000E+00         0.00000E+00        -0.21216E+05
 
   -0.10220E+06         0.34020E+05         0.00000E+00
    0.34020E+05        -0.33987E+04         0.00000E+00
    0.00000E+00         0.00000E+00        -0.21120E+05
 
   -0.10112E+06         0.36630E+05         0.00000E+00
    0.36630E+05        -0.39641E+04         0.00000E+00
    0.00000E+00         0.00000E+00        -0.21016E+05
 
   -0.99947E+05         0.39211E+05         0.00000E+00
    0.39211E+05        -0.45711E+04         0.00000E+00
    0.00000E+00         0.00000E+00        -0.20904E+05
 
   -0.98691E+05         0.41762E+05         0.00000E+00
    0.41762E+05        -0.52193E+04         0.00000E+00
    0.00000E+00         0.00000E+00        -0.20782E+05
 
   -0.97350E+05         0.44280E+05         0.00000E+00
    0.44280E+05        -0.59083E+04         0.00000E+00
    0.00000E+00         0.00000E+00        -0.20652E+05
 
   -0.95925E+05         0.46762E+05         0.00000E+00
    0.46762E+05        -0.66372E+04         0.00000E+00
    0.00000E+00         0.00000E+00        -0.20513E+05
 
   -0.94418E+05         0.49207E+05         0.00000E+00
    0.49207E+05        -0.74057E+04         0.00000E+00
    0.00000E+00         0.00000E+00        -0.20365E+05
 
   -0.92829E+05         0.51613E+05         0.00000E+00
    0.51613E+05        -0.82129E+04         0.00000E+00
    0.00000E+00         0.00000E+00        -0.20208E+05
 
   -0.91158E+05         0.53977E+05         0.00000E+00
    0.53977E+05        -0.90581E+04         0.00000E+00
    0.00000E+00         0.00000E+00        -0.20043E+05
 
   -0.89408E+05         0.56297E+05         0.00000E+00
    0.56297E+05        -0.99407E+04         0.00000E+00
    0.00000E+00         0.00000E+00        -0.19870E+05
 
   -0.87578E+05         0.58571E+05         0.00000E+00
    0.58571E+05        -0.10860E+05         0.00000E+00
    0.00000E+00         0.00000E+00        -0.19688E+05
 
   -0.85671E+05         0.60797E+05         0.00000E+00
    0.60797E+05        -0.11815E+05         0.00000E+00
    0.00000E+00         0.00000E+00        -0.19497E+05
 
   -0.83687E+05         0.62973E+05         0.00000E+00
    0.62973E+05        -0.12804E+05         0.00000E+00
    0.00000E+00         0.00000E+00        -0.19298E+05
 
   -0.81628E+05         0.65097E+05         0.00000E+00
    0.65097E+05        -0.13828E+05         0.00000E+00
    0.00000E+00         0.00000E+00        -0.19091E+05
 
   -0.79495E+05         0.67168E+05         0.00000E+00
    0.67168E+05        -0.14885E+05         0.00000E+00
    0.00000E+00         0.00000E+00        -0.18876E+05
 
   -0.77288E+05         0.69182E+05         0.00000E+00
    0.69182E+05        -0.15974E+05         0.00000E+00
    0.00000E+00         0.00000E+00        -0.18652E+05
 
   -0.75010E+05         0.71140E+05         0.00000E+00
    0.71140E+05        -0.17095E+05         0.00000E+00
    0.00000E+00         0.00000E+00        -0.18421E+05
 
   -0.72662E+05         0.73037E+05         0.00000E+00
    0.73037E+05        -0.18245E+05         0.00000E+00
    0.00000E+00         0.00000E+00        -0.18181E+05
 
   -0.70245E+05         0.74874E+05         0.00000E+00
    0.74874E+05        -0.19425E+05         0.00000E+00
    0.00000E+00         0.00000E+00        -0.17934E+05
 
   -0.67761E+05         0.76648E+05         0.00000E+00
    0.76648E+05        -0.20634E+05         0.00000E+00
    0.00000E+00         0.00000E+00        -0.17679E+05
 
   -0.65211E+05         0.78357E+05         0.00000E+00
    0.78357E+05        -0.21869E+05         0.00000E+00
    0.00000E+00         0.00000E+00        -0.17416E+05
 
   -0.62597E+05         0.80000E+05         0.00000E+00
    0.80000E+05        -0.23131E+05         0.00000E+00
    0.00000E+00         0.00000E+00        -0.17146E+05
 
   -0.59920E+05         0.81575E+05         0.00000E+00
    0.81575E+05        -0.24418E+05         0.00000E+00
    0.00000E+00         0.00000E+00        -0.16868E+05
 
   -0.57182E+05         0.83081E+05         0.00000E+00
    0.83081E+05        -0.25729E+05         0.00000E+00
    0.00000E+00         0.00000E+00        -0.16582E+05
 
   -0.54385E+05         0.84517E+05         0.00000E+00
    0.84517E+05        -0.27063E+05         0.00000E+00
    0.00000E+00         0.00000E+00        -0.16290E+05
 
   -0.51530E+05         0.85880E+05         0.00000E+00
    0.85880E+05        -0.28419E+05         0.00000E+00
    0.00000E+00         0.00000E+00        -0.15990E+05
 
   -0.48619E+05         0.87169E+05         0.00000E+00
    0.87169E+05        -0.29796E+05         0.00000E+00
    0.00000E+00         0.00000E+00        -0.15683E+05
 
   -0.45653E+05         0.88384E+05         0.00000E+00
    0.88384E+05        -0.31192E+05         0.00000E+00
    0.00000E+00         0.00000E+00        -0.15369E+05
 
   -0.42634E+05         0.89522E+05         0.00000E+00
    0.89522E+05        -0.32607E+05         0.00000E+00
    0.00000E+00         0.00000E+00        -0.15048E+05
 
   -0.39565E+05         0.90583E+05         0.00000E+00
    0.90583E+05        -0.34039E+05         0.00000E+00
    0.00000E+00         0.00000E+00        -0.14721E+05
 
   -0.36447E+05         0.91564E+05         0.00000E+00
    0.91564E+05        -0.35487E+05         0.00000E+00
    0.00000E+00         0.00000E+00        -0.14387E+05
 
   -0.33281E+05         0.92465E+05         0.00000E+00
    0.92465E+05        -0.36950E+05         0.00000E+00
    0.00000E+00         0.00000E+00        -0.14046E+05
 
   -0.30070E+05         0.93285E+05         0.00000E+00
    0.93285E+05        -0.38427E+05         0.00000E+00
    0.00000E+00         0.00000E+00        -0.13699E+05
 
   -0.26815E+05         0.94023E+05         0.00000E+00
    0.94023E+05        -0.39916E+05         0.00000E+00
    0.00000E+00         0.00000E+00        -0.13346E+05
 
   -0.23518E+05         0.94677E+05         0.00000E+00
    0.94677E+05        -0.41416E+05         0.00000E+00
    0.00000E+00         0.00000E+00        -0.12987E+05
 
   -0.20182E+05         0.95246E+05         0.00000E+00
    0.95246E+05        -0.42927E+05         0.00000E+00
    0.00000E+00         0.00000E+00        -0.12622E+05
 
   -0.16808E+05         0.95729E+05         0.00000E+00
    0.95729E+05        -0.44446E+05         0.00000E+00
    0.00000E+00         0.00000E+00        -0.12251E+05
 
   -0.13398E+05         0.96126E+05         0.00000E+00
    0.96126E+05        -0.45972E+05         0.00000E+00
    0.00000E+00         0.00000E+00        -0.11874E+05
 
   -0.95126E+05         0.12748E+04         0.00000E+00
    0.12748E+04         0.11935E+02         0.00000E+00
    0.00000E+00         0.00000E+00        -0.19023E+05
 
   -0.95084E+05         0.38315E+04         0.00000E+00
    0.38315E+04        -0.25618E+02         0.00000E+00
    0.00000E+00         0.00000E+00        -0.19022E+05
 
   -0.94966E+05         0.63884E+04         0.00000E+00
    0.63884E+04        -0.10115E+03         0.00000E+00
    0.00000E+00         0.00000E+00        -0.19014E+05
 
   -0.94773E+05         0.89433E+04         0.00000E+00
    0.89433E+04        -0.21478E+03         0.00000E+00
    0.00000E+00         0.00000E+00        -0.18997E+05
 
   -0.94503E+05         0.11494E+05         0.00000E+00
    0.11494E+05        -0.36658E+03         0.00000E+00
    0.00000E+00         0.00000E+00        -0.18974E+05
 
   -0.94156E+05         0.14038E+05         0.00000E+00
    0.14038E+05        -0.55657E+03         0.00000E+00
    0.00000E+00         0.00000E+00        -0.18943E+05
 
   -0.93733E+05         0.16574E+05         0.00000E+00
    0.16574E+05        -0.78473E+03         0.00000E+00
    0.00000E+00         0.00000E+00        -0.18904E+05
 
   -0.93233E+05         0.19099E+05         0.00000E+00
    0.19099E+05        -0.10510E+04         0.00000E+00
    0.00000E+00         0.00000E+00        -0.18857E+05
 
   -0.92657E+05         0.21610E+05         0.00000E+00
    0.21610E+05        -0.13552E+04         0.00000E+00
    0.00000E+00         0.00000E+00        -0.18803E+05
 
   -0.92005E+05         0.24107E+05         0.00000E+00
    0.24107E+05        -0.16973E+04         0.00000E+00
    0.00000E+00         0.00000E+00        -0.18740E+05
 
   -0.91277E+05         0.26586E+05         0.00000E+00
    0.26586E+05        -0.20769E+04         0.00000E+00
    0.00000E+00         0.00000E+00        -0.18671E+05
 
   -0.90472E+05         0.29045E+05         0.00000E+00
    0.29045E+05        -0.24940E+04         0.00000E+00
    0.00000E+00         0.00000E+00        -0.18593E+05
 
   -0.89592E+05         0.31483E+05         0.00000E+00
    0.31483E+05        -0.29481E+04         0.00000E+00
    0.00000E+00         0.00000E+00        -0.18508E+05
 
   -0.88637E+05         0.33896E+05         0.00000E+00
    0.33896E+05        -0.34390E+04         0.00000E+00
    0.00000E+00         0.00000E+00        -0.18415E+05
 
   -0.87608E+05         0.36284E+05         0.00000E+00
    0.36284E+05        -0.39662E+04         0.00000E+00
    0.00000E+00         0.00000E+00        -0.18315E+05
 
   -0.86504E+05         0.38643E+05         0.00000E+00
    0.38643E+05        -0.45294E+04         0.00000E+00
    0.00000E+00         0.00000E+00        -0.18207E+05
 
   -0.85326E+05         0.40972E+05         0.00000E+00
    0.40972E+05        -0.51282E+04         0.00000E+00
    0.00000E+00         0.00000E+00        -0.18091E+05
 
   -0.84076E+05         0.43268E+05         0.00000E+00
    0.43268E+05        -0.57619E+04         0.00000E+00
    0.00000E+00         0.00000E+00        -0.17968E+05
 
   -0.82753E+05         0.45530E+05         0.00000E+00
    0.45530E+05        -0.64302E+04         0.00000E+00
    0.00000E+00         0.00000E+00        -0.17837E+05
 
   -0.81359E+05         0.47756E+05         0.00000E+00
    0.47756E+05        -0.71324E+04         0.00000E+00
    0.00000E+00         0.00000E+00        -0.17698E+05
 
   -0.79894E+05         0.49943E+05         0.00000E+00
    0.49943E+05        -0.78680E+04         0.00000E+00
    0.00000E+00         0.00000E+00        -0.17552E+05
 
   -0.78359E+05         0.52090E+05         0.00000E+00
    0.52090E+05        -0.86364E+04         0.00000E+00
    0.00000E+00         0.00000E+00        -0.17399E+05
 
   -0.76755E+05         0.54194E+05         0.00000E+00
    0.54194E+05        -0.94369E+04         0.00000E+00
    0.00000E+00         0.00000E+00        -0.17238E+05
 
   -0.75082E+05         0.56255E+05         0.00000E+00
    0.56255E+05        -0.10269E+05         0.00000E+00
    0.00000E+00         0.00000E+00        -0.17070E+05
 
   -0.73343E+05         0.58269E+05         0.00000E+00
    0.58269E+05        -0.11131E+05         0.00000E+00
    0.00000E+00         0.00000E+00        -0.16895E+05
 
   -0.71538E+05         0.60235E+05         0.00000E+00
    0.60235E+05        -0.12024E+05         0.00000E+00
    0.00000E+00         0.00000E+00        -0.16712E+05
 
   -0.69668E+05         0.62152E+05         0.00000E+00
    0.62152E+05        -0.12946E+05         0.00000E+00
    0.00000E+00         0.00000E+00        -0.16523E+05
 
   -0.67733E+05         0.64017E+05         0.00000E+00
    0.64017E+05        -0.13896E+05         0.00000E+00
    0.00000E+00         0.00000E+00        -0.16326E+05
 
   -0.65736E+05         0.65830E+05         0.00000E+00
    0.65830E+05        -0.14874E+05         0.00000E+00
    0.00000E+00         0.00000E+00        -0.16122E+05
 
   -0.63678E+05         0.67587E+05         0.00000E+00
    0.67587E+05        -0.15879E+05         0.00000E+00
    0.00000E+00         0.00000E+00        -0.15911E+05
 
   -0.61559E+05         0.69288E+05         0.00000E+00
    0.69288E+05        -0.16909E+05         0.00000E+00
    0.00000E+00         0.00000E+00        -0.15694E+05
 
   -0.59381E+05         0.70931E+05         0.00000E+00
    0.70931E+05        -0.17965E+05         0.00000E+00
    0.00000E+00         0.00000E+00        -0.15469E+05
 
   -0.57145E+05         0.72514E+05         0.00000E+00
    0.72514E+05        -0.19045E+05         0.00000E+00
    0.00000E+00         0.00000E+00        -0.15238E+05
 
   -0.54853E+05         0.74036E+05         0.00000E+00
    0.74036E+05        -0.20148E+05         0.00000E+00
    0.00000E+00         0.00000E+00        -0.15000E+05
 
   -0.52506E+05         0.75495E+05         0.00000E+00
    0.75495E+05        -0.21274E+05         0.00000E+00
    0.00000E+00         0.00000E+00        -0.14756E+05
 
   -0.50105E+05         0.76890E+05         0.00000E+00
    0.76890E+05        -0.22420E+05         0.00000E+00
    0.00000E+00         0.00000E+00        -0.14505E+05
 
   -0.47652E+05         0.78219E+05         0.00000E+00
    0.78219E+05        -0.23588E+05         0.00000E+00
    0.00000E+00         0.00000E+00        -0.14248E+05
 
   -0.45148E+05         0.79482E+05         0.00000E+00
    0.79482E+05        -0.24775E+05         0.00000E+00
    0.00000E+00         0.00000E+00        -0.13985E+05
 
   -0.42595E+05         0.80676E+05         0.00000E+00
    0.80676E+05        -0.25980E+05         0.00000E+00
    0.00000E+00         0.00000E+00        -0.13715E+05
 
   -0.39994E+05         0.81801E+05         0.00000E+00
    0.81801E+05        -0.27203E+05         0.00000E+00
    0.00000E+00         0.00000E+00        -0.13439E+05
 
   -0.37347E+05         0.82854E+05         0.00000E+00
    0.82854E+05        -0.28442E+05         0.00000E+00
    0.00000E+00         0.00000E+00        -0.13158E+05
 
   -0.34655E+05         0.83836E+05         0.00000E+00
    0.83836E+05        -0.29696E+05         0.00000E+00
    0.00000E+00         0.00000E+00        -0.12870E+05
 
   -0.31920E+05         0.84744E+05         0.00000E+00
    0.84744E+05        -0.30965E+05         0.00000E+00
    0.00000E+00         0.00000E+00        -0.12577E+05
 
   -0.29143E+05         0.85578E+05         0.00000E+00
    0.85578E+05        -0.32247E+05         0.00000E+00
    0.00000E+00         0.00000E+00        -0.12278E+05
 
   -0.26327E+05         0.86337E+05         0.00000E+00
    0.86337E+05        -0.33541E+05         0.00000E+00
    0.00000E+00         0.00000E+00        -0.11974E+05
 
   -0.23473E+05         0.87018E+05         0.00000E+00
    0.87018E+05        -0.34847E+05         0.00000E+00
    0.00000E+00         0.00000E+00        -0.11664E+05
 
   -0.20582E+05         0.87622E+05         0.00000E+00
    0.87622E+05        -0.36162E+05         0.00000E+00
    0.00000E+00         0.00000E+00        -0.11349E+05
 
   -0.17657E+05         0.88147E+05         0.00000E+00
    0.88147E+05        -0.37486E+05         0.00000E+00
    0.00000E+00         0.00000E+00        -0.11029E+05
 
   -0.14698E+05         0.88593E+05         0.00000E+00
    0.88593E+05        -0.38818E+05         0.00000E+00
    0.00000E+00         0.00000E+00        -0.10703E+05
 
   -0.11709E+05         0.88958E+05         0.00000E+00
    0.88958E+05        -0.40156E+05         0.00000E+00
    0.00000E+00         0.00000E+00        -0.10373E+05
 
   -0.82796E+05         0.11878E+04         0.00000E+00
    0.11878E+04         0.10288E+02         0.00000E+00
    0.00000E+00         0.00000E+00        -0.16557E+05
 
   -0.82749E+05         0.35684E+04         0.00000E+00
    0.35684E+04        -0.22096E+02         0.00000E+00
    0.00000E+00         0.00000E+00        -0.16554E+05
 
   -0.82638E+05         0.59486E+04         0.00000E+00
    0.59486E+04        -0.87219E+02         0.00000E+00
    0.00000E+00         0.00000E+00        -0.16545E+05
 
   -0.82460E+05         0.83263E+04         0.00000E+00
    0.83263E+04        -0.18518E+03         0.00000E+00
    0.00000E+00         0.00000E+00        -0.16529E+05
 
   -0.82217E+05         0.10700E+05         0.00000E+00
    0.10700E+05        -0.31604E+03         0.00000E+00
    0.00000E+00         0.00000E+00        -0.16507E+05
 
   -0.81908E+05         0.13066E+05         0.00000E+00
    0.13066E+05        -0.47983E+03         0.00000E+00
    0.00000E+00         0.00000E+00        -0.16478E+05
 
   -0.81533E+05         0.15425E+05         0.00000E+00
    0.15425E+05        -0.67653E+03         0.00000E+00
    0.00000E+00         0.00000E+00        -0.16442E+05
 
   -0.81092E+05         0.17773E+05         0.00000E+00
    0.17773E+05        -0.90609E+03         0.00000E+00
    0.00000E+00         0.00000E+00        -0.16400E+05
 
   -0.80585E+05         0.20108E+05         0.00000E+00
    0.20108E+05        -0.11684E+04         0.00000E+00
    0.00000E+00         0.00000E+00        -0.16351E+05
 
   -0.80012E+05         0.22429E+05         0.00000E+00
    0.22429E+05        -0.14634E+04         0.00000E+00
    0.00000E+00         0.00000E+00        -0.16295E+05
 
   -0.79374E+05         0.24734E+05         0.00000E+00
    0.24734E+05        -0.17908E+04         0.00000E+00
    0.00000E+00         0.00000E+00        -0.16233E+05
 
   -0.78670E+05         0.27020E+05         0.00000E+00
    0.27020E+05        -0.21506E+04         0.00000E+00
    0.00000E+00         0.00000E+00        -0.16164E+05
 
   -0.77900E+05         0.29286E+05         0.00000E+00
    0.29286E+05        -0.25424E+04         0.00000E+00
    0.00000E+00         0.00000E+00        -0.16089E+05
 
   -0.77066E+05         0.31529E+05         0.00000E+00
    0.31529E+05        -0.29660E+04         0.00000E+00
    0.00000E+00         0.00000E+00        -0.16006E+05
 
   -0.76168E+05         0.33748E+05         0.00000E+00
    0.33748E+05        -0.34210E+04         0.00000E+00
    0.00000E+00         0.00000E+00        -0.15918E+05
 
   -0.75205E+05         0.35940E+05         0.00000E+00
    0.35940E+05        -0.39072E+04         0.00000E+00
    0.00000E+00         0.00000E+00        -0.15822E+05
 
   -0.74179E+05         0.38105E+05         0.00000E+00
    0.38105E+05        -0.44242E+04         0.00000E+00
    0.00000E+00         0.00000E+00        -0.15721E+05
 
   -0.73089E+05         0.40239E+05         0.00000E+00
    0.40239E+05        -0.49716E+04         0.00000E+00
    0.00000E+00         0.00000E+00        -0.15612E+05
 
   -0.71937E+05         0.42342E+05         0.00000E+00
    0.42342E+05        -0.55489E+04         0.00000E+00
    0.00000E+00         0.00000E+00        -0.15497E+05
 
   -0.70723E+05         0.44410E+05         0.00000E+00
    0.44410E+05        -0.61557E+04         0.00000E+00
    0.00000E+00         0.00000E+00        -0.15376E+05
 
   -0.69448E+05         0.46443E+05         0.00000E+00
    0.46443E+05        -0.67915E+04         0.00000E+00
    0.00000E+00         0.00000E+00        -0.15248E+05
 
   -0.68112E+05         0.48438E+05         0.00000E+00
    0.48438E+05        -0.74558E+04         0.00000E+00
    0.00000E+00         0.00000E+00        -0.15114E+05
 
   -0.66716E+05         0.50394E+05         0.00000E+00
    0.50394E+05        -0.81481E+04         0.00000E+00
    0.00000E+00         0.00000E+00        -0.14973E+05
 
   -0.65262E+05         0.52310E+05         0.00000E+00
    0.52310E+05        -0.88677E+04         0.00000E+00
    0.00000E+00         0.00000E+00        -0.14826E+05
 
   -0.63749E+05         0.54182E+05         0.00000E+00
    0.54182E+05        -0.96141E+04         0.00000E+00
    0.00000E+00         0.00000E+00        -0.14673E+05
 
   -0.62178E+05         0.56010E+05         0.00000E+00
    0.56010E+05        -0.10387E+05         0.00000E+00
    0.00000E+00         0.00000E+00        -0.14513E+05
 
   -0.60552E+05         0.57792E+05         0.00000E+00
    0.57792E+05        -0.11185E+05         0.00000E+00
    0.00000E+00         0.00000E+00        -0.14347E+05
 
   -0.58869E+05         0.59526E+05         0.00000E+00
    0.59526E+05        -0.12008E+05         0.00000E+00
    0.00000E+00         0.00000E+00        -0.14175E+05
 
   -0.57133E+05         0.61210E+05         0.00000E+00
    0.61210E+05        -0.12855E+05         0.00000E+00
    0.00000E+00         0.00000E+00        -0.13998E+05
 
   -0.55342E+05         0.62844E+05         0.00000E+00
    0.62844E+05        -0.13725E+05         0.00000E+00
    0.00000E+00         0.00000E+00        -0.13814E+05
 
   -0.53500E+05         0.64425E+05         0.00000E+00
    0.64425E+05        -0.14619E+05         0.00000E+00
    0.00000E+00         0.00000E+00        -0.13624E+05
 
   -0.51606E+05         0.65953E+05         0.00000E+00
    0.65953E+05        -0.15534E+05         0.00000E+00
    0.00000E+00         0.00000E+00        -0.13428E+05
 
   -0.49661E+05         0.67425E+05         0.00000E+00
    0.67425E+05        -0.16470E+05         0.00000E+00
    0.00000E+00         0.00000E+00        -0.13226E+05
 
   -0.47668E+05         0.68840E+05         0.00000E+00
    0.68840E+05        -0.17427E+05         0.00000E+00
    0.00000E+00         0.00000E+00        -0.13019E+05
 
   -0.45627E+05         0.70196E+05         0.00000E+00
    0.70196E+05        -0.18404E+05         0.00000E+00
    0.00000E+00         0.00000E+00        -0.12806E+05
 
   -0.43539E+05         0.71493E+05         0.00000E+00
    0.71493E+05        -0.19399E+05         0.00000E+00
    0.00000E+00         0.00000E+00        -0.12588E+05
 
   -0.41405E+05         0.72729E+05         0.00000E+00
    0.72729E+05        -0.20412E+05         0.00000E+00
    0.00000E+00         0.00000E+00        -0.12363E+05
 
   -0.39228E+05         0.73903E+05         0.00000E+00
    0.73903E+05        -0.21442E+05         0.00000E+00
    0.00000E+00         0.00000E+00        -0.12134E+05
 
   -0.37007E+05         0.75013E+05         0.00000E+00
    0.75013E+05        -0.22489E+05         0.00000E+00
    0.00000E+00         0.00000E+00        -0.11899E+05
 
   -0.34745E+05         0.76058E+05         0.00000E+00
    0.76058E+05        -0.23551E+05         0.00000E+00
    0.00000E+00         0.00000E+00        -0.11659E+05
 
   -0.32443E+05         0.77037E+05         0.00000E+00
    0.77037E+05        -0.24627E+05         0.00000E+00
    0.00000E+00         0.00000E+00        -0.11414E+05
 
   -0.30102E+05         0.77949E+05         0.00000E+00
    0.77949E+05        -0.25717E+05         0.00000E+00
    0.00000E+00         0.00000E+00        -0.11164E+05
 
   -0.27724E+05         0.78792E+05         0.00000E+00
    0.78792E+05        -0.26819E+05         0.00000E+00
    0.00000E+00         0.00000E+00        -0.10909E+05
 
   -0.25309E+05         0.79567E+05         0.00000E+00
    0.79567E+05        -0.27933E+05         0.00000E+00
    0.00000E+00         0.00000E+00        -0.10649E+05
 
   -0.22861E+05         0.80270E+05         0.00000E+00
    0.80270E+05        -0.29058E+05         0.00000E+00
    0.00000E+00         0.00000E+00        -0.10384E+05
 
   -0.20379E+05         0.80903E+05         0.00000E+00
    0.80903E+05        -0.30192E+05         0.00000E+00
    0.00000E+00         0.00000E+00        -0.10114E+05
 
   -0.17866E+05         0.81463E+05         0.00000E+00
    0.81463E+05        -0.31335E+05         0.00000E+00
    0.00000E+00         0.00000E+00        -0.98402E+04
 
   -0.15323E+05         0.81949E+05         0.00000E+00
    0.81949E+05        -0.32486E+05         0.00000E+00
    0.00000E+00         0.00000E+00        -0.95617E+04
 
   -0.12751E+05         0.82362E+05         0.00000E+00
    0.82362E+05        -0.33644E+05         0.00000E+00
    0.00000E+00         0.00000E+00        -0.92789E+04
 
   -0.10153E+05         0.82699E+05         0.00000E+00
    0.82699E+05        -0.34807E+05         0.00000E+00
    0.00000E+00         0.00000E+00        -0.89919E+04
 
   -0.71281E+05         0.11131E+04         0.00000E+00
    0.11131E+04         0.87913E+01         0.00000E+00
    0.00000E+00         0.00000E+00        -0.14255E+05
 
   -0.71234E+05         0.33425E+04         0.00000E+00
    0.33425E+04        -0.18897E+02         0.00000E+00
    0.00000E+00         0.00000E+00        -0.14251E+05
 
   -0.71130E+05         0.55708E+04         0.00000E+00
    0.55708E+04        -0.74563E+02         0.00000E+00
    0.00000E+00         0.00000E+00        -0.14241E+05
 
   -0.70971E+05         0.77964E+04         0.00000E+00
    0.77964E+04        -0.15829E+03         0.00000E+00
    0.00000E+00         0.00000E+00        -0.14226E+05
 
   -0.70755E+05         0.10017E+05         0.00000E+00
    0.10017E+05        -0.27012E+03         0.00000E+00
    0.00000E+00         0.00000E+00        -0.14205E+05
 
   -0.70483E+05         0.12232E+05         0.00000E+00
    0.12232E+05        -0.41009E+03         0.00000E+00
    0.00000E+00         0.00000E+00        -0.14179E+05
 
   -0.70155E+05         0.14438E+05         0.00000E+00
    0.14438E+05        -0.57817E+03         0.00000E+00
    0.00000E+00         0.00000E+00        -0.14147E+05
 
   -0.69770E+05         0.16634E+05         0.00000E+00
    0.16634E+05        -0.77434E+03         0.00000E+00
    0.00000E+00         0.00000E+00        -0.14109E+05
 
   -0.69329E+05         0.18818E+05         0.00000E+00
    0.18818E+05        -0.99853E+03         0.00000E+00
    0.00000E+00         0.00000E+00        -0.14066E+05
 
   -0.68832E+05         0.20988E+05         0.00000E+00
    0.20988E+05        -0.12506E+04         0.00000E+00
    0.00000E+00         0.00000E+00        -0.14016E+05
 
   -0.68278E+05         0.23143E+05         0.00000E+00
    0.23143E+05        -0.15305E+04         0.00000E+00
    0.00000E+00         0.00000E+00        -0.13962E+05
 
   -0.67669E+05         0.25280E+05         0.00000E+00
    0.25280E+05        -0.18380E+04         0.00000E+00
    0.00000E+00         0.00000E+00        -0.13901E+05
 
   -0.67004E+05         0.27398E+05         0.00000E+00
    0.27398E+05        -0.21729E+04         0.00000E+00
    0.00000E+00         0.00000E+00        -0.13835E+05
 
   -0.66283E+05         0.29494E+05         0.00000E+00
    0.29494E+05        -0.25351E+04         0.00000E+00
    0.00000E+00         0.00000E+00        -0.13764E+05
 
   -0.65507E+05         0.31568E+05         0.00000E+00
    0.31568E+05        -0.29242E+04         0.00000E+00
    0.00000E+00         0.00000E+00        -0.13686E+05
 
   -0.64676E+05         0.33617E+05         0.00000E+00
    0.33617E+05        -0.33400E+04         0.00000E+00
    0.00000E+00         0.00000E+00        -0.13603E+05
 
   -0.63791E+05         0.35640E+05         0.00000E+00
    0.35640E+05        -0.37822E+04         0.00000E+00
    0.00000E+00         0.00000E+00        -0.13515E+05
 
   -0.62852E+05         0.37634E+05         0.00000E+00
    0.37634E+05        -0.42505E+04         0.00000E+00
    0.00000E+00         0.00000E+00        -0.13420E+05
 
   -0.61859E+05         0.39599E+05         0.00000E+00
    0.39599E+05        -0.47445E+04         0.00000E+00
    0.00000E+00         0.00000E+00        -0.13321E+05
 
   -0.60813E+05         0.41531E+05         0.00000E+00
    0.41531E+05        -0.52638E+04         0.00000E+00
    0.00000E+00         0.00000E+00        -0.13215E+05
 
   -0.59715E+05         0.43431E+05         0.00000E+00
    0.43431E+05        -0.58081E+04         0.00000E+00
    0.00000E+00         0.00000E+00        -0.13105E+05
 
   -0.58565E+05         0.45295E+05         0.00000E+00
    0.45295E+05        -0.63768E+04         0.00000E+00
    0.00000E+00         0.00000E+00        -0.12988E+05
 
   -0.57363E+05         0.47123E+05         0.00000E+00
    0.47123E+05        -0.69696E+04         0.00000E+00
    0.00000E+00         0.00000E+00        -0.12866E+05
 
   -0.56111E+05         0.48912E+05         0.00000E+00
    0.48912E+05        -0.75860E+04         0.00000E+00
    0.00000E+00         0.00000E+00        -0.12739E+05
 
   -0.54808E+05         0.50661E+05         0.00000E+00
    0.50661E+05        -0.82254E+04         0.00000E+00
    0.00000E+00         0.00000E+00        -0.12607E+05
 
   -0.53457E+05         0.52369E+05         0.00000E+00
    0.52369E+05        -0.88874E+04         0.00000E+00
    0.00000E+00         0.00000E+00        -0.12469E+05
 
   -0.52057E+05         0.54034E+05         0.00000E+00
    0.54034E+05        -0.95714E+04         0.00000E+00
    0.00000E+00         0.00000E+00        -0.12326E+05
 
   -0.50610E+05         0.55654E+05         0.00000E+00
    0.55654E+05        -0.10277E+05         0.00000E+00
    0.00000E+00         0.00000E+00        -0.12177E+05
 
   -0.49115E+05         0.57228E+05         0.00000E+00
    0.57228E+05        -0.11003E+05         0.00000E+00
    0.00000E+00         0.00000E+00        -0.12024E+05
 
   -0.47575E+05         0.58754E+05         0.00000E+00
    0.58754E+05        -0.11750E+05         0.00000E+00
    0.00000E+00         0.00000E+00        -0.11865E+05
 
   -0.45990E+05         0.60231E+05         0.00000E+00
    0.60231E+05        -0.12516E+05         0.00000E+00
    0.00000E+00         0.00000E+00        -0.11701E+05
 
   -0.44360E+05         0.61658E+05         0.00000E+00
    0.61658E+05        -0.13301E+05         0.00000E+00
    0.00000E+00         0.00000E+00        -0.11532E+05
 
   -0.42688E+05         0.63033E+05         0.00000E+00
    0.63033E+05        -0.14105E+05         0.00000E+00
    0.00000E+00         0.00000E+00        -0.11358E+05
 
   -0.40973E+05         0.64354E+05         0.00000E+00
    0.64354E+05        -0.14926E+05         0.00000E+00
    0.00000E+00         0.00000E+00        -0.11180E+05
 
   -0.39217E+05         0.65621E+05         0.00000E+00
    0.65621E+05        -0.15764E+05         0.00000E+00
    0.00000E+00         0.00000E+00        -0.10996E+05
 
   -0.37421E+05         0.66833E+05         0.00000E+00
    0.66833E+05        -0.16618E+05         0.00000E+00
    0.00000E+00         0.00000E+00        -0.10808E+05
 
   -0.35585E+05         0.67987E+05         0.00000E+00
    0.67987E+05        -0.17488E+05         0.00000E+00
    0.00000E+00         0.00000E+00        -0.10615E+05
 
   -0.33712E+05         0.69083E+05         0.00000E+00
    0.69083E+05        -0.18373E+05         0.00000E+00
    0.00000E+00         0.00000E+00        -0.10417E+05
 
   -0.31802E+05         0.70119E+05         0.00000E+00
    0.70119E+05        -0.19272E+05         0.00000E+00
    0.00000E+00         0.00000E+00        -0.10215E+05
 
   -0.29857E+05         0.71095E+05         0.00000E+00
    0.71095E+05        -0.20184E+05         0.00000E+00
    0.00000E+00         0.00000E+00        -0.10008E+05
 
   -0.27877E+05         0.72009E+05         0.00000E+00
    0.72009E+05        -0.21109E+05         0.00000E+00
    0.00000E+00         0.00000E+00        -0.97972E+04
 
   -0.25864E+05         0.72860E+05         0.00000E+00
    0.72860E+05        -0.22045E+05         0.00000E+00
    0.00000E+00         0.00000E+00        -0.95818E+04
 
   -0.23818E+05         0.73647E+05         0.00000E+00
    0.73647E+05        -0.22993E+05         0.00000E+00
    0.00000E+00         0.00000E+00        -0.93622E+04
 
   -0.21742E+05         0.74370E+05         0.00000E+00
    0.74370E+05        -0.23950E+05         0.00000E+00
    0.00000E+00         0.00000E+00        -0.91384E+04
 
   -0.19636E+05         0.75026E+05         0.00000E+00
    0.75026E+05        -0.24916E+05         0.00000E+00
    0.00000E+00         0.00000E+00        -0.89106E+04
 
   -0.17502E+05         0.75616E+05         0.00000E+00
    0.75616E+05        -0.25891E+05         0.00000E+00
    0.00000E+00         0.00000E+00        -0.86788E+04
 
   -0.15342E+05         0.76138E+05         0.00000E+00
    0.76138E+05        -0.26874E+05         0.00000E+00
    0.00000E+00         0.00000E+00        -0.84431E+04
 
   -0.13155E+05         0.76591E+05         0.00000E+00
    0.76591E+05        -0.27863E+05         0.00000E+00
    0.00000E+00         0.00000E+00        -0.82037E+04
 
   -0.10945E+05         0.76975E+05         0.00000E+00
    0.76975E+05        -0.28858E+05         0.00000E+00
    0.00000E+00         0.00000E+00        -0.79605E+04
 
   -0.87117E+04         0.77288E+05         0.00000E+00
    0.77288E+05        -0.29857E+05         0.00000E+00
    0.00000E+00         0.00000E+00        -0.77138E+04
 
   -0.60464E+05         0.10496E+04         0.00000E+00
    0.10496E+04         0.74141E+01         0.00000E+00
    0.00000E+00         0.00000E+00        -0.12091E+05
 
   -0.60418E+05         0.31504E+04         0.00000E+00
    0.31504E+04        -0.15953E+02         0.00000E+00
    0.00000E+00         0.00000E+00        -0.12087E+05
 
   -0.60325E+05         0.52499E+04         0.00000E+00
    0.52499E+04        -0.62915E+02         0.00000E+00
    0.00000E+00         0.00000E+00        -0.12078E+05
 
   -0.60185E+05         0.73463E+04         0.00000E+00
    0.73463E+04        -0.13354E+03         0.00000E+00
    0.00000E+00         0.00000E+00        -0.12064E+05
 
   -0.59997E+05         0.94378E+04         0.00000E+00
    0.94378E+04        -0.22786E+03         0.00000E+00
    0.00000E+00         0.00000E+00        -0.12045E+05
 
   -0.59762E+05         0.11523E+05         0.00000E+00
    0.11523E+05        -0.34591E+03         0.00000E+00
    0.00000E+00         0.00000E+00        -0.12022E+05
 
   -0.59479E+05         0.13600E+05         0.00000E+00
    0.13600E+05        -0.48766E+03         0.00000E+00
    0.00000E+00         0.00000E+00        -0.11993E+05
 
   -0.59149E+05         0.15667E+05         0.00000E+00
    0.15667E+05        -0.65310E+03         0.00000E+00
    0.00000E+00         0.00000E+00        -0.11960E+05
 
   -0.58771E+05         0.17722E+05         0.00000E+00
    0.17722E+05        -0.84216E+03         0.00000E+00
    0.00000E+00         0.00000E+00        -0.11923E+05
 
   -0.58346E+05         0.19764E+05         0.00000E+00
    0.19764E+05        -0.10548E+04         0.00000E+00
    0.00000E+00         0.00000E+00        -0.11880E+05
 
   -0.57874E+05         0.21791E+05         0.00000E+00
    0.21791E+05        -0.12908E+04         0.00000E+00
    0.00000E+00         0.00000E+00        -0.11833E+05
 
   -0.57354E+05         0.23802E+05         0.00000E+00
    0.23802E+05        -0.15502E+04         0.00000E+00
    0.00000E+00         0.00000E+00        -0.11781E+05
 
   -0.56787E+05         0.25794E+05         0.00000E+00
    0.25794E+05        -0.18327E+04         0.00000E+00
    0.00000E+00         0.00000E+00        -0.11724E+05
 
   -0.56174E+05         0.27765E+05         0.00000E+00
    0.27765E+05        -0.21382E+04         0.00000E+00
    0.00000E+00         0.00000E+00        -0.11662E+05
 
   -0.55514E+05         0.29716E+05         0.00000E+00
    0.29716E+05        -0.24664E+04         0.00000E+00
    0.00000E+00         0.00000E+00        -0.11596E+05
 
   -0.54808E+05         0.31642E+05         0.00000E+00
    0.31642E+05        -0.28172E+04         0.00000E+00
    0.00000E+00         0.00000E+00        -0.11525E+05
 
   -0.54055E+05         0.33544E+05         0.00000E+00
    0.33544E+05        -0.31904E+04         0.00000E+00
    0.00000E+00         0.00000E+00        -0.11449E+05
 
   -0.53258E+05         0.35419E+05         0.00000E+00
    0.35419E+05        -0.35856E+04         0.00000E+00
    0.00000E+00         0.00000E+00        -0.11369E+05
 
   -0.52414E+05         0.37266E+05         0.00000E+00
    0.37266E+05        -0.40025E+04         0.00000E+00
    0.00000E+00         0.00000E+00        -0.11283E+05
 
   -0.51527E+05         0.39083E+05         0.00000E+00
    0.39083E+05        -0.44409E+04         0.00000E+00
    0.00000E+00         0.00000E+00        -0.11193E+05
 
   -0.50594E+05         0.40868E+05         0.00000E+00
    0.40868E+05        -0.49003E+04         0.00000E+00
    0.00000E+00         0.00000E+00        -0.11099E+05
 
   -0.49618E+05         0.42621E+05         0.00000E+00
    0.42621E+05        -0.53806E+04         0.00000E+00
    0.00000E+00         0.00000E+00        -0.11000E+05
 
   -0.48599E+05         0.44338E+05         0.00000E+00
    0.44338E+05        -0.58812E+04         0.00000E+00
    0.00000E+00         0.00000E+00        -0.10896E+05
 
   -0.47536E+05         0.46020E+05         0.00000E+00
    0.46020E+05        -0.64018E+04         0.00000E+00
    0.00000E+00         0.00000E+00        -0.10788E+05
 
   -0.46432E+05         0.47664E+05         0.00000E+00
    0.47664E+05        -0.69419E+04         0.00000E+00
    0.00000E+00         0.00000E+00        -0.10675E+05
 
   -0.45286E+05         0.49269E+05         0.00000E+00
    0.49269E+05        -0.75012E+04         0.00000E+00
    0.00000E+00         0.00000E+00        -0.10557E+05
 
   -0.44099E+05         0.50833E+05         0.00000E+00
    0.50833E+05        -0.80792E+04         0.00000E+00
    0.00000E+00         0.00000E+00        -0.10436E+05
 
   -0.42871E+05         0.52356E+05         0.00000E+00
    0.52356E+05        -0.86754E+04         0.00000E+00
    0.00000E+00         0.00000E+00        -0.10309E+05
 
   -0.41604E+05         0.53834E+05         0.00000E+00
    0.53834E+05        -0.92893E+04         0.00000E+00
    0.00000E+00         0.00000E+00        -0.10179E+05
 
   -0.40298E+05         0.55269E+05         0.00000E+00
    0.55269E+05        -0.99205E+04         0.00000E+00
    0.00000E+00         0.00000E+00        -0.10044E+05
 
   -0.38954E+05         0.56656E+05         0.00000E+00
    0.56656E+05        -0.10568E+05         0.00000E+00
    0.00000E+00         0.00000E+00        -0.99046E+04
 
   -0.37573E+05         0.57997E+05         0.00000E+00
    0.57997E+05        -0.11232E+05         0.00000E+00
    0.00000E+00         0.00000E+00        -0.97611E+04
 
   -0.36155E+05         0.59289E+05         0.00000E+00
    0.59289E+05        -0.11912E+05         0.00000E+00
    0.00000E+00         0.00000E+00        -0.96135E+04
 
   -0.34702E+05         0.60530E+05         0.00000E+00
    0.60530E+05        -0.12607E+05         0.00000E+00
    0.00000E+00         0.00000E+00        -0.94617E+04
 
   -0.33213E+05         0.61720E+05         0.00000E+00
    0.61720E+05        -0.13316E+05         0.00000E+00
    0.00000E+00         0.00000E+00        -0.93058E+04
 
   -0.31691E+05         0.62858E+05         0.00000E+00
    0.62858E+05        -0.14039E+05         0.00000E+00
    0.00000E+00         0.00000E+00        -0.91460E+04
 
   -0.30136E+05         0.63942E+05         0.00000E+00
    0.63942E+05        -0.14775E+05         0.00000E+00
    0.00000E+00         0.00000E+00        -0.89822E+04
 
   -0.28548E+05         0.64971E+05         0.00000E+00
    0.64971E+05        -0.15524E+05         0.00000E+00
    0.00000E+00         0.00000E+00        -0.88144E+04
 
   -0.26930E+05         0.65944E+05         0.00000E+00
    0.65944E+05        -0.16285E+05         0.00000E+00
    0.00000E+00         0.00000E+00        -0.86429E+04
 
   -0.25281E+05         0.66861E+05         0.00000E+00
    0.66861E+05        -0.17057E+05         0.00000E+00
    0.00000E+00         0.00000E+00        -0.84676E+04
 
   -0.23603E+05         0.67719E+05         0.00000E+00
    0.67719E+05        -0.17840E+05         0.00000E+00
    0.00000E+00         0.00000E+00        -0.82886E+04
 
   -0.21897E+05         0.68517E+05         0.00000E+00
    0.68517E+05        -0.18632E+05         0.00000E+00
    0.00000E+00         0.00000E+00        -0.81059E+04
 
   -0.20164E+05         0.69256E+05         0.00000E+00
    0.69256E+05        -0.19434E+05         0.00000E+00
    0.00000E+00         0.00000E+00        -0.79197E+04
 
   -0.18405E+05         0.69934E+05         0.00000E+00
    0.69934E+05        -0.20245E+05         0.00000E+00
    0.00000E+00         0.00000E+00        -0.77300E+04
 
   -0.16621E+05         0.70550E+05         0.00000E+00
    0.70550E+05        -0.21063E+05         0.00000E+00
    0.00000E+00         0.00000E+00        -0.75369E+04
 
   -0.14814E+05         0.71103E+05         0.00000E+00
    0.71103E+05        -0.21889E+05         0.00000E+00
    0.00000E+00         0.00000E+00        -0.73405E+04
 
   -0.12983E+05         0.71592E+05         0.00000E+00
    0.71592E+05        -0.22721E+05         0.00000E+00
    0.00000E+00         0.00000E+00        -0.71408E+04
 
   -0.11131E+05         0.72017E+05         0.00000E+00
    0.72017E+05        -0.23559E+05         0.00000E+00
    0.00000E+00         0.00000E+00        -0.69380E+04
 
   -0.92593E+04         0.72376E+05         0.00000E+00
    0.72376E+05        -0.24401E+05         0.00000E+00
    0.00000E+00         0.00000E+00        -0.67321E+04
 
   -0.73681E+04         0.72670E+05         0.00000E+00
    0.72670E+05        -0.25247E+05         0.00000E+00
    0.00000E+00         0.00000E+00        -0.65231E+04
 
   -0.50235E+05         0.99642E+03         0.00000E+00
    0.99642E+03         0.61318E+01         0.00000E+00
    0.00000E+00         0.00000E+00        -0.10046E+05
 
   -0.50193E+05         0.29899E+04         0.00000E+00
    0.29899E+04        -0.13206E+02         0.00000E+00
    0.00000E+00         0.00000E+00        -0.10041E+05
 
   -0.50112E+05         0.49815E+04         0.00000E+00
    0.49815E+04        -0.52059E+02         0.00000E+00
    0.00000E+00         0.00000E+00        -0.10033E+05
 
   -0.49992E+05         0.69699E+04         0.00000E+00
    0.69699E+04        -0.11048E+03         0.00000E+00
    0.00000E+00         0.00000E+00        -0.10020E+05
 
   -0.49832E+05         0.89533E+04         0.00000E+00
    0.89533E+04        -0.18850E+03         0.00000E+00
    0.00000E+00         0.00000E+00        -0.10004E+05
 
   -0.49634E+05         0.10930E+05         0.00000E+00
    0.10930E+05        -0.28613E+03         0.00000E+00
    0.00000E+00         0.00000E+00        -0.99840E+04
 
   -0.49396E+05         0.12899E+05         0.00000E+00
    0.12899E+05        -0.40336E+03         0.00000E+00
    0.00000E+00         0.00000E+00        -0.99599E+04
 
   -0.49119E+05         0.14858E+05         0.00000E+00
    0.14858E+05        -0.54018E+03         0.00000E+00
    0.00000E+00         0.00000E+00        -0.99318E+04
 
   -0.48803E+05         0.16806E+05         0.00000E+00
    0.16806E+05        -0.69653E+03         0.00000E+00
    0.00000E+00         0.00000E+00        -0.98998E+04
 
   -0.48447E+05         0.18741E+05         0.00000E+00
    0.18741E+05        -0.87235E+03         0.00000E+00
    0.00000E+00         0.00000E+00        -0.98639E+04
 
   -0.48052E+05         0.20661E+05         0.00000E+00
    0.20661E+05        -0.10676E+04         0.00000E+00
    0.00000E+00         0.00000E+00        -0.98240E+04
 
   -0.47619E+05         0.22566E+05         0.00000E+00
    0.22566E+05        -0.12820E+04         0.00000E+00
    0.00000E+00         0.00000E+00        -0.97802E+04
 
   -0.47146E+05         0.24452E+05         0.00000E+00
    0.24452E+05        -0.15157E+04         0.00000E+00
    0.00000E+00         0.00000E+00        -0.97324E+04
 
   -0.46635E+05         0.26320E+05         0.00000E+00
    0.26320E+05        -0.17684E+04         0.00000E+00
    0.00000E+00         0.00000E+00        -0.96807E+04
 
   -0.46085E+05         0.28167E+05         0.00000E+00
    0.28167E+05        -0.20399E+04         0.00000E+00
    0.00000E+00         0.00000E+00        -0.96250E+04
 
   -0.45497E+05         0.29991E+05         0.00000E+00
    0.29991E+05        -0.23301E+04         0.00000E+00
    0.00000E+00         0.00000E+00        -0.95654E+04
 
   -0.44871E+05         0.31791E+05         0.00000E+00
    0.31791E+05        -0.26388E+04         0.00000E+00
    0.00000E+00         0.00000E+00        -0.95020E+04
 
   -0.44207E+05         0.33567E+05         0.00000E+00
    0.33567E+05        -0.29657E+04         0.00000E+00
    0.00000E+00         0.00000E+00        -0.94346E+04
 
   -0.43506E+05         0.35315E+05         0.00000E+00
    0.35315E+05        -0.33107E+04         0.00000E+00
    0.00000E+00         0.00000E+00        -0.93633E+04
 
   -0.42768E+05         0.37034E+05         0.00000E+00
    0.37034E+05        -0.36735E+04         0.00000E+00
    0.00000E+00         0.00000E+00        -0.92882E+04
 
   -0.41993E+05         0.38724E+05         0.00000E+00
    0.38724E+05        -0.40538E+04         0.00000E+00
    0.00000E+00         0.00000E+00        -0.92093E+04
 
   -0.41181E+05         0.40383E+05         0.00000E+00
    0.40383E+05        -0.44512E+04         0.00000E+00
    0.00000E+00         0.00000E+00        -0.91265E+04
 
   -0.40334E+05         0.42008E+05         0.00000E+00
    0.42008E+05        -0.48656E+04         0.00000E+00
    0.00000E+00         0.00000E+00        -0.90400E+04
 
   -0.39451E+05         0.43599E+05         0.00000E+00
    0.43599E+05        -0.52966E+04         0.00000E+00
    0.00000E+00         0.00000E+00        -0.89496E+04
 
   -0.38534E+05         0.45155E+05         0.00000E+00
    0.45155E+05        -0.57439E+04         0.00000E+00
    0.00000E+00         0.00000E+00        -0.88555E+04
 
   -0.37582E+05         0.46673E+05         0.00000E+00
    0.46673E+05        -0.62070E+04         0.00000E+00
    0.00000E+00         0.00000E+00        -0.87578E+04
 
   -0.36596E+05         0.48153E+05         0.00000E+00
    0.48153E+05        -0.66857E+04         0.00000E+00
    0.00000E+00         0.00000E+00        -0.86563E+04
 
   -0.35576E+05         0.49593E+05         0.00000E+00
    0.49593E+05        -0.71796E+04         0.00000E+00
    0.00000E+00         0.00000E+00        -0.85512E+04
 
   -0.34524E+05         0.50992E+05         0.00000E+00
    0.50992E+05        -0.76881E+04         0.00000E+00
    0.00000E+00         0.00000E+00        -0.84424E+04
 
   -0.33440E+05         0.52349E+05         0.00000E+00
    0.52349E+05        -0.82110E+04         0.00000E+00
    0.00000E+00         0.00000E+00        -0.83301E+04
 
   -0.32323E+05         0.53662E+05         0.00000E+00
    0.53662E+05        -0.87478E+04         0.00000E+00
    0.00000E+00         0.00000E+00        -0.82143E+04
 
   -0.31176E+05         0.54929E+05         0.00000E+00
    0.54929E+05        -0.92981E+04         0.00000E+00
    0.00000E+00         0.00000E+00        -0.80949E+04
 
   -0.29999E+05         0.56151E+05         0.00000E+00
    0.56151E+05        -0.98614E+04         0.00000E+00
    0.00000E+00         0.00000E+00        -0.79721E+04
 
   -0.28792E+05         0.57325E+05         0.00000E+00
    0.57325E+05        -0.10437E+05         0.00000E+00
    0.00000E+00         0.00000E+00        -0.78459E+04
 
   -0.27557E+05         0.58450E+05         0.00000E+00
    0.58450E+05        -0.11025E+05         0.00000E+00
    0.00000E+00         0.00000E+00        -0.77163E+04
 
   -0.26293E+05         0.59526E+05         0.00000E+00
    0.59526E+05        -0.11624E+05         0.00000E+00
    0.00000E+00         0.00000E+00        -0.75834E+04
 
   -0.25001E+05         0.60551E+05         0.00000E+00
    0.60551E+05        -0.12235E+05         0.00000E+00
    0.00000E+00         0.00000E+00        -0.74473E+04
 
   -0.23684E+05         0.61524E+05         0.00000E+00
    0.61524E+05        -0.12856E+05         0.00000E+00
    0.00000E+00         0.00000E+00        -0.73079E+04
 
   -0.22340E+05         0.62443E+05         0.00000E+00
    0.62443E+05        -0.13487E+05         0.00000E+00
    0.00000E+00         0.00000E+00        -0.71653E+04
 
   -0.20971E+05         0.63309E+05         0.00000E+00
    0.63309E+05        -0.14127E+05         0.00000E+00
    0.00000E+00         0.00000E+00        -0.70197E+04
 
   -0.19579E+05         0.64120E+05         0.00000E+00
    0.64120E+05        -0.14776E+05         0.00000E+00
    0.00000E+00         0.00000E+00        -0.68710E+04
 
   -0.18163E+05         0.64875E+05         0.00000E+00
    0.64875E+05        -0.15434E+05         0.00000E+00
    0.00000E+00         0.00000E+00        -0.67193E+04
 
   -0.16724E+05         0.65573E+05         0.00000E+00
    0.65573E+05        -0.16099E+05         0.00000E+00
    0.00000E+00         0.00000E+00        -0.65647E+04
 
   -0.15264E+05         0.66213E+05         0.00000E+00
    0.66213E+05        -0.16772E+05         0.00000E+00
    0.00000E+00         0.00000E+00        -0.64072E+04
 
   -0.13784E+05         0.66794E+05         0.00000E+00
    0.66794E+05        -0.17450E+05         0.00000E+00
    0.00000E+00         0.00000E+00        -0.62469E+04
 
   -0.12284E+05         0.67317E+05         0.00000E+00
    0.67317E+05        -0.18135E+05         0.00000E+00
    0.00000E+00         0.00000E+00        -0.60838E+04
 
   -0.10765E+05         0.67778E+05         0.00000E+00
    0.67778E+05        -0.18825E+05         0.00000E+00
    0.00000E+00         0.00000E+00        -0.59181E+04
 
   -0.92286E+04         0.68179E+05         0.00000E+00
    0.68179E+05        -0.19520E+05         0.00000E+00
    0.00000E+00         0.00000E+00        -0.57498E+04
 
   -0.76754E+04         0.68518E+05         0.00000E+00
    0.68518E+05        -0.20219E+05         0.00000E+00
    0.00000E+00         0.00000E+00        -0.55789E+04
 
   -0.61066E+04         0.68795E+05         0.00000E+00
    0.68795E+05        -0.20921E+05         0.00000E+00
    0.00000E+00         0.00000E+00        -0.54056E+04
 
   -0.40492E+05         0.95300E+03         0.00000E+00
    0.95300E+03         0.49235E+01         0.00000E+00
    0.00000E+00         0.00000E+00        -0.80974E+04
 
   -0.40456E+05         0.28588E+04         0.00000E+00
    0.28588E+04        -0.10611E+02         0.00000E+00
    0.00000E+00         0.00000E+00        -0.80932E+04
 
   -0.40388E+05         0.47625E+04         0.00000E+00
    0.47625E+04        -0.41816E+02         0.00000E+00
    0.00000E+00         0.00000E+00        -0.80859E+04
 
   -0.40289E+05         0.66627E+04         0.00000E+00
    0.66627E+04        -0.88731E+02         0.00000E+00
    0.00000E+00         0.00000E+00        -0.80755E+04
 
   -0.40158E+05         0.85579E+04         0.00000E+00
    0.85579E+04        -0.15138E+03         0.00000E+00
    0.00000E+00         0.00000E+00        -0.80619E+04
 
   -0.39996E+05         0.10447E+05         0.00000E+00
    0.10447E+05        -0.22978E+03         0.00000E+00
    0.00000E+00         0.00000E+00        -0.80452E+04
 
   -0.39803E+05         0.12327E+05         0.00000E+00
    0.12327E+05        -0.32391E+03         0.00000E+00
    0.00000E+00         0.00000E+00        -0.80253E+04
 
   -0.39578E+05         0.14198E+05         0.00000E+00
    0.14198E+05        -0.43376E+03         0.00000E+00
    0.00000E+00         0.00000E+00        -0.80023E+04
 
   -0.39321E+05         0.16058E+05         0.00000E+00
    0.16058E+05        -0.55930E+03         0.00000E+00
    0.00000E+00         0.00000E+00        -0.79761E+04
 
   -0.39033E+05         0.17906E+05         0.00000E+00
    0.17906E+05        -0.70047E+03         0.00000E+00
    0.00000E+00         0.00000E+00        -0.79467E+04
 
   -0.38713E+05         0.19739E+05         0.00000E+00
    0.19739E+05        -0.85722E+03         0.00000E+00
    0.00000E+00         0.00000E+00        -0.79141E+04
 
   -0.38363E+05         0.21557E+05         0.00000E+00
    0.21557E+05        -0.10294E+04         0.00000E+00
    0.00000E+00         0.00000E+00        -0.78784E+04
 
   -0.37981E+05         0.23358E+05         0.00000E+00
    0.23358E+05        -0.12171E+04         0.00000E+00
    0.00000E+00         0.00000E+00        -0.78395E+04
 
   -0.37568E+05         0.25140E+05         0.00000E+00
    0.25140E+05        -0.14200E+04         0.00000E+00
    0.00000E+00         0.00000E+00        -0.77975E+04
 
   -0.37124E+05         0.26902E+05         0.00000E+00
    0.26902E+05        -0.16380E+04         0.00000E+00
    0.00000E+00         0.00000E+00        -0.77523E+04
 
   -0.36649E+05         0.28643E+05         0.00000E+00
    0.28643E+05        -0.18711E+04         0.00000E+00
    0.00000E+00         0.00000E+00        -0.77040E+04
 
   -0.36143E+05         0.30361E+05         0.00000E+00
    0.30361E+05        -0.21191E+04         0.00000E+00
    0.00000E+00         0.00000E+00        -0.76525E+04
 
   -0.35608E+05         0.32054E+05         0.00000E+00
    0.32054E+05        -0.23817E+04         0.00000E+00
    0.00000E+00         0.00000E+00        -0.75979E+04
 
   -0.35042E+05         0.33721E+05         0.00000E+00
    0.33721E+05        -0.26589E+04         0.00000E+00
    0.00000E+00         0.00000E+00        -0.75402E+04
 
   -0.34447E+05         0.35362E+05         0.00000E+00
    0.35362E+05        -0.29503E+04         0.00000E+00
    0.00000E+00         0.00000E+00        -0.74794E+04
 
   -0.33822E+05         0.36973E+05         0.00000E+00
    0.36973E+05        -0.32558E+04         0.00000E+00
    0.00000E+00         0.00000E+00        -0.74155E+04
 
   -0.33168E+05         0.38555E+05         0.00000E+00
    0.38555E+05        -0.35753E+04         0.00000E+00
    0.00000E+00         0.00000E+00        -0.73486E+04
 
   -0.32485E+05         0.40105E+05         0.00000E+00
    0.40105E+05        -0.39083E+04         0.00000E+00
    0.00000E+00         0.00000E+00        -0.72786E+04
 
   -0.31773E+05         0.41622E+05         0.00000E+00
    0.41622E+05        -0.42547E+04         0.00000E+00
    0.00000E+00         0.00000E+00        -0.72056E+04
 
   -0.31033E+05         0.43105E+05         0.00000E+00
    0.43105E+05        -0.46142E+04         0.00000E+00
    0.00000E+00         0.00000E+00        -0.71295E+04
 
   -0.30266E+05         0.44552E+05         0.00000E+00
    0.44552E+05        -0.49865E+04         0.00000E+00
    0.00000E+00         0.00000E+00        -0.70505E+04
 
   -0.29471E+05         0.45963E+05         0.00000E+00
    0.45963E+05        -0.53714E+04         0.00000E+00
    0.00000E+00         0.00000E+00        -0.69686E+04
 
   -0.28650E+05         0.47336E+05         0.00000E+00
    0.47336E+05        -0.57684E+04         0.00000E+00
    0.00000E+00         0.00000E+00        -0.68837E+04
 
   -0.27802E+05         0.48669E+05         0.00000E+00
    0.48669E+05        -0.61774E+04         0.00000E+00
    0.00000E+00         0.00000E+00        -0.67959E+04
 
   -0.26928E+05         0.49962E+05         0.00000E+00
    0.49962E+05        -0.65980E+04         0.00000E+00
    0.00000E+00         0.00000E+00        -0.67052E+04
 
   -0.26029E+05         0.51213E+05         0.00000E+00
    0.51213E+05        -0.70297E+04         0.00000E+00
    0.00000E+00         0.00000E+00        -0.66117E+04
 
   -0.25105E+05         0.52421E+05         0.00000E+00
    0.52421E+05        -0.74724E+04         0.00000E+00
    0.00000E+00         0.00000E+00        -0.65154E+04
 
   -0.24156E+05         0.53585E+05         0.00000E+00
    0.53585E+05        -0.79255E+04         0.00000E+00
    0.00000E+00         0.00000E+00        -0.64163E+04
 
   -0.23184E+05         0.54703E+05         0.00000E+00
    0.54703E+05        -0.83887E+04         0.00000E+00
    0.00000E+00         0.00000E+00        -0.63145E+04
 
   -0.22188E+05         0.55775E+05         0.00000E+00
    0.55775E+05        -0.88617E+04         0.00000E+00
    0.00000E+00         0.00000E+00        -0.62100E+04
 
   -0.21170E+05         0.56800E+05         0.00000E+00
    0.56800E+05        -0.93440E+04         0.00000E+00
    0.00000E+00         0.00000E+00        -0.61028E+04
 
   -0.20130E+05         0.57776E+05         0.00000E+00
    0.57776E+05        -0.98353E+04         0.00000E+00
    0.00000E+00         0.00000E+00        -0.59931E+04
 
   -0.19068E+05         0.58703E+05         0.00000E+00
    0.58703E+05        -0.10335E+05         0.00000E+00
    0.00000E+00         0.00000E+00        -0.58807E+04
 
   -0.17986E+05         0.59579E+05         0.00000E+00
    0.59579E+05        -0.10843E+05         0.00000E+00
    0.00000E+00         0.00000E+00        -0.57658E+04
 
   -0.16884E+05         0.60403E+05         0.00000E+00
    0.60403E+05        -0.11358E+05         0.00000E+00
    0.00000E+00         0.00000E+00        -0.56484E+04
 
   -0.15762E+05         0.61175E+05         0.00000E+00
    0.61175E+05        -0.11881E+05         0.00000E+00
    0.00000E+00         0.00000E+00        -0.55285E+04
 
   -0.14621E+05         0.61894E+05         0.00000E+00
    0.61894E+05        -0.12410E+05         0.00000E+00
    0.00000E+00         0.00000E+00        -0.54063E+04
 
   -0.13463E+05         0.62558E+05         0.00000E+00
    0.62558E+05        -0.12946E+05         0.00000E+00
    0.00000E+00         0.00000E+00        -0.52817E+04
 
   -0.12287E+05         0.63168E+05         0.00000E+00
    0.63168E+05        -0.13487E+05         0.00000E+00
    0.00000E+00         0.00000E+00        -0.51548E+04
 
   -0.11095E+05         0.63721E+05         0.00000E+00
    0.63721E+05        -0.14034E+05         0.00000E+00
    0.00000E+00         0.00000E+00        -0.50257E+04
 
   -0.98865E+04         0.64218E+05         0.00000E+00
    0.64218E+05        -0.14585E+05         0.00000E+00
    0.00000E+00         0.00000E+00        -0.48943E+04
 
   -0.86635E+04         0.64657E+05         0.00000E+00
    0.64657E+05        -0.15141E+05         0.00000E+00
    0.00000E+00         0.00000E+00        -0.47609E+04
 
   -0.74263E+04         0.65038E+05         0.00000E+00
    0.65038E+05        -0.15700E+05         0.00000E+00
    0.00000E+00         0.00000E+00        -0.46253E+04
 
   -0.61757E+04         0.65361E+05         0.00000E+00
    0.65361E+05        -0.16263E+05         0.00000E+00
    0.00000E+00         0.00000E+00        -0.44877E+04
 
   -0.49125E+04         0.65624E+05         0.00000E+00
    0.65624E+05        -0.16828E+05         0.00000E+00
    0.00000E+00         0.00000E+00        -0.43481E+04
 
   -0.31140E+05         0.91883E+03         0.00000E+00
    0.91883E+03         0.37719E+01         0.00000E+00
    0.00000E+00         0.00000E+00        -0.62272E+04
 
   -0.31110E+05         0.27556E+04         0.00000E+00
    0.27556E+04        -0.81311E+01         0.00000E+00
    0.00000E+00         0.00000E+00        -0.62237E+04
 
   -0.31057E+05         0.45901E+04         0.00000E+00
    0.45901E+04        -0.32040E+02         0.00000E+00
    0.00000E+00         0.00000E+00        -0.62178E+04
 
   -0.30980E+05         0.64210E+04         0.00000E+00
    0.64210E+04        -0.67983E+02         0.00000E+00
    0.00000E+00         0.00000E+00        -0.62095E+04
 
   -0.30878E+05         0.82468E+04         0.00000E+00
    0.82468E+04        -0.11598E+03         0.00000E+00
    0.00000E+00         0.00000E+00        -0.61988E+04
 
   -0.30752E+05         0.10066E+05         0.00000E+00
    0.10066E+05        -0.17604E+03         0.00000E+00
    0.00000E+00         0.00000E+00        -0.61857E+04
 
   -0.30603E+05         0.11877E+05         0.00000E+00
    0.11877E+05        -0.24816E+03         0.00000E+00
    0.00000E+00         0.00000E+00        -0.61701E+04
 
   -0.30429E+05         0.13679E+05         0.00000E+00
    0.13679E+05        -0.33233E+03         0.00000E+00
    0.00000E+00         0.00000E+00        -0.61522E+04
 
   -0.30230E+05         0.15470E+05         0.00000E+00
    0.15470E+05        -0.42852E+03         0.00000E+00
    0.00000E+00         0.00000E+00        -0.61318E+04
 
   -0.30008E+05         0.17249E+05         0.00000E+00
    0.17249E+05        -0.53669E+03         0.00000E+00
    0.00000E+00         0.00000E+00        -0.61090E+04
 
   -0.29762E+05         0.19014E+05         0.00000E+00
    0.19014E+05        -0.65680E+03         0.00000E+00
    0.00000E+00         0.00000E+00        -0.60837E+04
 
   -0.29492E+05         0.20763E+05         0.00000E+00
    0.20763E+05        -0.78879E+03         0.00000E+00
    0.00000E+00         0.00000E+00        -0.60561E+04
 
   -0.29197E+05         0.22496E+05         0.00000E+00
    0.22496E+05        -0.93259E+03         0.00000E+00
    0.00000E+00         0.00000E+00        -0.60260E+04
 
   -0.28879E+05         0.24211E+05         0.00000E+00
    0.24211E+05        -0.10881E+04         0.00000E+00
    0.00000E+00         0.00000E+00        -0.59935E+04
 
   -0.28538E+05         0.25907E+05         0.00000E+00
    0.25907E+05        -0.12553E+04         0.00000E+00
    0.00000E+00         0.00000E+00        -0.59586E+04
 
   -0.28172E+05         0.27582E+05         0.00000E+00
    0.27582E+05        -0.14339E+04         0.00000E+00
    0.00000E+00         0.00000E+00        -0.59212E+04
 
   -0.27783E+05         0.29234E+05         0.00000E+00
    0.29234E+05        -0.16240E+04         0.00000E+00
    0.00000E+00         0.00000E+00        -0.58815E+04
 
   -0.27371E+05         0.30863E+05         0.00000E+00
    0.30863E+05        -0.18254E+04         0.00000E+00
    0.00000E+00         0.00000E+00        -0.58393E+04
 
   -0.26936E+05         0.32467E+05         0.00000E+00
    0.32467E+05        -0.20379E+04         0.00000E+00
    0.00000E+00         0.00000E+00        -0.57948E+04
 
   -0.26478E+05         0.34045E+05         0.00000E+00
    0.34045E+05        -0.22614E+04         0.00000E+00
    0.00000E+00         0.00000E+00        -0.57479E+04
 
   -0.25998E+05         0.35595E+05         0.00000E+00
    0.35595E+05        -0.24957E+04         0.00000E+00
    0.00000E+00         0.00000E+00        -0.56987E+04
 
   -0.25495E+05         0.37115E+05         0.00000E+00
    0.37115E+05        -0.27408E+04         0.00000E+00
    0.00000E+00         0.00000E+00        -0.56471E+04
 
   -0.24969E+05         0.38606E+05         0.00000E+00
    0.38606E+05        -0.29962E+04         0.00000E+00
    0.00000E+00         0.00000E+00        -0.55931E+04
 
   -0.24422E+05         0.40064E+05         0.00000E+00
    0.40064E+05        -0.32620E+04         0.00000E+00
    0.00000E+00         0.00000E+00        -0.55369E+04
 
   -0.23854E+05         0.41490E+05         0.00000E+00
    0.41490E+05        -0.35378E+04         0.00000E+00
    0.00000E+00         0.00000E+00        -0.54783E+04
 
   -0.23264E+05         0.42882E+05         0.00000E+00
    0.42882E+05        -0.38236E+04         0.00000E+00
    0.00000E+00         0.00000E+00        -0.54174E+04
 
   -0.22653E+05         0.44238E+05         0.00000E+00
    0.44238E+05        -0.41189E+04         0.00000E+00
    0.00000E+00         0.00000E+00        -0.53543E+04
 
   -0.22021E+05         0.45557E+05         0.00000E+00
    0.45557E+05        -0.44237E+04         0.00000E+00
    0.00000E+00         0.00000E+00        -0.52890E+04
 
   -0.21369E+05         0.46839E+05         0.00000E+00
    0.46839E+05        -0.47376E+04         0.00000E+00
    0.00000E+00         0.00000E+00        -0.52214E+04
 
   -0.20697E+05         0.48081E+05         0.00000E+00
    0.48081E+05        -0.50605E+04         0.00000E+00
    0.00000E+00         0.00000E+00        -0.51516E+04
 
   -0.20006E+05         0.49283E+05         0.00000E+00
    0.49283E+05        -0.53920E+04         0.00000E+00
    0.00000E+00         0.00000E+00        -0.50796E+04
 
   -0.19296E+05         0.50444E+05         0.00000E+00
    0.50444E+05        -0.57319E+04         0.00000E+00
    0.00000E+00         0.00000E+00        -0.50055E+04
 
   -0.18566E+05         0.51562E+05         0.00000E+00
    0.51562E+05        -0.60799E+04         0.00000E+00
    0.00000E+00         0.00000E+00        -0.49292E+04
 
   -0.17819E+05         0.52637E+05         0.00000E+00
    0.52637E+05        -0.64357E+04         0.00000E+00
    0.00000E+00         0.00000E+00        -0.48509E+04
 
   -0.17053E+05         0.53667E+05         0.00000E+00
    0.53667E+05        -0.67990E+04         0.00000E+00
    0.00000E+00         0.00000E+00        -0.47705E+04
 
   -0.16271E+05         0.54651E+05         0.00000E+00
    0.54651E+05        -0.71695E+04         0.00000E+00
    0.00000E+00         0.00000E+00        -0.46880E+04
 
   -0.15471E+05         0.55589E+05         0.00000E+00
    0.55589E+05        -0.75469E+04         0.00000E+00
    0.00000E+00         0.00000E+00        -0.46036E+04
 
   -0.14655E+05         0.56478E+05         0.00000E+00
    0.56478E+05        -0.79308E+04         0.00000E+00
    0.00000E+00         0.00000E+00        -0.45171E+04
 
   -0.13823E+05         0.57320E+05         0.00000E+00
    0.57320E+05        -0.83210E+04         0.00000E+00
    0.00000E+00         0.00000E+00        -0.44287E+04
 
   -0.12975E+05         0.58111E+05         0.00000E+00
    0.58111E+05        -0.87170E+04         0.00000E+00
    0.00000E+00         0.00000E+00        -0.43384E+04
 
   -0.12113E+05         0.58853E+05         0.00000E+00
    0.58853E+05        -0.91186E+04         0.00000E+00
    0.00000E+00         0.00000E+00        -0.42463E+04
 
   -0.11236E+05         0.59543E+05         0.00000E+00
    0.59543E+05        -0.95254E+04         0.00000E+00
    0.00000E+00         0.00000E+00        -0.41522E+04
 
   -0.10345E+05         0.60181E+05         0.00000E+00
    0.60181E+05        -0.99370E+04         0.00000E+00
    0.00000E+00         0.00000E+00        -0.40564E+04
 
   -0.94412E+04         0.60765E+05         0.00000E+00
    0.60765E+05        -0.10353E+05         0.00000E+00
    0.00000E+00         0.00000E+00        -0.39589E+04
 
   -0.85246E+04         0.61297E+05         0.00000E+00
    0.61297E+05        -0.10773E+05         0.00000E+00
    0.00000E+00         0.00000E+00        -0.38596E+04
 
   -0.75960E+04         0.61773E+05         0.00000E+00
    0.61773E+05        -0.11197E+05         0.00000E+00
    0.00000E+00         0.00000E+00        -0.37586E+04
 
   -0.66558E+04         0.62195E+05         0.00000E+00
    0.62195E+05        -0.11624E+05         0.00000E+00
    0.00000E+00         0.00000E+00        -0.36560E+04
 
   -0.57047E+04         0.62561E+05         0.00000E+00
    0.62561E+05        -0.12054E+05         0.00000E+00
    0.00000E+00         0.00000E+00        -0.35518E+04
 
   -0.47434E+04         0.62870E+05         0.00000E+00
    0.62870E+05        -0.12487E+05         0.00000E+00
    0.00000E+00         0.00000E+00        -0.34460E+04
 
   -0.37725E+04         0.63123E+05         0.00000E+00
    0.63123E+05        -0.12921E+05         0.00000E+00
    0.00000E+00         0.00000E+00        -0.33387E+04
 
   -0.22087E+05         0.89356E+03         0.00000E+00
    0.89356E+03         0.26621E+01         0.00000E+00
    0.00000E+00         0.00000E+00        -0.44168E+04
 
   -0.22065E+05         0.26793E+04         0.00000E+00
    0.26793E+04        -0.57345E+01         0.00000E+00
    0.00000E+00         0.00000E+00        -0.44142E+04
 
   -0.22027E+05         0.44626E+04         0.00000E+00
    0.44626E+04        -0.22603E+02         0.00000E+00
    0.00000E+00         0.00000E+00        -0.44099E+04
 
   -0.21972E+05         0.62422E+04         0.00000E+00
    0.62422E+04        -0.47967E+02         0.00000E+00
    0.00000E+00         0.00000E+00        -0.44040E+04
 
   -0.21900E+05         0.80166E+04         0.00000E+00
    0.80166E+04        -0.81842E+02         0.00000E+00
    0.00000E+00         0.00000E+00        -0.43963E+04
 
   -0.21810E+05         0.97845E+04         0.00000E+00
    0.97845E+04        -0.12423E+03         0.00000E+00
    0.00000E+00         0.00000E+00        -0.43869E+04
 
   -0.21704E+05         0.11544E+05         0.00000E+00
    0.11544E+05        -0.17515E+03         0.00000E+00
    0.00000E+00         0.00000E+00        -0.43758E+04
 
   -0.21580E+05         0.13295E+05         0.00000E+00
    0.13295E+05        -0.23457E+03         0.00000E+00
    0.00000E+00         0.00000E+00        -0.43630E+04
 
   -0.21440E+05         0.15035E+05         0.00000E+00
    0.15035E+05        -0.30249E+03         0.00000E+00
    0.00000E+00         0.00000E+00        -0.43484E+04
 
   -0.21282E+05         0.16762E+05         0.00000E+00
    0.16762E+05        -0.37889E+03         0.00000E+00
    0.00000E+00         0.00000E+00        -0.43322E+04
 
   -0.21108E+05         0.18476E+05         0.00000E+00
    0.18476E+05        -0.46373E+03         0.00000E+00
    0.00000E+00         0.00000E+00        -0.43142E+04
 
   -0.20916E+05         0.20176E+05         0.00000E+00
    0.20176E+05        -0.55697E+03         0.00000E+00
    0.00000E+00         0.00000E+00        -0.42946E+04
 
   -0.20707E+05         0.21859E+05         0.00000E+00
    0.21859E+05        -0.65857E+03         0.00000E+00
    0.00000E+00         0.00000E+00        -0.42732E+04
 
   -0.20482E+05         0.23524E+05         0.00000E+00
    0.23524E+05        -0.76847E+03         0.00000E+00
    0.00000E+00         0.00000E+00        -0.42501E+04
 
   -0.20240E+05         0.25170E+05         0.00000E+00
    0.25170E+05        -0.88661E+03         0.00000E+00
    0.00000E+00         0.00000E+00        -0.42253E+04
 
   -0.19981E+05         0.26796E+05         0.00000E+00
    0.26796E+05        -0.10129E+04         0.00000E+00
    0.00000E+00         0.00000E+00        -0.41988E+04
 
   -0.19705E+05         0.28400E+05         0.00000E+00
    0.28400E+05        -0.11473E+04         0.00000E+00
    0.00000E+00         0.00000E+00        -0.41706E+04
 
   -0.19413E+05         0.29981E+05         0.00000E+00
    0.29981E+05        -0.12897E+04         0.00000E+00
    0.00000E+00         0.00000E+00        -0.41406E+04
 
   -0.19105E+05         0.31538E+05         0.00000E+00
    0.31538E+05        -0.14400E+04         0.00000E+00
    0.00000E+00         0.00000E+00        -0.41090E+04
 
   -0.18781E+05         0.33069E+05         0.00000E+00
    0.33069E+05        -0.15981E+04         0.00000E+00
    0.00000E+00         0.00000E+00        -0.40758E+04
 
   -0.18440E+05         0.34573E+05         0.00000E+00
    0.34573E+05        -0.17639E+04         0.00000E+00
    0.00000E+00         0.00000E+00        -0.40408E+04
 
   -0.18084E+05         0.36048E+05         0.00000E+00
    0.36048E+05        -0.19373E+04         0.00000E+00
    0.00000E+00         0.00000E+00        -0.40042E+04
 
   -0.17711E+05         0.37494E+05         0.00000E+00
    0.37494E+05        -0.21181E+04         0.00000E+00
    0.00000E+00         0.00000E+00        -0.39659E+04
 
   -0.17324E+05         0.38910E+05         0.00000E+00
    0.38910E+05        -0.23062E+04         0.00000E+00
    0.00000E+00         0.00000E+00        -0.39260E+04
 
   -0.16921E+05         0.40293E+05         0.00000E+00
    0.40293E+05        -0.25015E+04         0.00000E+00
    0.00000E+00         0.00000E+00        -0.38844E+04
 
   -0.16502E+05         0.41642E+05         0.00000E+00
    0.41642E+05        -0.27038E+04         0.00000E+00
    0.00000E+00         0.00000E+00        -0.38412E+04
 
   -0.16069E+05         0.42958E+05         0.00000E+00
    0.42958E+05        -0.29130E+04         0.00000E+00
    0.00000E+00         0.00000E+00        -0.37965E+04
 
   -0.15622E+05         0.44237E+05         0.00000E+00
    0.44237E+05        -0.31289E+04         0.00000E+00
    0.00000E+00         0.00000E+00        -0.37501E+04
 
   -0.15159E+05         0.45480E+05         0.00000E+00
    0.45480E+05        -0.33513E+04         0.00000E+00
    0.00000E+00         0.00000E+00        -0.37021E+04
 
   -0.14683E+05         0.46685E+05         0.00000E+00
    0.46685E+05        -0.35800E+04         0.00000E+00
    0.00000E+00         0.00000E+00        -0.36526E+04
 
   -0.14193E+05         0.47851E+05         0.00000E+00
    0.47851E+05        -0.38149E+04         0.00000E+00
    0.00000E+00         0.00000E+00        -0.36015E+04
 
   -0.13689E+05         0.48976E+05         0.00000E+00
    0.48976E+05        -0.40558E+04         0.00000E+00
    0.00000E+00         0.00000E+00        -0.35489E+04
 
   -0.13172E+05         0.50061E+05         0.00000E+00
    0.50061E+05        -0.43025E+04         0.00000E+00
    0.00000E+00         0.00000E+00        -0.34948E+04
 
   -0.12641E+05         0.51102E+05         0.00000E+00
    0.51102E+05        -0.45547E+04         0.00000E+00
    0.00000E+00         0.00000E+00        -0.34392E+04
 
   -0.12099E+05         0.52101E+05         0.00000E+00
    0.52101E+05        -0.48123E+04         0.00000E+00
    0.00000E+00         0.00000E+00        -0.33822E+04
 
   -0.11543E+05         0.53055E+05         0.00000E+00
    0.53055E+05        -0.50750E+04         0.00000E+00
    0.00000E+00         0.00000E+00        -0.33237E+04
 
   -0.10976E+05         0.53964E+05         0.00000E+00
    0.53964E+05        -0.53426E+04         0.00000E+00
    0.00000E+00         0.00000E+00        -0.32637E+04
 
   -0.10397E+05         0.54827E+05         0.00000E+00
    0.54827E+05        -0.56149E+04         0.00000E+00
    0.00000E+00         0.00000E+00        -0.32024E+04
 
   -0.98065E+04         0.55642E+05         0.00000E+00
    0.55642E+05        -0.58917E+04         0.00000E+00
    0.00000E+00         0.00000E+00        -0.31396E+04
 
   -0.92051E+04         0.56409E+05         0.00000E+00
    0.56409E+05        -0.61727E+04         0.00000E+00
    0.00000E+00         0.00000E+00        -0.30755E+04
 
   -0.85931E+04         0.57128E+05         0.00000E+00
    0.57128E+05        -0.64576E+04         0.00000E+00
    0.00000E+00         0.00000E+00        -0.30101E+04
 
   -0.79708E+04         0.57796E+05         0.00000E+00
    0.57796E+05        -0.67462E+04         0.00000E+00
    0.00000E+00         0.00000E+00        -0.29434E+04
 
   -0.73387E+04         0.58414E+05         0.00000E+00
    0.58414E+05        -0.70382E+04         0.00000E+00
    0.00000E+00         0.00000E+00        -0.28754E+04
 
   -0.66972E+04         0.58981E+05         0.00000E+00
    0.58981E+05        -0.73335E+04         0.00000E+00
    0.00000E+00         0.00000E+00        -0.28061E+04
 
   -0.60467E+04         0.59495E+05         0.00000E+00
    0.59495E+05        -0.76316E+04         0.00000E+00
    0.00000E+00         0.00000E+00        -0.27357E+04
 
   -0.53876E+04         0.59957E+05         0.00000E+00
    0.59957E+05        -0.79324E+04         0.00000E+00
    0.00000E+00         0.00000E+00        -0.26640E+04
 
   -0.47203E+04         0.60366E+05         0.00000E+00
    0.60366E+05        -0.82355E+04         0.00000E+00
    0.00000E+00         0.00000E+00        -0.25912E+04
 
   -0.40453E+04         0.60720E+05         0.00000E+00
    0.60720E+05        -0.85407E+04         0.00000E+00
    0.00000E+00         0.00000E+00        -0.25172E+04
 
   -0.33630E+04         0.61020E+05         0.00000E+00
    0.61020E+05        -0.88476E+04         0.00000E+00
    0.00000E+00         0.00000E+00        -0.24421E+04
 
   -0.26739E+04         0.61264E+05         0.00000E+00
    0.61264E+05        -0.91561E+04         0.00000E+00
    0.00000E+00         0.00000E+00        -0.23660E+04
 
   -0.13245E+05         0.87691E+03         0.00000E+00
    0.87691E+03         0.15809E+01         0.00000E+00
    0.00000E+00         0.00000E+00        -0.26487E+04
 
   -0.13232E+05         0.26290E+04         0.00000E+00
    0.26290E+04        -0.33940E+01         0.00000E+00
    0.00000E+00         0.00000E+00        -0.26472E+04
 
   -0.13210E+05         0.43786E+04         0.00000E+00
    0.43786E+04        -0.13398E+02         0.00000E+00
    0.00000E+00         0.00000E+00        -0.26446E+04
 
   -0.13177E+05         0.61243E+04         0.00000E+00
    0.61243E+04        -0.28449E+02         0.00000E+00
    0.00000E+00         0.00000E+00        -0.26411E+04
 
   -0.13134E+05         0.78648E+04         0.00000E+00
    0.78648E+04        -0.48561E+02         0.00000E+00
    0.00000E+00         0.00000E+00        -0.26365E+04
 
   -0.13081E+05         0.95987E+04         0.00000E+00
    0.95987E+04        -0.73742E+02         0.00000E+00
    0.00000E+00         0.00000E+00        -0.26310E+04
 
   -0.13018E+05         0.11325E+05         0.00000E+00
    0.11325E+05        -0.10400E+03         0.00000E+00
    0.00000E+00         0.00000E+00        -0.26244E+04
 
   -0.12944E+05         0.13041E+05         0.00000E+00
    0.13041E+05        -0.13933E+03         0.00000E+00
    0.00000E+00         0.00000E+00        -0.26168E+04
 
   -0.12861E+05         0.14747E+05         0.00000E+00
    0.14747E+05        -0.17973E+03         0.00000E+00
    0.00000E+00         0.00000E+00        -0.26081E+04
 
   -0.12767E+05         0.16441E+05         0.00000E+00
    0.16441E+05        -0.22519E+03         0.00000E+00
    0.00000E+00         0.00000E+00        -0.25985E+04
 
   -0.12663E+05         0.18122E+05         0.00000E+00
    0.18122E+05        -0.27570E+03         0.00000E+00
    0.00000E+00         0.00000E+00        -0.25878E+04
 
   -0.12549E+05         0.19788E+05         0.00000E+00
    0.19788E+05        -0.33124E+03         0.00000E+00
    0.00000E+00         0.00000E+00        -0.25761E+04
 
   -0.12425E+05         0.21437E+05         0.00000E+00
    0.21437E+05        -0.39178E+03         0.00000E+00
    0.00000E+00         0.00000E+00        -0.25634E+04
 
   -0.12291E+05         0.23069E+05         0.00000E+00
    0.23069E+05        -0.45730E+03         0.00000E+00
    0.00000E+00         0.00000E+00        -0.25496E+04
 
   -0.12146E+05         0.24683E+05         0.00000E+00
    0.24683E+05        -0.52775E+03         0.00000E+00
    0.00000E+00         0.00000E+00        -0.25348E+04
 
   -0.11992E+05         0.26276E+05         0.00000E+00
    0.26276E+05        -0.60311E+03         0.00000E+00
    0.00000E+00         0.00000E+00        -0.25190E+04
 
   -0.11828E+05         0.27848E+05         0.00000E+00
    0.27848E+05        -0.68333E+03         0.00000E+00
    0.00000E+00         0.00000E+00        -0.25022E+04
 
   -0.11653E+05         0.29397E+05         0.00000E+00
    0.29397E+05        -0.76836E+03         0.00000E+00
    0.00000E+00         0.00000E+00        -0.24843E+04
 
   -0.11469E+05         0.30923E+05         0.00000E+00
    0.30923E+05        -0.85814E+03         0.00000E+00
    0.00000E+00         0.00000E+00        -0.24655E+04
 
   -0.11275E+05         0.32423E+05         0.00000E+00
    0.32423E+05        -0.95262E+03         0.00000E+00
    0.00000E+00         0.00000E+00        -0.24456E+04
 
   -0.11072E+05         0.33896E+05         0.00000E+00
    0.33896E+05        -0.10517E+04         0.00000E+00
    0.00000E+00         0.00000E+00        -0.24247E+04
 
   -0.10859E+05         0.35342E+05         0.00000E+00
    0.35342E+05        -0.11554E+04         0.00000E+00
    0.00000E+00         0.00000E+00        -0.24029E+04
 
   -0.10636E+05         0.36758E+05         0.00000E+00
    0.36758E+05        -0.12636E+04         0.00000E+00
    0.00000E+00         0.00000E+00        -0.23800E+04
 
   -0.10404E+05         0.38144E+05         0.00000E+00
    0.38144E+05        -0.13762E+04         0.00000E+00
    0.00000E+00         0.00000E+00        -0.23561E+04
 
   -0.10163E+05         0.39499E+05         0.00000E+00
    0.39499E+05        -0.14931E+04         0.00000E+00
    0.00000E+00         0.00000E+00        -0.23312E+04
 
   -0.99128E+04         0.40821E+05         0.00000E+00
    0.40821E+05        -0.16143E+04         0.00000E+00
    0.00000E+00         0.00000E+00        -0.23054E+04
 
   -0.96534E+04         0.42109E+05         0.00000E+00
    0.42109E+05        -0.17396E+04         0.00000E+00
    0.00000E+00         0.00000E+00        -0.22786E+04
 
   -0.93852E+04         0.43362E+05         0.00000E+00
    0.43362E+05        -0.18689E+04         0.00000E+00
    0.00000E+00         0.00000E+00        -0.22508E+04
 
   -0.91082E+04         0.44579E+05         0.00000E+00
    0.44579E+05        -0.20023E+04         0.00000E+00
    0.00000E+00         0.00000E+00        -0.22221E+04
 
   -0.88227E+04         0.45759E+05         0.00000E+00
    0.45759E+05        -0.21395E+04         0.00000E+00
    0.00000E+00         0.00000E+00        -0.21924E+04
 
   -0.85287E+04         0.46900E+05         0.00000E+00
    0.46900E+05        -0.22804E+04         0.00000E+00
    0.00000E+00         0.00000E+00        -0.21618E+04
 
   -0.82265E+04         0.48002E+05         0.00000E+00
    0.48002E+05        -0.24249E+04         0.00000E+00
    0.00000E+00         0.00000E+00        -0.21303E+04
 
   -0.79162E+04         0.49064E+05         0.00000E+00
    0.49064E+05        -0.25729E+04         0.00000E+00
    0.00000E+00         0.00000E+00        -0.20978E+04
 
   -0.75980E+04         0.50084E+05         0.00000E+00
    0.50084E+05        -0.27244E+04         0.00000E+00
    0.00000E+00         0.00000E+00        -0.20645E+04
 
   -0.72721E+04         0.51061E+05         0.00000E+00
    0.51061E+05        -0.28791E+04         0.00000E+00
    0.00000E+00         0.00000E+00        -0.20302E+04
 
   -0.69387E+04         0.51995E+05         0.00000E+00
    0.51995E+05        -0.30369E+04         0.00000E+00
    0.00000E+00         0.00000E+00        -0.19951E+04
 
   -0.65979E+04         0.52885E+05         0.00000E+00
    0.52885E+05        -0.31977E+04         0.00000E+00
    0.00000E+00         0.00000E+00        -0.19591E+04
 
   -0.62501E+04         0.53729E+05         0.00000E+00
    0.53729E+05        -0.33613E+04         0.00000E+00
    0.00000E+00         0.00000E+00        -0.19223E+04
 
   -0.58953E+04         0.54527E+05         0.00000E+00
    0.54527E+05        -0.35277E+04         0.00000E+00
    0.00000E+00         0.00000E+00        -0.18846E+04
 
   -0.55338E+04         0.55278E+05         0.00000E+00
    0.55278E+05        -0.36966E+04         0.00000E+00
    0.00000E+00         0.00000E+00        -0.18461E+04
 
   -0.51659E+04         0.55981E+05         0.00000E+00
    0.55981E+05        -0.38679E+04         0.00000E+00
    0.00000E+00         0.00000E+00        -0.18068E+04
 
   -0.47918E+04         0.56635E+05         0.00000E+00
    0.56635E+05        -0.40415E+04         0.00000E+00
    0.00000E+00         0.00000E+00        -0.17667E+04
 
   -0.44117E+04         0.57240E+05         0.00000E+00
    0.57240E+05        -0.42172E+04         0.00000E+00
    0.00000E+00         0.00000E+00        -0.17258E+04
 
   -0.40258E+04         0.57794E+05         0.00000E+00
    0.57794E+05        -0.43948E+04         0.00000E+00
    0.00000E+00         0.00000E+00        -0.16841E+04
 
   -0.36345E+04         0.58298E+05         0.00000E+00
    0.58298E+05        -0.45742E+04         0.00000E+00
    0.00000E+00         0.00000E+00        -0.16417E+04
 
   -0.32379E+04         0.58750E+05         0.00000E+00
    0.58750E+05        -0.47552E+04         0.00000E+00
    0.00000E+00         0.00000E+00        -0.15986E+04
 
   -0.28364E+04         0.59149E+05         0.00000E+00
    0.59149E+05        -0.49377E+04         0.00000E+00
    0.00000E+00         0.00000E+00        -0.15548E+04
 
   -0.24301E+04         0.59496E+05         0.00000E+00
    0.59496E+05        -0.51214E+04         0.00000E+00
    0.00000E+00         0.00000E+00        -0.15103E+04
 
   -0.20195E+04         0.59789E+05         0.00000E+00
    0.59789E+05        -0.53061E+04         0.00000E+00
    0.00000E+00         0.00000E+00        -0.14651E+04
 
   -0.16046E+04         0.60028E+05         0.00000E+00
    0.60028E+05        -0.54918E+04         0.00000E+00
    0.00000E+00         0.00000E+00        -0.14193E+04
 
   -0.45286E+04         0.86873E+03         0.00000E+00
    0.86873E+03         0.51637E+00         0.00000E+00
    0.00000E+00         0.00000E+00        -0.90561E+03
 
   -0.45252E+04         0.26042E+04         0.00000E+00
    0.26042E+04        -0.10852E+01         0.00000E+00
    0.00000E+00         0.00000E+00        -0.90526E+03
 
   -0.45186E+04         0.43371E+04         0.00000E+00
    0.43371E+04        -0.43255E+01         0.00000E+00
    0.00000E+00         0.00000E+00        -0.90459E+03
 
   -0.45087E+04         0.60661E+04         0.00000E+00
    0.60661E+04        -0.92189E+01         0.00000E+00
    0.00000E+00         0.00000E+00        -0.90359E+03
 
   -0.44955E+04         0.77897E+04         0.00000E+00
    0.77897E+04        -0.15779E+02         0.00000E+00
    0.00000E+00         0.00000E+00        -0.90225E+03
 
   -0.44789E+04         0.95068E+04         0.00000E+00
    0.95068E+04        -0.24016E+02         0.00000E+00
    0.00000E+00         0.00000E+00        -0.90058E+03
 
   -0.44589E+04         0.11216E+05         0.00000E+00
    0.11216E+05        -0.33941E+02         0.00000E+00
    0.00000E+00         0.00000E+00        -0.89857E+03
 
   -0.44355E+04         0.12916E+05         0.00000E+00
    0.12916E+05        -0.45561E+02         0.00000E+00
    0.00000E+00         0.00000E+00        -0.89622E+03
 
   -0.44087E+04         0.14605E+05         0.00000E+00
    0.14605E+05        -0.58884E+02         0.00000E+00
    0.00000E+00         0.00000E+00        -0.89353E+03
 
   -0.43785E+04         0.16282E+05         0.00000E+00
    0.16282E+05        -0.73914E+02         0.00000E+00
    0.00000E+00         0.00000E+00        -0.89049E+03
 
   -0.43448E+04         0.17945E+05         0.00000E+00
    0.17945E+05        -0.90652E+02         0.00000E+00
    0.00000E+00         0.00000E+00        -0.88710E+03
 
   -0.43077E+04         0.19594E+05         0.00000E+00
    0.19594E+05        -0.10910E+03         0.00000E+00
    0.00000E+00         0.00000E+00        -0.88336E+03
 
   -0.42671E+04         0.21227E+05         0.00000E+00
    0.21227E+05        -0.12926E+03         0.00000E+00
    0.00000E+00         0.00000E+00        -0.87928E+03
 
   -0.42231E+04         0.22843E+05         0.00000E+00
    0.22843E+05        -0.15113E+03         0.00000E+00
    0.00000E+00         0.00000E+00        -0.87484E+03
 
   -0.41756E+04         0.24440E+05         0.00000E+00
    0.24440E+05        -0.17469E+03         0.00000E+00
    0.00000E+00         0.00000E+00        -0.87005E+03
 
   -0.41246E+04         0.26017E+05         0.00000E+00
    0.26017E+05        -0.19995E+03         0.00000E+00
    0.00000E+00         0.00000E+00        -0.86491E+03
 
   -0.40701E+04         0.27573E+05         0.00000E+00
    0.27573E+05        -0.22690E+03         0.00000E+00
    0.00000E+00         0.00000E+00        -0.85941E+03
 
   -0.40122E+04         0.29106E+05         0.00000E+00
    0.29106E+05        -0.25552E+03         0.00000E+00
    0.00000E+00         0.00000E+00        -0.85355E+03
 
   -0.39509E+04         0.30615E+05         0.00000E+00
    0.30615E+05        -0.28580E+03         0.00000E+00
    0.00000E+00         0.00000E+00        -0.84734E+03
 
   -0.38862E+04         0.32099E+05         0.00000E+00
    0.32099E+05        -0.31773E+03         0.00000E+00
    0.00000E+00         0.00000E+00        -0.84078E+03
 
   -0.38180E+04         0.33557E+05         0.00000E+00
    0.33557E+05        -0.35129E+03         0.00000E+00
    0.00000E+00         0.00000E+00        -0.83386E+03
 
   -0.37465E+04         0.34987E+05         0.00000E+00
    0.34987E+05        -0.38646E+03         0.00000E+00
    0.00000E+00         0.00000E+00        -0.82658E+03
 
   -0.36715E+04         0.36389E+05         0.00000E+00
    0.36389E+05        -0.42322E+03         0.00000E+00
    0.00000E+00         0.00000E+00        -0.81895E+03
 
   -0.35933E+04         0.37760E+05         0.00000E+00
    0.37760E+05        -0.46155E+03         0.00000E+00
    0.00000E+00         0.00000E+00        -0.81097E+03
 
   -0.35118E+04         0.39100E+05         0.00000E+00
    0.39100E+05        -0.50142E+03         0.00000E+00
    0.00000E+00         0.00000E+00        -0.80264E+03
 
   -0.34270E+04         0.40408E+05         0.00000E+00
    0.40408E+05        -0.54280E+03         0.00000E+00
    0.00000E+00         0.00000E+00        -0.79395E+03
 
   -0.33389E+04         0.41682E+05         0.00000E+00
    0.41682E+05        -0.58568E+03         0.00000E+00
    0.00000E+00         0.00000E+00        -0.78492E+03
 
   -0.32477E+04         0.42922E+05         0.00000E+00
    0.42922E+05        -0.63000E+03         0.00000E+00
    0.00000E+00         0.00000E+00        -0.77554E+03
 
   -0.31533E+04         0.44126E+05         0.00000E+00
    0.44126E+05        -0.67576E+03         0.00000E+00
    0.00000E+00         0.00000E+00        -0.76582E+03
 
   -0.30558E+04         0.45293E+05         0.00000E+00
    0.45293E+05        -0.72290E+03         0.00000E+00
    0.00000E+00         0.00000E+00        -0.75575E+03
 
   -0.29553E+04         0.46421E+05         0.00000E+00
    0.46421E+05        -0.77139E+03         0.00000E+00
    0.00000E+00         0.00000E+00        -0.74534E+03
 
   -0.28518E+04         0.47511E+05         0.00000E+00
    0.47511E+05        -0.82120E+03         0.00000E+00
    0.00000E+00         0.00000E+00        -0.73460E+03
 
   -0.27453E+04         0.48561E+05         0.00000E+00
    0.48561E+05        -0.87229E+03         0.00000E+00
    0.00000E+00         0.00000E+00        -0.72352E+03
 
   -0.26360E+04         0.49570E+05         0.00000E+00
    0.49570E+05        -0.92461E+03         0.00000E+00
    0.00000E+00         0.00000E+00        -0.71211E+03
 
   -0.25238E+04         0.50536E+05         0.00000E+00
    0.50536E+05        -0.97811E+03         0.00000E+00
    0.00000E+00         0.00000E+00        -0.70038E+03
 
   -0.24088E+04         0.51460E+05         0.00000E+00
    0.51460E+05        -0.10328E+04         0.00000E+00
    0.00000E+00         0.00000E+00        -0.68832E+03
 
   -0.22912E+04         0.52339E+05         0.00000E+00
    0.52339E+05        -0.10885E+04         0.00000E+00
    0.00000E+00         0.00000E+00        -0.67594E+03
 
   -0.21710E+04         0.53174E+05         0.00000E+00
    0.53174E+05        -0.11453E+04         0.00000E+00
    0.00000E+00         0.00000E+00        -0.66325E+03
 
   -0.20482E+04         0.53963E+05         0.00000E+00
    0.53963E+05        -0.12031E+04         0.00000E+00
    0.00000E+00         0.00000E+00        -0.65025E+03
 
   -0.19229E+04         0.54705E+05         0.00000E+00
    0.54705E+05        -0.12619E+04         0.00000E+00
    0.00000E+00         0.00000E+00        -0.63695E+03
 
   -0.17952E+04         0.55400E+05         0.00000E+00
    0.55400E+05        -0.13215E+04         0.00000E+00
    0.00000E+00         0.00000E+00        -0.62335E+03
 
   -0.16653E+04         0.56047E+05         0.00000E+00
    0.56047E+05        -0.13820E+04         0.00000E+00
    0.00000E+00         0.00000E+00        -0.60945E+03
 
   -0.15331E+04         0.56645E+05         0.00000E+00
    0.56645E+05        -0.14432E+04         0.00000E+00
    0.00000E+00         0.00000E+00        -0.59526E+03
 
   -0.13987E+04         0.57193E+05         0.00000E+00
    0.57193E+05        -0.15052E+04         0.00000E+00
    0.00000E+00         0.00000E+00        -0.58079E+03
 
   -0.12624E+04         0.57691E+05         0.00000E+00
    0.57691E+05        -0.15678E+04         0.00000E+00
    0.00000E+00         0.00000E+00        -0.56605E+03
 
   -0.11241E+04         0.58137E+05         0.00000E+00
    0.58137E+05        -0.16311E+04         0.00000E+00
    0.00000E+00         0.00000E+00        -0.55103E+03
 
   -0.98389E+03         0.58532E+05         0.00000E+00
    0.58532E+05        -0.16949E+04         0.00000E+00
    0.00000E+00         0.00000E+00        -0.53575E+03
 
   -0.84197E+03         0.58875E+05         0.00000E+00
    0.58875E+05        -0.17591E+04         0.00000E+00
    0.00000E+00         0.00000E+00        -0.52022E+03
 
   -0.69839E+03         0.59165E+05         0.00000E+00
    0.59165E+05        -0.18238E+04         0.00000E+00
    0.00000E+00         0.00000E+00        -0.50443E+03
 
   -0.55327E+03         0.59401E+05         0.00000E+00
    0.59401E+05        -0.18888E+04         0.00000E+00
    0.00000E+00         0.00000E+00        -0.48840E+03
 
    0.41473E+04         0.86894E+03         0.00000E+00
    0.86894E+03        -0.54241E+00         0.00000E+00
    0.00000E+00         0.00000E+00         0.82936E+03
 
    0.41410E+04         0.26047E+04         0.00000E+00
    0.26047E+04         0.12141E+01         0.00000E+00
    0.00000E+00         0.00000E+00         0.82844E+03
 
    0.41311E+04         0.43378E+04         0.00000E+00
    0.43378E+04         0.47046E+01         0.00000E+00
    0.00000E+00         0.00000E+00         0.82717E+03
 
    0.41179E+04         0.60669E+04         0.00000E+00
    0.60669E+04         0.99170E+01         0.00000E+00
    0.00000E+00         0.00000E+00         0.82555E+03
 
    0.41012E+04         0.77906E+04         0.00000E+00
    0.77906E+04         0.16838E+02         0.00000E+00
    0.00000E+00         0.00000E+00         0.82360E+03
 
    0.40811E+04         0.95077E+04         0.00000E+00
    0.95077E+04         0.25453E+02         0.00000E+00
    0.00000E+00         0.00000E+00         0.82130E+03
 
    0.40576E+04         0.11217E+05         0.00000E+00
    0.11217E+05         0.35747E+02         0.00000E+00
    0.00000E+00         0.00000E+00         0.81867E+03
 
    0.40308E+04         0.12916E+05         0.00000E+00
    0.12916E+05         0.47703E+02         0.00000E+00
    0.00000E+00         0.00000E+00         0.81571E+03
 
    0.40008E+04         0.14605E+05         0.00000E+00
    0.14605E+05         0.61302E+02         0.00000E+00
    0.00000E+00         0.00000E+00         0.81241E+03
 
    0.39674E+04         0.16282E+05         0.00000E+00
    0.16282E+05         0.76527E+02         0.00000E+00
    0.00000E+00         0.00000E+00         0.80879E+03
 
    0.39308E+04         0.17945E+05         0.00000E+00
    0.17945E+05         0.93358E+02         0.00000E+00
    0.00000E+00         0.00000E+00         0.80483E+03
 
    0.38910E+04         0.19594E+05         0.00000E+00
    0.19594E+05         0.11177E+03         0.00000E+00
    0.00000E+00         0.00000E+00         0.80056E+03
 
    0.38481E+04         0.21227E+05         0.00000E+00
    0.21227E+05         0.13175E+03         0.00000E+00
    0.00000E+00         0.00000E+00         0.79597E+03
 
    0.38020E+04         0.22842E+05         0.00000E+00
    0.22842E+05         0.15327E+03         0.00000E+00
    0.00000E+00         0.00000E+00         0.79106E+03
 
    0.37529E+04         0.24438E+05         0.00000E+00
    0.24438E+05         0.17630E+03         0.00000E+00
    0.00000E+00         0.00000E+00         0.78583E+03
 
    0.37007E+04         0.26015E+05         0.00000E+00
    0.26015E+05         0.20082E+03         0.00000E+00
    0.00000E+00         0.00000E+00         0.78030E+03
 
    0.36455E+04         0.27570E+05         0.00000E+00
    0.27570E+05         0.22681E+03         0.00000E+00
    0.00000E+00         0.00000E+00         0.77446E+03
 
    0.35873E+04         0.29102E+05         0.00000E+00
    0.29102E+05         0.25424E+03         0.00000E+00
    0.00000E+00         0.00000E+00         0.76832E+03
 
    0.35263E+04         0.30611E+05         0.00000E+00
    0.30611E+05         0.28308E+03         0.00000E+00
    0.00000E+00         0.00000E+00         0.76188E+03
 
    0.34624E+04         0.32095E+05         0.00000E+00
    0.32095E+05         0.31331E+03         0.00000E+00
    0.00000E+00         0.00000E+00         0.75514E+03
 
    0.33957E+04         0.33552E+05         0.00000E+00
    0.33552E+05         0.34488E+03         0.00000E+00
    0.00000E+00         0.00000E+00         0.74811E+03
 
    0.33262E+04         0.34981E+05         0.00000E+00
    0.34981E+05         0.37779E+03         0.00000E+00
    0.00000E+00         0.00000E+00         0.74079E+03
 
    0.32540E+04         0.36382E+05         0.00000E+00
    0.36382E+05         0.41198E+03         0.00000E+00
    0.00000E+00         0.00000E+00         0.73319E+03
 
    0.31791E+04         0.37753E+05         0.00000E+00
    0.37753E+05         0.44744E+03         0.00000E+00
    0.00000E+00         0.00000E+00         0.72531E+03
 
    0.31017E+04         0.39092E+05         0.00000E+00
    0.39092E+05         0.48412E+03         0.00000E+00
    0.00000E+00         0.00000E+00         0.71716E+03
 
    0.30217E+04         0.40399E+05         0.00000E+00
    0.40399E+05         0.52200E+03         0.00000E+00
    0.00000E+00         0.00000E+00         0.70873E+03
 
    0.29391E+04         0.41672E+05         0.00000E+00
    0.41672E+05         0.56104E+03         0.00000E+00
    0.00000E+00         0.00000E+00         0.70004E+03
 
    0.28542E+04         0.42911E+05         0.00000E+00
    0.42911E+05         0.60121E+03         0.00000E+00
    0.00000E+00         0.00000E+00         0.69108E+03
 
    0.27668E+04         0.44114E+05         0.00000E+00
    0.44114E+05         0.64247E+03         0.00000E+00
    0.00000E+00         0.00000E+00         0.68186E+03
 
    0.26772E+04         0.45280E+05         0.00000E+00
    0.45280E+05         0.68479E+03         0.00000E+00
    0.00000E+00         0.00000E+00         0.67239E+03
 
    0.25852E+04         0.46408E+05         0.00000E+00
    0.46408E+05         0.72812E+03         0.00000E+00
    0.00000E+00         0.00000E+00         0.66267E+03
 
    0.24911E+04         0.47497E+05         0.00000E+00
    0.47497E+05         0.77244E+03         0.00000E+00
    0.00000E+00         0.00000E+00         0.65270E+03
 
    0.23948E+04         0.48546E+05         0.00000E+00
    0.48546E+05         0.81770E+03         0.00000E+00
    0.00000E+00         0.00000E+00         0.64249E+03
 
    0.22964E+04         0.49554E+05         0.00000E+00
    0.49554E+05         0.86386E+03         0.00000E+00
    0.00000E+00         0.00000E+00         0.63204E+03
 
    0.21959E+04         0.50520E+05         0.00000E+00
    0.50520E+05         0.91088E+03         0.00000E+00
    0.00000E+00         0.00000E+00         0.62137E+03
 
    0.20936E+04         0.51442E+05         0.00000E+00
    0.51442E+05         0.95873E+03         0.00000E+00
    0.00000E+00         0.00000E+00         0.61046E+03
 
    0.19893E+04         0.52321E+05         0.00000E+00
    0.52321E+05         0.10074E+04         0.00000E+00
    0.00000E+00         0.00000E+00         0.59933E+03
 
    0.18832E+04         0.53155E+05         0.00000E+00
    0.53155E+05         0.10567E+04         0.00000E+00
    0.00000E+00         0.00000E+00         0.58799E+03
 
    0.17753E+04         0.53943E+05         0.00000E+00
    0.53943E+05         0.11068E+04         0.00000E+00
    0.00000E+00         0.00000E+00         0.57643E+03
 
    0.16658E+04         0.54685E+05         0.00000E+00
    0.54685E+05         0.11575E+04         0.00000E+00
    0.00000E+00         0.00000E+00         0.56466E+03
 
    0.15546E+04         0.55379E+05         0.00000E+00
    0.55379E+05         0.12089E+04         0.00000E+00
    0.00000E+00         0.00000E+00         0.55269E+03
 
    0.14418E+04         0.56026E+05         0.00000E+00
    0.56026E+05         0.12608E+04         0.00000E+00
    0.00000E+00         0.00000E+00         0.54052E+03
 
    0.13275E+04         0.56623E+05         0.00000E+00
    0.56623E+05         0.13132E+04         0.00000E+00
    0.00000E+00         0.00000E+00         0.52815E+03
 
    0.12118E+04         0.57170E+05         0.00000E+00
    0.57170E+05         0.13662E+04         0.00000E+00
    0.00000E+00         0.00000E+00         0.51560E+03
 
    0.10948E+04         0.57667E+05         0.00000E+00
    0.57667E+05         0.14196E+04         0.00000E+00
    0.00000E+00         0.00000E+00         0.50286E+03
 
    0.97640E+03         0.58114E+05         0.00000E+00
    0.58114E+05         0.14733E+04         0.00000E+00
    0.00000E+00         0.00000E+00         0.48994E+03
 
    0.85682E+03         0.58508E+05         0.00000E+00
    0.58508E+05         0.15274E+04         0.00000E+00
    0.00000E+00         0.00000E+00         0.47685E+03
 
    0.73608E+03         0.58850E+05         0.00000E+00
    0.58850E+05         0.15819E+04         0.00000E+00
    0.00000E+00         0.00000E+00         0.46359E+03
 
    0.61426E+03         0.59140E+05         0.00000E+00
    0.59140E+05         0.16366E+04         0.00000E+00
    0.00000E+00         0.00000E+00         0.45017E+03
 
    0.49142E+03         0.59376E+05         0.00000E+00
    0.59376E+05         0.16915E+04         0.00000E+00
    0.00000E+00         0.00000E+00         0.43658E+03
 
    0.12867E+05         0.87755E+03         0.00000E+00
    0.87755E+03        -0.16060E+01         0.00000E+00
    0.00000E+00         0.00000E+00         0.25731E+04
 
    0.12851E+05         0.26304E+04         0.00000E+00
    0.26304E+04         0.35253E+01         0.00000E+00
    0.00000E+00         0.00000E+00         0.25708E+04
 
    0.12824E+05         0.43806E+04         0.00000E+00
    0.43806E+04         0.13779E+02         0.00000E+00
    0.00000E+00         0.00000E+00         0.25675E+04
 
    0.12787E+05         0.61268E+04         0.00000E+00
    0.61268E+04         0.29144E+02         0.00000E+00
    0.00000E+00         0.00000E+00         0.25633E+04
 
    0.12740E+05         0.78675E+04         0.00000E+00
    0.78675E+04         0.49607E+02         0.00000E+00
    0.00000E+00         0.00000E+00         0.25580E+04
 
    0.12683E+05         0.96014E+04         0.00000E+00
    0.96014E+04         0.75151E+02         0.00000E+00
    0.00000E+00         0.00000E+00         0.25516E+04
 
    0.12616E+05         0.11327E+05         0.00000E+00
    0.11327E+05         0.10575E+03         0.00000E+00
    0.00000E+00         0.00000E+00         0.25443E+04
 
    0.12538E+05         0.13043E+05         0.00000E+00
    0.13043E+05         0.14139E+03         0.00000E+00
    0.00000E+00         0.00000E+00         0.25359E+04
 
    0.12451E+05         0.14749E+05         0.00000E+00
    0.14749E+05         0.18203E+03         0.00000E+00
    0.00000E+00         0.00000E+00         0.25266E+04
 
    0.12353E+05         0.16442E+05         0.00000E+00
    0.16442E+05         0.22764E+03         0.00000E+00
    0.00000E+00         0.00000E+00         0.25162E+04
 
    0.12246E+05         0.18122E+05         0.00000E+00
    0.18122E+05         0.27818E+03         0.00000E+00
    0.00000E+00         0.00000E+00         0.25049E+04
 
    0.12129E+05         0.19787E+05         0.00000E+00
    0.19787E+05         0.33362E+03         0.00000E+00
    0.00000E+00         0.00000E+00         0.24925E+04
 
    0.12002E+05         0.21435E+05         0.00000E+00
    0.21435E+05         0.39390E+03         0.00000E+00
    0.00000E+00         0.00000E+00         0.24791E+04
 
    0.11865E+05         0.23066E+05         0.00000E+00
    0.23066E+05         0.45898E+03         0.00000E+00
    0.00000E+00         0.00000E+00         0.24648E+04
 
    0.11719E+05         0.24678E+05         0.00000E+00
    0.24678E+05         0.52880E+03         0.00000E+00
    0.00000E+00         0.00000E+00         0.24495E+04
 
    0.11563E+05         0.26270E+05         0.00000E+00
    0.26270E+05         0.60332E+03         0.00000E+00
    0.00000E+00         0.00000E+00         0.24332E+04
 
    0.11397E+05         0.27840E+05         0.00000E+00
    0.27840E+05         0.68246E+03         0.00000E+00
    0.00000E+00         0.00000E+00         0.24159E+04
 
    0.11222E+05         0.29387E+05         0.00000E+00
    0.29387E+05         0.76617E+03         0.00000E+00
    0.00000E+00         0.00000E+00         0.23977E+04
 
    0.11038E+05         0.30911E+05         0.00000E+00
    0.30911E+05         0.85438E+03         0.00000E+00
    0.00000E+00         0.00000E+00         0.23785E+04
 
    0.10845E+05         0.32409E+05         0.00000E+00
    0.32409E+05         0.94701E+03         0.00000E+00
    0.00000E+00         0.00000E+00         0.23584E+04
 
    0.10642E+05         0.33880E+05         0.00000E+00
    0.33880E+05         0.10440E+04         0.00000E+00
    0.00000E+00         0.00000E+00         0.23373E+04
 
    0.10431E+05         0.35323E+05         0.00000E+00
    0.35323E+05         0.11452E+04         0.00000E+00
    0.00000E+00         0.00000E+00         0.23153E+04
 
    0.10211E+05         0.36737E+05         0.00000E+00
    0.36737E+05         0.12507E+04         0.00000E+00
    0.00000E+00         0.00000E+00         0.22924E+04
 
    0.99823E+04         0.38121E+05         0.00000E+00
    0.38121E+05         0.13602E+04         0.00000E+00
    0.00000E+00         0.00000E+00         0.22685E+04
 
    0.97450E+04         0.39474E+05         0.00000E+00
    0.39474E+05         0.14738E+04         0.00000E+00
    0.00000E+00         0.00000E+00         0.22438E+04
 
    0.94993E+04         0.40793E+05         0.00000E+00
    0.40793E+05         0.15913E+04         0.00000E+00
    0.00000E+00         0.00000E+00         0.22181E+04
 
    0.92454E+04         0.42079E+05         0.00000E+00
    0.42079E+05         0.17126E+04         0.00000E+00
    0.00000E+00         0.00000E+00         0.21916E+04
 
    0.89834E+04         0.43330E+05         0.00000E+00
    0.43330E+05         0.18376E+04         0.00000E+00
    0.00000E+00         0.00000E+00         0.21642E+04
 
    0.87134E+04         0.44544E+05         0.00000E+00
    0.44544E+05         0.19662E+04         0.00000E+00
    0.00000E+00         0.00000E+00         0.21359E+04
 
    0.84356E+04         0.45721E+05         0.00000E+00
    0.45721E+05         0.20983E+04         0.00000E+00
    0.00000E+00         0.00000E+00         0.21068E+04
 
    0.81503E+04         0.46860E+05         0.00000E+00
    0.46860E+05         0.22339E+04         0.00000E+00
    0.00000E+00         0.00000E+00         0.20768E+04
 
    0.78575E+04         0.47960E+05         0.00000E+00
    0.47960E+05         0.23727E+04         0.00000E+00
    0.00000E+00         0.00000E+00         0.20460E+04
 
    0.75574E+04         0.49019E+05         0.00000E+00
    0.49019E+05         0.25147E+04         0.00000E+00
    0.00000E+00         0.00000E+00         0.20144E+04
 
    0.72503E+04         0.50036E+05         0.00000E+00
    0.50036E+05         0.26598E+04         0.00000E+00
    0.00000E+00         0.00000E+00         0.19820E+04
 
    0.69363E+04         0.51011E+05         0.00000E+00
    0.51011E+05         0.28077E+04         0.00000E+00
    0.00000E+00         0.00000E+00         0.19488E+04
 
    0.66156E+04         0.51943E+05         0.00000E+00
    0.51943E+05         0.29585E+04         0.00000E+00
    0.00000E+00         0.00000E+00         0.19148E+04
 
    0.62884E+04         0.52830E+05         0.00000E+00
    0.52830E+05         0.31120E+04         0.00000E+00
    0.00000E+00         0.00000E+00         0.18801E+04
 
    0.59549E+04         0.53672E+05         0.00000E+00
    0.53672E+05         0.32680E+04         0.00000E+00
    0.00000E+00         0.00000E+00         0.18446E+04
 
    0.56153E+04         0.54468E+05         0.00000E+00
    0.54468E+05         0.34264E+04         0.00000E+00
    0.00000E+00         0.00000E+00         0.18083E+04
 
    0.52698E+04         0.55216E+05         0.00000E+00
    0.55216E+05         0.35870E+04         0.00000E+00
    0.00000E+00         0.00000E+00         0.17714E+04
 
    0.49187E+04         0.55917E+05         0.00000E+00
    0.55917E+05         0.37498E+04         0.00000E+00
    0.00000E+00         0.00000E+00         0.17337E+04
 
    0.45621E+04         0.56570E+05         0.00000E+00
    0.56570E+05         0.39146E+04         0.00000E+00
    0.00000E+00         0.00000E+00         0.16953E+04
 
    0.42003E+04         0.57173E+05         0.00000E+00
    0.57173E+05         0.40812E+04         0.00000E+00
    0.00000E+00         0.00000E+00         0.16563E+04
 
    0.38334E+04         0.57725E+05         0.00000E+00
    0.57725E+05         0.42496E+04         0.00000E+00
    0.00000E+00         0.00000E+00         0.16166E+04
 
    0.34618E+04         0.58227E+05         0.00000E+00
    0.58227E+05         0.44194E+04         0.00000E+00
    0.00000E+00         0.00000E+00         0.15763E+04
 
    0.30857E+04         0.58678E+05         0.00000E+00
    0.58678E+05         0.45907E+04         0.00000E+00
    0.00000E+00         0.00000E+00         0.15353E+04
 
    0.27053E+04         0.59076E+05         0.00000E+00
    0.59076E+05         0.47632E+04         0.00000E+00
    0.00000E+00         0.00000E+00         0.14937E+04
 
    0.23207E+04         0.59421E+05         0.00000E+00
    0.59421E+05         0.49368E+04         0.00000E+00
    0.00000E+00         0.00000E+00         0.14515E+04
 
    0.19324E+04         0.59713E+05         0.00000E+00
    0.59713E+05         0.51114E+04         0.00000E+00
    0.00000E+00         0.00000E+00         0.14088E+04
 
    0.15405E+04         0.59952E+05         0.00000E+00
    0.59952E+05         0.52867E+04         0.00000E+00
    0.00000E+00         0.00000E+00         0.13654E+04
 
    0.21715E+05         0.89464E+03         0.00000E+00
    0.89464E+03        -0.26847E+01         0.00000E+00
    0.00000E+00         0.00000E+00         0.43424E+04
 
    0.21688E+05         0.26817E+04         0.00000E+00
    0.26817E+04         0.58690E+01         0.00000E+00
    0.00000E+00         0.00000E+00         0.43388E+04
 
    0.21645E+05         0.44660E+04         0.00000E+00
    0.44660E+04         0.22981E+02         0.00000E+00
    0.00000E+00         0.00000E+00         0.43335E+04
 
    0.21584E+05         0.62462E+04         0.00000E+00
    0.62462E+04         0.48644E+02         0.00000E+00
    0.00000E+00         0.00000E+00         0.43265E+04
 
    0.21506E+05         0.80210E+04         0.00000E+00
    0.80210E+04         0.82842E+02         0.00000E+00
    0.00000E+00         0.00000E+00         0.43178E+04
 
    0.21411E+05         0.97888E+04         0.00000E+00
    0.97888E+04         0.12556E+03         0.00000E+00
    0.00000E+00         0.00000E+00         0.43074E+04
 
    0.21300E+05         0.11548E+05         0.00000E+00
    0.11548E+05         0.17676E+03         0.00000E+00
    0.00000E+00         0.00000E+00         0.42953E+04
 
    0.21171E+05         0.13298E+05         0.00000E+00
    0.13298E+05         0.23641E+03         0.00000E+00
    0.00000E+00         0.00000E+00         0.42815E+04
 
    0.21025E+05         0.15037E+05         0.00000E+00
    0.15037E+05         0.30447E+03         0.00000E+00
    0.00000E+00         0.00000E+00         0.42660E+04
 
    0.20863E+05         0.16763E+05         0.00000E+00
    0.16763E+05         0.38090E+03         0.00000E+00
    0.00000E+00         0.00000E+00         0.42488E+04
 
    0.20684E+05         0.18476E+05         0.00000E+00
    0.18476E+05         0.46564E+03         0.00000E+00
    0.00000E+00         0.00000E+00         0.42299E+04
 
    0.20488E+05         0.20173E+05         0.00000E+00
    0.20173E+05         0.55863E+03         0.00000E+00
    0.00000E+00         0.00000E+00         0.42093E+04
 
    0.20276E+05         0.21854E+05         0.00000E+00
    0.21854E+05         0.65979E+03         0.00000E+00
    0.00000E+00         0.00000E+00         0.41871E+04
 
    0.20047E+05         0.23517E+05         0.00000E+00
    0.23517E+05         0.76907E+03         0.00000E+00
    0.00000E+00         0.00000E+00         0.41632E+04
 
    0.19802E+05         0.25161E+05         0.00000E+00
    0.25161E+05         0.88636E+03         0.00000E+00
    0.00000E+00         0.00000E+00         0.41376E+04
 
    0.19540E+05         0.26784E+05         0.00000E+00
    0.26784E+05         0.10116E+04         0.00000E+00
    0.00000E+00         0.00000E+00         0.41104E+04
 
    0.19263E+05         0.28385E+05         0.00000E+00
    0.28385E+05         0.11447E+04         0.00000E+00
    0.00000E+00         0.00000E+00         0.40815E+04
 
    0.18970E+05         0.29963E+05         0.00000E+00
    0.29963E+05         0.12855E+04         0.00000E+00
    0.00000E+00         0.00000E+00         0.40510E+04
 
    0.18661E+05         0.31516E+05         0.00000E+00
    0.31516E+05         0.14339E+04         0.00000E+00
    0.00000E+00         0.00000E+00         0.40189E+04
 
    0.18336E+05         0.33044E+05         0.00000E+00
    0.33044E+05         0.15898E+04         0.00000E+00
    0.00000E+00         0.00000E+00         0.39852E+04
 
    0.17996E+05         0.34544E+05         0.00000E+00
    0.34544E+05         0.17532E+04         0.00000E+00
    0.00000E+00         0.00000E+00         0.39498E+04
 
    0.17641E+05         0.36016E+05         0.00000E+00
    0.36016E+05         0.19238E+04         0.00000E+00
    0.00000E+00         0.00000E+00         0.39129E+04
 
    0.17271E+05         0.37458E+05         0.00000E+00
    0.37458E+05         0.21015E+04         0.00000E+00
    0.00000E+00         0.00000E+00         0.38745E+04
 
    0.16886E+05         0.38870E+05         0.00000E+00
    0.38870E+05         0.22862E+04         0.00000E+00
    0.00000E+00         0.00000E+00         0.38344E+04
 
    0.16486E+05         0.40249E+05         0.00000E+00
    0.40249E+05         0.24777E+04         0.00000E+00
    0.00000E+00         0.00000E+00         0.37928E+04
 
    0.16073E+05         0.41594E+05         0.00000E+00
    0.41594E+05         0.26760E+04         0.00000E+00
    0.00000E+00         0.00000E+00         0.37497E+04
 
    0.15645E+05         0.42906E+05         0.00000E+00
    0.42906E+05         0.28807E+04         0.00000E+00
    0.00000E+00         0.00000E+00         0.37051E+04
 
    0.15203E+05         0.44181E+05         0.00000E+00
    0.44181E+05         0.30918E+04         0.00000E+00
    0.00000E+00         0.00000E+00         0.36590E+04
 
    0.14748E+05         0.45420E+05         0.00000E+00
    0.45420E+05         0.33091E+04         0.00000E+00
    0.00000E+00         0.00000E+00         0.36114E+04
 
    0.14279E+05         0.46620E+05         0.00000E+00
    0.46620E+05         0.35324E+04         0.00000E+00
    0.00000E+00         0.00000E+00         0.35623E+04
 
    0.13798E+05         0.47782E+05         0.00000E+00
    0.47782E+05         0.37615E+04         0.00000E+00
    0.00000E+00         0.00000E+00         0.35118E+04
 
    0.13303E+05         0.48903E+05         0.00000E+00
    0.48903E+05         0.39962E+04         0.00000E+00
    0.00000E+00         0.00000E+00         0.34599E+04
 
    0.12796E+05         0.49983E+05         0.00000E+00
    0.49983E+05         0.42364E+04         0.00000E+00
    0.00000E+00         0.00000E+00         0.34065E+04
 
    0.12277E+05         0.51021E+05         0.00000E+00
    0.51021E+05         0.44818E+04         0.00000E+00
    0.00000E+00         0.00000E+00         0.33518E+04
 
    0.11747E+05         0.52015E+05         0.00000E+00
    0.52015E+05         0.47322E+04         0.00000E+00
    0.00000E+00         0.00000E+00         0.32958E+04
 
    0.11204E+05         0.52966E+05         0.00000E+00
    0.52966E+05         0.49874E+04         0.00000E+00
    0.00000E+00         0.00000E+00         0.32384E+04
 
    0.10651E+05         0.53870E+05         0.00000E+00
    0.53870E+05         0.52472E+04         0.00000E+00
    0.00000E+00         0.00000E+00         0.31796E+04
 
    0.10087E+05         0.54729E+05         0.00000E+00
    0.54729E+05         0.55114E+04         0.00000E+00
    0.00000E+00         0.00000E+00         0.31196E+04
 
    0.95120E+04         0.55541E+05         0.00000E+00
    0.55541E+05         0.57797E+04         0.00000E+00
    0.00000E+00         0.00000E+00         0.30583E+04
 
    0.89271E+04         0.56305E+05         0.00000E+00
    0.56305E+05         0.60520E+04         0.00000E+00
    0.00000E+00         0.00000E+00         0.29958E+04
 
    0.83325E+04         0.57020E+05         0.00000E+00
    0.57020E+05         0.63279E+04         0.00000E+00
    0.00000E+00         0.00000E+00         0.29321E+04
 
    0.77285E+04         0.57685E+05         0.00000E+00
    0.57685E+05         0.66072E+04         0.00000E+00
    0.00000E+00         0.00000E+00         0.28671E+04
 
    0.71155E+04         0.58300E+05         0.00000E+00
    0.58300E+05         0.68897E+04         0.00000E+00
    0.00000E+00         0.00000E+00         0.28010E+04
 
    0.64938E+04         0.58864E+05         0.00000E+00
    0.58864E+05         0.71751E+04         0.00000E+00
    0.00000E+00         0.00000E+00         0.27338E+04
 
    0.58639E+04         0.59375E+05         0.00000E+00
    0.59375E+05         0.74632E+04         0.00000E+00
    0.00000E+00         0.00000E+00         0.26654E+04
 
    0.52261E+04         0.59835E+05         0.00000E+00
    0.59835E+05         0.77537E+04         0.00000E+00
    0.00000E+00         0.00000E+00         0.25960E+04
 
    0.45810E+04         0.60241E+05         0.00000E+00
    0.60241E+05         0.80464E+04         0.00000E+00
    0.00000E+00         0.00000E+00         0.25255E+04
 
    0.39287E+04         0.60593E+05         0.00000E+00
    0.60593E+05         0.83410E+04         0.00000E+00
    0.00000E+00         0.00000E+00         0.24539E+04
 
    0.32699E+04         0.60891E+05         0.00000E+00
    0.60891E+05         0.86371E+04         0.00000E+00
    0.00000E+00         0.00000E+00         0.23814E+04
 
    0.26049E+04         0.61134E+05         0.00000E+00
    0.61134E+05         0.89346E+04         0.00000E+00
    0.00000E+00         0.00000E+00         0.23079E+04
 
    0.30777E+05         0.92036E+03         0.00000E+00
    0.92036E+03        -0.37890E+01         0.00000E+00
    0.00000E+00         0.00000E+00         0.61546E+04
 
    0.30740E+05         0.27589E+04         0.00000E+00
    0.27589E+04         0.82665E+01         0.00000E+00
    0.00000E+00         0.00000E+00         0.61496E+04
 
    0.30679E+05         0.45948E+04         0.00000E+00
    0.45948E+04         0.32398E+02         0.00000E+00
    0.00000E+00         0.00000E+00         0.61423E+04
 
    0.30594E+05         0.64265E+04         0.00000E+00
    0.64265E+04         0.68600E+02         0.00000E+00
    0.00000E+00         0.00000E+00         0.61326E+04
 
    0.30485E+05         0.82526E+04         0.00000E+00
    0.82526E+04         0.11686E+03         0.00000E+00
    0.00000E+00         0.00000E+00         0.61204E+04
 
    0.30352E+05         0.10072E+05         0.00000E+00
    0.10072E+05         0.17715E+03         0.00000E+00
    0.00000E+00         0.00000E+00         0.61059E+04
 
    0.30195E+05         0.11882E+05         0.00000E+00
    0.11882E+05         0.24944E+03         0.00000E+00
    0.00000E+00         0.00000E+00         0.60889E+04
 
    0.30014E+05         0.13683E+05         0.00000E+00
    0.13683E+05         0.33369E+03         0.00000E+00
    0.00000E+00         0.00000E+00         0.60695E+04
 
    0.29809E+05         0.15472E+05         0.00000E+00
    0.15472E+05         0.42984E+03         0.00000E+00
    0.00000E+00         0.00000E+00         0.60478E+04
 
    0.29580E+05         0.17249E+05         0.00000E+00
    0.17249E+05         0.53783E+03         0.00000E+00
    0.00000E+00         0.00000E+00         0.60236E+04
 
    0.29328E+05         0.19012E+05         0.00000E+00
    0.19012E+05         0.65759E+03         0.00000E+00
    0.00000E+00         0.00000E+00         0.59971E+04
 
    0.29052E+05         0.20759E+05         0.00000E+00
    0.20759E+05         0.78904E+03         0.00000E+00
    0.00000E+00         0.00000E+00         0.59681E+04
 
    0.28752E+05         0.22489E+05         0.00000E+00
    0.22489E+05         0.93208E+03         0.00000E+00
    0.00000E+00         0.00000E+00         0.59368E+04
 
    0.28429E+05         0.24200E+05         0.00000E+00
    0.24200E+05         0.10866E+04         0.00000E+00
    0.00000E+00         0.00000E+00         0.59031E+04
 
    0.28083E+05         0.25892E+05         0.00000E+00
    0.25892E+05         0.12525E+04         0.00000E+00
    0.00000E+00         0.00000E+00         0.58671E+04
 
    0.27714E+05         0.27563E+05         0.00000E+00
    0.27563E+05         0.14297E+04         0.00000E+00
    0.00000E+00         0.00000E+00         0.58288E+04
 
    0.27322E+05         0.29211E+05         0.00000E+00
    0.29211E+05         0.16180E+04         0.00000E+00
    0.00000E+00         0.00000E+00         0.57880E+04
 
    0.26908E+05         0.30835E+05         0.00000E+00
    0.30835E+05         0.18173E+04         0.00000E+00
    0.00000E+00         0.00000E+00         0.57450E+04
 
    0.26471E+05         0.32435E+05         0.00000E+00
    0.32435E+05         0.20275E+04         0.00000E+00
    0.00000E+00         0.00000E+00         0.56997E+04
 
    0.26012E+05         0.34007E+05         0.00000E+00
    0.34007E+05         0.22483E+04         0.00000E+00
    0.00000E+00         0.00000E+00         0.56521E+04
 
    0.25531E+05         0.35552E+05         0.00000E+00
    0.35552E+05         0.24796E+04         0.00000E+00
    0.00000E+00         0.00000E+00         0.56022E+04
 
    0.25029E+05         0.37067E+05         0.00000E+00
    0.37067E+05         0.27213E+04         0.00000E+00
    0.00000E+00         0.00000E+00         0.55500E+04
 
    0.24505E+05         0.38552E+05         0.00000E+00
    0.38552E+05         0.29731E+04         0.00000E+00
    0.00000E+00         0.00000E+00         0.54957E+04
 
    0.23960E+05         0.40005E+05         0.00000E+00
    0.40005E+05         0.32348E+04         0.00000E+00
    0.00000E+00         0.00000E+00         0.54390E+04
 
    0.23395E+05         0.41425E+05         0.00000E+00
    0.41425E+05         0.35063E+04         0.00000E+00
    0.00000E+00         0.00000E+00         0.53802E+04
 
    0.22809E+05         0.42811E+05         0.00000E+00
    0.42811E+05         0.37873E+04         0.00000E+00
    0.00000E+00         0.00000E+00         0.53193E+04
 
    0.22203E+05         0.44161E+05         0.00000E+00
    0.44161E+05         0.40776E+04         0.00000E+00
    0.00000E+00         0.00000E+00         0.52561E+04
 
    0.21577E+05         0.45474E+05         0.00000E+00
    0.45474E+05         0.43769E+04         0.00000E+00
    0.00000E+00         0.00000E+00         0.51908E+04
 
    0.20932E+05         0.46750E+05         0.00000E+00
    0.46750E+05         0.46850E+04         0.00000E+00
    0.00000E+00         0.00000E+00         0.51234E+04
 
    0.20268E+05         0.47986E+05         0.00000E+00
    0.47986E+05         0.50018E+04         0.00000E+00
    0.00000E+00         0.00000E+00         0.50540E+04
 
    0.19585E+05         0.49182E+05         0.00000E+00
    0.49182E+05         0.53268E+04         0.00000E+00
    0.00000E+00         0.00000E+00         0.49824E+04
 
    0.18885E+05         0.50337E+05         0.00000E+00
    0.50337E+05         0.56598E+04         0.00000E+00
    0.00000E+00         0.00000E+00         0.49089E+04
 
    0.18166E+05         0.51450E+05         0.00000E+00
    0.51450E+05         0.60006E+04         0.00000E+00
    0.00000E+00         0.00000E+00         0.48333E+04
 
    0.17430E+05         0.52518E+05         0.00000E+00
    0.52518E+05         0.63488E+04         0.00000E+00
    0.00000E+00         0.00000E+00         0.47558E+04
 
    0.16677E+05         0.53543E+05         0.00000E+00
    0.53543E+05         0.67043E+04         0.00000E+00
    0.00000E+00         0.00000E+00         0.46763E+04
 
    0.15908E+05         0.54521E+05         0.00000E+00
    0.54521E+05         0.70665E+04         0.00000E+00
    0.00000E+00         0.00000E+00         0.45949E+04
 
    0.15123E+05         0.55453E+05         0.00000E+00
    0.55453E+05         0.74354E+04         0.00000E+00
    0.00000E+00         0.00000E+00         0.45116E+04
 
    0.14322E+05         0.56338E+05         0.00000E+00
    0.56338E+05         0.78105E+04         0.00000E+00
    0.00000E+00         0.00000E+00         0.44265E+04
 
    0.13506E+05         0.57174E+05         0.00000E+00
    0.57174E+05         0.81915E+04         0.00000E+00
    0.00000E+00         0.00000E+00         0.43396E+04
 
    0.12676E+05         0.57961E+05         0.00000E+00
    0.57961E+05         0.85781E+04         0.00000E+00
    0.00000E+00         0.00000E+00         0.42509E+04
 
    0.11832E+05         0.58697E+05         0.00000E+00
    0.58697E+05         0.89699E+04         0.00000E+00
    0.00000E+00         0.00000E+00         0.41604E+04
 
    0.10974E+05         0.59383E+05         0.00000E+00
    0.59383E+05         0.93667E+04         0.00000E+00
    0.00000E+00         0.00000E+00         0.40682E+04
 
    0.10104E+05         0.60016E+05         0.00000E+00
    0.60016E+05         0.97680E+04         0.00000E+00
    0.00000E+00         0.00000E+00         0.39744E+04
 
    0.92210E+04         0.60597E+05         0.00000E+00
    0.60597E+05         0.10173E+05         0.00000E+00
    0.00000E+00         0.00000E+00         0.38789E+04
 
    0.83263E+04         0.61124E+05         0.00000E+00
    0.61124E+05         0.10583E+05         0.00000E+00
    0.00000E+00         0.00000E+00         0.37818E+04
 
    0.74204E+04         0.61597E+05         0.00000E+00
    0.61597E+05         0.10996E+05         0.00000E+00
    0.00000E+00         0.00000E+00         0.36832E+04
 
    0.65038E+04         0.62016E+05         0.00000E+00
    0.62016E+05         0.11411E+05         0.00000E+00
    0.00000E+00         0.00000E+00         0.35830E+04
 
    0.55771E+04         0.62379E+05         0.00000E+00
    0.62379E+05         0.11830E+05         0.00000E+00
    0.00000E+00         0.00000E+00         0.34814E+04
 
    0.46410E+04         0.62686E+05         0.00000E+00
    0.62686E+05         0.12251E+05         0.00000E+00
    0.00000E+00         0.00000E+00         0.33784E+04
 
    0.36960E+04         0.62936E+05         0.00000E+00
    0.62936E+05         0.12674E+05         0.00000E+00
    0.00000E+00         0.00000E+00         0.32739E+04
 
    0.40140E+05         0.95495E+03         0.00000E+00
    0.95495E+03        -0.49298E+01         0.00000E+00
    0.00000E+00         0.00000E+00         0.80271E+04
 
    0.40094E+05         0.28629E+04         0.00000E+00
    0.28629E+04         0.10740E+02         0.00000E+00
    0.00000E+00         0.00000E+00         0.80209E+04
 
    0.40016E+05         0.47681E+04         0.00000E+00
    0.47681E+04         0.42118E+02         0.00000E+00
    0.00000E+00         0.00000E+00         0.80116E+04
 
    0.39906E+05         0.66691E+04         0.00000E+00
    0.66691E+04         0.89205E+02         0.00000E+00
    0.00000E+00         0.00000E+00         0.79991E+04
 
    0.39765E+05         0.85645E+04         0.00000E+00
    0.85645E+04         0.15199E+03         0.00000E+00
    0.00000E+00         0.00000E+00         0.79835E+04
 
    0.39593E+05         0.10453E+05         0.00000E+00
    0.10453E+05         0.23044E+03         0.00000E+00
    0.00000E+00         0.00000E+00         0.79647E+04
 
    0.39390E+05         0.12332E+05         0.00000E+00
    0.12332E+05         0.32452E+03         0.00000E+00
    0.00000E+00         0.00000E+00         0.79428E+04
 
    0.39155E+05         0.14201E+05         0.00000E+00
    0.14201E+05         0.43418E+03         0.00000E+00
    0.00000E+00         0.00000E+00         0.79178E+04
 
    0.38889E+05         0.16059E+05         0.00000E+00
    0.16059E+05         0.55936E+03         0.00000E+00
    0.00000E+00         0.00000E+00         0.78897E+04
 
    0.38592E+05         0.17904E+05         0.00000E+00
    0.17904E+05         0.69998E+03         0.00000E+00
    0.00000E+00         0.00000E+00         0.78584E+04
 
    0.38264E+05         0.19734E+05         0.00000E+00
    0.19734E+05         0.85595E+03         0.00000E+00
    0.00000E+00         0.00000E+00         0.78240E+04
 
    0.37905E+05         0.21548E+05         0.00000E+00
    0.21548E+05         0.10272E+04         0.00000E+00
    0.00000E+00         0.00000E+00         0.77865E+04
 
    0.37516E+05         0.23344E+05         0.00000E+00
    0.23344E+05         0.12135E+04         0.00000E+00
    0.00000E+00         0.00000E+00         0.77459E+04
 
    0.37096E+05         0.25122E+05         0.00000E+00
    0.25122E+05         0.14149E+04         0.00000E+00
    0.00000E+00         0.00000E+00         0.77022E+04
 
    0.36646E+05         0.26879E+05         0.00000E+00
    0.26879E+05         0.16311E+04         0.00000E+00
    0.00000E+00         0.00000E+00         0.76555E+04
 
    0.36166E+05         0.28614E+05         0.00000E+00
    0.28614E+05         0.18620E+04         0.00000E+00
    0.00000E+00         0.00000E+00         0.76056E+04
 
    0.35656E+05         0.30326E+05         0.00000E+00
    0.30326E+05         0.21075E+04         0.00000E+00
    0.00000E+00         0.00000E+00         0.75528E+04
 
    0.35117E+05         0.32013E+05         0.00000E+00
    0.32013E+05         0.23673E+04         0.00000E+00
    0.00000E+00         0.00000E+00         0.74969E+04
 
    0.34548E+05         0.33674E+05         0.00000E+00
    0.33674E+05         0.26413E+04         0.00000E+00
    0.00000E+00         0.00000E+00         0.74380E+04
 
    0.33951E+05         0.35308E+05         0.00000E+00
    0.35308E+05         0.29292E+04         0.00000E+00
    0.00000E+00         0.00000E+00         0.73760E+04
 
    0.33325E+05         0.36912E+05         0.00000E+00
    0.36912E+05         0.32309E+04         0.00000E+00
    0.00000E+00         0.00000E+00         0.73112E+04
 
    0.32671E+05         0.38487E+05         0.00000E+00
    0.38487E+05         0.35461E+04         0.00000E+00
    0.00000E+00         0.00000E+00         0.72433E+04
 
    0.31988E+05         0.40030E+05         0.00000E+00
    0.40030E+05         0.38745E+04         0.00000E+00
    0.00000E+00         0.00000E+00         0.71725E+04
 
    0.31278E+05         0.41539E+05         0.00000E+00
    0.41539E+05         0.42159E+04         0.00000E+00
    0.00000E+00         0.00000E+00         0.70989E+04
 
    0.30541E+05         0.43015E+05         0.00000E+00
    0.43015E+05         0.45701E+04         0.00000E+00
    0.00000E+00         0.00000E+00         0.70223E+04
 
    0.29778E+05         0.44455E+05         0.00000E+00
    0.44455E+05         0.49368E+04         0.00000E+00
    0.00000E+00         0.00000E+00         0.69429E+04
 
    0.28988E+05         0.45858E+05         0.00000E+00
    0.45858E+05         0.53156E+04         0.00000E+00
    0.00000E+00         0.00000E+00         0.68607E+04
 
    0.28172E+05         0.47223E+05         0.00000E+00
    0.47223E+05         0.57062E+04         0.00000E+00
    0.00000E+00         0.00000E+00         0.67756E+04
 
    0.27331E+05         0.48548E+05         0.00000E+00
    0.48548E+05         0.61084E+04         0.00000E+00
    0.00000E+00         0.00000E+00         0.66878E+04
 
    0.26465E+05         0.49833E+05         0.00000E+00
    0.49833E+05         0.65218E+04         0.00000E+00
    0.00000E+00         0.00000E+00         0.65973E+04
 
    0.25574E+05         0.51077E+05         0.00000E+00
    0.51077E+05         0.69461E+04         0.00000E+00
    0.00000E+00         0.00000E+00         0.65041E+04
 
    0.24660E+05         0.52277E+05         0.00000E+00
    0.52277E+05         0.73808E+04         0.00000E+00
    0.00000E+00         0.00000E+00         0.64082E+04
 
    0.23722E+05         0.53433E+05         0.00000E+00
    0.53433E+05         0.78258E+04         0.00000E+00
    0.00000E+00         0.00000E+00         0.63096E+04
 
    0.22762E+05         0.54544E+05         0.00000E+00
    0.54544E+05         0.82805E+04         0.00000E+00
    0.00000E+00         0.00000E+00         0.62085E+04
 
    0.21780E+05         0.55609E+05         0.00000E+00
    0.55609E+05         0.87446E+04         0.00000E+00
    0.00000E+00         0.00000E+00         0.61049E+04
 
    0.20776E+05         0.56626E+05         0.00000E+00
    0.56626E+05         0.92177E+04         0.00000E+00
    0.00000E+00         0.00000E+00         0.59987E+04
 
    0.19751E+05         0.57595E+05         0.00000E+00
    0.57595E+05         0.96994E+04         0.00000E+00
    0.00000E+00         0.00000E+00         0.58900E+04
 
    0.18705E+05         0.58515E+05         0.00000E+00
    0.58515E+05         0.10189E+05         0.00000E+00
    0.00000E+00         0.00000E+00         0.57789E+04
 
    0.17640E+05         0.59384E+05         0.00000E+00
    0.59384E+05         0.10687E+05         0.00000E+00
    0.00000E+00         0.00000E+00         0.56655E+04
 
    0.16556E+05         0.60202E+05         0.00000E+00
    0.60202E+05         0.11192E+05         0.00000E+00
    0.00000E+00         0.00000E+00         0.55497E+04
 
    0.15454E+05         0.60968E+05         0.00000E+00
    0.60968E+05         0.11704E+05         0.00000E+00
    0.00000E+00         0.00000E+00         0.54316E+04
 
    0.14334E+05         0.61681E+05         0.00000E+00
    0.61681E+05         0.12222E+05         0.00000E+00
    0.00000E+00         0.00000E+00         0.53112E+04
 
    0.13197E+05         0.62339E+05         0.00000E+00
    0.62339E+05         0.12746E+05         0.00000E+00
    0.00000E+00         0.00000E+00         0.51887E+04
 
    0.12044E+05         0.62943E+05         0.00000E+00
    0.62943E+05         0.13276E+05         0.00000E+00
    0.00000E+00         0.00000E+00         0.50640E+04
 
    0.10875E+05         0.63492E+05         0.00000E+00
    0.63492E+05         0.13811E+05         0.00000E+00
    0.00000E+00         0.00000E+00         0.49372E+04
 
    0.96916E+04         0.63984E+05         0.00000E+00
    0.63984E+05         0.14350E+05         0.00000E+00
    0.00000E+00         0.00000E+00         0.48084E+04
 
    0.84941E+04         0.64419E+05         0.00000E+00
    0.64419E+05         0.14894E+05         0.00000E+00
    0.00000E+00         0.00000E+00         0.46776E+04
 
    0.72834E+04         0.64796E+05         0.00000E+00
    0.64796E+05         0.15441E+05         0.00000E+00
    0.00000E+00         0.00000E+00         0.45448E+04
 
    0.60601E+04         0.65116E+05         0.00000E+00
    0.65116E+05         0.15991E+05         0.00000E+00
    0.00000E+00         0.00000E+00         0.44102E+04
 
    0.48253E+04         0.65376E+05         0.00000E+00
    0.65376E+05         0.16543E+05         0.00000E+00
    0.00000E+00         0.00000E+00         0.42737E+04
 
    0.49897E+05         0.99873E+03         0.00000E+00
    0.99873E+03        -0.61188E+01         0.00000E+00
    0.00000E+00         0.00000E+00         0.99782E+04
 
    0.49840E+05         0.29946E+04         0.00000E+00
    0.29946E+04         0.13312E+02         0.00000E+00
    0.00000E+00         0.00000E+00         0.99708E+04
 
    0.49745E+05         0.49877E+04         0.00000E+00
    0.49877E+04         0.52237E+02         0.00000E+00
    0.00000E+00         0.00000E+00         0.99595E+04
 
    0.49611E+05         0.69766E+04         0.00000E+00
    0.69766E+04         0.11066E+03         0.00000E+00
    0.00000E+00         0.00000E+00         0.99443E+04
 
    0.49437E+05         0.89597E+04         0.00000E+00
    0.89597E+04         0.18858E+03         0.00000E+00
    0.00000E+00         0.00000E+00         0.99252E+04
 
    0.49225E+05         0.10935E+05         0.00000E+00
    0.10935E+05         0.28596E+03         0.00000E+00
    0.00000E+00         0.00000E+00         0.99022E+04
 
    0.48974E+05         0.12902E+05         0.00000E+00
    0.12902E+05         0.40276E+03         0.00000E+00
    0.00000E+00         0.00000E+00         0.98753E+04
 
    0.48684E+05         0.14859E+05         0.00000E+00
    0.14859E+05         0.53892E+03         0.00000E+00
    0.00000E+00         0.00000E+00         0.98445E+04
 
    0.48355E+05         0.16803E+05         0.00000E+00
    0.16803E+05         0.69438E+03         0.00000E+00
    0.00000E+00         0.00000E+00         0.98099E+04
 
    0.47988E+05         0.18734E+05         0.00000E+00
    0.18734E+05         0.86903E+03         0.00000E+00
    0.00000E+00         0.00000E+00         0.97713E+04
 
    0.47582E+05         0.20650E+05         0.00000E+00
    0.20650E+05         0.10628E+04         0.00000E+00
    0.00000E+00         0.00000E+00         0.97289E+04
 
    0.47138E+05         0.22549E+05         0.00000E+00
    0.22549E+05         0.12755E+04         0.00000E+00
    0.00000E+00         0.00000E+00         0.96826E+04
 
    0.46655E+05         0.24430E+05         0.00000E+00
    0.24430E+05         0.15070E+04         0.00000E+00
    0.00000E+00         0.00000E+00         0.96324E+04
 
    0.46135E+05         0.26291E+05         0.00000E+00
    0.26291E+05         0.17572E+04         0.00000E+00
    0.00000E+00         0.00000E+00         0.95785E+04
 
    0.45577E+05         0.28131E+05         0.00000E+00
    0.28131E+05         0.20259E+04         0.00000E+00
    0.00000E+00         0.00000E+00         0.95206E+04
 
    0.44982E+05         0.29948E+05         0.00000E+00
    0.29948E+05         0.23130E+04         0.00000E+00
    0.00000E+00         0.00000E+00         0.94590E+04
 
    0.44350E+05         0.31741E+05         0.00000E+00
    0.31741E+05         0.26181E+04         0.00000E+00
    0.00000E+00         0.00000E+00         0.93935E+04
 
    0.43681E+05         0.33508E+05         0.00000E+00
    0.33508E+05         0.29411E+04         0.00000E+00
    0.00000E+00         0.00000E+00         0.93243E+04
 
    0.42975E+05         0.35248E+05         0.00000E+00
    0.35248E+05         0.32817E+04         0.00000E+00
    0.00000E+00         0.00000E+00         0.92514E+04
 
    0.42234E+05         0.36959E+05         0.00000E+00
    0.36959E+05         0.36397E+04         0.00000E+00
    0.00000E+00         0.00000E+00         0.91747E+04
 
    0.41456E+05         0.38640E+05         0.00000E+00
    0.38640E+05         0.40149E+04         0.00000E+00
    0.00000E+00         0.00000E+00         0.90942E+04
 
    0.40644E+05         0.40290E+05         0.00000E+00
    0.40290E+05         0.44068E+04         0.00000E+00
    0.00000E+00         0.00000E+00         0.90101E+04
 
    0.39797E+05         0.41906E+05         0.00000E+00
    0.41906E+05         0.48153E+04         0.00000E+00
    0.00000E+00         0.00000E+00         0.89224E+04
 
    0.38915E+05         0.43488E+05         0.00000E+00
    0.43488E+05         0.52400E+04         0.00000E+00
    0.00000E+00         0.00000E+00         0.88310E+04
 
    0.37999E+05         0.45034E+05         0.00000E+00
    0.45034E+05         0.56806E+04         0.00000E+00
    0.00000E+00         0.00000E+00         0.87360E+04
 
    0.37051E+05         0.46543E+05         0.00000E+00
    0.46543E+05         0.61367E+04         0.00000E+00
    0.00000E+00         0.00000E+00         0.86374E+04
 
    0.36069E+05         0.48014E+05         0.00000E+00
    0.48014E+05         0.66079E+04         0.00000E+00
    0.00000E+00         0.00000E+00         0.85354E+04
 
    0.35055E+05         0.49444E+05         0.00000E+00
    0.49444E+05         0.70939E+04         0.00000E+00
    0.00000E+00         0.00000E+00         0.84298E+04
 
    0.34010E+05         0.50834E+05         0.00000E+00
    0.50834E+05         0.75943E+04         0.00000E+00
    0.00000E+00         0.00000E+00         0.83208E+04
 
    0.32933E+05         0.52181E+05         0.00000E+00
    0.52181E+05         0.81087E+04         0.00000E+00
    0.00000E+00         0.00000E+00         0.82083E+04
 
    0.31826E+05         0.53484E+05         0.00000E+00
    0.53484E+05         0.86367E+04         0.00000E+00
    0.00000E+00         0.00000E+00         0.80925E+04
 
    0.30689E+05         0.54742E+05         0.00000E+00
    0.54742E+05         0.91777E+04         0.00000E+00
    0.00000E+00         0.00000E+00         0.79734E+04
 
    0.29523E+05         0.55954E+05         0.00000E+00
    0.55954E+05         0.97314E+04         0.00000E+00
    0.00000E+00         0.00000E+00         0.78510E+04
 
    0.28329E+05         0.57119E+05         0.00000E+00
    0.57119E+05         0.10297E+05         0.00000E+00
    0.00000E+00         0.00000E+00         0.77253E+04
 
    0.27107E+05         0.58235E+05         0.00000E+00
    0.58235E+05         0.10875E+05         0.00000E+00
    0.00000E+00         0.00000E+00         0.75964E+04
 
    0.25858E+05         0.59302E+05         0.00000E+00
    0.59302E+05         0.11464E+05         0.00000E+00
    0.00000E+00         0.00000E+00         0.74644E+04
 
    0.24583E+05         0.60318E+05         0.00000E+00
    0.60318E+05         0.12063E+05         0.00000E+00
    0.00000E+00         0.00000E+00         0.73293E+04
 
    0.23283E+05         0.61283E+05         0.00000E+00
    0.61283E+05         0.12673E+05         0.00000E+00
    0.00000E+00         0.00000E+00         0.71912E+04
 
    0.21958E+05         0.62194E+05         0.00000E+00
    0.62194E+05         0.13293E+05         0.00000E+00
    0.00000E+00         0.00000E+00         0.70501E+04
 
    0.20609E+05         0.63052E+05         0.00000E+00
    0.63052E+05         0.13921E+05         0.00000E+00
    0.00000E+00         0.00000E+00         0.69060E+04
 
    0.19237E+05         0.63855E+05         0.00000E+00
    0.63855E+05         0.14559E+05         0.00000E+00
    0.00000E+00         0.00000E+00         0.67591E+04
 
    0.17843E+05         0.64603E+05         0.00000E+00
    0.64603E+05         0.15204E+05         0.00000E+00
    0.00000E+00         0.00000E+00         0.66094E+04
 
    0.16428E+05         0.65294E+05         0.00000E+00
    0.65294E+05         0.15857E+05         0.00000E+00
    0.00000E+00         0.00000E+00         0.64569E+04
 
    0.14992E+05         0.65927E+05         0.00000E+00
    0.65927E+05         0.16516E+05         0.00000E+00
    0.00000E+00         0.00000E+00         0.63017E+04
 
    0.13538E+05         0.66502E+05         0.00000E+00
    0.66502E+05         0.17182E+05         0.00000E+00
    0.00000E+00         0.00000E+00         0.61440E+04
 
    0.12064E+05         0.67019E+05         0.00000E+00
    0.67019E+05         0.17854E+05         0.00000E+00
    0.00000E+00         0.00000E+00         0.59836E+04
 
    0.10573E+05         0.67475E+05         0.00000E+00
    0.67475E+05         0.18530E+05         0.00000E+00
    0.00000E+00         0.00000E+00         0.58207E+04
 
    0.90657E+04         0.67871E+05         0.00000E+00
    0.67871E+05         0.19212E+05         0.00000E+00
    0.00000E+00         0.00000E+00         0.56554E+04
 
    0.75425E+04         0.68206E+05         0.00000E+00
    0.68206E+05         0.19896E+05         0.00000E+00
    0.00000E+00         0.00000E+00         0.54878E+04
 
    0.60047E+04         0.68479E+05         0.00000E+00
    0.68479E+05         0.20585E+05         0.00000E+00
    0.00000E+00         0.00000E+00         0.53179E+04
 
    0.60141E+05         0.10521E+04         0.00000E+00
    0.10521E+04        -0.73688E+01         0.00000E+00
    0.00000E+00         0.00000E+00         0.12027E+05
 
    0.60075E+05         0.31552E+04         0.00000E+00
    0.31552E+04         0.16009E+02         0.00000E+00
    0.00000E+00         0.00000E+00         0.12018E+05
 
    0.59962E+05         0.52556E+04         0.00000E+00
    0.52556E+04         0.62860E+02         0.00000E+00
    0.00000E+00         0.00000E+00         0.12005E+05
 
    0.59803E+05         0.73519E+04         0.00000E+00
    0.73519E+04         0.13320E+03         0.00000E+00
    0.00000E+00         0.00000E+00         0.11987E+05
 
    0.59596E+05         0.94422E+04         0.00000E+00
    0.94422E+04         0.22702E+03         0.00000E+00
    0.00000E+00         0.00000E+00         0.11965E+05
 
    0.59343E+05         0.11525E+05         0.00000E+00
    0.11525E+05         0.34430E+03         0.00000E+00
    0.00000E+00         0.00000E+00         0.11937E+05
 
    0.59042E+05         0.13599E+05         0.00000E+00
    0.13599E+05         0.48500E+03         0.00000E+00
    0.00000E+00         0.00000E+00         0.11905E+05
 
    0.58695E+05         0.15662E+05         0.00000E+00
    0.15662E+05         0.64904E+03         0.00000E+00
    0.00000E+00         0.00000E+00         0.11869E+05
 
    0.58301E+05         0.17712E+05         0.00000E+00
    0.17712E+05         0.83634E+03         0.00000E+00
    0.00000E+00         0.00000E+00         0.11828E+05
 
    0.57861E+05         0.19748E+05         0.00000E+00
    0.19748E+05         0.10468E+04         0.00000E+00
    0.00000E+00         0.00000E+00         0.11782E+05
 
    0.57374E+05         0.21769E+05         0.00000E+00
    0.21769E+05         0.12803E+04         0.00000E+00
    0.00000E+00         0.00000E+00         0.11731E+05
 
    0.56841E+05         0.23772E+05         0.00000E+00
    0.23772E+05         0.15367E+04         0.00000E+00
    0.00000E+00         0.00000E+00         0.11675E+05
 
    0.56261E+05         0.25756E+05         0.00000E+00
    0.25756E+05         0.18158E+04         0.00000E+00
    0.00000E+00         0.00000E+00         0.11615E+05
 
    0.55637E+05         0.27720E+05         0.00000E+00
    0.27720E+05         0.21175E+04         0.00000E+00
    0.00000E+00         0.00000E+00         0.11551E+05
 
    0.54966E+05         0.29661E+05         0.00000E+00
    0.29661E+05         0.24414E+04         0.00000E+00
    0.00000E+00         0.00000E+00         0.11482E+05
 
    0.54251E+05         0.31579E+05         0.00000E+00
    0.31579E+05         0.27875E+04         0.00000E+00
    0.00000E+00         0.00000E+00         0.11408E+05
 
    0.53490E+05         0.33471E+05         0.00000E+00
    0.33471E+05         0.31555E+04         0.00000E+00
    0.00000E+00         0.00000E+00         0.11329E+05
 
    0.52685E+05         0.35336E+05         0.00000E+00
    0.35336E+05         0.35450E+04         0.00000E+00
    0.00000E+00         0.00000E+00         0.11246E+05
 
    0.51837E+05         0.37173E+05         0.00000E+00
    0.37173E+05         0.39559E+04         0.00000E+00
    0.00000E+00         0.00000E+00         0.11158E+05
 
    0.50944E+05         0.38979E+05         0.00000E+00
    0.38979E+05         0.43877E+04         0.00000E+00
    0.00000E+00         0.00000E+00         0.11066E+05
 
    0.50009E+05         0.40753E+05         0.00000E+00
    0.40753E+05         0.48402E+04         0.00000E+00
    0.00000E+00         0.00000E+00         0.10970E+05
 
    0.49030E+05         0.42495E+05         0.00000E+00
    0.42495E+05         0.53131E+04         0.00000E+00
    0.00000E+00         0.00000E+00         0.10869E+05
 
    0.48010E+05         0.44201E+05         0.00000E+00
    0.44201E+05         0.58059E+04         0.00000E+00
    0.00000E+00         0.00000E+00         0.10763E+05
 
    0.46948E+05         0.45872E+05         0.00000E+00
    0.45872E+05         0.63183E+04         0.00000E+00
    0.00000E+00         0.00000E+00         0.10653E+05
 
    0.45846E+05         0.47504E+05         0.00000E+00
    0.47504E+05         0.68499E+04         0.00000E+00
    0.00000E+00         0.00000E+00         0.10539E+05
 
    0.44703E+05         0.49098E+05         0.00000E+00
    0.49098E+05         0.74002E+04         0.00000E+00
    0.00000E+00         0.00000E+00         0.10421E+05
 
    0.43520E+05         0.50651E+05         0.00000E+00
    0.50651E+05         0.79688E+04         0.00000E+00
    0.00000E+00         0.00000E+00         0.10298E+05
 
    0.42298E+05         0.52162E+05         0.00000E+00
    0.52162E+05         0.85553E+04         0.00000E+00
    0.00000E+00         0.00000E+00         0.10171E+05
 
    0.41038E+05         0.53630E+05         0.00000E+00
    0.53630E+05         0.91592E+04         0.00000E+00
    0.00000E+00         0.00000E+00         0.10039E+05
 
    0.39740E+05         0.55052E+05         0.00000E+00
    0.55052E+05         0.97800E+04         0.00000E+00
    0.00000E+00         0.00000E+00         0.99040E+04
 
    0.38406E+05         0.56429E+05         0.00000E+00
    0.56429E+05         0.10417E+05         0.00000E+00
    0.00000E+00         0.00000E+00         0.97646E+04
 
    0.37035E+05         0.57758E+05         0.00000E+00
    0.57758E+05         0.11070E+05         0.00000E+00
    0.00000E+00         0.00000E+00         0.96211E+04
 
    0.35629E+05         0.59039E+05         0.00000E+00
    0.59039E+05         0.11738E+05         0.00000E+00
    0.00000E+00         0.00000E+00         0.94736E+04
 
    0.34189E+05         0.60270E+05         0.00000E+00
    0.60270E+05         0.12421E+05         0.00000E+00
    0.00000E+00         0.00000E+00         0.93222E+04
 
    0.32716E+05         0.61450E+05         0.00000E+00
    0.61450E+05         0.13119E+05         0.00000E+00
    0.00000E+00         0.00000E+00         0.91669E+04
 
    0.31209E+05         0.62577E+05         0.00000E+00
    0.62577E+05         0.13830E+05         0.00000E+00
    0.00000E+00         0.00000E+00         0.90078E+04
 
    0.29671E+05         0.63651E+05         0.00000E+00
    0.63651E+05         0.14553E+05         0.00000E+00
    0.00000E+00         0.00000E+00         0.88449E+04
 
    0.28102E+05         0.64670E+05         0.00000E+00
    0.64670E+05         0.15289E+05         0.00000E+00
    0.00000E+00         0.00000E+00         0.86784E+04
 
    0.26504E+05         0.65634E+05         0.00000E+00
    0.65634E+05         0.16037E+05         0.00000E+00
    0.00000E+00         0.00000E+00         0.85082E+04
 
    0.24876E+05         0.66541E+05         0.00000E+00
    0.66541E+05         0.16796E+05         0.00000E+00
    0.00000E+00         0.00000E+00         0.83345E+04
 
    0.23221E+05         0.67390E+05         0.00000E+00
    0.67390E+05         0.17566E+05         0.00000E+00
    0.00000E+00         0.00000E+00         0.81573E+04
 
    0.21539E+05         0.68180E+05         0.00000E+00
    0.68180E+05         0.18345E+05         0.00000E+00
    0.00000E+00         0.00000E+00         0.79766E+04
 
    0.19831E+05         0.68910E+05         0.00000E+00
    0.68910E+05         0.19133E+05         0.00000E+00
    0.00000E+00         0.00000E+00         0.77927E+04
 
    0.18098E+05         0.69580E+05         0.00000E+00
    0.69580E+05         0.19929E+05         0.00000E+00
    0.00000E+00         0.00000E+00         0.76054E+04
 
    0.16342E+05         0.70188E+05         0.00000E+00
    0.70188E+05         0.20733E+05         0.00000E+00
    0.00000E+00         0.00000E+00         0.74150E+04
 
    0.14563E+05         0.70734E+05         0.00000E+00
    0.70734E+05         0.21544E+05         0.00000E+00
    0.00000E+00         0.00000E+00         0.72214E+04
 
    0.12763E+05         0.71217E+05         0.00000E+00
    0.71217E+05         0.22361E+05         0.00000E+00
    0.00000E+00         0.00000E+00         0.70249E+04
 
    0.10943E+05         0.71636E+05         0.00000E+00
    0.71636E+05         0.23183E+05         0.00000E+00
    0.00000E+00         0.00000E+00         0.68253E+04
 
    0.91040E+04         0.71990E+05         0.00000E+00
    0.71990E+05         0.24011E+05         0.00000E+00
    0.00000E+00         0.00000E+00         0.66229E+04
 
    0.72472E+04         0.72279E+05         0.00000E+00
    0.72279E+05         0.24841E+05         0.00000E+00
    0.00000E+00         0.00000E+00         0.64177E+04
 
    0.70970E+05         0.11156E+04         0.00000E+00
    0.11156E+04        -0.86942E+01         0.00000E+00
    0.00000E+00         0.00000E+00         0.14192E+05
 
    0.70896E+05         0.33463E+04         0.00000E+00
    0.33463E+04         0.18861E+02         0.00000E+00
    0.00000E+00         0.00000E+00         0.14183E+05
 
    0.70767E+05         0.55746E+04         0.00000E+00
    0.55746E+04         0.74107E+02         0.00000E+00
    0.00000E+00         0.00000E+00         0.14168E+05
 
    0.70582E+05         0.77987E+04         0.00000E+00
    0.77987E+04         0.15707E+03         0.00000E+00
    0.00000E+00         0.00000E+00         0.14148E+05
 
    0.70342E+05         0.10017E+05         0.00000E+00
    0.10017E+05         0.26776E+03         0.00000E+00
    0.00000E+00         0.00000E+00         0.14122E+05
 
    0.70046E+05         0.12227E+05         0.00000E+00
    0.12227E+05         0.40614E+03         0.00000E+00
    0.00000E+00         0.00000E+00         0.14090E+05
 
    0.69695E+05         0.14428E+05         0.00000E+00
    0.14428E+05         0.57218E+03         0.00000E+00
    0.00000E+00         0.00000E+00         0.14053E+05
 
    0.69288E+05         0.16618E+05         0.00000E+00
    0.16618E+05         0.76579E+03         0.00000E+00
    0.00000E+00         0.00000E+00         0.14011E+05
 
    0.68827E+05         0.18795E+05         0.00000E+00
    0.18795E+05         0.98690E+03         0.00000E+00
    0.00000E+00         0.00000E+00         0.13963E+05
 
    0.68310E+05         0.20957E+05         0.00000E+00
    0.20957E+05         0.12354E+04         0.00000E+00
    0.00000E+00         0.00000E+00         0.13909E+05
 
    0.67738E+05         0.23103E+05         0.00000E+00
    0.23103E+05         0.15111E+04         0.00000E+00
    0.00000E+00         0.00000E+00         0.13850E+05
 
    0.67112E+05         0.25230E+05         0.00000E+00
    0.25230E+05         0.18139E+04         0.00000E+00
    0.00000E+00         0.00000E+00         0.13785E+05
 
    0.66431E+05         0.27338E+05         0.00000E+00
    0.27338E+05         0.21435E+04         0.00000E+00
    0.00000E+00         0.00000E+00         0.13715E+05
 
    0.65697E+05         0.29424E+05         0.00000E+00
    0.29424E+05         0.24998E+04         0.00000E+00
    0.00000E+00         0.00000E+00         0.13639E+05
 
    0.64908E+05         0.31486E+05         0.00000E+00
    0.31486E+05         0.28825E+04         0.00000E+00
    0.00000E+00         0.00000E+00         0.13558E+05
 
    0.64066E+05         0.33524E+05         0.00000E+00
    0.33524E+05         0.32913E+04         0.00000E+00
    0.00000E+00         0.00000E+00         0.13471E+05
 
    0.63171E+05         0.35534E+05         0.00000E+00
    0.35534E+05         0.37260E+04         0.00000E+00
    0.00000E+00         0.00000E+00         0.13379E+05
 
    0.62223E+05         0.37516E+05         0.00000E+00
    0.37516E+05         0.41862E+04         0.00000E+00
    0.00000E+00         0.00000E+00         0.13282E+05
 
    0.61223E+05         0.39468E+05         0.00000E+00
    0.39468E+05         0.46716E+04         0.00000E+00
    0.00000E+00         0.00000E+00         0.13179E+05
 
    0.60172E+05         0.41388E+05         0.00000E+00
    0.41388E+05         0.51819E+04         0.00000E+00
    0.00000E+00         0.00000E+00         0.13071E+05
 
    0.59069E+05         0.43274E+05         0.00000E+00
    0.43274E+05         0.57166E+04         0.00000E+00
    0.00000E+00         0.00000E+00         0.12957E+05
 
    0.57916E+05         0.45125E+05         0.00000E+00
    0.45125E+05         0.62754E+04         0.00000E+00
    0.00000E+00         0.00000E+00         0.12838E+05
 
    0.56713E+05         0.46939E+05         0.00000E+00
    0.46939E+05         0.68577E+04         0.00000E+00
    0.00000E+00         0.00000E+00         0.12714E+05
 
    0.55461E+05         0.48716E+05         0.00000E+00
    0.48716E+05         0.74633E+04         0.00000E+00
    0.00000E+00         0.00000E+00         0.12585E+05
 
    0.54161E+05         0.50452E+05         0.00000E+00
    0.50452E+05         0.80915E+04         0.00000E+00
    0.00000E+00         0.00000E+00         0.12450E+05
 
    0.52813E+05         0.52146E+05         0.00000E+00
    0.52146E+05         0.87419E+04         0.00000E+00
    0.00000E+00         0.00000E+00         0.12311E+05
 
    0.51417E+05         0.53798E+05         0.00000E+00
    0.53798E+05         0.94140E+04         0.00000E+00
    0.00000E+00         0.00000E+00         0.12166E+05
 
    0.49976E+05         0.55405E+05         0.00000E+00
    0.55405E+05         0.10107E+05         0.00000E+00
    0.00000E+00         0.00000E+00         0.12017E+05
 
    0.48489E+05         0.56966E+05         0.00000E+00
    0.56966E+05         0.10821E+05         0.00000E+00
    0.00000E+00         0.00000E+00         0.11862E+05
 
    0.46957E+05         0.58479E+05         0.00000E+00
    0.58479E+05         0.11555E+05         0.00000E+00
    0.00000E+00         0.00000E+00         0.11702E+05
 
    0.45382E+05         0.59944E+05         0.00000E+00
    0.59944E+05         0.12308E+05         0.00000E+00
    0.00000E+00         0.00000E+00         0.11538E+05
 
    0.43764E+05         0.61358E+05         0.00000E+00
    0.61358E+05         0.13080E+05         0.00000E+00
    0.00000E+00         0.00000E+00         0.11369E+05
 
    0.42104E+05         0.62721E+05         0.00000E+00
    0.62721E+05         0.13870E+05         0.00000E+00
    0.00000E+00         0.00000E+00         0.11195E+05
 
    0.40404E+05         0.64030E+05         0.00000E+00
    0.64030E+05         0.14677E+05         0.00000E+00
    0.00000E+00         0.00000E+00         0.11016E+05
 
    0.38664E+05         0.65286E+05         0.00000E+00
    0.65286E+05         0.15501E+05         0.00000E+00
    0.00000E+00         0.00000E+00         0.10833E+05
 
    0.36885E+05         0.66485E+05         0.00000E+00
    0.66485E+05         0.16341E+05         0.00000E+00
    0.00000E+00         0.00000E+00         0.10645E+05
 
    0.35068E+05         0.67628E+05         0.00000E+00
    0.67628E+05         0.17197E+05         0.00000E+00
    0.00000E+00         0.00000E+00         0.10453E+05
 
    0.33215E+05         0.68713E+05         0.00000E+00
    0.68713E+05         0.18067E+05         0.00000E+00
    0.00000E+00         0.00000E+00         0.10256E+05
 
    0.31326E+05         0.69739E+05         0.00000E+00
    0.69739E+05         0.18951E+05         0.00000E+00
    0.00000E+00         0.00000E+00         0.10056E+05
 
    0.29403E+05         0.70704E+05         0.00000E+00
    0.70704E+05         0.19849E+05         0.00000E+00
    0.00000E+00         0.00000E+00         0.98504E+04
 
    0.27447E+05         0.71608E+05         0.00000E+00
    0.71608E+05         0.20758E+05         0.00000E+00
    0.00000E+00         0.00000E+00         0.96411E+04
 
    0.25460E+05         0.72449E+05         0.00000E+00
    0.72449E+05         0.21679E+05         0.00000E+00
    0.00000E+00         0.00000E+00         0.94278E+04
 
    0.23441E+05         0.73227E+05         0.00000E+00
    0.73227E+05         0.22611E+05         0.00000E+00
    0.00000E+00         0.00000E+00         0.92104E+04
 
    0.21394E+05         0.73940E+05         0.00000E+00
    0.73940E+05         0.23552E+05         0.00000E+00
    0.00000E+00         0.00000E+00         0.89892E+04
 
    0.19318E+05         0.74588E+05         0.00000E+00
    0.74588E+05         0.24503E+05         0.00000E+00
    0.00000E+00         0.00000E+00         0.87642E+04
 
    0.17216E+05         0.75170E+05         0.00000E+00
    0.75170E+05         0.25462E+05         0.00000E+00
    0.00000E+00         0.00000E+00         0.85355E+04
 
    0.15088E+05         0.75684E+05         0.00000E+00
    0.75684E+05         0.26428E+05         0.00000E+00
    0.00000E+00         0.00000E+00         0.83031E+04
 
    0.12936E+05         0.76130E+05         0.00000E+00
    0.76130E+05         0.27400E+05         0.00000E+00
    0.00000E+00         0.00000E+00         0.80673E+04
 
    0.10762E+05         0.76507E+05         0.00000E+00
    0.76507E+05         0.28378E+05         0.00000E+00
    0.00000E+00         0.00000E+00         0.78280E+04
 
    0.85661E+04         0.76815E+05         0.00000E+00
    0.76815E+05         0.29361E+05         0.00000E+00
    0.00000E+00         0.00000E+00         0.75853E+04
 
    0.82492E+05         0.11899E+04         0.00000E+00
    0.11899E+04        -0.10112E+02         0.00000E+00
    0.00000E+00         0.00000E+00         0.16496E+05
 
    0.82410E+05         0.35700E+04         0.00000E+00
    0.35700E+04         0.21902E+02         0.00000E+00
    0.00000E+00         0.00000E+00         0.16486E+05
 
    0.82265E+05         0.59479E+04         0.00000E+00
    0.59479E+04         0.86117E+02         0.00000E+00
    0.00000E+00         0.00000E+00         0.16470E+05
 
    0.82055E+05         0.83217E+04         0.00000E+00
    0.83217E+04         0.18258E+03         0.00000E+00
    0.00000E+00         0.00000E+00         0.16447E+05
 
    0.81780E+05         0.10690E+05         0.00000E+00
    0.10690E+05         0.31129E+03         0.00000E+00
    0.00000E+00         0.00000E+00         0.16418E+05
 
    0.81441E+05         0.13050E+05         0.00000E+00
    0.13050E+05         0.47224E+03         0.00000E+00
    0.00000E+00         0.00000E+00         0.16383E+05
 
    0.81037E+05         0.15400E+05         0.00000E+00
    0.15400E+05         0.66539E+03         0.00000E+00
    0.00000E+00         0.00000E+00         0.16341E+05
 
    0.80569E+05         0.17738E+05         0.00000E+00
    0.17738E+05         0.89066E+03         0.00000E+00
    0.00000E+00         0.00000E+00         0.16292E+05
 
    0.80037E+05         0.20064E+05         0.00000E+00
    0.20064E+05         0.11479E+04         0.00000E+00
    0.00000E+00         0.00000E+00         0.16237E+05
 
    0.79440E+05         0.22373E+05         0.00000E+00
    0.22373E+05         0.14371E+04         0.00000E+00
    0.00000E+00         0.00000E+00         0.16176E+05
 
    0.78780E+05         0.24666E+05         0.00000E+00
    0.24666E+05         0.17580E+04         0.00000E+00
    0.00000E+00         0.00000E+00         0.16108E+05
 
    0.78056E+05         0.26939E+05         0.00000E+00
    0.26939E+05         0.21104E+04         0.00000E+00
    0.00000E+00         0.00000E+00         0.16033E+05
 
    0.77268E+05         0.29191E+05         0.00000E+00
    0.29191E+05         0.24941E+04         0.00000E+00
    0.00000E+00         0.00000E+00         0.15952E+05
 
    0.76417E+05         0.31421E+05         0.00000E+00
    0.31421E+05         0.29089E+04         0.00000E+00
    0.00000E+00         0.00000E+00         0.15865E+05
 
    0.75504E+05         0.33625E+05         0.00000E+00
    0.33625E+05         0.33545E+04         0.00000E+00
    0.00000E+00         0.00000E+00         0.15772E+05
 
    0.74528E+05         0.35803E+05         0.00000E+00
    0.35803E+05         0.38305E+04         0.00000E+00
    0.00000E+00         0.00000E+00         0.15672E+05
 
    0.73490E+05         0.37952E+05         0.00000E+00
    0.37952E+05         0.43366E+04         0.00000E+00
    0.00000E+00         0.00000E+00         0.15565E+05
 
    0.72391E+05         0.40071E+05         0.00000E+00
    0.40071E+05         0.48725E+04         0.00000E+00
    0.00000E+00         0.00000E+00         0.15453E+05
 
    0.71231E+05         0.42158E+05         0.00000E+00
    0.42158E+05         0.54378E+04         0.00000E+00
    0.00000E+00         0.00000E+00         0.15334E+05
 
    0.70011E+05         0.44212E+05         0.00000E+00
    0.44212E+05         0.60320E+04         0.00000E+00
    0.00000E+00         0.00000E+00         0.15209E+05
 
    0.68731E+05         0.46229E+05         0.00000E+00
    0.46229E+05         0.66547E+04         0.00000E+00
    0.00000E+00         0.00000E+00         0.15077E+05
 
    0.67393E+05         0.48209E+05         0.00000E+00
    0.48209E+05         0.73055E+04         0.00000E+00
    0.00000E+00         0.00000E+00         0.14940E+05
 
    0.65996E+05         0.50150E+05         0.00000E+00
    0.50150E+05         0.79837E+04         0.00000E+00
    0.00000E+00         0.00000E+00         0.14796E+05
 
    0.64542E+05         0.52050E+05         0.00000E+00
    0.52050E+05         0.86890E+04         0.00000E+00
    0.00000E+00         0.00000E+00         0.14646E+05
 
    0.63031E+05         0.53907E+05         0.00000E+00
    0.53907E+05         0.94206E+04         0.00000E+00
    0.00000E+00         0.00000E+00         0.14490E+05
 
    0.61464E+05         0.55720E+05         0.00000E+00
    0.55720E+05         0.10178E+05         0.00000E+00
    0.00000E+00         0.00000E+00         0.14328E+05
 
    0.59843E+05         0.57487E+05         0.00000E+00
    0.57487E+05         0.10961E+05         0.00000E+00
    0.00000E+00         0.00000E+00         0.14161E+05
 
    0.58167E+05         0.59207E+05         0.00000E+00
    0.59207E+05         0.11768E+05         0.00000E+00
    0.00000E+00         0.00000E+00         0.13987E+05
 
    0.56439E+05         0.60878E+05         0.00000E+00
    0.60878E+05         0.12599E+05         0.00000E+00
    0.00000E+00         0.00000E+00         0.13808E+05
 
    0.54658E+05         0.62497E+05         0.00000E+00
    0.62497E+05         0.13454E+05         0.00000E+00
    0.00000E+00         0.00000E+00         0.13622E+05
 
    0.52827E+05         0.64065E+05         0.00000E+00
    0.64065E+05         0.14331E+05         0.00000E+00
    0.00000E+00         0.00000E+00         0.13432E+05
 
    0.50946E+05         0.65579E+05         0.00000E+00
    0.65579E+05         0.15230E+05         0.00000E+00
    0.00000E+00         0.00000E+00         0.13235E+05
 
    0.49015E+05         0.67038E+05         0.00000E+00
    0.67038E+05         0.16150E+05         0.00000E+00
    0.00000E+00         0.00000E+00         0.13033E+05
 
    0.47038E+05         0.68440E+05         0.00000E+00
    0.68440E+05         0.17091E+05         0.00000E+00
    0.00000E+00         0.00000E+00         0.12826E+05
 
    0.45013E+05         0.69784E+05         0.00000E+00
    0.69784E+05         0.18050E+05         0.00000E+00
    0.00000E+00         0.00000E+00         0.12613E+05
 
    0.42944E+05         0.71068E+05         0.00000E+00
    0.71068E+05         0.19029E+05         0.00000E+00
    0.00000E+00         0.00000E+00         0.12395E+05
 
    0.40830E+05         0.72292E+05         0.00000E+00
    0.72292E+05         0.20026E+05         0.00000E+00
    0.00000E+00         0.00000E+00         0.12171E+05
 
    0.38674E+05         0.73454E+05         0.00000E+00
    0.73454E+05         0.21039E+05         0.00000E+00
    0.00000E+00         0.00000E+00         0.11943E+05
 
    0.36476E+05         0.74553E+05         0.00000E+00
    0.74553E+05         0.22069E+05         0.00000E+00
    0.00000E+00         0.00000E+00         0.11709E+05
 
    0.34238E+05         0.75587E+05         0.00000E+00
    0.75587E+05         0.23114E+05         0.00000E+00
    0.00000E+00         0.00000E+00         0.11470E+05
 
    0.31962E+05         0.76555E+05         0.00000E+00
    0.76555E+05         0.24173E+05         0.00000E+00
    0.00000E+00         0.00000E+00         0.11227E+05
 
    0.29648E+05         0.77456E+05         0.00000E+00
    0.77456E+05         0.25246E+05         0.00000E+00
    0.00000E+00         0.00000E+00         0.10979E+05
 
    0.27299E+05         0.78290E+05         0.00000E+00
    0.78290E+05         0.26331E+05         0.00000E+00
    0.00000E+00         0.00000E+00         0.10726E+05
 
    0.24915E+05         0.79054E+05         0.00000E+00
    0.79054E+05         0.27427E+05         0.00000E+00
    0.00000E+00         0.00000E+00         0.10468E+05
 
    0.22498E+05         0.79748E+05         0.00000E+00
    0.79748E+05         0.28535E+05         0.00000E+00
    0.00000E+00         0.00000E+00         0.10207E+05
 
    0.20050E+05         0.80372E+05         0.00000E+00
    0.80372E+05         0.29651E+05         0.00000E+00
    0.00000E+00         0.00000E+00         0.99403E+04
 
    0.17572E+05         0.80923E+05         0.00000E+00
    0.80923E+05         0.30777E+05         0.00000E+00
    0.00000E+00         0.00000E+00         0.96698E+04
 
    0.15066E+05         0.81401E+05         0.00000E+00
    0.81401E+05         0.31909E+05         0.00000E+00
    0.00000E+00         0.00000E+00         0.93951E+04
 
    0.12534E+05         0.81806E+05         0.00000E+00
    0.81806E+05         0.33048E+05         0.00000E+00
    0.00000E+00         0.00000E+00         0.91164E+04
 
    0.99763E+04         0.82136E+05         0.00000E+00
    0.82136E+05         0.34193E+05         0.00000E+00
    0.00000E+00         0.00000E+00         0.88338E+04
 
    0.94817E+05         0.12756E+04         0.00000E+00
    0.12756E+04        -0.11641E+02         0.00000E+00
    0.00000E+00         0.00000E+00         0.18961E+05
 
    0.94730E+05         0.38285E+04         0.00000E+00
    0.38285E+04         0.25173E+02         0.00000E+00
    0.00000E+00         0.00000E+00         0.18951E+05
 
    0.94569E+05         0.63795E+04         0.00000E+00
    0.63795E+04         0.99055E+02         0.00000E+00
    0.00000E+00         0.00000E+00         0.18934E+05
 
    0.94334E+05         0.89265E+04         0.00000E+00
    0.89265E+04         0.21006E+03         0.00000E+00
    0.00000E+00         0.00000E+00         0.18909E+05
 
    0.94025E+05         0.11468E+05         0.00000E+00
    0.11468E+05         0.35823E+03         0.00000E+00
    0.00000E+00         0.00000E+00         0.18877E+05
 
    0.93641E+05         0.14001E+05         0.00000E+00
    0.14001E+05         0.54353E+03         0.00000E+00
    0.00000E+00         0.00000E+00         0.18837E+05
 
    0.93183E+05         0.16524E+05         0.00000E+00
    0.16524E+05         0.76594E+03         0.00000E+00
    0.00000E+00         0.00000E+00         0.18790E+05
 
    0.92651E+05         0.19035E+05         0.00000E+00
    0.19035E+05         0.10254E+04         0.00000E+00
    0.00000E+00         0.00000E+00         0.18735E+05
 
    0.92045E+05         0.21532E+05         0.00000E+00
    0.21532E+05         0.13217E+04         0.00000E+00
    0.00000E+00         0.00000E+00         0.18673E+05
 
    0.91364E+05         0.24012E+05         0.00000E+00
    0.24012E+05         0.16548E+04         0.00000E+00
    0.00000E+00         0.00000E+00         0.18604E+05
 
    0.90610E+05         0.26475E+05         0.00000E+00
    0.26475E+05         0.20245E+04         0.00000E+00
    0.00000E+00         0.00000E+00         0.18527E+05
 
    0.89782E+05         0.28917E+05         0.00000E+00
    0.28917E+05         0.24305E+04         0.00000E+00
    0.00000E+00         0.00000E+00         0.18443E+05
 
    0.88881E+05         0.31337E+05         0.00000E+00
    0.31337E+05         0.28726E+04         0.00000E+00
    0.00000E+00         0.00000E+00         0.18351E+05
 
    0.87908E+05         0.33732E+05         0.00000E+00
    0.33732E+05         0.33505E+04         0.00000E+00
    0.00000E+00         0.00000E+00         0.18252E+05
 
    0.86861E+05         0.36101E+05         0.00000E+00
    0.36101E+05         0.38639E+04         0.00000E+00
    0.00000E+00         0.00000E+00         0.18145E+05
 
    0.85743E+05         0.38442E+05         0.00000E+00
    0.38442E+05         0.44124E+04         0.00000E+00
    0.00000E+00         0.00000E+00         0.18031E+05
 
    0.84554E+05         0.40752E+05         0.00000E+00
    0.40752E+05         0.49957E+04         0.00000E+00
    0.00000E+00         0.00000E+00         0.17910E+05
 
    0.83293E+05         0.43030E+05         0.00000E+00
    0.43030E+05         0.56133E+04         0.00000E+00
    0.00000E+00         0.00000E+00         0.17781E+05
 
    0.81963E+05         0.45274E+05         0.00000E+00
    0.45274E+05         0.62647E+04         0.00000E+00
    0.00000E+00         0.00000E+00         0.17646E+05
 
    0.80563E+05         0.47482E+05         0.00000E+00
    0.47482E+05         0.69495E+04         0.00000E+00
    0.00000E+00         0.00000E+00         0.17502E+05
 
    0.79094E+05         0.49651E+05         0.00000E+00
    0.49651E+05         0.76672E+04         0.00000E+00
    0.00000E+00         0.00000E+00         0.17352E+05
 
    0.77557E+05         0.51780E+05         0.00000E+00
    0.51780E+05         0.84171E+04         0.00000E+00
    0.00000E+00         0.00000E+00         0.17195E+05
 
    0.75953E+05         0.53867E+05         0.00000E+00
    0.53867E+05         0.91987E+04         0.00000E+00
    0.00000E+00         0.00000E+00         0.17030E+05
 
    0.74283E+05         0.55911E+05         0.00000E+00
    0.55911E+05         0.10011E+05         0.00000E+00
    0.00000E+00         0.00000E+00         0.16859E+05
 
    0.72547E+05         0.57909E+05         0.00000E+00
    0.57909E+05         0.10855E+05         0.00000E+00
    0.00000E+00         0.00000E+00         0.16680E+05
 
    0.70747E+05         0.59859E+05         0.00000E+00
    0.59859E+05         0.11727E+05         0.00000E+00
    0.00000E+00         0.00000E+00         0.16495E+05
 
    0.68884E+05         0.61760E+05         0.00000E+00
    0.61760E+05         0.12629E+05         0.00000E+00
    0.00000E+00         0.00000E+00         0.16303E+05
 
    0.66958E+05         0.63610E+05         0.00000E+00
    0.63610E+05         0.13560E+05         0.00000E+00
    0.00000E+00         0.00000E+00         0.16104E+05
 
    0.64971E+05         0.65407E+05         0.00000E+00
    0.65407E+05         0.14518E+05         0.00000E+00
    0.00000E+00         0.00000E+00         0.15898E+05
 
    0.62924E+05         0.67150E+05         0.00000E+00
    0.67150E+05         0.15502E+05         0.00000E+00
    0.00000E+00         0.00000E+00         0.15685E+05
 
    0.60818E+05         0.68837E+05         0.00000E+00
    0.68837E+05         0.16513E+05         0.00000E+00
    0.00000E+00         0.00000E+00         0.15466E+05
 
    0.58655E+05         0.70466E+05         0.00000E+00
    0.70466E+05         0.17549E+05         0.00000E+00
    0.00000E+00         0.00000E+00         0.15241E+05
 
    0.56435E+05         0.72036E+05         0.00000E+00
    0.72036E+05         0.18609E+05         0.00000E+00
    0.00000E+00         0.00000E+00         0.15009E+05
 
    0.54160E+05         0.73545E+05         0.00000E+00
    0.73545E+05         0.19692E+05         0.00000E+00
    0.00000E+00         0.00000E+00         0.14770E+05
 
    0.51831E+05         0.74992E+05         0.00000E+00
    0.74992E+05         0.20798E+05         0.00000E+00
    0.00000E+00         0.00000E+00         0.14526E+05
 
    0.49450E+05         0.76375E+05         0.00000E+00
    0.76375E+05         0.21925E+05         0.00000E+00
    0.00000E+00         0.00000E+00         0.14275E+05
 
    0.47018E+05         0.77693E+05         0.00000E+00
    0.77693E+05         0.23073E+05         0.00000E+00
    0.00000E+00         0.00000E+00         0.14018E+05
 
    0.44537E+05         0.78944E+05         0.00000E+00
    0.78944E+05         0.24241E+05         0.00000E+00
    0.00000E+00         0.00000E+00         0.13756E+05
 
    0.42008E+05         0.80127E+05         0.00000E+00
    0.80127E+05         0.25427E+05         0.00000E+00
    0.00000E+00         0.00000E+00         0.13487E+05
 
    0.39432E+05         0.81240E+05         0.00000E+00
    0.81240E+05         0.26631E+05         0.00000E+00
    0.00000E+00         0.00000E+00         0.13213E+05
 
    0.36812E+05         0.82283E+05         0.00000E+00
    0.82283E+05         0.27851E+05         0.00000E+00
    0.00000E+00         0.00000E+00         0.12933E+05
 
    0.34148E+05         0.83254E+05         0.00000E+00
    0.83254E+05         0.29087E+05         0.00000E+00
    0.00000E+00         0.00000E+00         0.12647E+05
 
    0.31443E+05         0.84152E+05         0.00000E+00
    0.84152E+05         0.30337E+05         0.00000E+00
    0.00000E+00         0.00000E+00         0.12356E+05
 
    0.28699E+05         0.84975E+05         0.00000E+00
    0.84975E+05         0.31600E+05         0.00000E+00
    0.00000E+00         0.00000E+00         0.12060E+05
 
    0.25916E+05         0.85723E+05         0.00000E+00
    0.85723E+05         0.32875E+05         0.00000E+00
    0.00000E+00         0.00000E+00         0.11758E+05
 
    0.23097E+05         0.86395E+05         0.00000E+00
    0.86395E+05         0.34162E+05         0.00000E+00
    0.00000E+00         0.00000E+00         0.11452E+05
 
    0.20243E+05         0.86989E+05         0.00000E+00
    0.86989E+05         0.35458E+05         0.00000E+00
    0.00000E+00         0.00000E+00         0.11140E+05
 
    0.17357E+05         0.87505E+05         0.00000E+00
    0.87505E+05         0.36763E+05         0.00000E+00
    0.00000E+00         0.00000E+00         0.10824E+05
 
    0.14440E+05         0.87941E+05         0.00000E+00
    0.87941E+05         0.38075E+05         0.00000E+00
    0.00000E+00         0.00000E+00         0.10503E+05
 
    0.11494E+05         0.88297E+05         0.00000E+00
    0.88297E+05         0.39394E+05         0.00000E+00
    0.00000E+00         0.00000E+00         0.10177E+05
 
    0.10807E+06         0.13738E+04         0.00000E+00
    0.13738E+04        -0.13306E+02         0.00000E+00
    0.00000E+00         0.00000E+00         0.21611E+05
 
    0.10798E+06         0.41247E+04         0.00000E+00
    0.41247E+04         0.28727E+02         0.00000E+00
    0.00000E+00         0.00000E+00         0.21601E+05
 
    0.10780E+06         0.68742E+04         0.00000E+00
    0.68742E+04         0.11312E+03         0.00000E+00
    0.00000E+00         0.00000E+00         0.21583E+05
 
    0.10754E+06         0.96200E+04         0.00000E+00
    0.96200E+04         0.23996E+03         0.00000E+00
    0.00000E+00         0.00000E+00         0.21557E+05
 
    0.10720E+06         0.12360E+05         0.00000E+00
    0.12360E+05         0.40929E+03         0.00000E+00
    0.00000E+00         0.00000E+00         0.21522E+05
 
    0.10677E+06         0.15092E+05         0.00000E+00
    0.15092E+05         0.62110E+03         0.00000E+00
    0.00000E+00         0.00000E+00         0.21478E+05
 
    0.10626E+06         0.17813E+05         0.00000E+00
    0.17813E+05         0.87535E+03         0.00000E+00
    0.00000E+00         0.00000E+00         0.21426E+05
 
    0.10566E+06         0.20522E+05         0.00000E+00
    0.20522E+05         0.11720E+04         0.00000E+00
    0.00000E+00         0.00000E+00         0.21366E+05
 
    0.10497E+06         0.23216E+05         0.00000E+00
    0.23216E+05         0.15108E+04         0.00000E+00
    0.00000E+00         0.00000E+00         0.21297E+05
 
    0.10420E+06         0.25893E+05         0.00000E+00
    0.25893E+05         0.18917E+04         0.00000E+00
    0.00000E+00         0.00000E+00         0.21219E+05
 
    0.10335E+06         0.28551E+05         0.00000E+00
    0.28551E+05         0.23145E+04         0.00000E+00
    0.00000E+00         0.00000E+00         0.21133E+05
 
    0.10241E+06         0.31187E+05         0.00000E+00
    0.31187E+05         0.27788E+04         0.00000E+00
    0.00000E+00         0.00000E+00         0.21038E+05
 
    0.10139E+06         0.33799E+05         0.00000E+00
    0.33799E+05         0.32845E+04         0.00000E+00
    0.00000E+00         0.00000E+00         0.20935E+05
 
    0.10029E+06         0.36385E+05         0.00000E+00
    0.36385E+05         0.38312E+04         0.00000E+00
    0.00000E+00         0.00000E+00         0.20823E+05
 
    0.99098E+05         0.38943E+05         0.00000E+00
    0.38943E+05         0.44184E+04         0.00000E+00
    0.00000E+00         0.00000E+00         0.20703E+05
 
    0.97828E+05         0.41471E+05         0.00000E+00
    0.41471E+05         0.50458E+04         0.00000E+00
    0.00000E+00         0.00000E+00         0.20575E+05
 
    0.96476E+05         0.43966E+05         0.00000E+00
    0.43966E+05         0.57129E+04         0.00000E+00
    0.00000E+00         0.00000E+00         0.20438E+05
 
    0.95043E+05         0.46427E+05         0.00000E+00
    0.46427E+05         0.64193E+04         0.00000E+00
    0.00000E+00         0.00000E+00         0.20292E+05
 
    0.93529E+05         0.48850E+05         0.00000E+00
    0.48850E+05         0.71644E+04         0.00000E+00
    0.00000E+00         0.00000E+00         0.20139E+05
 
    0.91936E+05         0.51235E+05         0.00000E+00
    0.51235E+05         0.79476E+04         0.00000E+00
    0.00000E+00         0.00000E+00         0.19977E+05
 
    0.90264E+05         0.53578E+05         0.00000E+00
    0.53578E+05         0.87684E+04         0.00000E+00
    0.00000E+00         0.00000E+00         0.19807E+05
 
    0.88515E+05         0.55879E+05         0.00000E+00
    0.55879E+05         0.96260E+04         0.00000E+00
    0.00000E+00         0.00000E+00         0.19628E+05
 
    0.86688E+05         0.58134E+05         0.00000E+00
    0.58134E+05         0.10520E+05         0.00000E+00
    0.00000E+00         0.00000E+00         0.19442E+05
 
    0.84785E+05         0.60342E+05         0.00000E+00
    0.60342E+05         0.11449E+05         0.00000E+00
    0.00000E+00         0.00000E+00         0.19247E+05
 
    0.82808E+05         0.62500E+05         0.00000E+00
    0.62500E+05         0.12413E+05         0.00000E+00
    0.00000E+00         0.00000E+00         0.19044E+05
 
    0.80757E+05         0.64608E+05         0.00000E+00
    0.64608E+05         0.13411E+05         0.00000E+00
    0.00000E+00         0.00000E+00         0.18834E+05
 
    0.78633E+05         0.66663E+05         0.00000E+00
    0.66663E+05         0.14443E+05         0.00000E+00
    0.00000E+00         0.00000E+00         0.18615E+05
 
    0.76438E+05         0.68662E+05         0.00000E+00
    0.68662E+05         0.15506E+05         0.00000E+00
    0.00000E+00         0.00000E+00         0.18389E+05
 
    0.74173E+05         0.70605E+05         0.00000E+00
    0.70605E+05         0.16601E+05         0.00000E+00
    0.00000E+00         0.00000E+00         0.18155E+05
 
    0.71839E+05         0.72489E+05         0.00000E+00
    0.72489E+05         0.17727E+05         0.00000E+00
    0.00000E+00         0.00000E+00         0.17913E+05
 
    0.69438E+05         0.74312E+05         0.00000E+00
    0.74312E+05         0.18882E+05         0.00000E+00
    0.00000E+00         0.00000E+00         0.17664E+05
 
    0.66970E+05         0.76073E+05         0.00000E+00
    0.76073E+05         0.20066E+05         0.00000E+00
    0.00000E+00         0.00000E+00         0.17407E+05
 
    0.64438E+05         0.77771E+05         0.00000E+00
    0.77771E+05         0.21277E+05         0.00000E+00
    0.00000E+00         0.00000E+00         0.17143E+05
 
    0.61843E+05         0.79402E+05         0.00000E+00
    0.79402E+05         0.22515E+05         0.00000E+00
    0.00000E+00         0.00000E+00         0.16872E+05
 
    0.59187E+05         0.80966E+05         0.00000E+00
    0.80966E+05         0.23779E+05         0.00000E+00
    0.00000E+00         0.00000E+00         0.16593E+05
 
    0.56470E+05         0.82462E+05         0.00000E+00
    0.82462E+05         0.25067E+05         0.00000E+00
    0.00000E+00         0.00000E+00         0.16308E+05
 
    0.53695E+05         0.83887E+05         0.00000E+00
    0.83887E+05         0.26379E+05         0.00000E+00
    0.00000E+00         0.00000E+00         0.16015E+05
 
    0.50864E+05         0.85240E+05         0.00000E+00
    0.85240E+05         0.27713E+05         0.00000E+00
    0.00000E+00         0.00000E+00         0.15715E+05
 
    0.47978E+05         0.86519E+05         0.00000E+00
    0.86519E+05         0.29068E+05         0.00000E+00
    0.00000E+00         0.00000E+00         0.15409E+05
 
    0.45038E+05         0.87724E+05         0.00000E+00
    0.87724E+05         0.30444E+05         0.00000E+00
    0.00000E+00         0.00000E+00         0.15096E+05
 
    0.42048E+05         0.88852E+05         0.00000E+00
    0.88852E+05         0.31838E+05         0.00000E+00
    0.00000E+00         0.00000E+00         0.14777E+05
 
    0.39007E+05         0.89902E+05         0.00000E+00
    0.89902E+05         0.33249E+05         0.00000E+00
    0.00000E+00         0.00000E+00         0.14451E+05
 
    0.35919E+05         0.90874E+05         0.00000E+00
    0.90874E+05         0.34677E+05         0.00000E+00
    0.00000E+00         0.00000E+00         0.14119E+05
 
    0.32786E+05         0.91765E+05         0.00000E+00
    0.91765E+05         0.36120E+05         0.00000E+00
    0.00000E+00         0.00000E+00         0.13781E+05
 
    0.29608E+05         0.92575E+05         0.00000E+00
    0.92575E+05         0.37577E+05         0.00000E+00
    0.00000E+00         0.00000E+00         0.13437E+05
 
    0.26389E+05         0.93303E+05         0.00000E+00
    0.93303E+05         0.39047E+05         0.00000E+00
    0.00000E+00         0.00000E+00         0.13087E+05
 
    0.23130E+05         0.93946E+05         0.00000E+00
    0.93946E+05         0.40528E+05         0.00000E+00
    0.00000E+00         0.00000E+00         0.12732E+05
 
    0.19834E+05         0.94505E+05         0.00000E+00
    0.94505E+05         0.42019E+05         0.00000E+00
    0.00000E+00         0.00000E+00         0.12370E+05
 
    0.16501E+05         0.94978E+05         0.00000E+00
    0.94978E+05         0.43518E+05         0.00000E+00
    0.00000E+00         0.00000E+00         0.12004E+05
 
    0.13136E+05         0.95364E+05         0.00000E+00
    0.95364E+05         0.45024E+05         0.00000E+00
    0.00000E+00         0.00000E+00         0.11632E+05
 
    0.12237E+06         0.14856E+04         0.00000E+00
    0.14856E+04        -0.15135E+02         0.00000E+00
    0.00000E+00         0.00000E+00         0.24472E+05
 
    0.12228E+06         0.44622E+04         0.00000E+00
    0.44622E+04         0.32625E+02         0.00000E+00
    0.00000E+00         0.00000E+00         0.24463E+05
 
    0.12210E+06         0.74379E+04         0.00000E+00
    0.74379E+04         0.12856E+03         0.00000E+00
    0.00000E+00         0.00000E+00         0.24445E+05
 
    0.12182E+06         0.10410E+05         0.00000E+00
    0.10410E+05         0.27279E+03         0.00000E+00
    0.00000E+00         0.00000E+00         0.24418E+05
 
    0.12144E+06         0.13377E+05         0.00000E+00
    0.13377E+05         0.46537E+03         0.00000E+00
    0.00000E+00         0.00000E+00         0.24380E+05
 
    0.12096E+06         0.16335E+05         0.00000E+00
    0.16335E+05         0.70629E+03         0.00000E+00
    0.00000E+00         0.00000E+00         0.24333E+05
 
    0.12039E+06         0.19283E+05         0.00000E+00
    0.19283E+05         0.99553E+03         0.00000E+00
    0.00000E+00         0.00000E+00         0.24277E+05
 
    0.11972E+06         0.22218E+05         0.00000E+00
    0.22218E+05         0.13330E+04         0.00000E+00
    0.00000E+00         0.00000E+00         0.24210E+05
 
    0.11895E+06         0.25137E+05         0.00000E+00
    0.25137E+05         0.17185E+04         0.00000E+00
    0.00000E+00         0.00000E+00         0.24134E+05
 
    0.11809E+06         0.28038E+05         0.00000E+00
    0.28038E+05         0.21519E+04         0.00000E+00
    0.00000E+00         0.00000E+00         0.24048E+05
 
    0.11713E+06         0.30918E+05         0.00000E+00
    0.30918E+05         0.26330E+04         0.00000E+00
    0.00000E+00         0.00000E+00         0.23953E+05
 
    0.11607E+06         0.33776E+05         0.00000E+00
    0.33776E+05         0.31614E+04         0.00000E+00
    0.00000E+00         0.00000E+00         0.23847E+05
 
    0.11492E+06         0.36607E+05         0.00000E+00
    0.36607E+05         0.37368E+04         0.00000E+00
    0.00000E+00         0.00000E+00         0.23732E+05
 
    0.11368E+06         0.39411E+05         0.00000E+00
    0.39411E+05         0.43588E+04         0.00000E+00
    0.00000E+00         0.00000E+00         0.23608E+05
 
    0.11234E+06         0.42185E+05         0.00000E+00
    0.42185E+05         0.50270E+04         0.00000E+00
    0.00000E+00         0.00000E+00         0.23473E+05
 
    0.11091E+06         0.44926E+05         0.00000E+00
    0.44926E+05         0.57408E+04         0.00000E+00
    0.00000E+00         0.00000E+00         0.23329E+05
 
    0.10938E+06         0.47632E+05         0.00000E+00
    0.47632E+05         0.64999E+04         0.00000E+00
    0.00000E+00         0.00000E+00         0.23176E+05
 
    0.10776E+06         0.50300E+05         0.00000E+00
    0.50300E+05         0.73035E+04         0.00000E+00
    0.00000E+00         0.00000E+00         0.23013E+05
 
    0.10605E+06         0.52928E+05         0.00000E+00
    0.52928E+05         0.81511E+04         0.00000E+00
    0.00000E+00         0.00000E+00         0.22840E+05
 
    0.10425E+06         0.55515E+05         0.00000E+00
    0.55515E+05         0.90420E+04         0.00000E+00
    0.00000E+00         0.00000E+00         0.22658E+05
 
    0.10236E+06         0.58056E+05         0.00000E+00
    0.58056E+05         0.99756E+04         0.00000E+00
    0.00000E+00         0.00000E+00         0.22467E+05
 
    0.10038E+06         0.60552E+05         0.00000E+00
    0.60552E+05         0.10951E+05         0.00000E+00
    0.00000E+00         0.00000E+00         0.22266E+05
 
    0.98310E+05         0.62998E+05         0.00000E+00
    0.62998E+05         0.11967E+05         0.00000E+00
    0.00000E+00         0.00000E+00         0.22056E+05
 
    0.96157E+05         0.65393E+05         0.00000E+00
    0.65393E+05         0.13024E+05         0.00000E+00
    0.00000E+00         0.00000E+00         0.21836E+05
 
    0.93918E+05         0.67735E+05         0.00000E+00
    0.67735E+05         0.14120E+05         0.00000E+00
    0.00000E+00         0.00000E+00         0.21608E+05
 
    0.91596E+05         0.70021E+05         0.00000E+00
    0.70021E+05         0.15255E+05         0.00000E+00
    0.00000E+00         0.00000E+00         0.21370E+05
 
    0.89191E+05         0.72250E+05         0.00000E+00
    0.72250E+05         0.16427E+05         0.00000E+00
    0.00000E+00         0.00000E+00         0.21124E+05
 
    0.86705E+05         0.74419E+05         0.00000E+00
    0.74419E+05         0.17636E+05         0.00000E+00
    0.00000E+00         0.00000E+00         0.20868E+05
 
    0.84139E+05         0.76527E+05         0.00000E+00
    0.76527E+05         0.18880E+05         0.00000E+00
    0.00000E+00         0.00000E+00         0.20604E+05
 
    0.81494E+05         0.78571E+05         0.00000E+00
    0.78571E+05         0.20159E+05         0.00000E+00
    0.00000E+00         0.00000E+00         0.20331E+05
 
    0.78773E+05         0.80550E+05         0.00000E+00
    0.80550E+05         0.21472E+05         0.00000E+00
    0.00000E+00         0.00000E+00         0.20049E+05
 
    0.75977E+05         0.82461E+05         0.00000E+00
    0.82461E+05         0.22817E+05         0.00000E+00
    0.00000E+00         0.00000E+00         0.19759E+05
 
    0.73108E+05         0.84303E+05         0.00000E+00
    0.84303E+05         0.24193E+05         0.00000E+00
    0.00000E+00         0.00000E+00         0.19460E+05
 
    0.70167E+05         0.86073E+05         0.00000E+00
    0.86073E+05         0.25599E+05         0.00000E+00
    0.00000E+00         0.00000E+00         0.19153E+05
 
    0.67156E+05         0.87771E+05         0.00000E+00
    0.87771E+05         0.27035E+05         0.00000E+00
    0.00000E+00         0.00000E+00         0.18838E+05
 
    0.64077E+05         0.89394E+05         0.00000E+00
    0.89394E+05         0.28498E+05         0.00000E+00
    0.00000E+00         0.00000E+00         0.18515E+05
 
    0.60931E+05         0.90940E+05         0.00000E+00
    0.90940E+05         0.29987E+05         0.00000E+00
    0.00000E+00         0.00000E+00         0.18184E+05
 
    0.57721E+05         0.92409E+05         0.00000E+00
    0.92409E+05         0.31502E+05         0.00000E+00
    0.00000E+00         0.00000E+00         0.17845E+05
 
    0.54448E+05         0.93798E+05         0.00000E+00
    0.93798E+05         0.33041E+05         0.00000E+00
    0.00000E+00         0.00000E+00         0.17498E+05
 
    0.51115E+05         0.95106E+05         0.00000E+00
    0.95106E+05         0.34602E+05         0.00000E+00
    0.00000E+00         0.00000E+00         0.17143E+05
 
    0.47724E+05         0.96331E+05         0.00000E+00
    0.96331E+05         0.36184E+05         0.00000E+00
    0.00000E+00         0.00000E+00         0.16782E+05
 
    0.44276E+05         0.97472E+05         0.00000E+00
    0.97472E+05         0.37787E+05         0.00000E+00
    0.00000E+00         0.00000E+00         0.16412E+05
 
    0.40773E+05         0.98528E+05         0.00000E+00
    0.98528E+05         0.39408E+05         0.00000E+00
    0.00000E+00         0.00000E+00         0.16036E+05
 
    0.37219E+05         0.99496E+05         0.00000E+00
    0.99496E+05         0.41046E+05         0.00000E+00
    0.00000E+00         0.00000E+00         0.15653E+05
 
    0.33614E+05         0.10038E+06         0.00000E+00
    0.10038E+06         0.42700E+05         0.00000E+00
    0.00000E+00         0.00000E+00         0.15263E+05
 
    0.29962E+05         0.10117E+06         0.00000E+00
    0.10117E+06         0.44368E+05         0.00000E+00
    0.00000E+00         0.00000E+00         0.14866E+05
 
    0.26264E+05         0.10187E+06         0.00000E+00
    0.10187E+06         0.46048E+05         0.00000E+00
    0.00000E+00         0.00000E+00         0.14463E+05
 
    0.22523E+05         0.10247E+06         0.00000E+00
    0.10247E+06         0.47740E+05         0.00000E+00
    0.00000E+00         0.00000E+00         0.14053E+05
 
    0.18742E+05         0.10299E+06         0.00000E+00
    0.10299E+06         0.49442E+05         0.00000E+00
    0.00000E+00         0.00000E+00         0.13637E+05
 
    0.14922E+05         0.10341E+06         0.00000E+00
    0.10341E+06         0.51152E+05         0.00000E+00
    0.00000E+00         0.00000E+00         0.13215E+05
 
    0.13788E+06         0.16124E+04         0.00000E+00
    0.16124E+04        -0.17164E+02         0.00000E+00
    0.00000E+00         0.00000E+00         0.27573E+05
 
    0.13780E+06         0.48451E+04         0.00000E+00
    0.48451E+04         0.36948E+02         0.00000E+00
    0.00000E+00         0.00000E+00         0.27567E+05
 
    0.13760E+06         0.80778E+04         0.00000E+00
    0.80778E+04         0.14569E+03         0.00000E+00
    0.00000E+00         0.00000E+00         0.27549E+05
 
    0.13730E+06         0.11308E+05         0.00000E+00
    0.11308E+05         0.30920E+03         0.00000E+00
    0.00000E+00         0.00000E+00         0.27521E+05
 
    0.13688E+06         0.14532E+05         0.00000E+00
    0.14532E+05         0.52756E+03         0.00000E+00
    0.00000E+00         0.00000E+00         0.27482E+05
 
    0.13636E+06         0.17748E+05         0.00000E+00
    0.17748E+05         0.80077E+03         0.00000E+00
    0.00000E+00         0.00000E+00         0.27432E+05
 
    0.13573E+06         0.20953E+05         0.00000E+00
    0.20953E+05         0.11288E+04         0.00000E+00
    0.00000E+00         0.00000E+00         0.27371E+05
 
    0.13498E+06         0.24144E+05         0.00000E+00
    0.24144E+05         0.15115E+04         0.00000E+00
    0.00000E+00         0.00000E+00         0.27299E+05
 
    0.13413E+06         0.27319E+05         0.00000E+00
    0.27319E+05         0.19488E+04         0.00000E+00
    0.00000E+00         0.00000E+00         0.27215E+05
 
    0.13317E+06         0.30474E+05         0.00000E+00
    0.30474E+05         0.24403E+04         0.00000E+00
    0.00000E+00         0.00000E+00         0.27121E+05
 
    0.13209E+06         0.33607E+05         0.00000E+00
    0.33607E+05         0.29859E+04         0.00000E+00
    0.00000E+00         0.00000E+00         0.27016E+05
 
    0.13091E+06         0.36716E+05         0.00000E+00
    0.36716E+05         0.35852E+04         0.00000E+00
    0.00000E+00         0.00000E+00         0.26900E+05
 
    0.12962E+06         0.39797E+05         0.00000E+00
    0.39797E+05         0.42377E+04         0.00000E+00
    0.00000E+00         0.00000E+00         0.26772E+05
 
    0.12823E+06         0.42848E+05         0.00000E+00
    0.42848E+05         0.49430E+04         0.00000E+00
    0.00000E+00         0.00000E+00         0.26634E+05
 
    0.12672E+06         0.45866E+05         0.00000E+00
    0.45866E+05         0.57006E+04         0.00000E+00
    0.00000E+00         0.00000E+00         0.26485E+05
 
    0.12511E+06         0.48849E+05         0.00000E+00
    0.48849E+05         0.65100E+04         0.00000E+00
    0.00000E+00         0.00000E+00         0.26325E+05
 
    0.12340E+06         0.51793E+05         0.00000E+00
    0.51793E+05         0.73705E+04         0.00000E+00
    0.00000E+00         0.00000E+00         0.26154E+05
 
    0.12158E+06         0.54697E+05         0.00000E+00
    0.54697E+05         0.82814E+04         0.00000E+00
    0.00000E+00         0.00000E+00         0.25972E+05
 
    0.11965E+06         0.57558E+05         0.00000E+00
    0.57558E+05         0.92420E+04         0.00000E+00
    0.00000E+00         0.00000E+00         0.25779E+05
 
    0.11763E+06         0.60373E+05         0.00000E+00
    0.60373E+05         0.10252E+05         0.00000E+00
    0.00000E+00         0.00000E+00         0.25575E+05
 
    0.11550E+06         0.63139E+05         0.00000E+00
    0.63139E+05         0.11309E+05         0.00000E+00
    0.00000E+00         0.00000E+00         0.25361E+05
 
    0.11327E+06         0.65855E+05         0.00000E+00
    0.65855E+05         0.12414E+05         0.00000E+00
    0.00000E+00         0.00000E+00         0.25136E+05
 
    0.11094E+06         0.68517E+05         0.00000E+00
    0.68517E+05         0.13565E+05         0.00000E+00
    0.00000E+00         0.00000E+00         0.24901E+05
 
    0.10851E+06         0.71124E+05         0.00000E+00
    0.71124E+05         0.14762E+05         0.00000E+00
    0.00000E+00         0.00000E+00         0.24655E+05
 
    0.10599E+06         0.73672E+05         0.00000E+00
    0.73672E+05         0.16003E+05         0.00000E+00
    0.00000E+00         0.00000E+00         0.24399E+05
 
    0.10337E+06         0.76161E+05         0.00000E+00
    0.76161E+05         0.17288E+05         0.00000E+00
    0.00000E+00         0.00000E+00         0.24132E+05
 
    0.10066E+06         0.78587E+05         0.00000E+00
    0.78587E+05         0.18615E+05         0.00000E+00
    0.00000E+00         0.00000E+00         0.23856E+05
 
    0.97861E+05         0.80948E+05         0.00000E+00
    0.80948E+05         0.19983E+05         0.00000E+00
    0.00000E+00         0.00000E+00         0.23569E+05
 
    0.94969E+05         0.83241E+05         0.00000E+00
    0.83241E+05         0.21391E+05         0.00000E+00
    0.00000E+00         0.00000E+00         0.23272E+05
 
    0.91987E+05         0.85466E+05         0.00000E+00
    0.85466E+05         0.22838E+05         0.00000E+00
    0.00000E+00         0.00000E+00         0.22965E+05
 
    0.88920E+05         0.87619E+05         0.00000E+00
    0.87619E+05         0.24322E+05         0.00000E+00
    0.00000E+00         0.00000E+00         0.22648E+05
 
    0.85767E+05         0.89699E+05         0.00000E+00
    0.89699E+05         0.25843E+05         0.00000E+00
    0.00000E+00         0.00000E+00         0.22322E+05
 
    0.82531E+05         0.91704E+05         0.00000E+00
    0.91704E+05         0.27399E+05         0.00000E+00
    0.00000E+00         0.00000E+00         0.21986E+05
 
    0.79214E+05         0.93631E+05         0.00000E+00
    0.93631E+05         0.28989E+05         0.00000E+00
    0.00000E+00         0.00000E+00         0.21641E+05
 
    0.75818E+05         0.95479E+05         0.00000E+00
    0.95479E+05         0.30612E+05         0.00000E+00
    0.00000E+00         0.00000E+00         0.21286E+05
 
    0.72345E+05         0.97246E+05         0.00000E+00
    0.97246E+05         0.32265E+05         0.00000E+00
    0.00000E+00         0.00000E+00         0.20922E+05
 
    0.68797E+05         0.98929E+05         0.00000E+00
    0.98929E+05         0.33948E+05         0.00000E+00
    0.00000E+00         0.00000E+00         0.20549E+05
 
    0.65176E+05         0.10053E+06         0.00000E+00
    0.10053E+06         0.35660E+05         0.00000E+00
    0.00000E+00         0.00000E+00         0.20167E+05
 
    0.61484E+05         0.10204E+06         0.00000E+00
    0.10204E+06         0.37398E+05         0.00000E+00
    0.00000E+00         0.00000E+00         0.19776E+05
 
    0.57724E+05         0.10346E+06         0.00000E+00
    0.10346E+06         0.39162E+05         0.00000E+00
    0.00000E+00         0.00000E+00         0.19377E+05
 
    0.53897E+05         0.10480E+06         0.00000E+00
    0.10480E+06         0.40950E+05         0.00000E+00
    0.00000E+00         0.00000E+00         0.18969E+05
 
    0.50007E+05         0.10604E+06         0.00000E+00
    0.10604E+06         0.42760E+05         0.00000E+00
    0.00000E+00         0.00000E+00         0.18553E+05
 
    0.46055E+05         0.10719E+06         0.00000E+00
    0.10719E+06         0.44590E+05         0.00000E+00
    0.00000E+00         0.00000E+00         0.18129E+05
 
    0.42044E+05         0.10825E+06         0.00000E+00
    0.10825E+06         0.46440E+05         0.00000E+00
    0.00000E+00         0.00000E+00         0.17697E+05
 
    0.37976E+05         0.10921E+06         0.00000E+00
    0.10921E+06         0.48308E+05         0.00000E+00
    0.00000E+00         0.00000E+00         0.17257E+05
 
    0.33853E+05         0.11007E+06         0.00000E+00
    0.11007E+06         0.50191E+05         0.00000E+00
    0.00000E+00         0.00000E+00         0.16809E+05
 
    0.29679E+05         0.11083E+06         0.00000E+00
    0.11083E+06         0.52089E+05         0.00000E+00
    0.00000E+00         0.00000E+00         0.16354E+05
 
    0.25456E+05         0.11150E+06         0.00000E+00
    0.11150E+06         0.54000E+05         0.00000E+00
    0.00000E+00         0.00000E+00         0.15891E+05
 
    0.21186E+05         0.11206E+06         0.00000E+00
    0.11206E+06         0.55922E+05         0.00000E+00
    0.00000E+00         0.00000E+00         0.15422E+05
 
    0.16873E+05         0.11252E+06         0.00000E+00
    0.11252E+06         0.57852E+05         0.00000E+00
    0.00000E+00         0.00000E+00         0.14945E+05
 
    0.15475E+06         0.17559E+04         0.00000E+00
    0.17559E+04        -0.19436E+02         0.00000E+00
    0.00000E+00         0.00000E+00         0.30946E+05
 
    0.15467E+06         0.52788E+04         0.00000E+00
    0.52788E+04         0.41798E+02         0.00000E+00
    0.00000E+00         0.00000E+00         0.30943E+05
 
    0.15447E+06         0.88026E+04         0.00000E+00
    0.88026E+04         0.16489E+03         0.00000E+00
    0.00000E+00         0.00000E+00         0.30928E+05
 
    0.15415E+06         0.12324E+05         0.00000E+00
    0.12324E+05         0.35001E+03         0.00000E+00
    0.00000E+00         0.00000E+00         0.30900E+05
 
    0.15370E+06         0.15840E+05         0.00000E+00
    0.15840E+05         0.59724E+03         0.00000E+00
    0.00000E+00         0.00000E+00         0.30860E+05
 
    0.15313E+06         0.19348E+05         0.00000E+00
    0.19348E+05         0.90660E+03         0.00000E+00
    0.00000E+00         0.00000E+00         0.30807E+05
 
    0.15243E+06         0.22845E+05         0.00000E+00
    0.22845E+05         0.12780E+04         0.00000E+00
    0.00000E+00         0.00000E+00         0.30742E+05
 
    0.15161E+06         0.26326E+05         0.00000E+00
    0.26326E+05         0.17114E+04         0.00000E+00
    0.00000E+00         0.00000E+00         0.30664E+05
 
    0.15066E+06         0.29791E+05         0.00000E+00
    0.29791E+05         0.22065E+04         0.00000E+00
    0.00000E+00         0.00000E+00         0.30574E+05
 
    0.14959E+06         0.33234E+05         0.00000E+00
    0.33234E+05         0.27630E+04         0.00000E+00
    0.00000E+00         0.00000E+00         0.30471E+05
 
    0.14840E+06         0.36654E+05         0.00000E+00
    0.36654E+05         0.33806E+04         0.00000E+00
    0.00000E+00         0.00000E+00         0.30356E+05
 
    0.14708E+06         0.40047E+05         0.00000E+00
    0.40047E+05         0.40589E+04         0.00000E+00
    0.00000E+00         0.00000E+00         0.30229E+05
 
    0.14564E+06         0.43410E+05         0.00000E+00
    0.43410E+05         0.47974E+04         0.00000E+00
    0.00000E+00         0.00000E+00         0.30088E+05
 
    0.14408E+06         0.46740E+05         0.00000E+00
    0.46740E+05         0.55956E+04         0.00000E+00
    0.00000E+00         0.00000E+00         0.29936E+05
 
    0.14240E+06         0.50035E+05         0.00000E+00
    0.50035E+05         0.64528E+04         0.00000E+00
    0.00000E+00         0.00000E+00         0.29771E+05
 
    0.14060E+06         0.53290E+05         0.00000E+00
    0.53290E+05         0.73683E+04         0.00000E+00
    0.00000E+00         0.00000E+00         0.29593E+05
 
    0.13868E+06         0.56505E+05         0.00000E+00
    0.56505E+05         0.83415E+04         0.00000E+00
    0.00000E+00         0.00000E+00         0.29404E+05
 
    0.13664E+06         0.59674E+05         0.00000E+00
    0.59674E+05         0.93716E+04         0.00000E+00
    0.00000E+00         0.00000E+00         0.29202E+05
 
    0.13448E+06         0.62797E+05         0.00000E+00
    0.62797E+05         0.10458E+05         0.00000E+00
    0.00000E+00         0.00000E+00         0.28987E+05
 
    0.13221E+06         0.65869E+05         0.00000E+00
    0.65869E+05         0.11599E+05         0.00000E+00
    0.00000E+00         0.00000E+00         0.28761E+05
 
    0.12982E+06         0.68889E+05         0.00000E+00
    0.68889E+05         0.12794E+05         0.00000E+00
    0.00000E+00         0.00000E+00         0.28522E+05
 
    0.12732E+06         0.71852E+05         0.00000E+00
    0.71852E+05         0.14042E+05         0.00000E+00
    0.00000E+00         0.00000E+00         0.28272E+05
 
    0.12470E+06         0.74758E+05         0.00000E+00
    0.74758E+05         0.15343E+05         0.00000E+00
    0.00000E+00         0.00000E+00         0.28009E+05
 
    0.12198E+06         0.77603E+05         0.00000E+00
    0.77603E+05         0.16694E+05         0.00000E+00
    0.00000E+00         0.00000E+00         0.27735E+05
 
    0.11915E+06         0.80384E+05         0.00000E+00
    0.80384E+05         0.18095E+05         0.00000E+00
    0.00000E+00         0.00000E+00         0.27449E+05
 
    0.11621E+06         0.83099E+05         0.00000E+00
    0.83099E+05         0.19545E+05         0.00000E+00
    0.00000E+00         0.00000E+00         0.27151E+05
 
    0.11317E+06         0.85746E+05         0.00000E+00
    0.85746E+05         0.21042E+05         0.00000E+00
    0.00000E+00         0.00000E+00         0.26842E+05
 
    0.11002E+06         0.88322E+05         0.00000E+00
    0.88322E+05         0.22585E+05         0.00000E+00
    0.00000E+00         0.00000E+00         0.26521E+05
 
    0.10677E+06         0.90825E+05         0.00000E+00
    0.90825E+05         0.24173E+05         0.00000E+00
    0.00000E+00         0.00000E+00         0.26189E+05
 
    0.10342E+06         0.93252E+05         0.00000E+00
    0.93252E+05         0.25805E+05         0.00000E+00
    0.00000E+00         0.00000E+00         0.25845E+05
 
    0.99976E+05         0.95601E+05         0.00000E+00
    0.95601E+05         0.27478E+05         0.00000E+00
    0.00000E+00         0.00000E+00         0.25491E+05
 
    0.96434E+05         0.97870E+05         0.00000E+00
    0.97870E+05         0.29192E+05         0.00000E+00
    0.00000E+00         0.00000E+00         0.25125E+05
 
    0.92799E+05         0.10006E+06         0.00000E+00
    0.10006E+06         0.30946E+05         0.00000E+00
    0.00000E+00         0.00000E+00         0.24749E+05
 
    0.89073E+05         0.10216E+06         0.00000E+00
    0.10216E+06         0.32737E+05         0.00000E+00
    0.00000E+00         0.00000E+00         0.24362E+05
 
    0.85258E+05         0.10417E+06         0.00000E+00
    0.10417E+06         0.34564E+05         0.00000E+00
    0.00000E+00         0.00000E+00         0.23964E+05
 
    0.81356E+05         0.10610E+06         0.00000E+00
    0.10610E+06         0.36426E+05         0.00000E+00
    0.00000E+00         0.00000E+00         0.23556E+05
 
    0.77370E+05         0.10794E+06         0.00000E+00
    0.10794E+06         0.38321E+05         0.00000E+00
    0.00000E+00         0.00000E+00         0.23138E+05
 
    0.73302E+05         0.10968E+06         0.00000E+00
    0.10968E+06         0.40248E+05         0.00000E+00
    0.00000E+00         0.00000E+00         0.22710E+05
 
    0.69154E+05         0.11133E+06         0.00000E+00
    0.11133E+06         0.42204E+05         0.00000E+00
    0.00000E+00         0.00000E+00         0.22272E+05
 
    0.64929E+05         0.11289E+06         0.00000E+00
    0.11289E+06         0.44189E+05         0.00000E+00
    0.00000E+00         0.00000E+00         0.21823E+05
 
    0.60629E+05         0.11434E+06         0.00000E+00
    0.11434E+06         0.46200E+05         0.00000E+00
    0.00000E+00         0.00000E+00         0.21366E+05
 
    0.56257E+05         0.11570E+06         0.00000E+00
    0.11570E+06         0.48236E+05         0.00000E+00
    0.00000E+00         0.00000E+00         0.20899E+05
 
    0.51816E+05         0.11696E+06         0.00000E+00
    0.11696E+06         0.50295E+05         0.00000E+00
    0.00000E+00         0.00000E+00         0.20422E+05
 
    0.47308E+05         0.11811E+06         0.00000E+00
    0.11811E+06         0.52376E+05         0.00000E+00
    0.00000E+00         0.00000E+00         0.19937E+05
 
    0.42736E+05         0.11916E+06         0.00000E+00
    0.11916E+06         0.54476E+05         0.00000E+00
    0.00000E+00         0.00000E+00         0.19443E+05
 
    0.38103E+05         0.12010E+06         0.00000E+00
    0.12010E+06         0.56595E+05         0.00000E+00
    0.00000E+00         0.00000E+00         0.18939E+05
 
    0.33411E+05         0.12094E+06         0.00000E+00
    0.12094E+06         0.58729E+05         0.00000E+00
    0.00000E+00         0.00000E+00         0.18428E+05
 
    0.28663E+05         0.12166E+06         0.00000E+00
    0.12166E+06         0.60877E+05         0.00000E+00
    0.00000E+00         0.00000E+00         0.17908E+05
 
    0.23863E+05         0.12228E+06         0.00000E+00
    0.12228E+06         0.63038E+05         0.00000E+00
    0.00000E+00         0.00000E+00         0.17380E+05
 
    0.19012E+05         0.12278E+06         0.00000E+00
    0.12278E+06         0.65210E+05         0.00000E+00
    0.00000E+00         0.00000E+00         0.16844E+05
 
    0.17316E+06         0.19183E+04         0.00000E+00
    0.19183E+04        -0.22006E+02         0.00000E+00
    0.00000E+00         0.00000E+00         0.34628E+05
 
    0.17310E+06         0.57697E+04         0.00000E+00
    0.57697E+04         0.47302E+02         0.00000E+00
    0.00000E+00         0.00000E+00         0.34630E+05
 
    0.17290E+06         0.96231E+04         0.00000E+00
    0.96231E+04         0.18665E+03         0.00000E+00
    0.00000E+00         0.00000E+00         0.34617E+05
 
    0.17256E+06         0.13475E+05         0.00000E+00
    0.13475E+05         0.39623E+03         0.00000E+00
    0.00000E+00         0.00000E+00         0.34591E+05
 
    0.17207E+06         0.17322E+05         0.00000E+00
    0.17322E+05         0.67613E+03         0.00000E+00
    0.00000E+00         0.00000E+00         0.34550E+05
 
    0.17145E+06         0.21160E+05         0.00000E+00
    0.21160E+05         0.10263E+04         0.00000E+00
    0.00000E+00         0.00000E+00         0.34496E+05
 
    0.17069E+06         0.24986E+05         0.00000E+00
    0.24986E+05         0.14468E+04         0.00000E+00
    0.00000E+00         0.00000E+00         0.34427E+05
 
    0.16978E+06         0.28797E+05         0.00000E+00
    0.28797E+05         0.19373E+04         0.00000E+00
    0.00000E+00         0.00000E+00         0.34344E+05
 
    0.16874E+06         0.32588E+05         0.00000E+00
    0.32588E+05         0.24976E+04         0.00000E+00
    0.00000E+00         0.00000E+00         0.34247E+05
 
    0.16755E+06         0.36357E+05         0.00000E+00
    0.36357E+05         0.31273E+04         0.00000E+00
    0.00000E+00         0.00000E+00         0.34136E+05
 
    0.16623E+06         0.40101E+05         0.00000E+00
    0.40101E+05         0.38261E+04         0.00000E+00
    0.00000E+00         0.00000E+00         0.34010E+05
 
    0.16476E+06         0.43815E+05         0.00000E+00
    0.43815E+05         0.45933E+04         0.00000E+00
    0.00000E+00         0.00000E+00         0.33871E+05
 
    0.16316E+06         0.47496E+05         0.00000E+00
    0.47496E+05         0.54284E+04         0.00000E+00
    0.00000E+00         0.00000E+00         0.33717E+05
 
    0.16142E+06         0.51142E+05         0.00000E+00
    0.51142E+05         0.63308E+04         0.00000E+00
    0.00000E+00         0.00000E+00         0.33550E+05
 
    0.15954E+06         0.54748E+05         0.00000E+00
    0.54748E+05         0.72997E+04         0.00000E+00
    0.00000E+00         0.00000E+00         0.33368E+05
 
    0.15753E+06         0.58311E+05         0.00000E+00
    0.58311E+05         0.83343E+04         0.00000E+00
    0.00000E+00         0.00000E+00         0.33172E+05
 
    0.15538E+06         0.61829E+05         0.00000E+00
    0.61829E+05         0.94336E+04         0.00000E+00
    0.00000E+00         0.00000E+00         0.32962E+05
 
    0.15310E+06         0.65298E+05         0.00000E+00
    0.65298E+05         0.10597E+05         0.00000E+00
    0.00000E+00         0.00000E+00         0.32739E+05
 
    0.15068E+06         0.68714E+05         0.00000E+00
    0.68714E+05         0.11823E+05         0.00000E+00
    0.00000E+00         0.00000E+00         0.32501E+05
 
    0.14814E+06         0.72076E+05         0.00000E+00
    0.72076E+05         0.13111E+05         0.00000E+00
    0.00000E+00         0.00000E+00         0.32250E+05
 
    0.14547E+06         0.75379E+05         0.00000E+00
    0.75379E+05         0.14459E+05         0.00000E+00
    0.00000E+00         0.00000E+00         0.31986E+05
 
    0.14267E+06         0.78621E+05         0.00000E+00
    0.78621E+05         0.15867E+05         0.00000E+00
    0.00000E+00         0.00000E+00         0.31707E+05
 
    0.13974E+06         0.81799E+05         0.00000E+00
    0.81799E+05         0.17333E+05         0.00000E+00
    0.00000E+00         0.00000E+00         0.31415E+05
 
    0.13669E+06         0.84910E+05         0.00000E+00
    0.84910E+05         0.18856E+05         0.00000E+00
    0.00000E+00         0.00000E+00         0.31110E+05
 
    0.13352E+06         0.87951E+05         0.00000E+00
    0.87951E+05         0.20435E+05         0.00000E+00
    0.00000E+00         0.00000E+00         0.30792E+05
 
    0.13023E+06         0.90920E+05         0.00000E+00
    0.90920E+05         0.22068E+05         0.00000E+00
    0.00000E+00         0.00000E+00         0.30460E+05
 
    0.12682E+06         0.93814E+05         0.00000E+00
    0.93814E+05         0.23754E+05         0.00000E+00
    0.00000E+00         0.00000E+00         0.30115E+05
 
    0.12330E+06         0.96629E+05         0.00000E+00
    0.96629E+05         0.25491E+05         0.00000E+00
    0.00000E+00         0.00000E+00         0.29757E+05
 
    0.11966E+06         0.99365E+05         0.00000E+00
    0.99365E+05         0.27277E+05         0.00000E+00
    0.00000E+00         0.00000E+00         0.29387E+05
 
    0.11591E+06         0.10202E+06         0.00000E+00
    0.10202E+06         0.29112E+05         0.00000E+00
    0.00000E+00         0.00000E+00         0.29004E+05
 
    0.11205E+06         0.10458E+06         0.00000E+00
    0.10458E+06         0.30994E+05         0.00000E+00
    0.00000E+00         0.00000E+00         0.28608E+05
 
    0.10808E+06         0.10706E+06         0.00000E+00
    0.10706E+06         0.32921E+05         0.00000E+00
    0.00000E+00         0.00000E+00         0.28200E+05
 
    0.10401E+06         0.10945E+06         0.00000E+00
    0.10945E+06         0.34891E+05         0.00000E+00
    0.00000E+00         0.00000E+00         0.27780E+05
 
    0.99837E+05         0.11175E+06         0.00000E+00
    0.11175E+06         0.36903E+05         0.00000E+00
    0.00000E+00         0.00000E+00         0.27348E+05
 
    0.95564E+05         0.11395E+06         0.00000E+00
    0.11395E+06         0.38955E+05         0.00000E+00
    0.00000E+00         0.00000E+00         0.26904E+05
 
    0.91194E+05         0.11606E+06         0.00000E+00
    0.11606E+06         0.41046E+05         0.00000E+00
    0.00000E+00         0.00000E+00         0.26448E+05
 
    0.86730E+05         0.11806E+06         0.00000E+00
    0.11806E+06         0.43173E+05         0.00000E+00
    0.00000E+00         0.00000E+00         0.25981E+05
 
    0.82174E+05         0.11997E+06         0.00000E+00
    0.11997E+06         0.45335E+05         0.00000E+00
    0.00000E+00         0.00000E+00         0.25502E+05
 
    0.77529E+05         0.12177E+06         0.00000E+00
    0.12177E+06         0.47530E+05         0.00000E+00
    0.00000E+00         0.00000E+00         0.25012E+05
 
    0.72797E+05         0.12347E+06         0.00000E+00
    0.12347E+06         0.49756E+05         0.00000E+00
    0.00000E+00         0.00000E+00         0.24511E+05
 
    0.67982E+05         0.12506E+06         0.00000E+00
    0.12506E+06         0.52011E+05         0.00000E+00
    0.00000E+00         0.00000E+00         0.23999E+05
 
    0.63087E+05         0.12655E+06         0.00000E+00
    0.12655E+06         0.54294E+05         0.00000E+00
    0.00000E+00         0.00000E+00         0.23476E+05
 
    0.58113E+05         0.12792E+06         0.00000E+00
    0.12792E+06         0.56603E+05         0.00000E+00
    0.00000E+00         0.00000E+00         0.22943E+05
 
    0.53064E+05         0.12918E+06         0.00000E+00
    0.12918E+06         0.58935E+05         0.00000E+00
    0.00000E+00         0.00000E+00         0.22400E+05
 
    0.47944E+05         0.13033E+06         0.00000E+00
    0.13033E+06         0.61289E+05         0.00000E+00
    0.00000E+00         0.00000E+00         0.21847E+05
 
    0.42754E+05         0.13136E+06         0.00000E+00
    0.13136E+06         0.63663E+05         0.00000E+00
    0.00000E+00         0.00000E+00         0.21283E+05
 
    0.37498E+05         0.13227E+06         0.00000E+00
    0.13227E+06         0.66055E+05         0.00000E+00
    0.00000E+00         0.00000E+00         0.20711E+05
 
    0.32179E+05         0.13307E+06         0.00000E+00
    0.13307E+06         0.68462E+05         0.00000E+00
    0.00000E+00         0.00000E+00         0.20128E+05
 
    0.26801E+05         0.13375E+06         0.00000E+00
    0.13375E+06         0.70884E+05         0.00000E+00
    0.00000E+00         0.00000E+00         0.19537E+05
 
    0.21365E+05         0.13430E+06         0.00000E+00
    0.13430E+06         0.73317E+05         0.00000E+00
    0.00000E+00         0.00000E+00         0.18936E+05
 
    0.19332E+06         0.21021E+04         0.00000E+00
    0.21021E+04        -0.24942E+02         0.00000E+00
    0.00000E+00         0.00000E+00         0.38659E+05
 
    0.19328E+06         0.63257E+04         0.00000E+00
    0.63257E+04         0.53626E+02         0.00000E+00
    0.00000E+00         0.00000E+00         0.38667E+05
 
    0.19308E+06         0.10552E+05         0.00000E+00
    0.10552E+05         0.21159E+03         0.00000E+00
    0.00000E+00         0.00000E+00         0.38659E+05
 
    0.19272E+06         0.14778E+05         0.00000E+00
    0.14778E+05         0.44914E+03         0.00000E+00
    0.00000E+00         0.00000E+00         0.38635E+05
 
    0.19221E+06         0.18999E+05         0.00000E+00
    0.18999E+05         0.76637E+03         0.00000E+00
    0.00000E+00         0.00000E+00         0.38595E+05
 
    0.19153E+06         0.23211E+05         0.00000E+00
    0.23211E+05         0.11632E+04         0.00000E+00
    0.00000E+00         0.00000E+00         0.38539E+05
 
    0.19070E+06         0.27410E+05         0.00000E+00
    0.27410E+05         0.16396E+04         0.00000E+00
    0.00000E+00         0.00000E+00         0.38467E+05
 
    0.18970E+06         0.31593E+05         0.00000E+00
    0.31593E+05         0.21952E+04         0.00000E+00
    0.00000E+00         0.00000E+00         0.38379E+05
 
    0.18855E+06         0.35755E+05         0.00000E+00
    0.35755E+05         0.28297E+04         0.00000E+00
    0.00000E+00         0.00000E+00         0.38275E+05
 
    0.18723E+06         0.39892E+05         0.00000E+00
    0.39892E+05         0.35426E+04         0.00000E+00
    0.00000E+00         0.00000E+00         0.38155E+05
 
    0.18576E+06         0.44000E+05         0.00000E+00
    0.44000E+05         0.43334E+04         0.00000E+00
    0.00000E+00         0.00000E+00         0.38020E+05
 
    0.18414E+06         0.48076E+05         0.00000E+00
    0.48076E+05         0.52015E+04         0.00000E+00
    0.00000E+00         0.00000E+00         0.37868E+05
 
    0.18235E+06         0.52116E+05         0.00000E+00
    0.52116E+05         0.61461E+04         0.00000E+00
    0.00000E+00         0.00000E+00         0.37700E+05
 
    0.18041E+06         0.56116E+05         0.00000E+00
    0.56116E+05         0.71663E+04         0.00000E+00
    0.00000E+00         0.00000E+00         0.37516E+05
 
    0.17832E+06         0.60073E+05         0.00000E+00
    0.60073E+05         0.82613E+04         0.00000E+00
    0.00000E+00         0.00000E+00         0.37316E+05
 
    0.17607E+06         0.63982E+05         0.00000E+00
    0.63982E+05         0.94302E+04         0.00000E+00
    0.00000E+00         0.00000E+00         0.37101E+05
 
    0.17368E+06         0.67841E+05         0.00000E+00
    0.67841E+05         0.10672E+05         0.00000E+00
    0.00000E+00         0.00000E+00         0.36870E+05
 
    0.17113E+06         0.71645E+05         0.00000E+00
    0.71645E+05         0.11985E+05         0.00000E+00
    0.00000E+00         0.00000E+00         0.36623E+05
 
    0.16843E+06         0.75391E+05         0.00000E+00
    0.75391E+05         0.13368E+05         0.00000E+00
    0.00000E+00         0.00000E+00         0.36360E+05
 
    0.16559E+06         0.79076E+05         0.00000E+00
    0.79076E+05         0.14821E+05         0.00000E+00
    0.00000E+00         0.00000E+00         0.36082E+05
 
    0.16260E+06         0.82697E+05         0.00000E+00
    0.82697E+05         0.16341E+05         0.00000E+00
    0.00000E+00         0.00000E+00         0.35789E+05
 
    0.15948E+06         0.86250E+05         0.00000E+00
    0.86250E+05         0.17927E+05         0.00000E+00
    0.00000E+00         0.00000E+00         0.35481E+05
 
    0.15621E+06         0.89731E+05         0.00000E+00
    0.89731E+05         0.19579E+05         0.00000E+00
    0.00000E+00         0.00000E+00         0.35157E+05
 
    0.15280E+06         0.93139E+05         0.00000E+00
    0.93139E+05         0.21294E+05         0.00000E+00
    0.00000E+00         0.00000E+00         0.34818E+05
 
    0.14925E+06         0.96470E+05         0.00000E+00
    0.96470E+05         0.23070E+05         0.00000E+00
    0.00000E+00         0.00000E+00         0.34464E+05
 
    0.14557E+06         0.99721E+05         0.00000E+00
    0.99721E+05         0.24907E+05         0.00000E+00
    0.00000E+00         0.00000E+00         0.34096E+05
 
    0.14176E+06         0.10289E+06         0.00000E+00
    0.10289E+06         0.26802E+05         0.00000E+00
    0.00000E+00         0.00000E+00         0.33712E+05
 
    0.13782E+06         0.10597E+06         0.00000E+00
    0.10597E+06         0.28754E+05         0.00000E+00
    0.00000E+00         0.00000E+00         0.33315E+05
 
    0.13375E+06         0.10896E+06         0.00000E+00
    0.10896E+06         0.30761E+05         0.00000E+00
    0.00000E+00         0.00000E+00         0.32903E+05
 
    0.12956E+06         0.11187E+06         0.00000E+00
    0.11187E+06         0.32821E+05         0.00000E+00
    0.00000E+00         0.00000E+00         0.32476E+05
 
    0.12525E+06         0.11467E+06         0.00000E+00
    0.11467E+06         0.34933E+05         0.00000E+00
    0.00000E+00         0.00000E+00         0.32036E+05
 
    0.12081E+06         0.11739E+06         0.00000E+00
    0.11739E+06         0.37095E+05         0.00000E+00
    0.00000E+00         0.00000E+00         0.31582E+05
 
    0.11626E+06         0.12000E+06         0.00000E+00
    0.12000E+06         0.39304E+05         0.00000E+00
    0.00000E+00         0.00000E+00         0.31114E+05
 
    0.11160E+06         0.12251E+06         0.00000E+00
    0.12251E+06         0.41559E+05         0.00000E+00
    0.00000E+00         0.00000E+00         0.30632E+05
 
    0.10683E+06         0.12492E+06         0.00000E+00
    0.12492E+06         0.43859E+05         0.00000E+00
    0.00000E+00         0.00000E+00         0.30137E+05
 
    0.10195E+06         0.12722E+06         0.00000E+00
    0.12722E+06         0.46200E+05         0.00000E+00
    0.00000E+00         0.00000E+00         0.29629E+05
 
    0.96960E+05         0.12941E+06         0.00000E+00
    0.12941E+06         0.48582E+05         0.00000E+00
    0.00000E+00         0.00000E+00         0.29108E+05
 
    0.91872E+05         0.13150E+06         0.00000E+00
    0.13150E+06         0.51002E+05         0.00000E+00
    0.00000E+00         0.00000E+00         0.28575E+05
 
    0.86684E+05         0.13347E+06         0.00000E+00
    0.13347E+06         0.53458E+05         0.00000E+00
    0.00000E+00         0.00000E+00         0.28028E+05
 
    0.81400E+05         0.13533E+06         0.00000E+00
    0.13533E+06         0.55948E+05         0.00000E+00
    0.00000E+00         0.00000E+00         0.27470E+05
 
    0.76023E+05         0.13707E+06         0.00000E+00
    0.13707E+06         0.58471E+05         0.00000E+00
    0.00000E+00         0.00000E+00         0.26899E+05
 
    0.70555E+05         0.13869E+06         0.00000E+00
    0.13869E+06         0.61023E+05         0.00000E+00
    0.00000E+00         0.00000E+00         0.26316E+05
 
    0.65002E+05         0.14019E+06         0.00000E+00
    0.14019E+06         0.63604E+05         0.00000E+00
    0.00000E+00         0.00000E+00         0.25721E+05
 
    0.59364E+05         0.14157E+06         0.00000E+00
    0.14157E+06         0.66211E+05         0.00000E+00
    0.00000E+00         0.00000E+00         0.25115E+05
 
    0.53646E+05         0.14283E+06         0.00000E+00
    0.14283E+06         0.68841E+05         0.00000E+00
    0.00000E+00         0.00000E+00         0.24497E+05
 
    0.47850E+05         0.14396E+06         0.00000E+00
    0.14396E+06         0.71494E+05         0.00000E+00
    0.00000E+00         0.00000E+00         0.23869E+05
 
    0.41981E+05         0.14496E+06         0.00000E+00
    0.14496E+06         0.74166E+05         0.00000E+00
    0.00000E+00         0.00000E+00         0.23229E+05
 
    0.36040E+05         0.14584E+06         0.00000E+00
    0.14584E+06         0.76855E+05         0.00000E+00
    0.00000E+00         0.00000E+00         0.22579E+05
 
    0.30033E+05         0.14658E+06         0.00000E+00
    0.14658E+06         0.79560E+05         0.00000E+00
    0.00000E+00         0.00000E+00         0.21919E+05
 
    0.23961E+05         0.14719E+06         0.00000E+00
    0.14719E+06         0.82278E+05         0.00000E+00
    0.00000E+00         0.00000E+00         0.21248E+05
 
    0.21546E+06         0.23108E+04         0.00000E+00
    0.23108E+04        -0.28327E+02         0.00000E+00
    0.00000E+00         0.00000E+00         0.43086E+05
 
    0.21545E+06         0.69567E+04         0.00000E+00
    0.69567E+04         0.60978E+02         0.00000E+00
    0.00000E+00         0.00000E+00         0.43101E+05
 
    0.21526E+06         0.11607E+05         0.00000E+00
    0.11607E+05         0.24048E+03         0.00000E+00
    0.00000E+00         0.00000E+00         0.43099E+05
 
    0.21488E+06         0.16257E+05         0.00000E+00
    0.16257E+05         0.51035E+03         0.00000E+00
    0.00000E+00         0.00000E+00         0.43079E+05
 
    0.21433E+06         0.20902E+05         0.00000E+00
    0.20902E+05         0.87062E+03         0.00000E+00
    0.00000E+00         0.00000E+00         0.43041E+05
 
    0.21360E+06         0.25538E+05         0.00000E+00
    0.25538E+05         0.13212E+04         0.00000E+00
    0.00000E+00         0.00000E+00         0.42984E+05
 
    0.21269E+06         0.30159E+05         0.00000E+00
    0.30159E+05         0.18619E+04         0.00000E+00
    0.00000E+00         0.00000E+00         0.42910E+05
 
    0.21159E+06         0.34762E+05         0.00000E+00
    0.34762E+05         0.24923E+04         0.00000E+00
    0.00000E+00         0.00000E+00         0.42817E+05
 
    0.21032E+06         0.39342E+05         0.00000E+00
    0.39342E+05         0.32119E+04         0.00000E+00
    0.00000E+00         0.00000E+00         0.42706E+05
 
    0.20887E+06         0.43895E+05         0.00000E+00
    0.43895E+05         0.40201E+04         0.00000E+00
    0.00000E+00         0.00000E+00         0.42577E+05
 
    0.20723E+06         0.48415E+05         0.00000E+00
    0.48415E+05         0.49163E+04         0.00000E+00
    0.00000E+00         0.00000E+00         0.42430E+05
 
    0.20543E+06         0.52899E+05         0.00000E+00
    0.52899E+05         0.58996E+04         0.00000E+00
    0.00000E+00         0.00000E+00         0.42265E+05
 
    0.20344E+06         0.57343E+05         0.00000E+00
    0.57343E+05         0.69690E+04         0.00000E+00
    0.00000E+00         0.00000E+00         0.42082E+05
 
    0.20128E+06         0.61742E+05         0.00000E+00
    0.61742E+05         0.81235E+04         0.00000E+00
    0.00000E+00         0.00000E+00         0.41881E+05
 
    0.19895E+06         0.66092E+05         0.00000E+00
    0.66092E+05         0.93620E+04         0.00000E+00
    0.00000E+00         0.00000E+00         0.41662E+05
 
    0.19644E+06         0.70389E+05         0.00000E+00
    0.70389E+05         0.10683E+05         0.00000E+00
    0.00000E+00         0.00000E+00         0.41425E+05
 
    0.19376E+06         0.74629E+05         0.00000E+00
    0.74629E+05         0.12086E+05         0.00000E+00
    0.00000E+00         0.00000E+00         0.41170E+05
 
    0.19092E+06         0.78808E+05         0.00000E+00
    0.78808E+05         0.13569E+05         0.00000E+00
    0.00000E+00         0.00000E+00         0.40898E+05
 
    0.18791E+06         0.82923E+05         0.00000E+00
    0.82923E+05         0.15130E+05         0.00000E+00
    0.00000E+00         0.00000E+00         0.40608E+05
 
    0.18474E+06         0.86969E+05         0.00000E+00
    0.86969E+05         0.16768E+05         0.00000E+00
    0.00000E+00         0.00000E+00         0.40301E+05
 
    0.18140E+06         0.90943E+05         0.00000E+00
    0.90943E+05         0.18482E+05         0.00000E+00
    0.00000E+00         0.00000E+00         0.39976E+05
 
    0.17790E+06         0.94842E+05         0.00000E+00
    0.94842E+05         0.20269E+05         0.00000E+00
    0.00000E+00         0.00000E+00         0.39635E+05
 
    0.17425E+06         0.98661E+05         0.00000E+00
    0.98661E+05         0.22128E+05         0.00000E+00
    0.00000E+00         0.00000E+00         0.39276E+05
 
    0.17044E+06         0.10240E+06         0.00000E+00
    0.10240E+06         0.24058E+05         0.00000E+00
    0.00000E+00         0.00000E+00         0.38900E+05
 
    0.16648E+06         0.10605E+06         0.00000E+00
    0.10605E+06         0.26056E+05         0.00000E+00
    0.00000E+00         0.00000E+00         0.38508E+05
 
    0.16237E+06         0.10961E+06         0.00000E+00
    0.10961E+06         0.28120E+05         0.00000E+00
    0.00000E+00         0.00000E+00         0.38099E+05
 
    0.15812E+06         0.11308E+06         0.00000E+00
    0.11308E+06         0.30249E+05         0.00000E+00
    0.00000E+00         0.00000E+00         0.37673E+05
 
    0.15372E+06         0.11646E+06         0.00000E+00
    0.11646E+06         0.32440E+05         0.00000E+00
    0.00000E+00         0.00000E+00         0.37232E+05
 
    0.14918E+06         0.11974E+06         0.00000E+00
    0.11974E+06         0.34692E+05         0.00000E+00
    0.00000E+00         0.00000E+00         0.36774E+05
 
    0.14450E+06         0.12291E+06         0.00000E+00
    0.12291E+06         0.37002E+05         0.00000E+00
    0.00000E+00         0.00000E+00         0.36301E+05
 
    0.13969E+06         0.12599E+06         0.00000E+00
    0.12599E+06         0.39369E+05         0.00000E+00
    0.00000E+00         0.00000E+00         0.35811E+05
 
    0.13474E+06         0.12895E+06         0.00000E+00
    0.12895E+06         0.41791E+05         0.00000E+00
    0.00000E+00         0.00000E+00         0.35306E+05
 
    0.12967E+06         0.13181E+06         0.00000E+00
    0.13181E+06         0.44264E+05         0.00000E+00
    0.00000E+00         0.00000E+00         0.34786E+05
 
    0.12447E+06         0.13456E+06         0.00000E+00
    0.13456E+06         0.46788E+05         0.00000E+00
    0.00000E+00         0.00000E+00         0.34251E+05
 
    0.11914E+06         0.13719E+06         0.00000E+00
    0.13719E+06         0.49360E+05         0.00000E+00
    0.00000E+00         0.00000E+00         0.33701E+05
 
    0.11370E+06         0.13971E+06         0.00000E+00
    0.13971E+06         0.51977E+05         0.00000E+00
    0.00000E+00         0.00000E+00         0.33136E+05
 
    0.10814E+06         0.14211E+06         0.00000E+00
    0.14211E+06         0.54638E+05         0.00000E+00
    0.00000E+00         0.00000E+00         0.32557E+05
 
    0.10247E+06         0.14438E+06         0.00000E+00
    0.14438E+06         0.57341E+05         0.00000E+00
    0.00000E+00         0.00000E+00         0.31963E+05
 
    0.96693E+05         0.14654E+06         0.00000E+00
    0.14654E+06         0.60083E+05         0.00000E+00
    0.00000E+00         0.00000E+00         0.31355E+05
 
    0.90806E+05         0.14857E+06         0.00000E+00
    0.14857E+06         0.62863E+05         0.00000E+00
    0.00000E+00         0.00000E+00         0.30734E+05
 
    0.84815E+05         0.15047E+06         0.00000E+00
    0.15047E+06         0.65677E+05         0.00000E+00
    0.00000E+00         0.00000E+00         0.30099E+05
 
    0.78726E+05         0.15225E+06         0.00000E+00
    0.15225E+06         0.68524E+05         0.00000E+00
    0.00000E+00         0.00000E+00         0.29450E+05
 
    0.72539E+05         0.15389E+06         0.00000E+00
    0.15389E+06         0.71402E+05         0.00000E+00
    0.00000E+00         0.00000E+00         0.28788E+05
 
    0.66260E+05         0.15540E+06         0.00000E+00
    0.15540E+06         0.74307E+05         0.00000E+00
    0.00000E+00         0.00000E+00         0.28114E+05
 
    0.59892E+05         0.15678E+06         0.00000E+00
    0.15678E+06         0.77239E+05         0.00000E+00
    0.00000E+00         0.00000E+00         0.27426E+05
 
    0.53438E+05         0.15801E+06         0.00000E+00
    0.15801E+06         0.80195E+05         0.00000E+00
    0.00000E+00         0.00000E+00         0.26726E+05
 
    0.46901E+05         0.15912E+06         0.00000E+00
    0.15912E+06         0.83172E+05         0.00000E+00
    0.00000E+00         0.00000E+00         0.26014E+05
 
    0.40285E+05         0.16008E+06         0.00000E+00
    0.16008E+06         0.86168E+05         0.00000E+00
    0.00000E+00         0.00000E+00         0.25291E+05
 
    0.33594E+05         0.16090E+06         0.00000E+00
    0.16090E+06         0.89181E+05         0.00000E+00
    0.00000E+00         0.00000E+00         0.24555E+05
 
    0.26831E+05         0.16157E+06         0.00000E+00
    0.16157E+06         0.92209E+05         0.00000E+00
    0.00000E+00         0.00000E+00         0.23808E+05
 
    0.23984E+06         0.25485E+04         0.00000E+00
    0.25485E+04        -0.32264E+02         0.00000E+00
    0.00000E+00         0.00000E+00         0.47962E+05
 
    0.23987E+06         0.76748E+04         0.00000E+00
    0.76748E+04         0.69622E+02         0.00000E+00
    0.00000E+00         0.00000E+00         0.47988E+05
 
    0.23969E+06         0.12807E+05         0.00000E+00
    0.12807E+05         0.27428E+03         0.00000E+00
    0.00000E+00         0.00000E+00         0.47993E+05
 
    0.23931E+06         0.17939E+05         0.00000E+00
    0.17939E+05         0.58183E+03         0.00000E+00
    0.00000E+00         0.00000E+00         0.47978E+05
 
    0.23872E+06         0.23066E+05         0.00000E+00
    0.23066E+05         0.99222E+03         0.00000E+00
    0.00000E+00         0.00000E+00         0.47942E+05
 
    0.23792E+06         0.28182E+05         0.00000E+00
    0.28182E+05         0.15052E+04         0.00000E+00
    0.00000E+00         0.00000E+00         0.47886E+05
 
    0.23692E+06         0.33282E+05         0.00000E+00
    0.33282E+05         0.21205E+04         0.00000E+00
    0.00000E+00         0.00000E+00         0.47809E+05
 
    0.23572E+06         0.38361E+05         0.00000E+00
    0.38361E+05         0.28375E+04         0.00000E+00
    0.00000E+00         0.00000E+00         0.47711E+05
 
    0.23431E+06         0.43414E+05         0.00000E+00
    0.43414E+05         0.36556E+04         0.00000E+00
    0.00000E+00         0.00000E+00         0.47593E+05
 
    0.23270E+06         0.48436E+05         0.00000E+00
    0.48436E+05         0.45739E+04         0.00000E+00
    0.00000E+00         0.00000E+00         0.47454E+05
 
    0.23088E+06         0.53421E+05         0.00000E+00
    0.53421E+05         0.55915E+04         0.00000E+00
    0.00000E+00         0.00000E+00         0.47295E+05
 
    0.22887E+06         0.58365E+05         0.00000E+00
    0.58365E+05         0.67072E+04         0.00000E+00
    0.00000E+00         0.00000E+00         0.47116E+05
 
    0.22666E+06         0.63263E+05         0.00000E+00
    0.63263E+05         0.79200E+04         0.00000E+00
    0.00000E+00         0.00000E+00         0.46915E+05
 
    0.22425E+06         0.68110E+05         0.00000E+00
    0.68110E+05         0.92284E+04         0.00000E+00
    0.00000E+00         0.00000E+00         0.46695E+05
 
    0.22164E+06         0.72901E+05         0.00000E+00
    0.72901E+05         0.10631E+05         0.00000E+00
    0.00000E+00         0.00000E+00         0.46455E+05
 
    0.21884E+06         0.77633E+05         0.00000E+00
    0.77633E+05         0.12126E+05         0.00000E+00
    0.00000E+00         0.00000E+00         0.46194E+05
 
    0.21585E+06         0.82300E+05         0.00000E+00
    0.82300E+05         0.13713E+05         0.00000E+00
    0.00000E+00         0.00000E+00         0.45913E+05
 
    0.21268E+06         0.86898E+05         0.00000E+00
    0.86898E+05         0.15388E+05         0.00000E+00
    0.00000E+00         0.00000E+00         0.45613E+05
 
    0.20931E+06         0.91423E+05         0.00000E+00
    0.91423E+05         0.17152E+05         0.00000E+00
    0.00000E+00         0.00000E+00         0.45293E+05
 
    0.20577E+06         0.95871E+05         0.00000E+00
    0.95871E+05         0.19000E+05         0.00000E+00
    0.00000E+00         0.00000E+00         0.44953E+05
 
    0.20204E+06         0.10024E+06         0.00000E+00
    0.10024E+06         0.20933E+05         0.00000E+00
    0.00000E+00         0.00000E+00         0.44594E+05
 
    0.19813E+06         0.10452E+06         0.00000E+00
    0.10452E+06         0.22947E+05         0.00000E+00
    0.00000E+00         0.00000E+00         0.44216E+05
 
    0.19405E+06         0.10871E+06         0.00000E+00
    0.10871E+06         0.25041E+05         0.00000E+00
    0.00000E+00         0.00000E+00         0.43818E+05
 
    0.18980E+06         0.11281E+06         0.00000E+00
    0.11281E+06         0.27212E+05         0.00000E+00
    0.00000E+00         0.00000E+00         0.43402E+05
 
    0.18538E+06         0.11682E+06         0.00000E+00
    0.11682E+06         0.29458E+05         0.00000E+00
    0.00000E+00         0.00000E+00         0.42967E+05
 
    0.18079E+06         0.12072E+06         0.00000E+00
    0.12072E+06         0.31777E+05         0.00000E+00
    0.00000E+00         0.00000E+00         0.42513E+05
 
    0.17604E+06         0.12453E+06         0.00000E+00
    0.12453E+06         0.34167E+05         0.00000E+00
    0.00000E+00         0.00000E+00         0.42042E+05
 
    0.17113E+06         0.12822E+06         0.00000E+00
    0.12822E+06         0.36626E+05         0.00000E+00
    0.00000E+00         0.00000E+00         0.41552E+05
 
    0.16607E+06         0.13181E+06         0.00000E+00
    0.13181E+06         0.39151E+05         0.00000E+00
    0.00000E+00         0.00000E+00         0.41044E+05
 
    0.16085E+06         0.13529E+06         0.00000E+00
    0.13529E+06         0.41739E+05         0.00000E+00
    0.00000E+00         0.00000E+00         0.40518E+05
 
    0.15549E+06         0.13865E+06         0.00000E+00
    0.13865E+06         0.44389E+05         0.00000E+00
    0.00000E+00         0.00000E+00         0.39975E+05
 
    0.14998E+06         0.14190E+06         0.00000E+00
    0.14190E+06         0.47098E+05         0.00000E+00
    0.00000E+00         0.00000E+00         0.39415E+05
 
    0.14432E+06         0.14502E+06         0.00000E+00
    0.14502E+06         0.49864E+05         0.00000E+00
    0.00000E+00         0.00000E+00         0.38837E+05
 
    0.13853E+06         0.14802E+06         0.00000E+00
    0.14802E+06         0.52683E+05         0.00000E+00
    0.00000E+00         0.00000E+00         0.38243E+05
 
    0.13261E+06         0.15090E+06         0.00000E+00
    0.15090E+06         0.55555E+05         0.00000E+00
    0.00000E+00         0.00000E+00         0.37633E+05
 
    0.12655E+06         0.15365E+06         0.00000E+00
    0.15365E+06         0.58477E+05         0.00000E+00
    0.00000E+00         0.00000E+00         0.37005E+05
 
    0.12037E+06         0.15627E+06         0.00000E+00
    0.15627E+06         0.61445E+05         0.00000E+00
    0.00000E+00         0.00000E+00         0.36362E+05
 
    0.11406E+06         0.15876E+06         0.00000E+00
    0.15876E+06         0.64458E+05         0.00000E+00
    0.00000E+00         0.00000E+00         0.35703E+05
 
    0.10763E+06         0.16111E+06         0.00000E+00
    0.16111E+06         0.67514E+05         0.00000E+00
    0.00000E+00         0.00000E+00         0.35029E+05
 
    0.10108E+06         0.16333E+06         0.00000E+00
    0.16333E+06         0.70609E+05         0.00000E+00
    0.00000E+00         0.00000E+00         0.34339E+05
 
    0.94425E+05         0.16541E+06         0.00000E+00
    0.16541E+06         0.73742E+05         0.00000E+00
    0.00000E+00         0.00000E+00         0.33633E+05
 
    0.87657E+05         0.16735E+06         0.00000E+00
    0.16735E+06         0.76910E+05         0.00000E+00
    0.00000E+00         0.00000E+00         0.32913E+05
 
    0.80783E+05         0.16914E+06         0.00000E+00
    0.16914E+06         0.80111E+05         0.00000E+00
    0.00000E+00         0.00000E+00         0.32179E+05
 
    0.73807E+05         0.17079E+06         0.00000E+00
    0.17079E+06         0.83342E+05         0.00000E+00
    0.00000E+00         0.00000E+00         0.31430E+05
 
    0.66732E+05         0.17230E+06         0.00000E+00
    0.17230E+06         0.86601E+05         0.00000E+00
    0.00000E+00         0.00000E+00         0.30667E+05
 
    0.59562E+05         0.17366E+06         0.00000E+00
    0.17366E+06         0.89886E+05         0.00000E+00
    0.00000E+00         0.00000E+00         0.29889E+05
 
    0.52300E+05         0.17486E+06         0.00000E+00
    0.17486E+06         0.93194E+05         0.00000E+00
    0.00000E+00         0.00000E+00         0.29099E+05
 
    0.44952E+05         0.17592E+06         0.00000E+00
    0.17592E+06         0.96523E+05         0.00000E+00
    0.00000E+00         0.00000E+00         0.28295E+05
 
    0.37519E+05         0.17682E+06         0.00000E+00
    0.17682E+06         0.99870E+05         0.00000E+00
    0.00000E+00         0.00000E+00         0.27478E+05
 
    0.30006E+05         0.17757E+06         0.00000E+00
    0.17757E+06         0.10323E+06         0.00000E+00
    0.00000E+00         0.00000E+00         0.26648E+05
 
    0.26679E+06         0.28204E+04         0.00000E+00
    0.28204E+04        -0.36880E+02         0.00000E+00
    0.00000E+00         0.00000E+00         0.53351E+05
 
    0.26686E+06         0.84955E+04         0.00000E+00
    0.84955E+04         0.79888E+02         0.00000E+00
    0.00000E+00         0.00000E+00         0.53389E+05
 
    0.26670E+06         0.14177E+05         0.00000E+00
    0.14177E+05         0.31420E+03         0.00000E+00
    0.00000E+00         0.00000E+00         0.53403E+05
 
    0.26630E+06         0.19858E+05         0.00000E+00
    0.19858E+05         0.66605E+03         0.00000E+00
    0.00000E+00         0.00000E+00         0.53394E+05
 
    0.26567E+06         0.25534E+05         0.00000E+00
    0.25534E+05         0.11352E+04         0.00000E+00
    0.00000E+00         0.00000E+00         0.53361E+05
 
    0.26481E+06         0.31196E+05         0.00000E+00
    0.31196E+05         0.17214E+04         0.00000E+00
    0.00000E+00         0.00000E+00         0.53305E+05
 
    0.26370E+06         0.36840E+05         0.00000E+00
    0.36840E+05         0.24239E+04         0.00000E+00
    0.00000E+00         0.00000E+00         0.53226E+05
 
    0.26237E+06         0.42460E+05         0.00000E+00
    0.42460E+05         0.32419E+04         0.00000E+00
    0.00000E+00         0.00000E+00         0.53123E+05
 
    0.26081E+06         0.48048E+05         0.00000E+00
    0.48048E+05         0.41746E+04         0.00000E+00
    0.00000E+00         0.00000E+00         0.52996E+05
 
    0.25901E+06         0.53600E+05         0.00000E+00
    0.53600E+05         0.52207E+04         0.00000E+00
    0.00000E+00         0.00000E+00         0.52847E+05
 
    0.25699E+06         0.59110E+05         0.00000E+00
    0.59110E+05         0.63791E+04         0.00000E+00
    0.00000E+00         0.00000E+00         0.52674E+05
 
    0.25474E+06         0.64572E+05         0.00000E+00
    0.64572E+05         0.76482E+04         0.00000E+00
    0.00000E+00         0.00000E+00         0.52478E+05
 
    0.25227E+06         0.69981E+05         0.00000E+00
    0.69981E+05         0.90266E+04         0.00000E+00
    0.00000E+00         0.00000E+00         0.52259E+05
 
    0.24957E+06         0.75331E+05         0.00000E+00
    0.75331E+05         0.10512E+05         0.00000E+00
    0.00000E+00         0.00000E+00         0.52017E+05
 
    0.24666E+06         0.80617E+05         0.00000E+00
    0.80617E+05         0.12104E+05         0.00000E+00
    0.00000E+00         0.00000E+00         0.51752E+05
 
    0.24352E+06         0.85834E+05         0.00000E+00
    0.85834E+05         0.13799E+05         0.00000E+00
    0.00000E+00         0.00000E+00         0.51465E+05
 
    0.24018E+06         0.90977E+05         0.00000E+00
    0.90977E+05         0.15596E+05         0.00000E+00
    0.00000E+00         0.00000E+00         0.51155E+05
 
    0.23662E+06         0.96042E+05         0.00000E+00
    0.96042E+05         0.17492E+05         0.00000E+00
    0.00000E+00         0.00000E+00         0.50823E+05
 
    0.23286E+06         0.10102E+06         0.00000E+00
    0.10102E+06         0.19486E+05         0.00000E+00
    0.00000E+00         0.00000E+00         0.50468E+05
 
    0.22889E+06         0.10592E+06         0.00000E+00
    0.10592E+06         0.21574E+05         0.00000E+00
    0.00000E+00         0.00000E+00         0.50092E+05
 
    0.22472E+06         0.11072E+06         0.00000E+00
    0.11072E+06         0.23755E+05         0.00000E+00
    0.00000E+00         0.00000E+00         0.49694E+05
 
    0.22035E+06         0.11542E+06         0.00000E+00
    0.11542E+06         0.26026E+05         0.00000E+00
    0.00000E+00         0.00000E+00         0.49275E+05
 
    0.21579E+06         0.12003E+06         0.00000E+00
    0.12003E+06         0.28385E+05         0.00000E+00
    0.00000E+00         0.00000E+00         0.48834E+05
 
    0.21103E+06         0.12453E+06         0.00000E+00
    0.12453E+06         0.30829E+05         0.00000E+00
    0.00000E+00         0.00000E+00         0.48372E+05
 
    0.20609E+06         0.12892E+06         0.00000E+00
    0.12892E+06         0.33355E+05         0.00000E+00
    0.00000E+00         0.00000E+00         0.47890E+05
 
    0.20097E+06         0.13320E+06         0.00000E+00
    0.13320E+06         0.35961E+05         0.00000E+00
    0.00000E+00         0.00000E+00         0.47387E+05
 
    0.19567E+06         0.13737E+06         0.00000E+00
    0.13737E+06         0.38644E+05         0.00000E+00
    0.00000E+00         0.00000E+00         0.46863E+05
 
    0.19020E+06         0.14142E+06         0.00000E+00
    0.14142E+06         0.41401E+05         0.00000E+00
    0.00000E+00         0.00000E+00         0.46320E+05
 
    0.18455E+06         0.14534E+06         0.00000E+00
    0.14534E+06         0.44230E+05         0.00000E+00
    0.00000E+00         0.00000E+00         0.45756E+05
 
    0.17874E+06         0.14915E+06         0.00000E+00
    0.14915E+06         0.47128E+05         0.00000E+00
    0.00000E+00         0.00000E+00         0.45173E+05
 
    0.17276E+06         0.15282E+06         0.00000E+00
    0.15282E+06         0.50092E+05         0.00000E+00
    0.00000E+00         0.00000E+00         0.44571E+05
 
    0.16663E+06         0.15637E+06         0.00000E+00
    0.15637E+06         0.53120E+05         0.00000E+00
    0.00000E+00         0.00000E+00         0.43949E+05
 
    0.16034E+06         0.15978E+06         0.00000E+00
    0.15978E+06         0.56209E+05         0.00000E+00
    0.00000E+00         0.00000E+00         0.43309E+05
 
    0.15389E+06         0.16306E+06         0.00000E+00
    0.16306E+06         0.59356E+05         0.00000E+00
    0.00000E+00         0.00000E+00         0.42650E+05
 
    0.14731E+06         0.16620E+06         0.00000E+00
    0.16620E+06         0.62558E+05         0.00000E+00
    0.00000E+00         0.00000E+00         0.41973E+05
 
    0.14057E+06         0.16920E+06         0.00000E+00
    0.16920E+06         0.65814E+05         0.00000E+00
    0.00000E+00         0.00000E+00         0.41278E+05
 
    0.13370E+06         0.17205E+06         0.00000E+00
    0.17205E+06         0.69119E+05         0.00000E+00
    0.00000E+00         0.00000E+00         0.40565E+05
 
    0.12670E+06         0.17477E+06         0.00000E+00
    0.17477E+06         0.72472E+05         0.00000E+00
    0.00000E+00         0.00000E+00         0.39834E+05
 
    0.11956E+06         0.17733E+06         0.00000E+00
    0.17733E+06         0.75870E+05         0.00000E+00
    0.00000E+00         0.00000E+00         0.39087E+05
 
    0.11230E+06         0.17975E+06         0.00000E+00
    0.17975E+06         0.79310E+05         0.00000E+00
    0.00000E+00         0.00000E+00         0.38322E+05
 
    0.10491E+06         0.18201E+06         0.00000E+00
    0.18201E+06         0.82790E+05         0.00000E+00
    0.00000E+00         0.00000E+00         0.37541E+05
 
    0.97407E+05         0.18413E+06         0.00000E+00
    0.18413E+06         0.86308E+05         0.00000E+00
    0.00000E+00         0.00000E+00         0.36743E+05
 
    0.89785E+05         0.18609E+06         0.00000E+00
    0.18609E+06         0.89860E+05         0.00000E+00
    0.00000E+00         0.00000E+00         0.35929E+05
 
    0.82052E+05         0.18789E+06         0.00000E+00
    0.18789E+06         0.93444E+05         0.00000E+00
    0.00000E+00         0.00000E+00         0.35099E+05
 
    0.74211E+05         0.18953E+06         0.00000E+00
    0.18953E+06         0.97058E+05         0.00000E+00
    0.00000E+00         0.00000E+00         0.34254E+05
 
    0.66266E+05         0.19101E+06         0.00000E+00
    0.19101E+06         0.10070E+06         0.00000E+00
    0.00000E+00         0.00000E+00         0.33393E+05
 
    0.58221E+05         0.19234E+06         0.00000E+00
    0.19234E+06         0.10437E+06         0.00000E+00
    0.00000E+00         0.00000E+00         0.32517E+05
 
    0.50079E+05         0.19349E+06         0.00000E+00
    0.19349E+06         0.10805E+06         0.00000E+00
    0.00000E+00         0.00000E+00         0.31627E+05
 
    0.41845E+05         0.19449E+06         0.00000E+00
    0.19449E+06         0.11176E+06         0.00000E+00
    0.00000E+00         0.00000E+00         0.30721E+05
 
    0.33522E+05         0.19531E+06         0.00000E+00
    0.19531E+06         0.11549E+06         0.00000E+00
    0.00000E+00         0.00000E+00         0.29802E+05
 
    0.29668E+06         0.31330E+04         0.00000E+00
    0.31330E+04        -0.42328E+02         0.00000E+00
    0.00000E+00         0.00000E+00         0.59328E+05
 
    0.29680E+06         0.94373E+04         0.00000E+00
    0.94373E+04         0.92186E+02         0.00000E+00
    0.00000E+00         0.00000E+00         0.59379E+05
 
    0.29665E+06         0.15748E+05         0.00000E+00
    0.15748E+05         0.36170E+03         0.00000E+00
    0.00000E+00         0.00000E+00         0.59403E+05
 
    0.29624E+06         0.22058E+05         0.00000E+00
    0.22058E+05         0.76601E+03         0.00000E+00
    0.00000E+00         0.00000E+00         0.59401E+05
 
    0.29555E+06         0.28360E+05         0.00000E+00
    0.28360E+05         0.13047E+04         0.00000E+00
    0.00000E+00         0.00000E+00         0.59371E+05
 
    0.29460E+06         0.34645E+05         0.00000E+00
    0.34645E+05         0.19770E+04         0.00000E+00
    0.00000E+00         0.00000E+00         0.59315E+05
 
    0.29338E+06         0.40908E+05         0.00000E+00
    0.40908E+05         0.27820E+04         0.00000E+00
    0.00000E+00         0.00000E+00         0.59232E+05
 
    0.29189E+06         0.47141E+05         0.00000E+00
    0.47141E+05         0.37187E+04         0.00000E+00
    0.00000E+00         0.00000E+00         0.59122E+05
 
    0.29015E+06         0.53338E+05         0.00000E+00
    0.53338E+05         0.47855E+04         0.00000E+00
    0.00000E+00         0.00000E+00         0.58986E+05
 
    0.28814E+06         0.59490E+05         0.00000E+00
    0.59490E+05         0.59811E+04         0.00000E+00
    0.00000E+00         0.00000E+00         0.58823E+05
 
    0.28587E+06         0.65593E+05         0.00000E+00
    0.65593E+05         0.73036E+04         0.00000E+00
    0.00000E+00         0.00000E+00         0.58634E+05
 
    0.28334E+06         0.71639E+05         0.00000E+00
    0.71639E+05         0.87511E+04         0.00000E+00
    0.00000E+00         0.00000E+00         0.58419E+05
 
    0.28057E+06         0.77622E+05         0.00000E+00
    0.77622E+05         0.10322E+05         0.00000E+00
    0.00000E+00         0.00000E+00         0.58177E+05
 
    0.27754E+06         0.83536E+05         0.00000E+00
    0.83536E+05         0.12013E+05         0.00000E+00
    0.00000E+00         0.00000E+00         0.57910E+05
 
    0.27426E+06         0.89376E+05         0.00000E+00
    0.89376E+05         0.13823E+05         0.00000E+00
    0.00000E+00         0.00000E+00         0.57617E+05
 
    0.27075E+06         0.95136E+05         0.00000E+00
    0.95136E+05         0.15748E+05         0.00000E+00
    0.00000E+00         0.00000E+00         0.57299E+05
 
    0.26699E+06         0.10081E+06         0.00000E+00
    0.10081E+06         0.17787E+05         0.00000E+00
    0.00000E+00         0.00000E+00         0.56955E+05
 
    0.26300E+06         0.10639E+06         0.00000E+00
    0.10639E+06         0.19936E+05         0.00000E+00
    0.00000E+00         0.00000E+00         0.56587E+05
 
    0.25877E+06         0.11188E+06         0.00000E+00
    0.11188E+06         0.22194E+05         0.00000E+00
    0.00000E+00         0.00000E+00         0.56193E+05
 
    0.25432E+06         0.11727E+06         0.00000E+00
    0.11727E+06         0.24556E+05         0.00000E+00
    0.00000E+00         0.00000E+00         0.55775E+05
 
    0.24965E+06         0.12255E+06         0.00000E+00
    0.12255E+06         0.27020E+05         0.00000E+00
    0.00000E+00         0.00000E+00         0.55333E+05
 
    0.24475E+06         0.12772E+06         0.00000E+00
    0.12772E+06         0.29583E+05         0.00000E+00
    0.00000E+00         0.00000E+00         0.54867E+05
 
    0.23965E+06         0.13277E+06         0.00000E+00
    0.13277E+06         0.32242E+05         0.00000E+00
    0.00000E+00         0.00000E+00         0.54378E+05
 
    0.23433E+06         0.13771E+06         0.00000E+00
    0.13771E+06         0.34994E+05         0.00000E+00
    0.00000E+00         0.00000E+00         0.53865E+05
 
    0.22881E+06         0.14253E+06         0.00000E+00
    0.14253E+06         0.37836E+05         0.00000E+00
    0.00000E+00         0.00000E+00         0.53328E+05
 
    0.22308E+06         0.14722E+06         0.00000E+00
    0.14722E+06         0.40764E+05         0.00000E+00
    0.00000E+00         0.00000E+00         0.52769E+05
 
    0.21716E+06         0.15178E+06         0.00000E+00
    0.15178E+06         0.43776E+05         0.00000E+00
    0.00000E+00         0.00000E+00         0.52188E+05
 
    0.21105E+06         0.15620E+06         0.00000E+00
    0.15620E+06         0.46868E+05         0.00000E+00
    0.00000E+00         0.00000E+00         0.51584E+05
 
    0.20476E+06         0.16050E+06         0.00000E+00
    0.16050E+06         0.50037E+05         0.00000E+00
    0.00000E+00         0.00000E+00         0.50959E+05
 
    0.19828E+06         0.16465E+06         0.00000E+00
    0.16465E+06         0.53279E+05         0.00000E+00
    0.00000E+00         0.00000E+00         0.50312E+05
 
    0.19162E+06         0.16866E+06         0.00000E+00
    0.16866E+06         0.56593E+05         0.00000E+00
    0.00000E+00         0.00000E+00         0.49644E+05
 
    0.18480E+06         0.17253E+06         0.00000E+00
    0.17253E+06         0.59975E+05         0.00000E+00
    0.00000E+00         0.00000E+00         0.48954E+05
 
    0.17780E+06         0.17625E+06         0.00000E+00
    0.17625E+06         0.63421E+05         0.00000E+00
    0.00000E+00         0.00000E+00         0.48244E+05
 
    0.17064E+06         0.17982E+06         0.00000E+00
    0.17982E+06         0.66929E+05         0.00000E+00
    0.00000E+00         0.00000E+00         0.47514E+05
 
    0.16332E+06         0.18324E+06         0.00000E+00
    0.18324E+06         0.70495E+05         0.00000E+00
    0.00000E+00         0.00000E+00         0.46764E+05
 
    0.15585E+06         0.18650E+06         0.00000E+00
    0.18650E+06         0.74117E+05         0.00000E+00
    0.00000E+00         0.00000E+00         0.45994E+05
 
    0.14823E+06         0.18961E+06         0.00000E+00
    0.18961E+06         0.77792E+05         0.00000E+00
    0.00000E+00         0.00000E+00         0.45204E+05
 
    0.14046E+06         0.19256E+06         0.00000E+00
    0.19256E+06         0.81516E+05         0.00000E+00
    0.00000E+00         0.00000E+00         0.44396E+05
 
    0.13255E+06         0.19535E+06         0.00000E+00
    0.19535E+06         0.85288E+05         0.00000E+00
    0.00000E+00         0.00000E+00         0.43568E+05
 
    0.12451E+06         0.19797E+06         0.00000E+00
    0.19797E+06         0.89103E+05         0.00000E+00
    0.00000E+00         0.00000E+00         0.42722E+05
 
    0.11633E+06         0.20043E+06         0.00000E+00
    0.20043E+06         0.92961E+05         0.00000E+00
    0.00000E+00         0.00000E+00         0.41858E+05
 
    0.10802E+06         0.20273E+06         0.00000E+00
    0.20273E+06         0.96857E+05         0.00000E+00
    0.00000E+00         0.00000E+00         0.40976E+05
 
    0.99592E+05         0.20486E+06         0.00000E+00
    0.20486E+06         0.10079E+06         0.00000E+00
    0.00000E+00         0.00000E+00         0.40076E+05
 
    0.91040E+05         0.20682E+06         0.00000E+00
    0.20682E+06         0.10475E+06         0.00000E+00
    0.00000E+00         0.00000E+00         0.39159E+05
 
    0.82372E+05         0.20861E+06         0.00000E+00
    0.20861E+06         0.10875E+06         0.00000E+00
    0.00000E+00         0.00000E+00         0.38225E+05
 
    0.73590E+05         0.21023E+06         0.00000E+00
    0.21023E+06         0.11278E+06         0.00000E+00
    0.00000E+00         0.00000E+00         0.37273E+05
 
    0.64700E+05         0.21167E+06         0.00000E+00
    0.21167E+06         0.11683E+06         0.00000E+00
    0.00000E+00         0.00000E+00         0.36306E+05
 
    0.55705E+05         0.21294E+06         0.00000E+00
    0.21294E+06         0.12090E+06         0.00000E+00
    0.00000E+00         0.00000E+00         0.35322E+05
 
    0.46609E+05         0.21403E+06         0.00000E+00
    0.21403E+06         0.12500E+06         0.00000E+00
    0.00000E+00         0.00000E+00         0.34322E+05
 
    0.37415E+05         0.21494E+06         0.00000E+00
    0.21494E+06         0.12912E+06         0.00000E+00
    0.00000E+00         0.00000E+00         0.33306E+05
 
    0.32995E+06         0.34944E+04         0.00000E+00
    0.34944E+04        -0.48788E+02         0.00000E+00
    0.00000E+00         0.00000E+00         0.65979E+05
 
    0.33012E+06         0.10524E+05         0.00000E+00
    0.10524E+05         0.10702E+03         0.00000E+00
    0.00000E+00         0.00000E+00         0.66045E+05
 
    0.32998E+06         0.17558E+05         0.00000E+00
    0.17558E+05         0.41857E+03         0.00000E+00
    0.00000E+00         0.00000E+00         0.66080E+05
 
    0.32953E+06         0.24590E+05         0.00000E+00
    0.24590E+05         0.88534E+03         0.00000E+00
    0.00000E+00         0.00000E+00         0.66084E+05
 
    0.32878E+06         0.31609E+05         0.00000E+00
    0.31609E+05         0.15065E+04         0.00000E+00
    0.00000E+00         0.00000E+00         0.66057E+05
 
    0.32771E+06         0.38607E+05         0.00000E+00
    0.38607E+05         0.22809E+04         0.00000E+00
    0.00000E+00         0.00000E+00         0.65999E+05
 
    0.32635E+06         0.45577E+05         0.00000E+00
    0.45577E+05         0.32071E+04         0.00000E+00
    0.00000E+00         0.00000E+00         0.65910E+05
 
    0.32467E+06         0.52508E+05         0.00000E+00
    0.52508E+05         0.42835E+04         0.00000E+00
    0.00000E+00         0.00000E+00         0.65792E+05
 
    0.32270E+06         0.59395E+05         0.00000E+00
    0.59395E+05         0.55082E+04         0.00000E+00
    0.00000E+00         0.00000E+00         0.65642E+05
 
    0.32043E+06         0.66228E+05         0.00000E+00
    0.66228E+05         0.68790E+04         0.00000E+00
    0.00000E+00         0.00000E+00         0.65463E+05
 
    0.31787E+06         0.73000E+05         0.00000E+00
    0.73000E+05         0.83936E+04         0.00000E+00
    0.00000E+00         0.00000E+00         0.65253E+05
 
    0.31502E+06         0.79705E+05         0.00000E+00
    0.79705E+05         0.10049E+05         0.00000E+00
    0.00000E+00         0.00000E+00         0.65014E+05
 
    0.31188E+06         0.86334E+05         0.00000E+00
    0.86334E+05         0.11844E+05         0.00000E+00
    0.00000E+00         0.00000E+00         0.64746E+05
 
    0.30847E+06         0.92882E+05         0.00000E+00
    0.92882E+05         0.13774E+05         0.00000E+00
    0.00000E+00         0.00000E+00         0.64448E+05
 
    0.30477E+06         0.99341E+05         0.00000E+00
    0.99341E+05         0.15836E+05         0.00000E+00
    0.00000E+00         0.00000E+00         0.64121E+05
 
    0.30080E+06         0.10571E+06         0.00000E+00
    0.10571E+06         0.18028E+05         0.00000E+00
    0.00000E+00         0.00000E+00         0.63766E+05
 
    0.29657E+06         0.11197E+06         0.00000E+00
    0.11197E+06         0.20346E+05         0.00000E+00
    0.00000E+00         0.00000E+00         0.63383E+05
 
    0.29207E+06         0.11813E+06         0.00000E+00
    0.11813E+06         0.22787E+05         0.00000E+00
    0.00000E+00         0.00000E+00         0.62971E+05
 
    0.28731E+06         0.12417E+06         0.00000E+00
    0.12417E+06         0.25347E+05         0.00000E+00
    0.00000E+00         0.00000E+00         0.62532E+05
 
    0.28231E+06         0.13010E+06         0.00000E+00
    0.13010E+06         0.28022E+05         0.00000E+00
    0.00000E+00         0.00000E+00         0.62066E+05
 
    0.27705E+06         0.13591E+06         0.00000E+00
    0.13591E+06         0.30809E+05         0.00000E+00
    0.00000E+00         0.00000E+00         0.61572E+05
 
    0.27156E+06         0.14159E+06         0.00000E+00
    0.14159E+06         0.33705E+05         0.00000E+00
    0.00000E+00         0.00000E+00         0.61052E+05
 
    0.26583E+06         0.14714E+06         0.00000E+00
    0.14714E+06         0.36705E+05         0.00000E+00
    0.00000E+00         0.00000E+00         0.60506E+05
 
    0.25987E+06         0.15255E+06         0.00000E+00
    0.15255E+06         0.39806E+05         0.00000E+00
    0.00000E+00         0.00000E+00         0.59934E+05
 
    0.25368E+06         0.15783E+06         0.00000E+00
    0.15783E+06         0.43004E+05         0.00000E+00
    0.00000E+00         0.00000E+00         0.59337E+05
 
    0.24728E+06         0.16296E+06         0.00000E+00
    0.16296E+06         0.46295E+05         0.00000E+00
    0.00000E+00         0.00000E+00         0.58715E+05
 
    0.24066E+06         0.16794E+06         0.00000E+00
    0.16794E+06         0.49676E+05         0.00000E+00
    0.00000E+00         0.00000E+00         0.58068E+05
 
    0.23384E+06         0.17278E+06         0.00000E+00
    0.17278E+06         0.53143E+05         0.00000E+00
    0.00000E+00         0.00000E+00         0.57396E+05
 
    0.22681E+06         0.17746E+06         0.00000E+00
    0.17746E+06         0.56691E+05         0.00000E+00
    0.00000E+00         0.00000E+00         0.56701E+05
 
    0.21959E+06         0.18198E+06         0.00000E+00
    0.18198E+06         0.60319E+05         0.00000E+00
    0.00000E+00         0.00000E+00         0.55982E+05
 
    0.21218E+06         0.18635E+06         0.00000E+00
    0.18635E+06         0.64020E+05         0.00000E+00
    0.00000E+00         0.00000E+00         0.55240E+05
 
    0.20458E+06         0.19056E+06         0.00000E+00
    0.19056E+06         0.67793E+05         0.00000E+00
    0.00000E+00         0.00000E+00         0.54475E+05
 
    0.19680E+06         0.19460E+06         0.00000E+00
    0.19460E+06         0.71634E+05         0.00000E+00
    0.00000E+00         0.00000E+00         0.53688E+05
 
    0.18885E+06         0.19848E+06         0.00000E+00
    0.19848E+06         0.75539E+05         0.00000E+00
    0.00000E+00         0.00000E+00         0.52878E+05
 
    0.18073E+06         0.20219E+06         0.00000E+00
    0.20219E+06         0.79505E+05         0.00000E+00
    0.00000E+00         0.00000E+00         0.52047E+05
 
    0.17244E+06         0.20573E+06         0.00000E+00
    0.20573E+06         0.83529E+05         0.00000E+00
    0.00000E+00         0.00000E+00         0.51195E+05
 
    0.16400E+06         0.20909E+06         0.00000E+00
    0.20909E+06         0.87607E+05         0.00000E+00
    0.00000E+00         0.00000E+00         0.50321E+05
 
    0.15540E+06         0.21229E+06         0.00000E+00
    0.21229E+06         0.91736E+05         0.00000E+00
    0.00000E+00         0.00000E+00         0.49427E+05
 
    0.14665E+06         0.21531E+06         0.00000E+00
    0.21531E+06         0.95914E+05         0.00000E+00
    0.00000E+00         0.00000E+00         0.48512E+05
 
    0.13775E+06         0.21815E+06         0.00000E+00
    0.21815E+06         0.10014E+06         0.00000E+00
    0.00000E+00         0.00000E+00         0.47578E+05
 
    0.12872E+06         0.22082E+06         0.00000E+00
    0.22082E+06         0.10440E+06         0.00000E+00
    0.00000E+00         0.00000E+00         0.46624E+05
 
    0.11954E+06         0.22331E+06         0.00000E+00
    0.22331E+06         0.10871E+06         0.00000E+00
    0.00000E+00         0.00000E+00         0.45650E+05
 
    0.11024E+06         0.22561E+06         0.00000E+00
    0.22561E+06         0.11305E+06         0.00000E+00
    0.00000E+00         0.00000E+00         0.44657E+05
 
    0.10080E+06         0.22774E+06         0.00000E+00
    0.22774E+06         0.11742E+06         0.00000E+00
    0.00000E+00         0.00000E+00         0.43646E+05
 
    0.91245E+05         0.22968E+06         0.00000E+00
    0.22968E+06         0.12183E+06         0.00000E+00
    0.00000E+00         0.00000E+00         0.42615E+05
 
    0.81566E+05         0.23144E+06         0.00000E+00
    0.23144E+06         0.12627E+06         0.00000E+00
    0.00000E+00         0.00000E+00         0.41567E+05
 
    0.71771E+05         0.23300E+06         0.00000E+00
    0.23300E+06         0.13073E+06         0.00000E+00
    0.00000E+00         0.00000E+00         0.40501E+05
 
    0.61862E+05         0.23439E+06         0.00000E+00
    0.23439E+06         0.13522E+06         0.00000E+00
    0.00000E+00         0.00000E+00         0.39417E+05
 
    0.51845E+05         0.23558E+06         0.00000E+00
    0.23558E+06         0.13973E+06         0.00000E+00
    0.00000E+00         0.00000E+00         0.38315E+05
 
    0.41721E+05         0.23658E+06         0.00000E+00
    0.23658E+06         0.14426E+06         0.00000E+00
    0.00000E+00         0.00000E+00         0.37197E+05
 
    0.36711E+06         0.39147E+04         0.00000E+00
    0.39147E+04        -0.56475E+02         0.00000E+00
    0.00000E+00         0.00000E+00         0.73412E+05
 
    0.36733E+06         0.11783E+05         0.00000E+00
    0.11783E+05         0.12499E+03         0.00000E+00
    0.00000E+00         0.00000E+00         0.73492E+05
 
    0.36719E+06         0.19654E+05         0.00000E+00
    0.19654E+05         0.48695E+03         0.00000E+00
    0.00000E+00         0.00000E+00         0.73536E+05
 
    0.36669E+06         0.27517E+05         0.00000E+00
    0.27517E+05         0.10284E+04         0.00000E+00
    0.00000E+00         0.00000E+00         0.73544E+05
 
    0.36584E+06         0.35361E+05         0.00000E+00
    0.35361E+05         0.17478E+04         0.00000E+00
    0.00000E+00         0.00000E+00         0.73517E+05
 
    0.36463E+06         0.43177E+05         0.00000E+00
    0.43177E+05         0.26435E+04         0.00000E+00
    0.00000E+00         0.00000E+00         0.73454E+05
 
    0.36307E+06         0.50954E+05         0.00000E+00
    0.50954E+05         0.37134E+04         0.00000E+00
    0.00000E+00         0.00000E+00         0.73357E+05
 
    0.36116E+06         0.58683E+05         0.00000E+00
    0.58683E+05         0.49550E+04         0.00000E+00
    0.00000E+00         0.00000E+00         0.73224E+05
 
    0.35892E+06         0.66355E+05         0.00000E+00
    0.66355E+05         0.63658E+04         0.00000E+00
    0.00000E+00         0.00000E+00         0.73057E+05
 
    0.35633E+06         0.73961E+05         0.00000E+00
    0.73961E+05         0.79428E+04         0.00000E+00
    0.00000E+00         0.00000E+00         0.72855E+05
 
    0.35341E+06         0.81491E+05         0.00000E+00
    0.81491E+05         0.96828E+04         0.00000E+00
    0.00000E+00         0.00000E+00         0.72619E+05
 
    0.35017E+06         0.88939E+05         0.00000E+00
    0.88939E+05         0.11582E+05         0.00000E+00
    0.00000E+00         0.00000E+00         0.72350E+05
 
    0.34660E+06         0.96295E+05         0.00000E+00
    0.96295E+05         0.13638E+05         0.00000E+00
    0.00000E+00         0.00000E+00         0.72047E+05
 
    0.34271E+06         0.10355E+06         0.00000E+00
    0.10355E+06         0.15846E+05         0.00000E+00
    0.00000E+00         0.00000E+00         0.71711E+05
 
    0.33851E+06         0.11070E+06         0.00000E+00
    0.11070E+06         0.18202E+05         0.00000E+00
    0.00000E+00         0.00000E+00         0.71343E+05
 
    0.33401E+06         0.11774E+06         0.00000E+00
    0.11774E+06         0.20702E+05         0.00000E+00
    0.00000E+00         0.00000E+00         0.70943E+05
 
    0.32921E+06         0.12466E+06         0.00000E+00
    0.12466E+06         0.23343E+05         0.00000E+00
    0.00000E+00         0.00000E+00         0.70511E+05
 
    0.32412E+06         0.13145E+06         0.00000E+00
    0.13145E+06         0.26119E+05         0.00000E+00
    0.00000E+00         0.00000E+00         0.70048E+05
 
    0.31874E+06         0.13812E+06         0.00000E+00
    0.13812E+06         0.29026E+05         0.00000E+00
    0.00000E+00         0.00000E+00         0.69554E+05
 
    0.31309E+06         0.14464E+06         0.00000E+00
    0.14464E+06         0.32060E+05         0.00000E+00
    0.00000E+00         0.00000E+00         0.69030E+05
 
    0.30716E+06         0.15102E+06         0.00000E+00
    0.15102E+06         0.35217E+05         0.00000E+00
    0.00000E+00         0.00000E+00         0.68476E+05
 
    0.30097E+06         0.15726E+06         0.00000E+00
    0.15726E+06         0.38491E+05         0.00000E+00
    0.00000E+00         0.00000E+00         0.67893E+05
 
    0.29453E+06         0.16334E+06         0.00000E+00
    0.16334E+06         0.41879E+05         0.00000E+00
    0.00000E+00         0.00000E+00         0.67281E+05
 
    0.28783E+06         0.16927E+06         0.00000E+00
    0.16927E+06         0.45375E+05         0.00000E+00
    0.00000E+00         0.00000E+00         0.66641E+05
 
    0.28089E+06         0.17503E+06         0.00000E+00
    0.17503E+06         0.48975E+05         0.00000E+00
    0.00000E+00         0.00000E+00         0.65972E+05
 
    0.27371E+06         0.18064E+06         0.00000E+00
    0.18064E+06         0.52675E+05         0.00000E+00
    0.00000E+00         0.00000E+00         0.65277E+05
 
    0.26630E+06         0.18607E+06         0.00000E+00
    0.18607E+06         0.56470E+05         0.00000E+00
    0.00000E+00         0.00000E+00         0.64554E+05
 
    0.25867E+06         0.19134E+06         0.00000E+00
    0.19134E+06         0.60356E+05         0.00000E+00
    0.00000E+00         0.00000E+00         0.63806E+05
 
    0.25083E+06         0.19643E+06         0.00000E+00
    0.19643E+06         0.64328E+05         0.00000E+00
    0.00000E+00         0.00000E+00         0.63031E+05
 
    0.24277E+06         0.20135E+06         0.00000E+00
    0.20135E+06         0.68382E+05         0.00000E+00
    0.00000E+00         0.00000E+00         0.62231E+05
 
    0.23451E+06         0.20609E+06         0.00000E+00
    0.20609E+06         0.72514E+05         0.00000E+00
    0.00000E+00         0.00000E+00         0.61405E+05
 
    0.22606E+06         0.21065E+06         0.00000E+00
    0.21065E+06         0.76720E+05         0.00000E+00
    0.00000E+00         0.00000E+00         0.60556E+05
 
    0.21741E+06         0.21503E+06         0.00000E+00
    0.21503E+06         0.80996E+05         0.00000E+00
    0.00000E+00         0.00000E+00         0.59682E+05
 
    0.20858E+06         0.21922E+06         0.00000E+00
    0.21922E+06         0.85337E+05         0.00000E+00
    0.00000E+00         0.00000E+00         0.58784E+05
 
    0.19958E+06         0.22323E+06         0.00000E+00
    0.22323E+06         0.89741E+05         0.00000E+00
    0.00000E+00         0.00000E+00         0.57864E+05
 
    0.19040E+06         0.22706E+06         0.00000E+00
    0.22706E+06         0.94203E+05         0.00000E+00
    0.00000E+00         0.00000E+00         0.56920E+05
 
    0.18105E+06         0.23069E+06         0.00000E+00
    0.23069E+06         0.98720E+05         0.00000E+00
    0.00000E+00         0.00000E+00         0.55954E+05
 
    0.17154E+06         0.23413E+06         0.00000E+00
    0.23413E+06         0.10329E+06         0.00000E+00
    0.00000E+00         0.00000E+00         0.54966E+05
 
    0.16187E+06         0.23739E+06         0.00000E+00
    0.23739E+06         0.10791E+06         0.00000E+00
    0.00000E+00         0.00000E+00         0.53956E+05
 
    0.15206E+06         0.24045E+06         0.00000E+00
    0.24045E+06         0.11257E+06         0.00000E+00
    0.00000E+00         0.00000E+00         0.52925E+05
 
    0.14209E+06         0.24332E+06         0.00000E+00
    0.24332E+06         0.11727E+06         0.00000E+00
    0.00000E+00         0.00000E+00         0.51872E+05
 
    0.13198E+06         0.24600E+06         0.00000E+00
    0.24600E+06         0.12201E+06         0.00000E+00
    0.00000E+00         0.00000E+00         0.50800E+05
 
    0.12174E+06         0.24849E+06         0.00000E+00
    0.24849E+06         0.12679E+06         0.00000E+00
    0.00000E+00         0.00000E+00         0.49707E+05
 
    0.11136E+06         0.25078E+06         0.00000E+00
    0.25078E+06         0.13161E+06         0.00000E+00
    0.00000E+00         0.00000E+00         0.48593E+05
 
    0.10085E+06         0.25287E+06         0.00000E+00
    0.25287E+06         0.13645E+06         0.00000E+00
    0.00000E+00         0.00000E+00         0.47461E+05
 
    0.90213E+05         0.25477E+06         0.00000E+00
    0.25477E+06         0.14133E+06         0.00000E+00
    0.00000E+00         0.00000E+00         0.46308E+05
 
    0.79454E+05         0.25647E+06         0.00000E+00
    0.25647E+06         0.14623E+06         0.00000E+00
    0.00000E+00         0.00000E+00         0.45137E+05
 
    0.68575E+05         0.25797E+06         0.00000E+00
    0.25797E+06         0.15116E+06         0.00000E+00
    0.00000E+00         0.00000E+00         0.43946E+05
 
    0.57581E+05         0.25927E+06         0.00000E+00
    0.25927E+06         0.15610E+06         0.00000E+00
    0.00000E+00         0.00000E+00         0.42737E+05
 
    0.46473E+05         0.26036E+06         0.00000E+00
    0.26036E+06         0.16107E+06         0.00000E+00
    0.00000E+00         0.00000E+00         0.41510E+05
 
    0.40882E+06         0.44063E+04         0.00000E+00
    0.44063E+04        -0.65635E+02         0.00000E+00
    0.00000E+00         0.00000E+00         0.81751E+05
 
    0.40907E+06         0.13250E+05         0.00000E+00
    0.13250E+05         0.14683E+03         0.00000E+00
    0.00000E+00         0.00000E+00         0.81843E+05
 
    0.40890E+06         0.22091E+05         0.00000E+00
    0.22091E+05         0.56934E+03         0.00000E+00
    0.00000E+00         0.00000E+00         0.81893E+05
 
    0.40831E+06         0.30916E+05         0.00000E+00
    0.30916E+05         0.12001E+04         0.00000E+00
    0.00000E+00         0.00000E+00         0.81902E+05
 
    0.40731E+06         0.39712E+05         0.00000E+00
    0.39712E+05         0.20368E+04         0.00000E+00
    0.00000E+00         0.00000E+00         0.81869E+05
 
    0.40590E+06         0.48468E+05         0.00000E+00
    0.48468E+05         0.30768E+04         0.00000E+00
    0.00000E+00         0.00000E+00         0.81796E+05
 
    0.40409E+06         0.57172E+05         0.00000E+00
    0.57172E+05         0.43172E+04         0.00000E+00
    0.00000E+00         0.00000E+00         0.81682E+05
 
    0.40189E+06         0.65813E+05         0.00000E+00
    0.65813E+05         0.57544E+04         0.00000E+00
    0.00000E+00         0.00000E+00         0.81528E+05
 
    0.39929E+06         0.74380E+05         0.00000E+00
    0.74380E+05         0.73849E+04         0.00000E+00
    0.00000E+00         0.00000E+00         0.81335E+05
 
    0.39631E+06         0.82863E+05         0.00000E+00
    0.82863E+05         0.92045E+04         0.00000E+00
    0.00000E+00         0.00000E+00         0.81102E+05
 
    0.39294E+06         0.91252E+05         0.00000E+00
    0.91252E+05         0.11209E+05         0.00000E+00
    0.00000E+00         0.00000E+00         0.80831E+05
 
    0.38921E+06         0.99538E+05         0.00000E+00
    0.99538E+05         0.13394E+05         0.00000E+00
    0.00000E+00         0.00000E+00         0.80521E+05
 
    0.38511E+06         0.10771E+06         0.00000E+00
    0.10771E+06         0.15755E+05         0.00000E+00
    0.00000E+00         0.00000E+00         0.80174E+05
 
    0.38066E+06         0.11576E+06         0.00000E+00
    0.11576E+06         0.18286E+05         0.00000E+00
    0.00000E+00         0.00000E+00         0.79790E+05
 
    0.37586E+06         0.12369E+06         0.00000E+00
    0.12369E+06         0.20983E+05         0.00000E+00
    0.00000E+00         0.00000E+00         0.79369E+05
 
    0.37072E+06         0.13147E+06         0.00000E+00
    0.13147E+06         0.23841E+05         0.00000E+00
    0.00000E+00         0.00000E+00         0.78912E+05
 
    0.36525E+06         0.13912E+06         0.00000E+00
    0.13912E+06         0.26853E+05         0.00000E+00
    0.00000E+00         0.00000E+00         0.78420E+05
 
    0.35945E+06         0.14661E+06         0.00000E+00
    0.14661E+06         0.30016E+05         0.00000E+00
    0.00000E+00         0.00000E+00         0.77894E+05
 
    0.35335E+06         0.15395E+06         0.00000E+00
    0.15395E+06         0.33322E+05         0.00000E+00
    0.00000E+00         0.00000E+00         0.77333E+05
 
    0.34693E+06         0.16112E+06         0.00000E+00
    0.16112E+06         0.36767E+05         0.00000E+00
    0.00000E+00         0.00000E+00         0.76739E+05
 
    0.34022E+06         0.16813E+06         0.00000E+00
    0.16813E+06         0.40345E+05         0.00000E+00
    0.00000E+00         0.00000E+00         0.76113E+05
 
    0.33322E+06         0.17497E+06         0.00000E+00
    0.17497E+06         0.44050E+05         0.00000E+00
    0.00000E+00         0.00000E+00         0.75454E+05
 
    0.32594E+06         0.18163E+06         0.00000E+00
    0.18163E+06         0.47877E+05         0.00000E+00
    0.00000E+00         0.00000E+00         0.74764E+05
 
    0.31839E+06         0.18810E+06         0.00000E+00
    0.18810E+06         0.51820E+05         0.00000E+00
    0.00000E+00         0.00000E+00         0.74042E+05
 
    0.31058E+06         0.19439E+06         0.00000E+00
    0.19439E+06         0.55874E+05         0.00000E+00
    0.00000E+00         0.00000E+00         0.73291E+05
 
    0.30252E+06         0.20050E+06         0.00000E+00
    0.20050E+06         0.60033E+05         0.00000E+00
    0.00000E+00         0.00000E+00         0.72510E+05
 
    0.29421E+06         0.20641E+06         0.00000E+00
    0.20641E+06         0.64293E+05         0.00000E+00
    0.00000E+00         0.00000E+00         0.71700E+05
 
    0.28566E+06         0.21213E+06         0.00000E+00
    0.21213E+06         0.68646E+05         0.00000E+00
    0.00000E+00         0.00000E+00         0.70862E+05
 
    0.27689E+06         0.21765E+06         0.00000E+00
    0.21765E+06         0.73090E+05         0.00000E+00
    0.00000E+00         0.00000E+00         0.69996E+05
 
    0.26790E+06         0.22297E+06         0.00000E+00
    0.22297E+06         0.77618E+05         0.00000E+00
    0.00000E+00         0.00000E+00         0.69103E+05
 
    0.25869E+06         0.22810E+06         0.00000E+00
    0.22810E+06         0.82225E+05         0.00000E+00
    0.00000E+00         0.00000E+00         0.68183E+05
 
    0.24928E+06         0.23302E+06         0.00000E+00
    0.23302E+06         0.86908E+05         0.00000E+00
    0.00000E+00         0.00000E+00         0.67237E+05
 
    0.23967E+06         0.23774E+06         0.00000E+00
    0.23774E+06         0.91661E+05         0.00000E+00
    0.00000E+00         0.00000E+00         0.66266E+05
 
    0.22987E+06         0.24225E+06         0.00000E+00
    0.24225E+06         0.96479E+05         0.00000E+00
    0.00000E+00         0.00000E+00         0.65269E+05
 
    0.21988E+06         0.24656E+06         0.00000E+00
    0.24656E+06         0.10136E+06         0.00000E+00
    0.00000E+00         0.00000E+00         0.64248E+05
 
    0.20972E+06         0.25067E+06         0.00000E+00
    0.25067E+06         0.10630E+06         0.00000E+00
    0.00000E+00         0.00000E+00         0.63203E+05
 
    0.19938E+06         0.25457E+06         0.00000E+00
    0.25457E+06         0.11129E+06         0.00000E+00
    0.00000E+00         0.00000E+00         0.62135E+05
 
    0.18889E+06         0.25826E+06         0.00000E+00
    0.25826E+06         0.11633E+06         0.00000E+00
    0.00000E+00         0.00000E+00         0.61044E+05
 
    0.17823E+06         0.26175E+06         0.00000E+00
    0.26175E+06         0.12142E+06         0.00000E+00
    0.00000E+00         0.00000E+00         0.59929E+05
 
    0.16741E+06         0.26502E+06         0.00000E+00
    0.26502E+06         0.12655E+06         0.00000E+00
    0.00000E+00         0.00000E+00         0.58793E+05
 
    0.15645E+06         0.26810E+06         0.00000E+00
    0.26810E+06         0.13173E+06         0.00000E+00
    0.00000E+00         0.00000E+00         0.57635E+05
 
    0.14534E+06         0.27096E+06         0.00000E+00
    0.27096E+06         0.13694E+06         0.00000E+00
    0.00000E+00         0.00000E+00         0.56455E+05
 
    0.13409E+06         0.27362E+06         0.00000E+00
    0.27362E+06         0.14218E+06         0.00000E+00
    0.00000E+00         0.00000E+00         0.55254E+05
 
    0.12270E+06         0.27607E+06         0.00000E+00
    0.27607E+06         0.14746E+06         0.00000E+00
    0.00000E+00         0.00000E+00         0.54032E+05
 
    0.11118E+06         0.27831E+06         0.00000E+00
    0.27831E+06         0.15277E+06         0.00000E+00
    0.00000E+00         0.00000E+00         0.52789E+05
 
    0.99531E+05         0.28034E+06         0.00000E+00
    0.28034E+06         0.15810E+06         0.00000E+00
    0.00000E+00         0.00000E+00         0.51526E+05
 
    0.87756E+05         0.28217E+06         0.00000E+00
    0.28217E+06         0.16346E+06         0.00000E+00
    0.00000E+00         0.00000E+00         0.50244E+05
 
    0.75857E+05         0.28379E+06         0.00000E+00
    0.28379E+06         0.16885E+06         0.00000E+00
    0.00000E+00         0.00000E+00         0.48941E+05
 
    0.63837E+05         0.28520E+06         0.00000E+00
    0.28520E+06         0.17425E+06         0.00000E+00
    0.00000E+00         0.00000E+00         0.47618E+05
 
    0.51699E+05         0.28640E+06         0.00000E+00
    0.28640E+06         0.17968E+06         0.00000E+00
    0.00000E+00         0.00000E+00         0.46277E+05
 
    0.45582E+06         0.49842E+04         0.00000E+00
    0.49842E+04        -0.76541E+02         0.00000E+00
    0.00000E+00         0.00000E+00         0.91148E+05
 
    0.45606E+06         0.14968E+05         0.00000E+00
    0.14968E+05         0.17337E+03         0.00000E+00
    0.00000E+00         0.00000E+00         0.91247E+05
 
    0.45581E+06         0.24938E+05         0.00000E+00
    0.24938E+05         0.66861E+03         0.00000E+00
    0.00000E+00         0.00000E+00         0.91296E+05
 
    0.45508E+06         0.34879E+05         0.00000E+00
    0.34879E+05         0.14062E+04         0.00000E+00
    0.00000E+00         0.00000E+00         0.91297E+05
 
    0.45387E+06         0.44776E+05         0.00000E+00
    0.44776E+05         0.23829E+04         0.00000E+00
    0.00000E+00         0.00000E+00         0.91251E+05
 
    0.45219E+06         0.54616E+05         0.00000E+00
    0.54616E+05         0.35945E+04         0.00000E+00
    0.00000E+00         0.00000E+00         0.91157E+05
 
    0.45005E+06         0.64385E+05         0.00000E+00
    0.64385E+05         0.50370E+04         0.00000E+00
    0.00000E+00         0.00000E+00         0.91017E+05
 
    0.44744E+06         0.74070E+05         0.00000E+00
    0.74070E+05         0.67054E+04         0.00000E+00
    0.00000E+00         0.00000E+00         0.90830E+05
 
    0.44440E+06         0.83658E+05         0.00000E+00
    0.83658E+05         0.85949E+04         0.00000E+00
    0.00000E+00         0.00000E+00         0.90598E+05
 
    0.44091E+06         0.93139E+05         0.00000E+00
    0.93139E+05         0.10700E+05         0.00000E+00
    0.00000E+00         0.00000E+00         0.90322E+05
 
    0.43699E+06         0.10250E+06         0.00000E+00
    0.10250E+06         0.13015E+05         0.00000E+00
    0.00000E+00         0.00000E+00         0.90001E+05
 
    0.43265E+06         0.11173E+06         0.00000E+00
    0.11173E+06         0.15533E+05         0.00000E+00
    0.00000E+00         0.00000E+00         0.89637E+05
 
    0.42791E+06         0.12082E+06         0.00000E+00
    0.12082E+06         0.18250E+05         0.00000E+00
    0.00000E+00         0.00000E+00         0.89231E+05
 
    0.42276E+06         0.12976E+06         0.00000E+00
    0.12976E+06         0.21157E+05         0.00000E+00
    0.00000E+00         0.00000E+00         0.88783E+05
 
    0.41722E+06         0.13855E+06         0.00000E+00
    0.13855E+06         0.24249E+05         0.00000E+00
    0.00000E+00         0.00000E+00         0.88294E+05
 
    0.41131E+06         0.14717E+06         0.00000E+00
    0.14717E+06         0.27520E+05         0.00000E+00
    0.00000E+00         0.00000E+00         0.87766E+05
 
    0.40503E+06         0.15561E+06         0.00000E+00
    0.15561E+06         0.30961E+05         0.00000E+00
    0.00000E+00         0.00000E+00         0.87198E+05
 
    0.39839E+06         0.16387E+06         0.00000E+00
    0.16387E+06         0.34567E+05         0.00000E+00
    0.00000E+00         0.00000E+00         0.86592E+05
 
    0.39141E+06         0.17195E+06         0.00000E+00
    0.17195E+06         0.38331E+05         0.00000E+00
    0.00000E+00         0.00000E+00         0.85948E+05
 
    0.38410E+06         0.17983E+06         0.00000E+00
    0.17983E+06         0.42245E+05         0.00000E+00
    0.00000E+00         0.00000E+00         0.85268E+05
 
    0.37646E+06         0.18751E+06         0.00000E+00
    0.18751E+06         0.46302E+05         0.00000E+00
    0.00000E+00         0.00000E+00         0.84552E+05
 
    0.36851E+06         0.19499E+06         0.00000E+00
    0.19499E+06         0.50497E+05         0.00000E+00
    0.00000E+00         0.00000E+00         0.83801E+05
 
    0.36026E+06         0.20227E+06         0.00000E+00
    0.20227E+06         0.54821E+05         0.00000E+00
    0.00000E+00         0.00000E+00         0.83016E+05
 
    0.35172E+06         0.20933E+06         0.00000E+00
    0.20933E+06         0.59268E+05         0.00000E+00
    0.00000E+00         0.00000E+00         0.82198E+05
 
    0.34291E+06         0.21617E+06         0.00000E+00
    0.21617E+06         0.63832E+05         0.00000E+00
    0.00000E+00         0.00000E+00         0.81348E+05
 
    0.33382E+06         0.22280E+06         0.00000E+00
    0.22280E+06         0.68506E+05         0.00000E+00
    0.00000E+00         0.00000E+00         0.80466E+05
 
    0.32448E+06         0.22921E+06         0.00000E+00
    0.22921E+06         0.73283E+05         0.00000E+00
    0.00000E+00         0.00000E+00         0.79553E+05
 
    0.31489E+06         0.23539E+06         0.00000E+00
    0.23539E+06         0.78157E+05         0.00000E+00
    0.00000E+00         0.00000E+00         0.78610E+05
 
    0.30506E+06         0.24135E+06         0.00000E+00
    0.24135E+06         0.83123E+05         0.00000E+00
    0.00000E+00         0.00000E+00         0.77637E+05
 
    0.29501E+06         0.24709E+06         0.00000E+00
    0.24709E+06         0.88174E+05         0.00000E+00
    0.00000E+00         0.00000E+00         0.76637E+05
 
    0.28474E+06         0.25260E+06         0.00000E+00
    0.25260E+06         0.93305E+05         0.00000E+00
    0.00000E+00         0.00000E+00         0.75608E+05
 
    0.27425E+06         0.25789E+06         0.00000E+00
    0.25789E+06         0.98510E+05         0.00000E+00
    0.00000E+00         0.00000E+00         0.74552E+05
 
    0.26357E+06         0.26294E+06         0.00000E+00
    0.26294E+06         0.10378E+06         0.00000E+00
    0.00000E+00         0.00000E+00         0.73470E+05
 
    0.25269E+06         0.26777E+06         0.00000E+00
    0.26777E+06         0.10912E+06         0.00000E+00
    0.00000E+00         0.00000E+00         0.72362E+05
 
    0.24163E+06         0.27238E+06         0.00000E+00
    0.27238E+06         0.11452E+06         0.00000E+00
    0.00000E+00         0.00000E+00         0.71229E+05
 
    0.23039E+06         0.27675E+06         0.00000E+00
    0.27675E+06         0.11997E+06         0.00000E+00
    0.00000E+00         0.00000E+00         0.70071E+05
 
    0.21897E+06         0.28090E+06         0.00000E+00
    0.28090E+06         0.12547E+06         0.00000E+00
    0.00000E+00         0.00000E+00         0.68889E+05
 
    0.20740E+06         0.28483E+06         0.00000E+00
    0.28483E+06         0.13102E+06         0.00000E+00
    0.00000E+00         0.00000E+00         0.67684E+05
 
    0.19566E+06         0.28853E+06         0.00000E+00
    0.28853E+06         0.13662E+06         0.00000E+00
    0.00000E+00         0.00000E+00         0.66455E+05
 
    0.18377E+06         0.29201E+06         0.00000E+00
    0.29201E+06         0.14225E+06         0.00000E+00
    0.00000E+00         0.00000E+00         0.65204E+05
 
    0.17174E+06         0.29527E+06         0.00000E+00
    0.29527E+06         0.14792E+06         0.00000E+00
    0.00000E+00         0.00000E+00         0.63931E+05
 
    0.15956E+06         0.29831E+06         0.00000E+00
    0.29831E+06         0.15362E+06         0.00000E+00
    0.00000E+00         0.00000E+00         0.62635E+05
 
    0.14724E+06         0.30113E+06         0.00000E+00
    0.30113E+06         0.15935E+06         0.00000E+00
    0.00000E+00         0.00000E+00         0.61319E+05
 
    0.13479E+06         0.30373E+06         0.00000E+00
    0.30373E+06         0.16511E+06         0.00000E+00
    0.00000E+00         0.00000E+00         0.59981E+05
 
    0.12221E+06         0.30611E+06         0.00000E+00
    0.30611E+06         0.17090E+06         0.00000E+00
    0.00000E+00         0.00000E+00         0.58622E+05
 
    0.10950E+06         0.30827E+06         0.00000E+00
    0.30827E+06         0.17672E+06         0.00000E+00
    0.00000E+00         0.00000E+00         0.57243E+05
 
    0.96662E+05         0.31022E+06         0.00000E+00
    0.31022E+06         0.18255E+06         0.00000E+00
    0.00000E+00         0.00000E+00         0.55843E+05
 
    0.83702E+05         0.31195E+06         0.00000E+00
    0.31195E+06         0.18841E+06         0.00000E+00
    0.00000E+00         0.00000E+00         0.54423E+05
 
    0.70620E+05         0.31347E+06         0.00000E+00
    0.31347E+06         0.19429E+06         0.00000E+00
    0.00000E+00         0.00000E+00         0.52983E+05
 
    0.57418E+05         0.31477E+06         0.00000E+00
    0.31477E+06         0.20019E+06         0.00000E+00
    0.00000E+00         0.00000E+00         0.51523E+05
 
    0.50902E+06         0.56668E+04         0.00000E+00
    0.56668E+04        -0.89489E+02         0.00000E+00
    0.00000E+00         0.00000E+00         0.10179E+06
 
    0.50919E+06         0.16986E+05         0.00000E+00
    0.16986E+05         0.20556E+03         0.00000E+00
    0.00000E+00         0.00000E+00         0.10188E+06
 
    0.50880E+06         0.28274E+05         0.00000E+00
    0.28274E+05         0.78793E+03         0.00000E+00
    0.00000E+00         0.00000E+00         0.10192E+06
 
    0.50784E+06         0.39513E+05         0.00000E+00
    0.39513E+05         0.16531E+04         0.00000E+00
    0.00000E+00         0.00000E+00         0.10190E+06
 
    0.50632E+06         0.50687E+05         0.00000E+00
    0.50687E+05         0.27961E+04         0.00000E+00
    0.00000E+00         0.00000E+00         0.10182E+06
 
    0.50425E+06         0.61779E+05         0.00000E+00
    0.61779E+05         0.42114E+04         0.00000E+00
    0.00000E+00         0.00000E+00         0.10169E+06
 
    0.50165E+06         0.72774E+05         0.00000E+00
    0.72774E+05         0.58927E+04         0.00000E+00
    0.00000E+00         0.00000E+00         0.10151E+06
 
    0.49853E+06         0.83655E+05         0.00000E+00
    0.83655E+05         0.78337E+04         0.00000E+00
    0.00000E+00         0.00000E+00         0.10127E+06
 
    0.49490E+06         0.94410E+05         0.00000E+00
    0.94410E+05         0.10027E+05         0.00000E+00
    0.00000E+00         0.00000E+00         0.10098E+06
 
    0.49076E+06         0.10502E+06         0.00000E+00
    0.10502E+06         0.12467E+05         0.00000E+00
    0.00000E+00         0.00000E+00         0.10065E+06
 
    0.48614E+06         0.11549E+06         0.00000E+00
    0.11549E+06         0.15144E+05         0.00000E+00
    0.00000E+00         0.00000E+00         0.10026E+06
 
    0.48104E+06         0.12578E+06         0.00000E+00
    0.12578E+06         0.18051E+05         0.00000E+00
    0.00000E+00         0.00000E+00         0.99818E+05
 
    0.47548E+06         0.13590E+06         0.00000E+00
    0.13590E+06         0.21181E+05         0.00000E+00
    0.00000E+00         0.00000E+00         0.99332E+05
 
    0.46948E+06         0.14584E+06         0.00000E+00
    0.14584E+06         0.24524E+05         0.00000E+00
    0.00000E+00         0.00000E+00         0.98800E+05
 
    0.46304E+06         0.15558E+06         0.00000E+00
    0.15558E+06         0.28073E+05         0.00000E+00
    0.00000E+00         0.00000E+00         0.98222E+05
 
    0.45618E+06         0.16511E+06         0.00000E+00
    0.16511E+06         0.31818E+05         0.00000E+00
    0.00000E+00         0.00000E+00         0.97600E+05
 
    0.44892E+06         0.17444E+06         0.00000E+00
    0.17444E+06         0.35752E+05         0.00000E+00
    0.00000E+00         0.00000E+00         0.96934E+05
 
    0.44127E+06         0.18354E+06         0.00000E+00
    0.18354E+06         0.39866E+05         0.00000E+00
    0.00000E+00         0.00000E+00         0.96227E+05
 
    0.43324E+06         0.19242E+06         0.00000E+00
    0.19242E+06         0.44151E+05         0.00000E+00
    0.00000E+00         0.00000E+00         0.95478E+05
 
    0.42485E+06         0.20106E+06         0.00000E+00
    0.20106E+06         0.48598E+05         0.00000E+00
    0.00000E+00         0.00000E+00         0.94690E+05
 
    0.41612E+06         0.20947E+06         0.00000E+00
    0.20947E+06         0.53199E+05         0.00000E+00
    0.00000E+00         0.00000E+00         0.93863E+05
 
    0.40705E+06         0.21764E+06         0.00000E+00
    0.21764E+06         0.57946E+05         0.00000E+00
    0.00000E+00         0.00000E+00         0.92999E+05
 
    0.39766E+06         0.22556E+06         0.00000E+00
    0.22556E+06         0.62830E+05         0.00000E+00
    0.00000E+00         0.00000E+00         0.92098E+05
 
    0.38797E+06         0.23323E+06         0.00000E+00
    0.23323E+06         0.67843E+05         0.00000E+00
    0.00000E+00         0.00000E+00         0.91162E+05
 
    0.37798E+06         0.24066E+06         0.00000E+00
    0.24066E+06         0.72977E+05         0.00000E+00
    0.00000E+00         0.00000E+00         0.90191E+05
 
    0.36771E+06         0.24783E+06         0.00000E+00
    0.24783E+06         0.78224E+05         0.00000E+00
    0.00000E+00         0.00000E+00         0.89188E+05
 
    0.35718E+06         0.25474E+06         0.00000E+00
    0.25474E+06         0.83576E+05         0.00000E+00
    0.00000E+00         0.00000E+00         0.88152E+05
 
    0.34640E+06         0.26140E+06         0.00000E+00
    0.26140E+06         0.89027E+05         0.00000E+00
    0.00000E+00         0.00000E+00         0.87085E+05
 
    0.33537E+06         0.26780E+06         0.00000E+00
    0.26780E+06         0.94568E+05         0.00000E+00
    0.00000E+00         0.00000E+00         0.85988E+05
 
    0.32411E+06         0.27395E+06         0.00000E+00
    0.27395E+06         0.10019E+06         0.00000E+00
    0.00000E+00         0.00000E+00         0.84861E+05
 
    0.31264E+06         0.27984E+06         0.00000E+00
    0.27984E+06         0.10590E+06         0.00000E+00
    0.00000E+00         0.00000E+00         0.83706E+05
 
    0.30095E+06         0.28547E+06         0.00000E+00
    0.28547E+06         0.11167E+06         0.00000E+00
    0.00000E+00         0.00000E+00         0.82524E+05
 
    0.28907E+06         0.29085E+06         0.00000E+00
    0.29085E+06         0.11751E+06         0.00000E+00
    0.00000E+00         0.00000E+00         0.81315E+05
 
    0.27699E+06         0.29598E+06         0.00000E+00
    0.29598E+06         0.12341E+06         0.00000E+00
    0.00000E+00         0.00000E+00         0.80080E+05
 
    0.26474E+06         0.30086E+06         0.00000E+00
    0.30086E+06         0.12936E+06         0.00000E+00
    0.00000E+00         0.00000E+00         0.78820E+05
 
    0.25231E+06         0.30549E+06         0.00000E+00
    0.30549E+06         0.13536E+06         0.00000E+00
    0.00000E+00         0.00000E+00         0.77535E+05
 
    0.23973E+06         0.30987E+06         0.00000E+00
    0.30987E+06         0.14141E+06         0.00000E+00
    0.00000E+00         0.00000E+00         0.76227E+05
 
    0.22698E+06         0.31400E+06         0.00000E+00
    0.31400E+06         0.14749E+06         0.00000E+00
    0.00000E+00         0.00000E+00         0.74895E+05
 
    0.21409E+06         0.31790E+06         0.00000E+00
    0.31790E+06         0.15362E+06         0.00000E+00
    0.00000E+00         0.00000E+00         0.73541E+05
 
    0.20105E+06         0.32155E+06         0.00000E+00
    0.32155E+06         0.15977E+06         0.00000E+00
    0.00000E+00         0.00000E+00         0.72164E+05
 
    0.18787E+06         0.32497E+06         0.00000E+00
    0.32497E+06         0.16596E+06         0.00000E+00
    0.00000E+00         0.00000E+00         0.70766E+05
 
    0.17456E+06         0.32816E+06         0.00000E+00
    0.32816E+06         0.17218E+06         0.00000E+00
    0.00000E+00         0.00000E+00         0.69347E+05
 
    0.16112E+06         0.33111E+06         0.00000E+00
    0.33111E+06         0.17841E+06         0.00000E+00
    0.00000E+00         0.00000E+00         0.67907E+05
 
    0.14755E+06         0.33384E+06         0.00000E+00
    0.33384E+06         0.18468E+06         0.00000E+00
    0.00000E+00         0.00000E+00         0.66446E+05
 
    0.13386E+06         0.33634E+06         0.00000E+00
    0.33634E+06         0.19096E+06         0.00000E+00
    0.00000E+00         0.00000E+00         0.64965E+05
 
    0.12005E+06         0.33861E+06         0.00000E+00
    0.33861E+06         0.19726E+06         0.00000E+00
    0.00000E+00         0.00000E+00         0.63463E+05
 
    0.10612E+06         0.34067E+06         0.00000E+00
    0.34067E+06         0.20359E+06         0.00000E+00
    0.00000E+00         0.00000E+00         0.61942E+05
 
    0.92079E+05         0.34250E+06         0.00000E+00
    0.34250E+06         0.20993E+06         0.00000E+00
    0.00000E+00         0.00000E+00         0.60401E+05
 
    0.77915E+05         0.34412E+06         0.00000E+00
    0.34412E+06         0.21629E+06         0.00000E+00
    0.00000E+00         0.00000E+00         0.58841E+05
 
    0.63635E+05         0.34552E+06         0.00000E+00
    0.34552E+06         0.22267E+06         0.00000E+00
    0.00000E+00         0.00000E+00         0.57261E+05
 
    0.56951E+06         0.64756E+04         0.00000E+00
    0.64756E+04        -0.10478E+03         0.00000E+00
    0.00000E+00         0.00000E+00         0.11388E+06
 
    0.56952E+06         0.19363E+05         0.00000E+00
    0.19363E+05         0.24444E+03         0.00000E+00
    0.00000E+00         0.00000E+00         0.11395E+06
 
    0.56886E+06         0.32193E+05         0.00000E+00
    0.32193E+05         0.93072E+03         0.00000E+00
    0.00000E+00         0.00000E+00         0.11396E+06
 
    0.56754E+06         0.44947E+05         0.00000E+00
    0.44947E+05         0.19474E+04         0.00000E+00
    0.00000E+00         0.00000E+00         0.11390E+06
 
    0.56558E+06         0.57602E+05         0.00000E+00
    0.57602E+05         0.32873E+04         0.00000E+00
    0.00000E+00         0.00000E+00         0.11377E+06
 
    0.56298E+06         0.70142E+05         0.00000E+00
    0.70142E+05         0.49426E+04         0.00000E+00
    0.00000E+00         0.00000E+00         0.11358E+06
 
    0.55976E+06         0.82547E+05         0.00000E+00
    0.82547E+05         0.69049E+04         0.00000E+00
    0.00000E+00         0.00000E+00         0.11333E+06
 
    0.55594E+06         0.94800E+05         0.00000E+00
    0.94800E+05         0.91654E+04         0.00000E+00
    0.00000E+00         0.00000E+00         0.11302E+06
 
    0.55154E+06         0.10689E+06         0.00000E+00
    0.10689E+06         0.11715E+05         0.00000E+00
    0.00000E+00         0.00000E+00         0.11265E+06
 
    0.54656E+06         0.11879E+06         0.00000E+00
    0.11879E+06         0.14544E+05         0.00000E+00
    0.00000E+00         0.00000E+00         0.11222E+06
 
    0.54104E+06         0.13049E+06         0.00000E+00
    0.13049E+06         0.17642E+05         0.00000E+00
    0.00000E+00         0.00000E+00         0.11174E+06
 
    0.53498E+06         0.14199E+06         0.00000E+00
    0.14199E+06         0.20999E+05         0.00000E+00
    0.00000E+00         0.00000E+00         0.11120E+06
 
    0.52840E+06         0.15326E+06         0.00000E+00
    0.15326E+06         0.24605E+05         0.00000E+00
    0.00000E+00         0.00000E+00         0.11060E+06
 
    0.52133E+06         0.16430E+06         0.00000E+00
    0.16430E+06         0.28450E+05         0.00000E+00
    0.00000E+00         0.00000E+00         0.10996E+06
 
    0.51378E+06         0.17510E+06         0.00000E+00
    0.17510E+06         0.32522E+05         0.00000E+00
    0.00000E+00         0.00000E+00         0.10926E+06
 
    0.50576E+06         0.18565E+06         0.00000E+00
    0.18565E+06         0.36812E+05         0.00000E+00
    0.00000E+00         0.00000E+00         0.10851E+06
 
    0.49730E+06         0.19593E+06         0.00000E+00
    0.19593E+06         0.41307E+05         0.00000E+00
    0.00000E+00         0.00000E+00         0.10772E+06
 
    0.48842E+06         0.20595E+06         0.00000E+00
    0.20595E+06         0.45998E+05         0.00000E+00
    0.00000E+00         0.00000E+00         0.10688E+06
 
    0.47913E+06         0.21569E+06         0.00000E+00
    0.21569E+06         0.50874E+05         0.00000E+00
    0.00000E+00         0.00000E+00         0.10600E+06
 
    0.46946E+06         0.22516E+06         0.00000E+00
    0.22516E+06         0.55923E+05         0.00000E+00
    0.00000E+00         0.00000E+00         0.10508E+06
 
    0.45941E+06         0.23434E+06         0.00000E+00
    0.23434E+06         0.61137E+05         0.00000E+00
    0.00000E+00         0.00000E+00         0.10411E+06
 
    0.44901E+06         0.24323E+06         0.00000E+00
    0.24323E+06         0.66503E+05         0.00000E+00
    0.00000E+00         0.00000E+00         0.10310E+06
 
    0.43828E+06         0.25183E+06         0.00000E+00
    0.25183E+06         0.72013E+05         0.00000E+00
    0.00000E+00         0.00000E+00         0.10206E+06
 
    0.42723E+06         0.26014E+06         0.00000E+00
    0.26014E+06         0.77656E+05         0.00000E+00
    0.00000E+00         0.00000E+00         0.10098E+06
 
    0.41588E+06         0.26815E+06         0.00000E+00
    0.26815E+06         0.83423E+05         0.00000E+00
    0.00000E+00         0.00000E+00         0.99860E+05
 
    0.40424E+06         0.27587E+06         0.00000E+00
    0.27587E+06         0.89304E+05         0.00000E+00
    0.00000E+00         0.00000E+00         0.98709E+05
 
    0.39233E+06         0.28329E+06         0.00000E+00
    0.28329E+06         0.95289E+05         0.00000E+00
    0.00000E+00         0.00000E+00         0.97525E+05
 
    0.38017E+06         0.29042E+06         0.00000E+00
    0.29042E+06         0.10137E+06         0.00000E+00
    0.00000E+00         0.00000E+00         0.96309E+05
 
    0.36777E+06         0.29725E+06         0.00000E+00
    0.29725E+06         0.10754E+06         0.00000E+00
    0.00000E+00         0.00000E+00         0.95063E+05
 
    0.35515E+06         0.30379E+06         0.00000E+00
    0.30379E+06         0.11379E+06         0.00000E+00
    0.00000E+00         0.00000E+00         0.93788E+05
 
    0.34231E+06         0.31004E+06         0.00000E+00
    0.31004E+06         0.12011E+06         0.00000E+00
    0.00000E+00         0.00000E+00         0.92485E+05
 
    0.32928E+06         0.31600E+06         0.00000E+00
    0.31600E+06         0.12650E+06         0.00000E+00
    0.00000E+00         0.00000E+00         0.91155E+05
 
    0.31605E+06         0.32167E+06         0.00000E+00
    0.32167E+06         0.13295E+06         0.00000E+00
    0.00000E+00         0.00000E+00         0.89799E+05
 
    0.30265E+06         0.32707E+06         0.00000E+00
    0.32707E+06         0.13944E+06         0.00000E+00
    0.00000E+00         0.00000E+00         0.88419E+05
 
    0.28908E+06         0.33219E+06         0.00000E+00
    0.33219E+06         0.14599E+06         0.00000E+00
    0.00000E+00         0.00000E+00         0.87014E+05
 
    0.27536E+06         0.33703E+06         0.00000E+00
    0.33703E+06         0.15257E+06         0.00000E+00
    0.00000E+00         0.00000E+00         0.85586E+05
 
    0.26149E+06         0.34160E+06         0.00000E+00
    0.34160E+06         0.15919E+06         0.00000E+00
    0.00000E+00         0.00000E+00         0.84136E+05
 
    0.24748E+06         0.34591E+06         0.00000E+00
    0.34591E+06         0.16584E+06         0.00000E+00
    0.00000E+00         0.00000E+00         0.82664E+05
 
    0.23334E+06         0.34996E+06         0.00000E+00
    0.34996E+06         0.17251E+06         0.00000E+00
    0.00000E+00         0.00000E+00         0.81171E+05
 
    0.21907E+06         0.35375E+06         0.00000E+00
    0.35375E+06         0.17921E+06         0.00000E+00
    0.00000E+00         0.00000E+00         0.79657E+05
 
    0.20469E+06         0.35729E+06         0.00000E+00
    0.35729E+06         0.18594E+06         0.00000E+00
    0.00000E+00         0.00000E+00         0.78124E+05
 
    0.19018E+06         0.36059E+06         0.00000E+00
    0.36059E+06         0.19267E+06         0.00000E+00
    0.00000E+00         0.00000E+00         0.76572E+05
 
    0.17557E+06         0.36364E+06         0.00000E+00
    0.36364E+06         0.19943E+06         0.00000E+00
    0.00000E+00         0.00000E+00         0.75000E+05
 
    0.16085E+06         0.36646E+06         0.00000E+00
    0.36646E+06         0.20620E+06         0.00000E+00
    0.00000E+00         0.00000E+00         0.73409E+05
 
    0.14602E+06         0.36904E+06         0.00000E+00
    0.36904E+06         0.21298E+06         0.00000E+00
    0.00000E+00         0.00000E+00         0.71801E+05
 
    0.13109E+06         0.37140E+06         0.00000E+00
    0.37140E+06         0.21977E+06         0.00000E+00
    0.00000E+00         0.00000E+00         0.70173E+05
 
    0.11606E+06         0.37354E+06         0.00000E+00
    0.37354E+06         0.22658E+06         0.00000E+00
    0.00000E+00         0.00000E+00         0.68528E+05
 
    0.10092E+06         0.37545E+06         0.00000E+00
    0.37545E+06         0.23340E+06         0.00000E+00
    0.00000E+00         0.00000E+00         0.66865E+05
 
    0.85679E+05         0.37715E+06         0.00000E+00
    0.37715E+06         0.24024E+06         0.00000E+00
    0.00000E+00         0.00000E+00         0.65183E+05
 
    0.70330E+05         0.37864E+06         0.00000E+00
    0.37864E+06         0.24709E+06         0.00000E+00
    0.00000E+00         0.00000E+00         0.63483E+05
 
    0.63859E+06         0.74360E+04         0.00000E+00
    0.74360E+04        -0.12270E+03         0.00000E+00
    0.00000E+00         0.00000E+00         0.12769E+06
 
    0.63829E+06         0.22167E+05         0.00000E+00
    0.22167E+05         0.29110E+03         0.00000E+00
    0.00000E+00         0.00000E+00         0.12772E+06
 
    0.63720E+06         0.36804E+05         0.00000E+00
    0.36804E+05         0.11004E+04         0.00000E+00
    0.00000E+00         0.00000E+00         0.12766E+06
 
    0.63534E+06         0.51322E+05         0.00000E+00
    0.51322E+05         0.22957E+04         0.00000E+00
    0.00000E+00         0.00000E+00         0.12753E+06
 
    0.63273E+06         0.65698E+05         0.00000E+00
    0.65698E+05         0.38668E+04         0.00000E+00
    0.00000E+00         0.00000E+00         0.12732E+06
 
    0.62938E+06         0.79910E+05         0.00000E+00
    0.79910E+05         0.58030E+04         0.00000E+00
    0.00000E+00         0.00000E+00         0.12704E+06
 
    0.62533E+06         0.93938E+05         0.00000E+00
    0.93938E+05         0.80929E+04         0.00000E+00
    0.00000E+00         0.00000E+00         0.12668E+06
 
    0.62058E+06         0.10776E+06         0.00000E+00
    0.10776E+06         0.10725E+05         0.00000E+00
    0.00000E+00         0.00000E+00         0.12626E+06
 
    0.61517E+06         0.12136E+06         0.00000E+00
    0.12136E+06         0.13686E+05         0.00000E+00
    0.00000E+00         0.00000E+00         0.12577E+06
 
    0.60911E+06         0.13473E+06         0.00000E+00
    0.13473E+06         0.16965E+05         0.00000E+00
    0.00000E+00         0.00000E+00         0.12521E+06
 
    0.60243E+06         0.14784E+06         0.00000E+00
    0.14784E+06         0.20548E+05         0.00000E+00
    0.00000E+00         0.00000E+00         0.12460E+06
 
    0.59515E+06         0.16068E+06         0.00000E+00
    0.16068E+06         0.24422E+05         0.00000E+00
    0.00000E+00         0.00000E+00         0.12391E+06
 
    0.58729E+06         0.17324E+06         0.00000E+00
    0.17324E+06         0.28574E+05         0.00000E+00
    0.00000E+00         0.00000E+00         0.12317E+06
 
    0.57888E+06         0.18550E+06         0.00000E+00
    0.18550E+06         0.32991E+05         0.00000E+00
    0.00000E+00         0.00000E+00         0.12237E+06
 
    0.56994E+06         0.19747E+06         0.00000E+00
    0.19747E+06         0.37658E+05         0.00000E+00
    0.00000E+00         0.00000E+00         0.12152E+06
 
    0.56050E+06         0.20912E+06         0.00000E+00
    0.20912E+06         0.42564E+05         0.00000E+00
    0.00000E+00         0.00000E+00         0.12061E+06
 
    0.55058E+06         0.22045E+06         0.00000E+00
    0.22045E+06         0.47693E+05         0.00000E+00
    0.00000E+00         0.00000E+00         0.11965E+06
 
    0.54019E+06         0.23146E+06         0.00000E+00
    0.23146E+06         0.53034E+05         0.00000E+00
    0.00000E+00         0.00000E+00         0.11865E+06
 
    0.52938E+06         0.24213E+06         0.00000E+00
    0.24213E+06         0.58573E+05         0.00000E+00
    0.00000E+00         0.00000E+00         0.11759E+06
 
    0.51815E+06         0.25246E+06         0.00000E+00
    0.25246E+06         0.64296E+05         0.00000E+00
    0.00000E+00         0.00000E+00         0.11649E+06
 
    0.50654E+06         0.26245E+06         0.00000E+00
    0.26245E+06         0.70191E+05         0.00000E+00
    0.00000E+00         0.00000E+00         0.11535E+06
 
    0.49456E+06         0.27210E+06         0.00000E+00
    0.27210E+06         0.76246E+05         0.00000E+00
    0.00000E+00         0.00000E+00         0.11416E+06
 
    0.48223E+06         0.28140E+06         0.00000E+00
    0.28140E+06         0.82449E+05         0.00000E+00
    0.00000E+00         0.00000E+00         0.11294E+06
 
    0.46958E+06         0.29035E+06         0.00000E+00
    0.29035E+06         0.88786E+05         0.00000E+00
    0.00000E+00         0.00000E+00         0.11167E+06
 
    0.45663E+06         0.29896E+06         0.00000E+00
    0.29896E+06         0.95248E+05         0.00000E+00
    0.00000E+00         0.00000E+00         0.11038E+06
 
    0.44339E+06         0.30722E+06         0.00000E+00
    0.30722E+06         0.10182E+06         0.00000E+00
    0.00000E+00         0.00000E+00         0.10904E+06
 
    0.42989E+06         0.31514E+06         0.00000E+00
    0.31514E+06         0.10850E+06         0.00000E+00
    0.00000E+00         0.00000E+00         0.10768E+06
 
    0.41615E+06         0.32272E+06         0.00000E+00
    0.32272E+06         0.11527E+06         0.00000E+00
    0.00000E+00         0.00000E+00         0.10628E+06
 
    0.40217E+06         0.32995E+06         0.00000E+00
    0.32995E+06         0.12211E+06         0.00000E+00
    0.00000E+00         0.00000E+00         0.10486E+06
 
    0.38799E+06         0.33686E+06         0.00000E+00
    0.33686E+06         0.12904E+06         0.00000E+00
    0.00000E+00         0.00000E+00         0.10341E+06
 
    0.37361E+06         0.34343E+06         0.00000E+00
    0.34343E+06         0.13602E+06         0.00000E+00
    0.00000E+00         0.00000E+00         0.10193E+06
 
    0.35905E+06         0.34967E+06         0.00000E+00
    0.34967E+06         0.14306E+06         0.00000E+00
    0.00000E+00         0.00000E+00         0.10042E+06
 
    0.34433E+06         0.35560E+06         0.00000E+00
    0.35560E+06         0.15015E+06         0.00000E+00
    0.00000E+00         0.00000E+00         0.98896E+05
 
    0.32945E+06         0.36121E+06         0.00000E+00
    0.36121E+06         0.15728E+06         0.00000E+00
    0.00000E+00         0.00000E+00         0.97347E+05
 
    0.31444E+06         0.36651E+06         0.00000E+00
    0.36651E+06         0.16444E+06         0.00000E+00
    0.00000E+00         0.00000E+00         0.95776E+05
 
    0.29929E+06         0.37152E+06         0.00000E+00
    0.37152E+06         0.17163E+06         0.00000E+00
    0.00000E+00         0.00000E+00         0.94185E+05
 
    0.28403E+06         0.37623E+06         0.00000E+00
    0.37623E+06         0.17884E+06         0.00000E+00
    0.00000E+00         0.00000E+00         0.92574E+05
 
    0.26865E+06         0.38065E+06         0.00000E+00
    0.38065E+06         0.18607E+06         0.00000E+00
    0.00000E+00         0.00000E+00         0.90945E+05
 
    0.25318E+06         0.38479E+06         0.00000E+00
    0.38479E+06         0.19332E+06         0.00000E+00
    0.00000E+00         0.00000E+00         0.89299E+05
 
    0.23761E+06         0.38866E+06         0.00000E+00
    0.38866E+06         0.20057E+06         0.00000E+00
    0.00000E+00         0.00000E+00         0.87635E+05
 
    0.22195E+06         0.39227E+06         0.00000E+00
    0.39227E+06         0.20783E+06         0.00000E+00
    0.00000E+00         0.00000E+00         0.85956E+05
 
    0.20621E+06         0.39562E+06         0.00000E+00
    0.39562E+06         0.21509E+06         0.00000E+00
    0.00000E+00         0.00000E+00         0.84260E+05
 
    0.19038E+06         0.39872E+06         0.00000E+00
    0.39872E+06         0.22236E+06         0.00000E+00
    0.00000E+00         0.00000E+00         0.82549E+05
 
    0.17448E+06         0.40158E+06         0.00000E+00
    0.40158E+06         0.22963E+06         0.00000E+00
    0.00000E+00         0.00000E+00         0.80823E+05
 
    0.15851E+06         0.40420E+06         0.00000E+00
    0.40420E+06         0.23690E+06         0.00000E+00
    0.00000E+00         0.00000E+00         0.79082E+05
 
    0.14245E+06         0.40660E+06         0.00000E+00
    0.40660E+06         0.24418E+06         0.00000E+00
    0.00000E+00         0.00000E+00         0.77326E+05
 
    0.12632E+06         0.40878E+06         0.00000E+00
    0.40878E+06         0.25145E+06         0.00000E+00
    0.00000E+00         0.00000E+00         0.75556E+05
 
    0.11012E+06         0.41075E+06         0.00000E+00
    0.41075E+06         0.25874E+06         0.00000E+00
    0.00000E+00         0.00000E+00         0.73770E+05
 
    0.93827E+05         0.41251E+06         0.00000E+00
    0.41251E+06         0.26602E+06         0.00000E+00
    0.00000E+00         0.00000E+00         0.71970E+05
 
    0.77453E+05         0.41407E+06         0.00000E+00
    0.41407E+06         0.27332E+06         0.00000E+00
    0.00000E+00         0.00000E+00         0.70155E+05
 
    0.71778E+06         0.85769E+04         0.00000E+00
    0.85769E+04        -0.14347E+03         0.00000E+00
    0.00000E+00         0.00000E+00         0.14353E+06
 
    0.71695E+06         0.25476E+05         0.00000E+00
    0.25476E+05         0.34655E+03         0.00000E+00
    0.00000E+00         0.00000E+00         0.14346E+06
 
    0.71520E+06         0.42226E+05         0.00000E+00
    0.42226E+05         0.13000E+04         0.00000E+00
    0.00000E+00         0.00000E+00         0.14330E+06
 
    0.71254E+06         0.58799E+05         0.00000E+00
    0.58799E+05         0.27036E+04         0.00000E+00
    0.00000E+00         0.00000E+00         0.14305E+06
 
    0.70901E+06         0.75170E+05         0.00000E+00
    0.75170E+05         0.45434E+04         0.00000E+00
    0.00000E+00         0.00000E+00         0.14271E+06
 
    0.70464E+06         0.91312E+05         0.00000E+00
    0.91312E+05         0.68048E+04         0.00000E+00
    0.00000E+00         0.00000E+00         0.14229E+06
 
    0.69945E+06         0.10720E+06         0.00000E+00
    0.10720E+06         0.94726E+04         0.00000E+00
    0.00000E+00         0.00000E+00         0.14178E+06
 
    0.69347E+06         0.12282E+06         0.00000E+00
    0.12282E+06         0.12531E+05         0.00000E+00
    0.00000E+00         0.00000E+00         0.14120E+06
 
    0.68673E+06         0.13815E+06         0.00000E+00
    0.13815E+06         0.15965E+05         0.00000E+00
    0.00000E+00         0.00000E+00         0.14054E+06
 
    0.67927E+06         0.15316E+06         0.00000E+00
    0.15316E+06         0.19757E+05         0.00000E+00
    0.00000E+00         0.00000E+00         0.13980E+06
 
    0.67110E+06         0.16785E+06         0.00000E+00
    0.16785E+06         0.23892E+05         0.00000E+00
    0.00000E+00         0.00000E+00         0.13900E+06
 
    0.66226E+06         0.18219E+06         0.00000E+00
    0.18219E+06         0.28352E+05         0.00000E+00
    0.00000E+00         0.00000E+00         0.13812E+06
 
    0.65279E+06         0.19618E+06         0.00000E+00
    0.19618E+06         0.33120E+05         0.00000E+00
    0.00000E+00         0.00000E+00         0.13718E+06
 
    0.64271E+06         0.20980E+06         0.00000E+00
    0.20980E+06         0.38181E+05         0.00000E+00
    0.00000E+00         0.00000E+00         0.13618E+06
 
    0.63205E+06         0.22304E+06         0.00000E+00
    0.22304E+06         0.43517E+05         0.00000E+00
    0.00000E+00         0.00000E+00         0.13511E+06
 
    0.62085E+06         0.23590E+06         0.00000E+00
    0.23590E+06         0.49111E+05         0.00000E+00
    0.00000E+00         0.00000E+00         0.13399E+06
 
    0.60912E+06         0.24836E+06         0.00000E+00
    0.24836E+06         0.54948E+05         0.00000E+00
    0.00000E+00         0.00000E+00         0.13281E+06
 
    0.59691E+06         0.26042E+06         0.00000E+00
    0.26042E+06         0.61010E+05         0.00000E+00
    0.00000E+00         0.00000E+00         0.13159E+06
 
    0.58425E+06         0.27207E+06         0.00000E+00
    0.27207E+06         0.67283E+05         0.00000E+00
    0.00000E+00         0.00000E+00         0.13031E+06
 
    0.57115E+06         0.28332E+06         0.00000E+00
    0.28332E+06         0.73749E+05         0.00000E+00
    0.00000E+00         0.00000E+00         0.12898E+06
 
    0.55765E+06         0.29416E+06         0.00000E+00
    0.29416E+06         0.80394E+05         0.00000E+00
    0.00000E+00         0.00000E+00         0.12761E+06
 
    0.54378E+06         0.30458E+06         0.00000E+00
    0.30458E+06         0.87203E+05         0.00000E+00
    0.00000E+00         0.00000E+00         0.12620E+06
 
    0.52957E+06         0.31459E+06         0.00000E+00
    0.31459E+06         0.94160E+05         0.00000E+00
    0.00000E+00         0.00000E+00         0.12475E+06
 
    0.51503E+06         0.32419E+06         0.00000E+00
    0.32419E+06         0.10125E+06         0.00000E+00
    0.00000E+00         0.00000E+00         0.12326E+06
 
    0.50020E+06         0.33338E+06         0.00000E+00
    0.33338E+06         0.10847E+06         0.00000E+00
    0.00000E+00         0.00000E+00         0.12173E+06
 
    0.48509E+06         0.34217E+06         0.00000E+00
    0.34217E+06         0.11579E+06         0.00000E+00
    0.00000E+00         0.00000E+00         0.12018E+06
 
    0.46974E+06         0.35055E+06         0.00000E+00
    0.35055E+06         0.12320E+06         0.00000E+00
    0.00000E+00         0.00000E+00         0.11859E+06
 
    0.45417E+06         0.35854E+06         0.00000E+00
    0.35854E+06         0.13070E+06         0.00000E+00
    0.00000E+00         0.00000E+00         0.11697E+06
 
    0.43839E+06         0.36614E+06         0.00000E+00
    0.36614E+06         0.13828E+06         0.00000E+00
    0.00000E+00         0.00000E+00         0.11533E+06
 
    0.42242E+06         0.37336E+06         0.00000E+00
    0.37336E+06         0.14591E+06         0.00000E+00
    0.00000E+00         0.00000E+00         0.11367E+06
 
    0.40630E+06         0.38019E+06         0.00000E+00
    0.38019E+06         0.15359E+06         0.00000E+00
    0.00000E+00         0.00000E+00         0.11198E+06
 
    0.39002E+06         0.38666E+06         0.00000E+00
    0.38666E+06         0.16132E+06         0.00000E+00
    0.00000E+00         0.00000E+00         0.11027E+06
 
    0.37362E+06         0.39277E+06         0.00000E+00
    0.39277E+06         0.16907E+06         0.00000E+00
    0.00000E+00         0.00000E+00         0.10854E+06
 
    0.35710E+06         0.39853E+06         0.00000E+00
    0.39853E+06         0.17686E+06         0.00000E+00
    0.00000E+00         0.00000E+00         0.10679E+06
 
    0.34049E+06         0.40395E+06         0.00000E+00
    0.40395E+06         0.18466E+06         0.00000E+00
    0.00000E+00         0.00000E+00         0.10503E+06
 
    0.32378E+06         0.40904E+06         0.00000E+00
    0.40904E+06         0.19247E+06         0.00000E+00
    0.00000E+00         0.00000E+00         0.10325E+06
 
    0.30701E+06         0.41381E+06         0.00000E+00
    0.41381E+06         0.20028E+06         0.00000E+00
    0.00000E+00         0.00000E+00         0.10146E+06
 
    0.29017E+06         0.41827E+06         0.00000E+00
    0.41827E+06         0.20810E+06         0.00000E+00
    0.00000E+00         0.00000E+00         0.99652E+05
 
    0.27327E+06         0.42242E+06         0.00000E+00
    0.42242E+06         0.21591E+06         0.00000E+00
    0.00000E+00         0.00000E+00         0.97835E+05
 
    0.25632E+06         0.42630E+06         0.00000E+00
    0.42630E+06         0.22371E+06         0.00000E+00
    0.00000E+00         0.00000E+00         0.96006E+05
 
    0.23934E+06         0.42989E+06         0.00000E+00
    0.42989E+06         0.23150E+06         0.00000E+00
    0.00000E+00         0.00000E+00         0.94167E+05
 
    0.22231E+06         0.43322E+06         0.00000E+00
    0.43322E+06         0.23928E+06         0.00000E+00
    0.00000E+00         0.00000E+00         0.92318E+05
 
    0.20526E+06         0.43630E+06         0.00000E+00
    0.43630E+06         0.24704E+06         0.00000E+00
    0.00000E+00         0.00000E+00         0.90460E+05
 
    0.18817E+06         0.43913E+06         0.00000E+00
    0.43913E+06         0.25479E+06         0.00000E+00
    0.00000E+00         0.00000E+00         0.88592E+05
 
    0.17105E+06         0.44173E+06         0.00000E+00
    0.44173E+06         0.26253E+06         0.00000E+00
    0.00000E+00         0.00000E+00         0.86716E+05
 
    0.15390E+06         0.44411E+06         0.00000E+00
    0.44411E+06         0.27025E+06         0.00000E+00
    0.00000E+00         0.00000E+00         0.84830E+05
 
    0.13671E+06         0.44628E+06         0.00000E+00
    0.44628E+06         0.27797E+06         0.00000E+00
    0.00000E+00         0.00000E+00         0.82936E+05
 
    0.11949E+06         0.44825E+06         0.00000E+00
    0.44825E+06         0.28567E+06         0.00000E+00
    0.00000E+00         0.00000E+00         0.81033E+05
 
    0.10222E+06         0.45003E+06         0.00000E+00
    0.45003E+06         0.29338E+06         0.00000E+00
    0.00000E+00         0.00000E+00         0.79120E+05
 
    0.84906E+05         0.45163E+06         0.00000E+00
    0.45163E+06         0.30108E+06         0.00000E+00
    0.00000E+00         0.00000E+00         0.77198E+05
 
    0.80889E+06         0.99305E+04         0.00000E+00
    0.99305E+04        -0.16719E+03         0.00000E+00
    0.00000E+00         0.00000E+00         0.16174E+06
 
    0.80721E+06         0.29372E+05         0.00000E+00
    0.29372E+05         0.41167E+03         0.00000E+00
    0.00000E+00         0.00000E+00         0.16153E+06
 
    0.80446E+06         0.48589E+05         0.00000E+00
    0.48589E+05         0.15318E+04         0.00000E+00
    0.00000E+00         0.00000E+00         0.16120E+06
 
    0.80066E+06         0.67550E+05         0.00000E+00
    0.67550E+05         0.31751E+04         0.00000E+00
    0.00000E+00         0.00000E+00         0.16077E+06
 
    0.79585E+06         0.86225E+05         0.00000E+00
    0.86225E+05         0.53226E+04         0.00000E+00
    0.00000E+00         0.00000E+00         0.16023E+06
 
    0.79007E+06         0.10459E+06         0.00000E+00
    0.10459E+06         0.79550E+04         0.00000E+00
    0.00000E+00         0.00000E+00         0.15960E+06
 
    0.78335E+06         0.12261E+06         0.00000E+00
    0.12261E+06         0.11052E+05         0.00000E+00
    0.00000E+00         0.00000E+00         0.15888E+06
 
    0.77574E+06         0.14027E+06         0.00000E+00
    0.14027E+06         0.14594E+05         0.00000E+00
    0.00000E+00         0.00000E+00         0.15807E+06
 
    0.76727E+06         0.15754E+06         0.00000E+00
    0.15754E+06         0.18560E+05         0.00000E+00
    0.00000E+00         0.00000E+00         0.15717E+06
 
    0.75798E+06         0.17441E+06         0.00000E+00
    0.17441E+06         0.22929E+05         0.00000E+00
    0.00000E+00         0.00000E+00         0.15618E+06
 
    0.74791E+06         0.19086E+06         0.00000E+00
    0.19086E+06         0.27681E+05         0.00000E+00
    0.00000E+00         0.00000E+00         0.15512E+06
 
    0.73710E+06         0.20688E+06         0.00000E+00
    0.20688E+06         0.32794E+05         0.00000E+00
    0.00000E+00         0.00000E+00         0.15398E+06
 
    0.72559E+06         0.22244E+06         0.00000E+00
    0.22244E+06         0.38248E+05         0.00000E+00
    0.00000E+00         0.00000E+00         0.15277E+06
 
    0.71342E+06         0.23754E+06         0.00000E+00
    0.23754E+06         0.44021E+05         0.00000E+00
    0.00000E+00         0.00000E+00         0.15149E+06
 
    0.70063E+06         0.25218E+06         0.00000E+00
    0.25218E+06         0.50094E+05         0.00000E+00
    0.00000E+00         0.00000E+00         0.15014E+06
 
    0.68725E+06         0.26633E+06         0.00000E+00
    0.26633E+06         0.56446E+05         0.00000E+00
    0.00000E+00         0.00000E+00         0.14874E+06
 
    0.67332E+06         0.28000E+06         0.00000E+00
    0.28000E+06         0.63057E+05         0.00000E+00
    0.00000E+00         0.00000E+00         0.14728E+06
 
    0.65888E+06         0.29318E+06         0.00000E+00
    0.29318E+06         0.69906E+05         0.00000E+00
    0.00000E+00         0.00000E+00         0.14576E+06
 
    0.64397E+06         0.30587E+06         0.00000E+00
    0.30587E+06         0.76976E+05         0.00000E+00
    0.00000E+00         0.00000E+00         0.14419E+06
 
    0.62862E+06         0.31806E+06         0.00000E+00
    0.31806E+06         0.84246E+05         0.00000E+00
    0.00000E+00         0.00000E+00         0.14257E+06
 
    0.61286E+06         0.32976E+06         0.00000E+00
    0.32976E+06         0.91699E+05         0.00000E+00
    0.00000E+00         0.00000E+00         0.14091E+06
 
    0.59674E+06         0.34097E+06         0.00000E+00
    0.34097E+06         0.99317E+05         0.00000E+00
    0.00000E+00         0.00000E+00         0.13921E+06
 
    0.58028E+06         0.35169E+06         0.00000E+00
    0.35169E+06         0.10708E+06         0.00000E+00
    0.00000E+00         0.00000E+00         0.13747E+06
 
    0.56351E+06         0.36192E+06         0.00000E+00
    0.36192E+06         0.11498E+06         0.00000E+00
    0.00000E+00         0.00000E+00         0.13570E+06
 
    0.54647E+06         0.37166E+06         0.00000E+00
    0.37166E+06         0.12299E+06         0.00000E+00
    0.00000E+00         0.00000E+00         0.13389E+06
 
    0.52918E+06         0.38094E+06         0.00000E+00
    0.38094E+06         0.13110E+06         0.00000E+00
    0.00000E+00         0.00000E+00         0.13206E+06
 
    0.51168E+06         0.38974E+06         0.00000E+00
    0.38974E+06         0.13929E+06         0.00000E+00
    0.00000E+00         0.00000E+00         0.13019E+06
 
    0.49398E+06         0.39809E+06         0.00000E+00
    0.39809E+06         0.14756E+06         0.00000E+00
    0.00000E+00         0.00000E+00         0.12831E+06
 
    0.47613E+06         0.40599E+06         0.00000E+00
    0.40599E+06         0.15588E+06         0.00000E+00
    0.00000E+00         0.00000E+00         0.12640E+06
 
    0.45813E+06         0.41344E+06         0.00000E+00
    0.41344E+06         0.16425E+06         0.00000E+00
    0.00000E+00         0.00000E+00         0.12448E+06
 
    0.44002E+06         0.42047E+06         0.00000E+00
    0.42047E+06         0.17265E+06         0.00000E+00
    0.00000E+00         0.00000E+00         0.12253E+06
 
    0.42181E+06         0.42708E+06         0.00000E+00
    0.42708E+06         0.18108E+06         0.00000E+00
    0.00000E+00         0.00000E+00         0.12058E+06
 
    0.40353E+06         0.43329E+06         0.00000E+00
    0.43329E+06         0.18952E+06         0.00000E+00
    0.00000E+00         0.00000E+00         0.11861E+06
 
    0.38519E+06         0.43910E+06         0.00000E+00
    0.43910E+06         0.19796E+06         0.00000E+00
    0.00000E+00         0.00000E+00         0.11663E+06
 
    0.36681E+06         0.44454E+06         0.00000E+00
    0.44454E+06         0.20640E+06         0.00000E+00
    0.00000E+00         0.00000E+00         0.11464E+06
 
    0.34840E+06         0.44962E+06         0.00000E+00
    0.44962E+06         0.21483E+06         0.00000E+00
    0.00000E+00         0.00000E+00         0.11265E+06
 
    0.32998E+06         0.45434E+06         0.00000E+00
    0.45434E+06         0.22324E+06         0.00000E+00
    0.00000E+00         0.00000E+00         0.11064E+06
 
    0.31157E+06         0.45874E+06         0.00000E+00
    0.45874E+06         0.23163E+06         0.00000E+00
    0.00000E+00         0.00000E+00         0.10864E+06
 
    0.29316E+06         0.46281E+06         0.00000E+00
    0.46281E+06         0.23999E+06         0.00000E+00
    0.00000E+00         0.00000E+00         0.10663E+06
 
    0.27478E+06         0.46658E+06         0.00000E+00
    0.46658E+06         0.24832E+06         0.00000E+00
    0.00000E+00         0.00000E+00         0.10462E+06
 
    0.25641E+06         0.47006E+06         0.00000E+00
    0.47006E+06         0.25661E+06         0.00000E+00
    0.00000E+00         0.00000E+00         0.10261E+06
 
    0.23808E+06         0.47328E+06         0.00000E+00
    0.47328E+06         0.26487E+06         0.00000E+00
    0.00000E+00         0.00000E+00         0.10059E+06
 
    0.21979E+06         0.47623E+06         0.00000E+00
    0.47623E+06         0.27310E+06         0.00000E+00
    0.00000E+00         0.00000E+00         0.98577E+05
 
    0.20152E+06         0.47895E+06         0.00000E+00
    0.47895E+06         0.28129E+06         0.00000E+00
    0.00000E+00         0.00000E+00         0.96563E+05
 
    0.18330E+06         0.48144E+06         0.00000E+00
    0.48144E+06         0.28945E+06         0.00000E+00
    0.00000E+00         0.00000E+00         0.94549E+05
 
    0.16510E+06         0.48373E+06         0.00000E+00
    0.48373E+06         0.29757E+06         0.00000E+00
    0.00000E+00         0.00000E+00         0.92535E+05
 
    0.14694E+06         0.48582E+06         0.00000E+00
    0.48582E+06         0.30567E+06         0.00000E+00
    0.00000E+00         0.00000E+00         0.90522E+05
 
    0.12879E+06         0.48773E+06         0.00000E+00
    0.48773E+06         0.31375E+06         0.00000E+00
    0.00000E+00         0.00000E+00         0.88508E+05
 
    0.11066E+06         0.48947E+06         0.00000E+00
    0.48947E+06         0.32181E+06         0.00000E+00
    0.00000E+00         0.00000E+00         0.86494E+05
 
    0.92533E+05         0.49107E+06         0.00000E+00
    0.49107E+06         0.32986E+06         0.00000E+00
    0.00000E+00         0.00000E+00         0.84478E+05
 
    0.91398E+06         0.11531E+05         0.00000E+00
    0.11531E+05        -0.19378E+03         0.00000E+00
    0.00000E+00         0.00000E+00         0.18276E+06
 
    0.91102E+06         0.33944E+05         0.00000E+00
    0.33944E+05         0.48694E+03         0.00000E+00
    0.00000E+00         0.00000E+00         0.18230E+06
 
    0.90681E+06         0.56028E+05         0.00000E+00
    0.56028E+05         0.17966E+04         0.00000E+00
    0.00000E+00         0.00000E+00         0.18172E+06
 
    0.90139E+06         0.77749E+05         0.00000E+00
    0.77749E+05         0.37106E+04         0.00000E+00
    0.00000E+00         0.00000E+00         0.18102E+06
 
    0.89481E+06         0.99073E+05         0.00000E+00
    0.99073E+05         0.62041E+04         0.00000E+00
    0.00000E+00         0.00000E+00         0.18020E+06
 
    0.88712E+06         0.11997E+06         0.00000E+00
    0.11997E+06         0.92515E+04         0.00000E+00
    0.00000E+00         0.00000E+00         0.17927E+06
 
    0.87837E+06         0.14042E+06         0.00000E+00
    0.14042E+06         0.12827E+05         0.00000E+00
    0.00000E+00         0.00000E+00         0.17824E+06
 
    0.86861E+06         0.16038E+06         0.00000E+00
    0.16038E+06         0.16905E+05         0.00000E+00
    0.00000E+00         0.00000E+00         0.17710E+06
 
    0.85789E+06         0.17985E+06         0.00000E+00
    0.17985E+06         0.21459E+05         0.00000E+00
    0.00000E+00         0.00000E+00         0.17587E+06
 
    0.84626E+06         0.19879E+06         0.00000E+00
    0.19879E+06         0.26462E+05         0.00000E+00
    0.00000E+00         0.00000E+00         0.17454E+06
 
    0.83376E+06         0.21720E+06         0.00000E+00
    0.21720E+06         0.31890E+05         0.00000E+00
    0.00000E+00         0.00000E+00         0.17313E+06
 
    0.82046E+06         0.23505E+06         0.00000E+00
    0.23505E+06         0.37715E+05         0.00000E+00
    0.00000E+00         0.00000E+00         0.17164E+06
 
    0.80640E+06         0.25234E+06         0.00000E+00
    0.25234E+06         0.43912E+05         0.00000E+00
    0.00000E+00         0.00000E+00         0.17006E+06
 
    0.79162E+06         0.26906E+06         0.00000E+00
    0.26906E+06         0.50456E+05         0.00000E+00
    0.00000E+00         0.00000E+00         0.16842E+06
 
    0.77618E+06         0.28519E+06         0.00000E+00
    0.28519E+06         0.57322E+05         0.00000E+00
    0.00000E+00         0.00000E+00         0.16670E+06
 
    0.76012E+06         0.30073E+06         0.00000E+00
    0.30073E+06         0.64486E+05         0.00000E+00
    0.00000E+00         0.00000E+00         0.16492E+06
 
    0.74350E+06         0.31568E+06         0.00000E+00
    0.31568E+06         0.71922E+05         0.00000E+00
    0.00000E+00         0.00000E+00         0.16308E+06
 
    0.72635E+06         0.33003E+06         0.00000E+00
    0.33003E+06         0.79608E+05         0.00000E+00
    0.00000E+00         0.00000E+00         0.16119E+06
 
    0.70872E+06         0.34379E+06         0.00000E+00
    0.34379E+06         0.87521E+05         0.00000E+00
    0.00000E+00         0.00000E+00         0.15925E+06
 
    0.69065E+06         0.35695E+06         0.00000E+00
    0.35695E+06         0.95639E+05         0.00000E+00
    0.00000E+00         0.00000E+00         0.15726E+06
 
    0.67219E+06         0.36951E+06         0.00000E+00
    0.36951E+06         0.10394E+06         0.00000E+00
    0.00000E+00         0.00000E+00         0.15523E+06
 
    0.65338E+06         0.38149E+06         0.00000E+00
    0.38149E+06         0.11240E+06         0.00000E+00
    0.00000E+00         0.00000E+00         0.15316E+06
 
    0.63426E+06         0.39289E+06         0.00000E+00
    0.39289E+06         0.12101E+06         0.00000E+00
    0.00000E+00         0.00000E+00         0.15105E+06
 
    0.61486E+06         0.40372E+06         0.00000E+00
    0.40372E+06         0.12973E+06         0.00000E+00
    0.00000E+00         0.00000E+00         0.14892E+06
 
    0.59523E+06         0.41397E+06         0.00000E+00
    0.41397E+06         0.13857E+06         0.00000E+00
    0.00000E+00         0.00000E+00         0.14676E+06
 
    0.57539E+06         0.42368E+06         0.00000E+00
    0.42368E+06         0.14748E+06         0.00000E+00
    0.00000E+00         0.00000E+00         0.14458E+06
 
    0.55539E+06         0.43284E+06         0.00000E+00
    0.43284E+06         0.15647E+06         0.00000E+00
    0.00000E+00         0.00000E+00         0.14237E+06
 
    0.53525E+06         0.44146E+06         0.00000E+00
    0.44146E+06         0.16552E+06         0.00000E+00
    0.00000E+00         0.00000E+00         0.14015E+06
 
    0.51501E+06         0.44957E+06         0.00000E+00
    0.44957E+06         0.17460E+06         0.00000E+00
    0.00000E+00         0.00000E+00         0.13792E+06
 
    0.49469E+06         0.45718E+06         0.00000E+00
    0.45718E+06         0.18371E+06         0.00000E+00
    0.00000E+00         0.00000E+00         0.13568E+06
 
    0.47433E+06         0.46430E+06         0.00000E+00
    0.46430E+06         0.19282E+06         0.00000E+00
    0.00000E+00         0.00000E+00         0.13343E+06
 
    0.45394E+06         0.47094E+06         0.00000E+00
    0.47094E+06         0.20194E+06         0.00000E+00
    0.00000E+00         0.00000E+00         0.13118E+06
 
    0.43355E+06         0.47714E+06         0.00000E+00
    0.47714E+06         0.21105E+06         0.00000E+00
    0.00000E+00         0.00000E+00         0.12892E+06
 
    0.41318E+06         0.48289E+06         0.00000E+00
    0.48289E+06         0.22014E+06         0.00000E+00
    0.00000E+00         0.00000E+00         0.12666E+06
 
    0.39286E+06         0.48823E+06         0.00000E+00
    0.48823E+06         0.22920E+06         0.00000E+00
    0.00000E+00         0.00000E+00         0.12441E+06
 
    0.37259E+06         0.49317E+06         0.00000E+00
    0.49317E+06         0.23822E+06         0.00000E+00
    0.00000E+00         0.00000E+00         0.12216E+06
 
    0.35240E+06         0.49773E+06         0.00000E+00
    0.49773E+06         0.24720E+06         0.00000E+00
    0.00000E+00         0.00000E+00         0.11992E+06
 
    0.33230E+06         0.50193E+06         0.00000E+00
    0.50193E+06         0.25612E+06         0.00000E+00
    0.00000E+00         0.00000E+00         0.11768E+06
 
    0.31230E+06         0.50580E+06         0.00000E+00
    0.50580E+06         0.26500E+06         0.00000E+00
    0.00000E+00         0.00000E+00         0.11546E+06
 
    0.29241E+06         0.50934E+06         0.00000E+00
    0.50934E+06         0.27381E+06         0.00000E+00
    0.00000E+00         0.00000E+00         0.11324E+06
 
    0.27263E+06         0.51259E+06         0.00000E+00
    0.51259E+06         0.28256E+06         0.00000E+00
    0.00000E+00         0.00000E+00         0.11104E+06
 
    0.25298E+06         0.51557E+06         0.00000E+00
    0.51557E+06         0.29125E+06         0.00000E+00
    0.00000E+00         0.00000E+00         0.10885E+06
 
    0.23346E+06         0.51829E+06         0.00000E+00
    0.51829E+06         0.29988E+06         0.00000E+00
    0.00000E+00         0.00000E+00         0.10667E+06
 
    0.21406E+06         0.52077E+06         0.00000E+00
    0.52077E+06         0.30845E+06         0.00000E+00
    0.00000E+00         0.00000E+00         0.10450E+06
 
    0.19479E+06         0.52305E+06         0.00000E+00
    0.52305E+06         0.31696E+06         0.00000E+00
    0.00000E+00         0.00000E+00         0.10235E+06
 
    0.17563E+06         0.52513E+06         0.00000E+00
    0.52513E+06         0.32542E+06         0.00000E+00
    0.00000E+00         0.00000E+00         0.10021E+06
 
    0.15660E+06         0.52705E+06         0.00000E+00
    0.52705E+06         0.33382E+06         0.00000E+00
    0.00000E+00         0.00000E+00         0.98084E+05
 
    0.13767E+06         0.52881E+06         0.00000E+00
    0.52881E+06         0.34219E+06         0.00000E+00
    0.00000E+00         0.00000E+00         0.95971E+05
 
    0.11884E+06         0.53045E+06         0.00000E+00
    0.53045E+06         0.35051E+06         0.00000E+00
    0.00000E+00         0.00000E+00         0.93870E+05
 
    0.10009E+06         0.53197E+06         0.00000E+00
    0.53197E+06         0.35881E+06         0.00000E+00
    0.00000E+00         0.00000E+00         0.91781E+05
 
    0.10354E+07         0.13413E+05         0.00000E+00
    0.13413E+05        -0.22281E+03         0.00000E+00
    0.00000E+00         0.00000E+00         0.20703E+06
 
    0.10306E+07         0.39275E+05         0.00000E+00
    0.39275E+05         0.57222E+03         0.00000E+00
    0.00000E+00         0.00000E+00         0.20623E+06
 
    0.10243E+07         0.64669E+05         0.00000E+00
    0.64669E+05         0.20922E+04         0.00000E+00
    0.00000E+00         0.00000E+00         0.20527E+06
 
    0.10166E+07         0.89558E+05         0.00000E+00
    0.89558E+05         0.43050E+04         0.00000E+00
    0.00000E+00         0.00000E+00         0.20418E+06
 
    0.10076E+07         0.11391E+06         0.00000E+00
    0.11391E+06         0.71778E+04         0.00000E+00
    0.00000E+00         0.00000E+00         0.20296E+06
 
    0.99739E+06         0.13768E+06         0.00000E+00
    0.13768E+06         0.10678E+05         0.00000E+00
    0.00000E+00         0.00000E+00         0.20161E+06
 
    0.98595E+06         0.16086E+06         0.00000E+00
    0.16086E+06         0.14772E+05         0.00000E+00
    0.00000E+00         0.00000E+00         0.20014E+06
 
    0.97339E+06         0.18341E+06         0.00000E+00
    0.18341E+06         0.19428E+05         0.00000E+00
    0.00000E+00         0.00000E+00         0.19856E+06
 
    0.95976E+06         0.20531E+06         0.00000E+00
    0.20531E+06         0.24612E+05         0.00000E+00
    0.00000E+00         0.00000E+00         0.19687E+06
 
    0.94513E+06         0.22655E+06         0.00000E+00
    0.22655E+06         0.30293E+05         0.00000E+00
    0.00000E+00         0.00000E+00         0.19508E+06
 
    0.92956E+06         0.24711E+06         0.00000E+00
    0.24711E+06         0.36438E+05         0.00000E+00
    0.00000E+00         0.00000E+00         0.19320E+06
 
    0.91312E+06         0.26697E+06         0.00000E+00
    0.26697E+06         0.43015E+05         0.00000E+00
    0.00000E+00         0.00000E+00         0.19123E+06
 
    0.89587E+06         0.28613E+06         0.00000E+00
    0.28613E+06         0.49994E+05         0.00000E+00
    0.00000E+00         0.00000E+00         0.18917E+06
 
    0.87786E+06         0.30457E+06         0.00000E+00
    0.30457E+06         0.57344E+05         0.00000E+00
    0.00000E+00         0.00000E+00         0.18704E+06
 
    0.85916E+06         0.32230E+06         0.00000E+00
    0.32230E+06         0.65034E+05         0.00000E+00
    0.00000E+00         0.00000E+00         0.18484E+06
 
    0.83983E+06         0.33930E+06         0.00000E+00
    0.33930E+06         0.73037E+05         0.00000E+00
    0.00000E+00         0.00000E+00         0.18257E+06
 
    0.81992E+06         0.35558E+06         0.00000E+00
    0.35558E+06         0.81324E+05         0.00000E+00
    0.00000E+00         0.00000E+00         0.18025E+06
 
    0.79948E+06         0.37114E+06         0.00000E+00
    0.37114E+06         0.89866E+05         0.00000E+00
    0.00000E+00         0.00000E+00         0.17787E+06
 
    0.77858E+06         0.38597E+06         0.00000E+00
    0.38597E+06         0.98638E+05         0.00000E+00
    0.00000E+00         0.00000E+00         0.17544E+06
 
    0.75726E+06         0.40010E+06         0.00000E+00
    0.40010E+06         0.10761E+06         0.00000E+00
    0.00000E+00         0.00000E+00         0.17298E+06
 
    0.73558E+06         0.41352E+06         0.00000E+00
    0.41352E+06         0.11677E+06         0.00000E+00
    0.00000E+00         0.00000E+00         0.17047E+06
 
    0.71358E+06         0.42624E+06         0.00000E+00
    0.42624E+06         0.12608E+06         0.00000E+00
    0.00000E+00         0.00000E+00         0.16793E+06
 
    0.69132E+06         0.43828E+06         0.00000E+00
    0.43828E+06         0.13552E+06         0.00000E+00
    0.00000E+00         0.00000E+00         0.16537E+06
 
    0.66883E+06         0.44964E+06         0.00000E+00
    0.44964E+06         0.14507E+06         0.00000E+00
    0.00000E+00         0.00000E+00         0.16278E+06
 
    0.64617E+06         0.46034E+06         0.00000E+00
    0.46034E+06         0.15471E+06         0.00000E+00
    0.00000E+00         0.00000E+00         0.16018E+06
 
    0.62337E+06         0.47039E+06         0.00000E+00
    0.47039E+06         0.16443E+06         0.00000E+00
    0.00000E+00         0.00000E+00         0.15756E+06
 
    0.60047E+06         0.47982E+06         0.00000E+00
    0.47982E+06         0.17419E+06         0.00000E+00
    0.00000E+00         0.00000E+00         0.15493E+06
 
    0.57752E+06         0.48863E+06         0.00000E+00
    0.48863E+06         0.18398E+06         0.00000E+00
    0.00000E+00         0.00000E+00         0.15230E+06
 
    0.55454E+06         0.49684E+06         0.00000E+00
    0.49684E+06         0.19380E+06         0.00000E+00
    0.00000E+00         0.00000E+00         0.14967E+06
 
    0.53158E+06         0.50448E+06         0.00000E+00
    0.50448E+06         0.20361E+06         0.00000E+00
    0.00000E+00         0.00000E+00         0.14704E+06
 
    0.50866E+06         0.51157E+06         0.00000E+00
    0.51157E+06         0.21341E+06         0.00000E+00
    0.00000E+00         0.00000E+00         0.14441E+06
 
    0.48581E+06         0.51813E+06         0.00000E+00
    0.51813E+06         0.22318E+06         0.00000E+00
    0.00000E+00         0.00000E+00         0.14180E+06
 
    0.46307E+06         0.52417E+06         0.00000E+00
    0.52417E+06         0.23292E+06         0.00000E+00
    0.00000E+00         0.00000E+00         0.13920E+06
 
    0.44045E+06         0.52973E+06         0.00000E+00
    0.52973E+06         0.24260E+06         0.00000E+00
    0.00000E+00         0.00000E+00         0.13661E+06
 
    0.41799E+06         0.53483E+06         0.00000E+00
    0.53483E+06         0.25223E+06         0.00000E+00
    0.00000E+00         0.00000E+00         0.13404E+06
 
    0.39569E+06         0.53949E+06         0.00000E+00
    0.53949E+06         0.26179E+06         0.00000E+00
    0.00000E+00         0.00000E+00         0.13150E+06
 
    0.37358E+06         0.54374E+06         0.00000E+00
    0.54374E+06         0.27127E+06         0.00000E+00
    0.00000E+00         0.00000E+00         0.12897E+06
 
    0.35168E+06         0.54761E+06         0.00000E+00
    0.54761E+06         0.28067E+06         0.00000E+00
    0.00000E+00         0.00000E+00         0.12647E+06
 
    0.32999E+06         0.55111E+06         0.00000E+00
    0.55111E+06         0.28999E+06         0.00000E+00
    0.00000E+00         0.00000E+00         0.12400E+06
 
    0.30854E+06         0.55429E+06         0.00000E+00
    0.55429E+06         0.29922E+06         0.00000E+00
    0.00000E+00         0.00000E+00         0.12155E+06
 
    0.28733E+06         0.55715E+06         0.00000E+00
    0.55715E+06         0.30835E+06         0.00000E+00
    0.00000E+00         0.00000E+00         0.11914E+06
 
    0.26635E+06         0.55975E+06         0.00000E+00
    0.55975E+06         0.31739E+06         0.00000E+00
    0.00000E+00         0.00000E+00         0.11675E+06
 
    0.24563E+06         0.56209E+06         0.00000E+00
    0.56209E+06         0.32634E+06         0.00000E+00
    0.00000E+00         0.00000E+00         0.11439E+06
 
    0.22516E+06         0.56421E+06         0.00000E+00
    0.56421E+06         0.33520E+06         0.00000E+00
    0.00000E+00         0.00000E+00         0.11207E+06
 
    0.20493E+06         0.56613E+06         0.00000E+00
    0.56613E+06         0.34396E+06         0.00000E+00
    0.00000E+00         0.00000E+00         0.10978E+06
 
    0.18495E+06         0.56789E+06         0.00000E+00
    0.56789E+06         0.35265E+06         0.00000E+00
    0.00000E+00         0.00000E+00         0.10752E+06
 
    0.16520E+06         0.56951E+06         0.00000E+00
    0.56951E+06         0.36126E+06         0.00000E+00
    0.00000E+00         0.00000E+00         0.10529E+06
 
    0.14567E+06         0.57102E+06         0.00000E+00
    0.57102E+06         0.36980E+06         0.00000E+00
    0.00000E+00         0.00000E+00         0.10309E+06
 
    0.12636E+06         0.57245E+06         0.00000E+00
    0.57245E+06         0.37828E+06         0.00000E+00
    0.00000E+00         0.00000E+00         0.10093E+06
 
    0.10724E+06         0.57382E+06         0.00000E+00
    0.57382E+06         0.38671E+06         0.00000E+00
    0.00000E+00         0.00000E+00         0.98791E+05
 
    0.11757E+07         0.15609E+05         0.00000E+00
    0.15609E+05        -0.25341E+03         0.00000E+00
    0.00000E+00         0.00000E+00         0.23510E+06
 
    0.11682E+07         0.45440E+05         0.00000E+00
    0.45440E+05         0.66632E+03         0.00000E+00
    0.00000E+00         0.00000E+00         0.23378E+06
 
    0.11591E+07         0.74619E+05         0.00000E+00
    0.74619E+05         0.24130E+04         0.00000E+00
    0.00000E+00         0.00000E+00         0.23230E+06
 
    0.11483E+07         0.10311E+06         0.00000E+00
    0.10311E+06         0.49446E+04         0.00000E+00
    0.00000E+00         0.00000E+00         0.23066E+06
 
    0.11361E+07         0.13087E+06         0.00000E+00
    0.13087E+06         0.82193E+04         0.00000E+00
    0.00000E+00         0.00000E+00         0.22887E+06
 
    0.11225E+07         0.15788E+06         0.00000E+00
    0.15788E+06         0.12195E+05         0.00000E+00
    0.00000E+00         0.00000E+00         0.22694E+06
 
    0.11076E+07         0.18410E+06         0.00000E+00
    0.18410E+06         0.16831E+05         0.00000E+00
    0.00000E+00         0.00000E+00         0.22488E+06
 
    0.10914E+07         0.20951E+06         0.00000E+00
    0.20951E+06         0.22087E+05         0.00000E+00
    0.00000E+00         0.00000E+00         0.22269E+06
 
    0.10740E+07         0.23410E+06         0.00000E+00
    0.23410E+06         0.27921E+05         0.00000E+00
    0.00000E+00         0.00000E+00         0.22039E+06
 
    0.10556E+07         0.25784E+06         0.00000E+00
    0.25784E+06         0.34294E+05         0.00000E+00
    0.00000E+00         0.00000E+00         0.21798E+06
 
    0.10362E+07         0.28073E+06         0.00000E+00
    0.28073E+06         0.41168E+05         0.00000E+00
    0.00000E+00         0.00000E+00         0.21547E+06
 
    0.10158E+07         0.30274E+06         0.00000E+00
    0.30274E+06         0.48504E+05         0.00000E+00
    0.00000E+00         0.00000E+00         0.21286E+06
 
    0.99462E+06         0.32389E+06         0.00000E+00
    0.32389E+06         0.56265E+05         0.00000E+00
    0.00000E+00         0.00000E+00         0.21018E+06
 
    0.97263E+06         0.34416E+06         0.00000E+00
    0.34416E+06         0.64416E+05         0.00000E+00
    0.00000E+00         0.00000E+00         0.20741E+06
 
    0.94995E+06         0.36355E+06         0.00000E+00
    0.36355E+06         0.72922E+05         0.00000E+00
    0.00000E+00         0.00000E+00         0.20457E+06
 
    0.92663E+06         0.38206E+06         0.00000E+00
    0.38206E+06         0.81748E+05         0.00000E+00
    0.00000E+00         0.00000E+00         0.20168E+06
 
    0.90275E+06         0.39970E+06         0.00000E+00
    0.39970E+06         0.90862E+05         0.00000E+00
    0.00000E+00         0.00000E+00         0.19872E+06
 
    0.87836E+06         0.41647E+06         0.00000E+00
    0.41647E+06         0.10023E+06         0.00000E+00
    0.00000E+00         0.00000E+00         0.19572E+06
 
    0.85355E+06         0.43239E+06         0.00000E+00
    0.43239E+06         0.10983E+06         0.00000E+00
    0.00000E+00         0.00000E+00         0.19268E+06
 
    0.82836E+06         0.44745E+06         0.00000E+00
    0.44745E+06         0.11962E+06         0.00000E+00
    0.00000E+00         0.00000E+00         0.18960E+06
 
    0.80286E+06         0.46169E+06         0.00000E+00
    0.46169E+06         0.12959E+06         0.00000E+00
    0.00000E+00         0.00000E+00         0.18649E+06
 
    0.77710E+06         0.47510E+06         0.00000E+00
    0.47510E+06         0.13969E+06         0.00000E+00
    0.00000E+00         0.00000E+00         0.18336E+06
 
    0.75115E+06         0.48770E+06         0.00000E+00
    0.48770E+06         0.14991E+06         0.00000E+00
    0.00000E+00         0.00000E+00         0.18021E+06
 
    0.72506E+06         0.49952E+06         0.00000E+00
    0.49952E+06         0.16023E+06         0.00000E+00
    0.00000E+00         0.00000E+00         0.17706E+06
 
    0.69887E+06         0.51057E+06         0.00000E+00
    0.51057E+06         0.17062E+06         0.00000E+00
    0.00000E+00         0.00000E+00         0.17390E+06
 
    0.67264E+06         0.52087E+06         0.00000E+00
    0.52087E+06         0.18105E+06         0.00000E+00
    0.00000E+00         0.00000E+00         0.17074E+06
 
    0.64641E+06         0.53045E+06         0.00000E+00
    0.53045E+06         0.19151E+06         0.00000E+00
    0.00000E+00         0.00000E+00         0.16758E+06
 
    0.62022E+06         0.53933E+06         0.00000E+00
    0.53933E+06         0.20198E+06         0.00000E+00
    0.00000E+00         0.00000E+00         0.16444E+06
 
    0.59413E+06         0.54753E+06         0.00000E+00
    0.54753E+06         0.21245E+06         0.00000E+00
    0.00000E+00         0.00000E+00         0.16131E+06
 
    0.56816E+06         0.55507E+06         0.00000E+00
    0.55507E+06         0.22288E+06         0.00000E+00
    0.00000E+00         0.00000E+00         0.15821E+06
 
    0.54236E+06         0.56199E+06         0.00000E+00
    0.56199E+06         0.23328E+06         0.00000E+00
    0.00000E+00         0.00000E+00         0.15513E+06
 
    0.51675E+06         0.56831E+06         0.00000E+00
    0.56831E+06         0.24362E+06         0.00000E+00
    0.00000E+00         0.00000E+00         0.15207E+06
 
    0.49138E+06         0.57406E+06         0.00000E+00
    0.57406E+06         0.25389E+06         0.00000E+00
    0.00000E+00         0.00000E+00         0.14905E+06
 
    0.46627E+06         0.57928E+06         0.00000E+00
    0.57928E+06         0.26408E+06         0.00000E+00
    0.00000E+00         0.00000E+00         0.14607E+06
 
    0.44145E+06         0.58398E+06         0.00000E+00
    0.58398E+06         0.27418E+06         0.00000E+00
    0.00000E+00         0.00000E+00         0.14313E+06
 
    0.41694E+06         0.58821E+06         0.00000E+00
    0.58821E+06         0.28418E+06         0.00000E+00
    0.00000E+00         0.00000E+00         0.14022E+06
 
    0.39276E+06         0.59198E+06         0.00000E+00
    0.59198E+06         0.29408E+06         0.00000E+00
    0.00000E+00         0.00000E+00         0.13737E+06
 
    0.36893E+06         0.59535E+06         0.00000E+00
    0.59535E+06         0.30385E+06         0.00000E+00
    0.00000E+00         0.00000E+00         0.13456E+06
 
    0.34548E+06         0.59833E+06         0.00000E+00
    0.59833E+06         0.31351E+06         0.00000E+00
    0.00000E+00         0.00000E+00         0.13180E+06
 
    0.32240E+06         0.60097E+06         0.00000E+00
    0.60097E+06         0.32305E+06         0.00000E+00
    0.00000E+00         0.00000E+00         0.12909E+06
 
    0.29972E+06         0.60329E+06         0.00000E+00
    0.60329E+06         0.33245E+06         0.00000E+00
    0.00000E+00         0.00000E+00         0.12644E+06
 
    0.27744E+06         0.60533E+06         0.00000E+00
    0.60533E+06         0.34174E+06         0.00000E+00
    0.00000E+00         0.00000E+00         0.12384E+06
 
    0.25556E+06         0.60713E+06         0.00000E+00
    0.60713E+06         0.35089E+06         0.00000E+00
    0.00000E+00         0.00000E+00         0.12129E+06
 
    0.23410E+06         0.60873E+06         0.00000E+00
    0.60873E+06         0.35992E+06         0.00000E+00
    0.00000E+00         0.00000E+00         0.11880E+06
 
    0.21303E+06         0.61015E+06         0.00000E+00
    0.61015E+06         0.36882E+06         0.00000E+00
    0.00000E+00         0.00000E+00         0.11637E+06
 
    0.19237E+06         0.61143E+06         0.00000E+00
    0.61143E+06         0.37762E+06         0.00000E+00
    0.00000E+00         0.00000E+00         0.11400E+06
 
    0.17210E+06         0.61261E+06         0.00000E+00
    0.61261E+06         0.38630E+06         0.00000E+00
    0.00000E+00         0.00000E+00         0.11168E+06
 
    0.15220E+06         0.61373E+06         0.00000E+00
    0.61373E+06         0.39488E+06         0.00000E+00
    0.00000E+00         0.00000E+00         0.10942E+06
 
    0.13268E+06         0.61481E+06         0.00000E+00
    0.61481E+06         0.40337E+06         0.00000E+00
    0.00000E+00         0.00000E+00         0.10721E+06
 
    0.11350E+06         0.61590E+06         0.00000E+00
    0.61590E+06         0.41179E+06         0.00000E+00
    0.00000E+00         0.00000E+00         0.10506E+06
 
    0.13378E+07         0.18144E+05         0.00000E+00
    0.18144E+05        -0.28406E+03         0.00000E+00
    0.00000E+00         0.00000E+00         0.26750E+06
 
    0.13266E+07         0.52486E+05         0.00000E+00
    0.52486E+05         0.76657E+03         0.00000E+00
    0.00000E+00         0.00000E+00         0.26547E+06
 
    0.13135E+07         0.85940E+05         0.00000E+00
    0.85940E+05         0.27470E+04         0.00000E+00
    0.00000E+00         0.00000E+00         0.26325E+06
 
    0.12986E+07         0.11847E+06         0.00000E+00
    0.11847E+06         0.56037E+04         0.00000E+00
    0.00000E+00         0.00000E+00         0.26085E+06
 
    0.12822E+07         0.15003E+06         0.00000E+00
    0.15003E+06         0.92839E+04         0.00000E+00
    0.00000E+00         0.00000E+00         0.25829E+06
 
    0.12641E+07         0.18061E+06         0.00000E+00
    0.18061E+06         0.13735E+05         0.00000E+00
    0.00000E+00         0.00000E+00         0.25557E+06
 
    0.12446E+07         0.21017E+06         0.00000E+00
    0.21017E+06         0.18907E+05         0.00000E+00
    0.00000E+00         0.00000E+00         0.25271E+06
 
    0.12238E+07         0.23870E+06         0.00000E+00
    0.23870E+06         0.24749E+05         0.00000E+00
    0.00000E+00         0.00000E+00         0.24972E+06
 
    0.12018E+07         0.26619E+06         0.00000E+00
    0.26619E+06         0.31212E+05         0.00000E+00
    0.00000E+00         0.00000E+00         0.24660E+06
 
    0.11786E+07         0.29261E+06         0.00000E+00
    0.29261E+06         0.38249E+05         0.00000E+00
    0.00000E+00         0.00000E+00         0.24337E+06
 
    0.11543E+07         0.31797E+06         0.00000E+00
    0.31797E+06         0.45813E+05         0.00000E+00
    0.00000E+00         0.00000E+00         0.24003E+06
 
    0.11291E+07         0.34226E+06         0.00000E+00
    0.34226E+06         0.53861E+05         0.00000E+00
    0.00000E+00         0.00000E+00         0.23660E+06
 
    0.11031E+07         0.36548E+06         0.00000E+00
    0.36548E+06         0.62348E+05         0.00000E+00
    0.00000E+00         0.00000E+00         0.23309E+06
 
    0.10763E+07         0.38763E+06         0.00000E+00
    0.38763E+06         0.71234E+05         0.00000E+00
    0.00000E+00         0.00000E+00         0.22950E+06
 
    0.10488E+07         0.40872E+06         0.00000E+00
    0.40872E+06         0.80479E+05         0.00000E+00
    0.00000E+00         0.00000E+00         0.22585E+06
 
    0.10206E+07         0.42875E+06         0.00000E+00
    0.42875E+06         0.90043E+05         0.00000E+00
    0.00000E+00         0.00000E+00         0.22213E+06
 
    0.99199E+06         0.44775E+06         0.00000E+00
    0.44775E+06         0.99890E+05         0.00000E+00
    0.00000E+00         0.00000E+00         0.21838E+06
 
    0.96290E+06         0.46571E+06         0.00000E+00
    0.46571E+06         0.10999E+06         0.00000E+00
    0.00000E+00         0.00000E+00         0.21458E+06
 
    0.93345E+06         0.48265E+06         0.00000E+00
    0.48265E+06         0.12030E+06         0.00000E+00
    0.00000E+00         0.00000E+00         0.21075E+06
 
    0.90369E+06         0.49860E+06         0.00000E+00
    0.49860E+06         0.13079E+06         0.00000E+00
    0.00000E+00         0.00000E+00         0.20690E+06
 
    0.87371E+06         0.51358E+06         0.00000E+00
    0.51358E+06         0.14143E+06         0.00000E+00
    0.00000E+00         0.00000E+00         0.20303E+06
 
    0.84357E+06         0.52759E+06         0.00000E+00
    0.52759E+06         0.15220E+06         0.00000E+00
    0.00000E+00         0.00000E+00         0.19916E+06
 
    0.81333E+06         0.54068E+06         0.00000E+00
    0.54068E+06         0.16307E+06         0.00000E+00
    0.00000E+00         0.00000E+00         0.19528E+06
 
    0.78306E+06         0.55285E+06         0.00000E+00
    0.55285E+06         0.17401E+06         0.00000E+00
    0.00000E+00         0.00000E+00         0.19141E+06
 
    0.75281E+06         0.56414E+06         0.00000E+00
    0.56414E+06         0.18499E+06         0.00000E+00
    0.00000E+00         0.00000E+00         0.18756E+06
 
    0.72264E+06         0.57458E+06         0.00000E+00
    0.57458E+06         0.19600E+06         0.00000E+00
    0.00000E+00         0.00000E+00         0.18373E+06
 
    0.69259E+06         0.58419E+06         0.00000E+00
    0.58419E+06         0.20701E+06         0.00000E+00
    0.00000E+00         0.00000E+00         0.17992E+06
 
    0.66273E+06         0.59300E+06         0.00000E+00
    0.59300E+06         0.21801E+06         0.00000E+00
    0.00000E+00         0.00000E+00         0.17615E+06
 
    0.63310E+06         0.60104E+06         0.00000E+00
    0.60104E+06         0.22897E+06         0.00000E+00
    0.00000E+00         0.00000E+00         0.17241E+06
 
    0.60375E+06         0.60835E+06         0.00000E+00
    0.60835E+06         0.23987E+06         0.00000E+00
    0.00000E+00         0.00000E+00         0.16872E+06
 
    0.57471E+06         0.61496E+06         0.00000E+00
    0.61496E+06         0.25071E+06         0.00000E+00
    0.00000E+00         0.00000E+00         0.16508E+06
 
    0.54602E+06         0.62090E+06         0.00000E+00
    0.62090E+06         0.26146E+06         0.00000E+00
    0.00000E+00         0.00000E+00         0.16150E+06
 
    0.51773E+06         0.62621E+06         0.00000E+00
    0.62621E+06         0.27212E+06         0.00000E+00
    0.00000E+00         0.00000E+00         0.15797E+06
 
    0.48986E+06         0.63092E+06         0.00000E+00
    0.63092E+06         0.28266E+06         0.00000E+00
    0.00000E+00         0.00000E+00         0.15451E+06
 
    0.46245E+06         0.63507E+06         0.00000E+00
    0.63507E+06         0.29309E+06         0.00000E+00
    0.00000E+00         0.00000E+00         0.15111E+06
 
    0.43553E+06         0.63870E+06         0.00000E+00
    0.63870E+06         0.30339E+06         0.00000E+00
    0.00000E+00         0.00000E+00         0.14778E+06
 
    0.40912E+06         0.64185E+06         0.00000E+00
    0.64185E+06         0.31354E+06         0.00000E+00
    0.00000E+00         0.00000E+00         0.14453E+06
 
    0.38324E+06         0.64454E+06         0.00000E+00
    0.64454E+06         0.32355E+06         0.00000E+00
    0.00000E+00         0.00000E+00         0.14136E+06
 
    0.35791E+06         0.64684E+06         0.00000E+00
    0.64684E+06         0.33341E+06         0.00000E+00
    0.00000E+00         0.00000E+00         0.13826E+06
 
    0.33315E+06         0.64876E+06         0.00000E+00
    0.64876E+06         0.34311E+06         0.00000E+00
    0.00000E+00         0.00000E+00         0.13525E+06
 
    0.30898E+06         0.65037E+06         0.00000E+00
    0.65037E+06         0.35265E+06         0.00000E+00
    0.00000E+00         0.00000E+00         0.13233E+06
 
    0.28540E+06         0.65169E+06         0.00000E+00
    0.65169E+06         0.36203E+06         0.00000E+00
    0.00000E+00         0.00000E+00         0.12948E+06
 
    0.26242E+06         0.65278E+06         0.00000E+00
    0.65278E+06         0.37124E+06         0.00000E+00
    0.00000E+00         0.00000E+00         0.12673E+06
 
    0.24004E+06         0.65367E+06         0.00000E+00
    0.65367E+06         0.38030E+06         0.00000E+00
    0.00000E+00         0.00000E+00         0.12407E+06
 
    0.21827E+06         0.65441E+06         0.00000E+00
    0.65441E+06         0.38920E+06         0.00000E+00
    0.00000E+00         0.00000E+00         0.12149E+06
 
    0.19710E+06         0.65504E+06         0.00000E+00
    0.65504E+06         0.39794E+06         0.00000E+00
    0.00000E+00         0.00000E+00         0.11901E+06
 
    0.17652E+06         0.65561E+06         0.00000E+00
    0.65561E+06         0.40654E+06         0.00000E+00
    0.00000E+00         0.00000E+00         0.11661E+06
 
    0.15653E+06         0.65617E+06         0.00000E+00
    0.65617E+06         0.41501E+06         0.00000E+00
    0.00000E+00         0.00000E+00         0.11431E+06
 
    0.13710E+06         0.65676E+06         0.00000E+00
    0.65676E+06         0.42334E+06         0.00000E+00
    0.00000E+00         0.00000E+00         0.11209E+06
 
    0.11822E+06         0.65742E+06         0.00000E+00
    0.65742E+06         0.43157E+06         0.00000E+00
    0.00000E+00         0.00000E+00         0.10996E+06
 
    0.15245E+07         0.21028E+05         0.00000E+00
    0.21028E+05        -0.31237E+03         0.00000E+00
    0.00000E+00         0.00000E+00         0.30483E+06
 
    0.15082E+07         0.60420E+05         0.00000E+00
    0.60420E+05         0.86821E+03         0.00000E+00
    0.00000E+00         0.00000E+00         0.30181E+06
 
    0.14898E+07         0.98619E+05         0.00000E+00
    0.98619E+05         0.30749E+04         0.00000E+00
    0.00000E+00         0.00000E+00         0.29858E+06
 
    0.14695E+07         0.13559E+06         0.00000E+00
    0.13559E+06         0.62405E+04         0.00000E+00
    0.00000E+00         0.00000E+00         0.29515E+06
 
    0.14475E+07         0.17131E+06         0.00000E+00
    0.17131E+06         0.10299E+05         0.00000E+00
    0.00000E+00         0.00000E+00         0.29155E+06
 
    0.14237E+07         0.20576E+06         0.00000E+00
    0.20576E+06         0.15187E+05         0.00000E+00
    0.00000E+00         0.00000E+00         0.28778E+06
 
    0.13985E+07         0.23892E+06         0.00000E+00
    0.23892E+06         0.20842E+05         0.00000E+00
    0.00000E+00         0.00000E+00         0.28386E+06
 
    0.13718E+07         0.27077E+06         0.00000E+00
    0.27077E+06         0.27204E+05         0.00000E+00
    0.00000E+00         0.00000E+00         0.27980E+06
 
    0.13439E+07         0.30131E+06         0.00000E+00
    0.30131E+06         0.34215E+05         0.00000E+00
    0.00000E+00         0.00000E+00         0.27561E+06
 
    0.13147E+07         0.33054E+06         0.00000E+00
    0.33054E+06         0.41819E+05         0.00000E+00
    0.00000E+00         0.00000E+00         0.27131E+06
 
    0.12846E+07         0.35846E+06         0.00000E+00
    0.35846E+06         0.49962E+05         0.00000E+00
    0.00000E+00         0.00000E+00         0.26691E+06
 
    0.12535E+07         0.38507E+06         0.00000E+00
    0.38507E+06         0.58593E+05         0.00000E+00
    0.00000E+00         0.00000E+00         0.26241E+06
 
    0.12215E+07         0.41039E+06         0.00000E+00
    0.41039E+06         0.67662E+05         0.00000E+00
    0.00000E+00         0.00000E+00         0.25784E+06
 
    0.11889E+07         0.43442E+06         0.00000E+00
    0.43442E+06         0.77124E+05         0.00000E+00
    0.00000E+00         0.00000E+00         0.25319E+06
 
    0.11556E+07         0.45718E+06         0.00000E+00
    0.45718E+06         0.86933E+05         0.00000E+00
    0.00000E+00         0.00000E+00         0.24850E+06
 
    0.11217E+07         0.47869E+06         0.00000E+00
    0.47869E+06         0.97047E+05         0.00000E+00
    0.00000E+00         0.00000E+00         0.24375E+06
 
    0.10874E+07         0.49898E+06         0.00000E+00
    0.49898E+06         0.10743E+06         0.00000E+00
    0.00000E+00         0.00000E+00         0.23897E+06
 
    0.10528E+07         0.51805E+06         0.00000E+00
    0.51805E+06         0.11803E+06         0.00000E+00
    0.00000E+00         0.00000E+00         0.23417E+06
 
    0.10179E+07         0.53594E+06         0.00000E+00
    0.53594E+06         0.12883E+06         0.00000E+00
    0.00000E+00         0.00000E+00         0.22935E+06
 
    0.98286E+06         0.55268E+06         0.00000E+00
    0.55268E+06         0.13979E+06         0.00000E+00
    0.00000E+00         0.00000E+00         0.22453E+06
 
    0.94769E+06         0.56828E+06         0.00000E+00
    0.56828E+06         0.15088E+06         0.00000E+00
    0.00000E+00         0.00000E+00         0.21971E+06
 
    0.91249E+06         0.58279E+06         0.00000E+00
    0.58279E+06         0.16207E+06         0.00000E+00
    0.00000E+00         0.00000E+00         0.21491E+06
 
    0.87732E+06         0.59623E+06         0.00000E+00
    0.59623E+06         0.17332E+06         0.00000E+00
    0.00000E+00         0.00000E+00         0.21013E+06
 
    0.84227E+06         0.60864E+06         0.00000E+00
    0.60864E+06         0.18462E+06         0.00000E+00
    0.00000E+00         0.00000E+00         0.20538E+06
 
    0.80739E+06         0.62005E+06         0.00000E+00
    0.62005E+06         0.19595E+06         0.00000E+00
    0.00000E+00         0.00000E+00         0.20067E+06
 
    0.77275E+06         0.63049E+06         0.00000E+00
    0.63049E+06         0.20727E+06         0.00000E+00
    0.00000E+00         0.00000E+00         0.19600E+06
 
    0.73840E+06         0.64001E+06         0.00000E+00
    0.64001E+06         0.21857E+06         0.00000E+00
    0.00000E+00         0.00000E+00         0.19139E+06
 
    0.70441E+06         0.64863E+06         0.00000E+00
    0.64863E+06         0.22982E+06         0.00000E+00
    0.00000E+00         0.00000E+00         0.18685E+06
 
    0.67081E+06         0.65639E+06         0.00000E+00
    0.65639E+06         0.24102E+06         0.00000E+00
    0.00000E+00         0.00000E+00         0.18237E+06
 
    0.63767E+06         0.66334E+06         0.00000E+00
    0.66334E+06         0.25215E+06         0.00000E+00
    0.00000E+00         0.00000E+00         0.17796E+06
 
    0.60502E+06         0.66951E+06         0.00000E+00
    0.66951E+06         0.26318E+06         0.00000E+00
    0.00000E+00         0.00000E+00         0.17364E+06
 
    0.57292E+06         0.67494E+06         0.00000E+00
    0.67494E+06         0.27410E+06         0.00000E+00
    0.00000E+00         0.00000E+00         0.16940E+06
 
    0.54140E+06         0.67967E+06         0.00000E+00
    0.67967E+06         0.28490E+06         0.00000E+00
    0.00000E+00         0.00000E+00         0.16526E+06
 
    0.51051E+06         0.68374E+06         0.00000E+00
    0.68374E+06         0.29558E+06         0.00000E+00
    0.00000E+00         0.00000E+00         0.16122E+06
 
    0.48027E+06         0.68721E+06         0.00000E+00
    0.68721E+06         0.30611E+06         0.00000E+00
    0.00000E+00         0.00000E+00         0.15727E+06
 
    0.45071E+06         0.69010E+06         0.00000E+00
    0.69010E+06         0.31648E+06         0.00000E+00
    0.00000E+00         0.00000E+00         0.15344E+06
 
    0.42188E+06         0.69247E+06         0.00000E+00
    0.69247E+06         0.32669E+06         0.00000E+00
    0.00000E+00         0.00000E+00         0.14972E+06
 
    0.39380E+06         0.69435E+06         0.00000E+00
    0.69435E+06         0.33674E+06         0.00000E+00
    0.00000E+00         0.00000E+00         0.14611E+06
 
    0.36649E+06         0.69581E+06         0.00000E+00
    0.69581E+06         0.34660E+06         0.00000E+00
    0.00000E+00         0.00000E+00         0.14262E+06
 
    0.33996E+06         0.69687E+06         0.00000E+00
    0.69687E+06         0.35628E+06         0.00000E+00
    0.00000E+00         0.00000E+00         0.13925E+06
 
    0.31425E+06         0.69760E+06         0.00000E+00
    0.69760E+06         0.36578E+06         0.00000E+00
    0.00000E+00         0.00000E+00         0.13601E+06
 
    0.28937E+06         0.69803E+06         0.00000E+00
    0.69803E+06         0.37508E+06         0.00000E+00
    0.00000E+00         0.00000E+00         0.13289E+06
 
    0.26532E+06         0.69823E+06         0.00000E+00
    0.69823E+06         0.38419E+06         0.00000E+00
    0.00000E+00         0.00000E+00         0.12990E+06
 
    0.24211E+06         0.69824E+06         0.00000E+00
    0.69824E+06         0.39310E+06         0.00000E+00
    0.00000E+00         0.00000E+00         0.12704E+06
 
    0.21976E+06         0.69812E+06         0.00000E+00
    0.69812E+06         0.40183E+06         0.00000E+00
    0.00000E+00         0.00000E+00         0.12432E+06
 
    0.19825E+06         0.69792E+06         0.00000E+00
    0.69792E+06         0.41036E+06         0.00000E+00
    0.00000E+00         0.00000E+00         0.12172E+06
 
    0.17758E+06         0.69769E+06         0.00000E+00
    0.69769E+06         0.41871E+06         0.00000E+00
    0.00000E+00         0.00000E+00         0.11926E+06
 
    0.15776E+06         0.69749E+06         0.00000E+00
    0.69749E+06         0.42689E+06         0.00000E+00
    0.00000E+00         0.00000E+00         0.11693E+06
 
    0.13875E+06         0.69739E+06         0.00000E+00
    0.69739E+06         0.43489E+06         0.00000E+00
    0.00000E+00         0.00000E+00         0.11473E+06
 
    0.12056E+06         0.69742E+06         0.00000E+00
    0.69742E+06         0.44274E+06         0.00000E+00
    0.00000E+00         0.00000E+00         0.11266E+06
 
    0.17385E+07         0.24252E+05         0.00000E+00
    0.24252E+05        -0.33493E+03         0.00000E+00
    0.00000E+00         0.00000E+00         0.34763E+06
 
    0.17154E+07         0.69176E+05         0.00000E+00
    0.69176E+05         0.96374E+03         0.00000E+00
    0.00000E+00         0.00000E+00         0.34327E+06
 
    0.16901E+07         0.11253E+06         0.00000E+00
    0.11253E+06         0.33670E+04         0.00000E+00
    0.00000E+00         0.00000E+00         0.33868E+06
 
    0.16627E+07         0.15429E+06         0.00000E+00
    0.15429E+06         0.67917E+04         0.00000E+00
    0.00000E+00         0.00000E+00         0.33390E+06
 
    0.16335E+07         0.19444E+06         0.00000E+00
    0.19444E+06         0.11158E+05         0.00000E+00
    0.00000E+00         0.00000E+00         0.32892E+06
 
    0.16025E+07         0.23296E+06         0.00000E+00
    0.23296E+06         0.16388E+05         0.00000E+00
    0.00000E+00         0.00000E+00         0.32377E+06
 
    0.15699E+07         0.26986E+06         0.00000E+00
    0.26986E+06         0.22407E+05         0.00000E+00
    0.00000E+00         0.00000E+00         0.31847E+06
 
    0.15360E+07         0.30514E+06         0.00000E+00
    0.30514E+06         0.29145E+05         0.00000E+00
    0.00000E+00         0.00000E+00         0.31302E+06
 
    0.15007E+07         0.33880E+06         0.00000E+00
    0.33880E+06         0.36535E+05         0.00000E+00
    0.00000E+00         0.00000E+00         0.30745E+06
 
    0.14644E+07         0.37085E+06         0.00000E+00
    0.37085E+06         0.44510E+05         0.00000E+00
    0.00000E+00         0.00000E+00         0.30177E+06
 
    0.14270E+07         0.40131E+06         0.00000E+00
    0.40131E+06         0.53011E+05         0.00000E+00
    0.00000E+00         0.00000E+00         0.29600E+06
 
    0.13887E+07         0.43020E+06         0.00000E+00
    0.43020E+06         0.61980E+05         0.00000E+00
    0.00000E+00         0.00000E+00         0.29014E+06
 
    0.13497E+07         0.45754E+06         0.00000E+00
    0.45754E+06         0.71362E+05         0.00000E+00
    0.00000E+00         0.00000E+00         0.28422E+06
 
    0.13101E+07         0.48336E+06         0.00000E+00
    0.48336E+06         0.81107E+05         0.00000E+00
    0.00000E+00         0.00000E+00         0.27824E+06
 
    0.12700E+07         0.50769E+06         0.00000E+00
    0.50769E+06         0.91166E+05         0.00000E+00
    0.00000E+00         0.00000E+00         0.27223E+06
 
    0.12294E+07         0.53056E+06         0.00000E+00
    0.53056E+06         0.10150E+06         0.00000E+00
    0.00000E+00         0.00000E+00         0.26619E+06
 
    0.11886E+07         0.55199E+06         0.00000E+00
    0.55199E+06         0.11206E+06         0.00000E+00
    0.00000E+00         0.00000E+00         0.26013E+06
 
    0.11476E+07         0.57204E+06         0.00000E+00
    0.57204E+06         0.12281E+06         0.00000E+00
    0.00000E+00         0.00000E+00         0.25407E+06
 
    0.11064E+07         0.59073E+06         0.00000E+00
    0.59073E+06         0.13371E+06         0.00000E+00
    0.00000E+00         0.00000E+00         0.24803E+06
 
    0.10652E+07         0.60810E+06         0.00000E+00
    0.60810E+06         0.14474E+06         0.00000E+00
    0.00000E+00         0.00000E+00         0.24200E+06
 
    0.10242E+07         0.62419E+06         0.00000E+00
    0.62419E+06         0.15586E+06         0.00000E+00
    0.00000E+00         0.00000E+00         0.23600E+06
 
    0.98321E+06         0.63905E+06         0.00000E+00
    0.63905E+06         0.16705E+06         0.00000E+00
    0.00000E+00         0.00000E+00         0.23005E+06
 
    0.94248E+06         0.65271E+06         0.00000E+00
    0.65271E+06         0.17828E+06         0.00000E+00
    0.00000E+00         0.00000E+00         0.22415E+06
 
    0.90206E+06         0.66522E+06         0.00000E+00
    0.66522E+06         0.18952E+06         0.00000E+00
    0.00000E+00         0.00000E+00         0.21832E+06
 
    0.86200E+06         0.67662E+06         0.00000E+00
    0.67662E+06         0.20076E+06         0.00000E+00
    0.00000E+00         0.00000E+00         0.21255E+06
 
    0.82238E+06         0.68695E+06         0.00000E+00
    0.68695E+06         0.21198E+06         0.00000E+00
    0.00000E+00         0.00000E+00         0.20687E+06
 
    0.78324E+06         0.69626E+06         0.00000E+00
    0.69626E+06         0.22315E+06         0.00000E+00
    0.00000E+00         0.00000E+00         0.20128E+06
 
    0.74466E+06         0.70458E+06         0.00000E+00
    0.70458E+06         0.23426E+06         0.00000E+00
    0.00000E+00         0.00000E+00         0.19578E+06
 
    0.70669E+06         0.71197E+06         0.00000E+00
    0.71197E+06         0.24530E+06         0.00000E+00
    0.00000E+00         0.00000E+00         0.19040E+06
 
    0.66937E+06         0.71846E+06         0.00000E+00
    0.71846E+06         0.25625E+06         0.00000E+00
    0.00000E+00         0.00000E+00         0.18512E+06
 
    0.63277E+06         0.72410E+06         0.00000E+00
    0.72410E+06         0.26710E+06         0.00000E+00
    0.00000E+00         0.00000E+00         0.17997E+06
 
    0.59692E+06         0.72894E+06         0.00000E+00
    0.72894E+06         0.27783E+06         0.00000E+00
    0.00000E+00         0.00000E+00         0.17495E+06
 
    0.56187E+06         0.73302E+06         0.00000E+00
    0.73302E+06         0.28844E+06         0.00000E+00
    0.00000E+00         0.00000E+00         0.17006E+06
 
    0.52766E+06         0.73638E+06         0.00000E+00
    0.73638E+06         0.29890E+06         0.00000E+00
    0.00000E+00         0.00000E+00         0.16531E+06
 
    0.49434E+06         0.73908E+06         0.00000E+00
    0.73908E+06         0.30922E+06         0.00000E+00
    0.00000E+00         0.00000E+00         0.16071E+06
 
    0.46194E+06         0.74116E+06         0.00000E+00
    0.74116E+06         0.31938E+06         0.00000E+00
    0.00000E+00         0.00000E+00         0.15626E+06
 
    0.43048E+06         0.74267E+06         0.00000E+00
    0.74267E+06         0.32938E+06         0.00000E+00
    0.00000E+00         0.00000E+00         0.15197E+06
 
    0.40002E+06         0.74366E+06         0.00000E+00
    0.74366E+06         0.33919E+06         0.00000E+00
    0.00000E+00         0.00000E+00         0.14784E+06
 
    0.37057E+06         0.74418E+06         0.00000E+00
    0.74418E+06         0.34882E+06         0.00000E+00
    0.00000E+00         0.00000E+00         0.14388E+06
 
    0.34217E+06         0.74428E+06         0.00000E+00
    0.74428E+06         0.35826E+06         0.00000E+00
    0.00000E+00         0.00000E+00         0.14009E+06
 
    0.31484E+06         0.74401E+06         0.00000E+00
    0.74401E+06         0.36749E+06         0.00000E+00
    0.00000E+00         0.00000E+00         0.13647E+06
 
    0.28860E+06         0.74344E+06         0.00000E+00
    0.74344E+06         0.37652E+06         0.00000E+00
    0.00000E+00         0.00000E+00         0.13302E+06
 
    0.26347E+06         0.74261E+06         0.00000E+00
    0.74261E+06         0.38533E+06         0.00000E+00
    0.00000E+00         0.00000E+00         0.12976E+06
 
    0.23946E+06         0.74159E+06         0.00000E+00
    0.74159E+06         0.39393E+06         0.00000E+00
    0.00000E+00         0.00000E+00         0.12668E+06
 
    0.21659E+06         0.74044E+06         0.00000E+00
    0.74044E+06         0.40231E+06         0.00000E+00
    0.00000E+00         0.00000E+00         0.12378E+06
 
    0.19486E+06         0.73922E+06         0.00000E+00
    0.73922E+06         0.41047E+06         0.00000E+00
    0.00000E+00         0.00000E+00         0.12107E+06
 
    0.17429E+06         0.73799E+06         0.00000E+00
    0.73799E+06         0.41840E+06         0.00000E+00
    0.00000E+00         0.00000E+00         0.11854E+06
 
    0.15486E+06         0.73683E+06         0.00000E+00
    0.73683E+06         0.42612E+06         0.00000E+00
    0.00000E+00         0.00000E+00         0.11620E+06
 
    0.13658E+06         0.73580E+06         0.00000E+00
    0.73580E+06         0.43362E+06         0.00000E+00
    0.00000E+00         0.00000E+00         0.11404E+06
 
    0.11943E+06         0.73498E+06         0.00000E+00
    0.73498E+06         0.44092E+06         0.00000E+00
    0.00000E+00         0.00000E+00         0.11207E+06
 
    0.19822E+07         0.27772E+05         0.00000E+00
    0.27772E+05        -0.34730E+03         0.00000E+00
    0.00000E+00         0.00000E+00         0.39637E+06
 
    0.19501E+07         0.78594E+05         0.00000E+00
    0.78594E+05         0.10422E+04         0.00000E+00
    0.00000E+00         0.00000E+00         0.39024E+06
 
    0.19158E+07         0.12738E+06         0.00000E+00
    0.12738E+06         0.35812E+04         0.00000E+00
    0.00000E+00         0.00000E+00         0.38388E+06
 
    0.18794E+07         0.17412E+06         0.00000E+00
    0.17412E+06         0.71688E+04         0.00000E+00
    0.00000E+00         0.00000E+00         0.37730E+06
 
    0.18410E+07         0.21881E+06         0.00000E+00
    0.21881E+06         0.11708E+05         0.00000E+00
    0.00000E+00         0.00000E+00         0.37054E+06
 
    0.18009E+07         0.26147E+06         0.00000E+00
    0.26147E+06         0.17108E+05         0.00000E+00
    0.00000E+00         0.00000E+00         0.36361E+06
 
    0.17593E+07         0.30212E+06         0.00000E+00
    0.30212E+06         0.23280E+05         0.00000E+00
    0.00000E+00         0.00000E+00         0.35652E+06
 
    0.17164E+07         0.34076E+06         0.00000E+00
    0.34076E+06         0.30143E+05         0.00000E+00
    0.00000E+00         0.00000E+00         0.34930E+06
 
    0.16722E+07         0.37744E+06         0.00000E+00
    0.37744E+06         0.37618E+05         0.00000E+00
    0.00000E+00         0.00000E+00         0.34197E+06
 
    0.16271E+07         0.41217E+06         0.00000E+00
    0.41217E+06         0.45634E+05         0.00000E+00
    0.00000E+00         0.00000E+00         0.33454E+06
 
    0.15810E+07         0.44501E+06         0.00000E+00
    0.44501E+06         0.54122E+05         0.00000E+00
    0.00000E+00         0.00000E+00         0.32703E+06
 
    0.15343E+07         0.47598E+06         0.00000E+00
    0.47598E+06         0.63021E+05         0.00000E+00
    0.00000E+00         0.00000E+00         0.31946E+06
 
    0.14870E+07         0.50513E+06         0.00000E+00
    0.50513E+06         0.72272E+05         0.00000E+00
    0.00000E+00         0.00000E+00         0.31185E+06
 
    0.14392E+07         0.53251E+06         0.00000E+00
    0.53251E+06         0.81822E+05         0.00000E+00
    0.00000E+00         0.00000E+00         0.30421E+06
 
    0.13912E+07         0.55816E+06         0.00000E+00
    0.55816E+06         0.91622E+05         0.00000E+00
    0.00000E+00         0.00000E+00         0.29656E+06
 
    0.13429E+07         0.58214E+06         0.00000E+00
    0.58214E+06         0.10163E+06         0.00000E+00
    0.00000E+00         0.00000E+00         0.28890E+06
 
    0.12945E+07         0.60449E+06         0.00000E+00
    0.60449E+06         0.11180E+06         0.00000E+00
    0.00000E+00         0.00000E+00         0.28127E+06
 
    0.12462E+07         0.62527E+06         0.00000E+00
    0.62527E+06         0.12211E+06         0.00000E+00
    0.00000E+00         0.00000E+00         0.27366E+06
 
    0.11980E+07         0.64454E+06         0.00000E+00
    0.64454E+06         0.13251E+06         0.00000E+00
    0.00000E+00         0.00000E+00         0.26610E+06
 
    0.11500E+07         0.66234E+06         0.00000E+00
    0.66234E+06         0.14299E+06         0.00000E+00
    0.00000E+00         0.00000E+00         0.25860E+06
 
    0.11023E+07         0.67872E+06         0.00000E+00
    0.67872E+06         0.15351E+06         0.00000E+00
    0.00000E+00         0.00000E+00         0.25116E+06
 
    0.10550E+07         0.69376E+06         0.00000E+00
    0.69376E+06         0.16406E+06         0.00000E+00
    0.00000E+00         0.00000E+00         0.24381E+06
 
    0.10081E+07         0.70749E+06         0.00000E+00
    0.70749E+06         0.17461E+06         0.00000E+00
    0.00000E+00         0.00000E+00         0.23655E+06
 
    0.96180E+06         0.71996E+06         0.00000E+00
    0.71996E+06         0.18515E+06         0.00000E+00
    0.00000E+00         0.00000E+00         0.22939E+06
 
    0.91608E+06         0.73124E+06         0.00000E+00
    0.73124E+06         0.19566E+06         0.00000E+00
    0.00000E+00         0.00000E+00         0.22235E+06
 
    0.87103E+06         0.74137E+06         0.00000E+00
    0.74137E+06         0.20613E+06         0.00000E+00
    0.00000E+00         0.00000E+00         0.21543E+06
 
    0.82670E+06         0.75040E+06         0.00000E+00
    0.75040E+06         0.21655E+06         0.00000E+00
    0.00000E+00         0.00000E+00         0.20865E+06
 
    0.78316E+06         0.75838E+06         0.00000E+00
    0.75838E+06         0.22691E+06         0.00000E+00
    0.00000E+00         0.00000E+00         0.20201E+06
 
    0.74045E+06         0.76536E+06         0.00000E+00
    0.76536E+06         0.23720E+06         0.00000E+00
    0.00000E+00         0.00000E+00         0.19553E+06
 
    0.69864E+06         0.77139E+06         0.00000E+00
    0.77139E+06         0.24741E+06         0.00000E+00
    0.00000E+00         0.00000E+00         0.18921E+06
 
    0.65776E+06         0.77652E+06         0.00000E+00
    0.77652E+06         0.25753E+06         0.00000E+00
    0.00000E+00         0.00000E+00         0.18306E+06
 
    0.61787E+06         0.78079E+06         0.00000E+00
    0.78079E+06         0.26755E+06         0.00000E+00
    0.00000E+00         0.00000E+00         0.17708E+06
 
    0.57902E+06         0.78425E+06         0.00000E+00
    0.78425E+06         0.27747E+06         0.00000E+00
    0.00000E+00         0.00000E+00         0.17130E+06
 
    0.54124E+06         0.78694E+06         0.00000E+00
    0.78694E+06         0.28727E+06         0.00000E+00
    0.00000E+00         0.00000E+00         0.16570E+06
 
    0.50458E+06         0.78892E+06         0.00000E+00
    0.78892E+06         0.29695E+06         0.00000E+00
    0.00000E+00         0.00000E+00         0.16031E+06
 
    0.46909E+06         0.79023E+06         0.00000E+00
    0.79023E+06         0.30650E+06         0.00000E+00
    0.00000E+00         0.00000E+00         0.15512E+06
 
    0.43479E+06         0.79092E+06         0.00000E+00
    0.79092E+06         0.31591E+06         0.00000E+00
    0.00000E+00         0.00000E+00         0.15014E+06
 
    0.40173E+06         0.79105E+06         0.00000E+00
    0.79105E+06         0.32517E+06         0.00000E+00
    0.00000E+00         0.00000E+00         0.14538E+06
 
    0.36996E+06         0.79065E+06         0.00000E+00
    0.79065E+06         0.33426E+06         0.00000E+00
    0.00000E+00         0.00000E+00         0.14084E+06
 
    0.33949E+06         0.78979E+06         0.00000E+00
    0.78979E+06         0.34318E+06         0.00000E+00
    0.00000E+00         0.00000E+00         0.13653E+06
 
    0.31037E+06         0.78853E+06         0.00000E+00
    0.78853E+06         0.35192E+06         0.00000E+00
    0.00000E+00         0.00000E+00         0.13246E+06
 
    0.28264E+06         0.78691E+06         0.00000E+00
    0.78691E+06         0.36046E+06         0.00000E+00
    0.00000E+00         0.00000E+00         0.12862E+06
 
    0.25631E+06         0.78500E+06         0.00000E+00
    0.78500E+06         0.36879E+06         0.00000E+00
    0.00000E+00         0.00000E+00         0.12502E+06
 
    0.23142E+06         0.78286E+06         0.00000E+00
    0.78286E+06         0.37690E+06         0.00000E+00
    0.00000E+00         0.00000E+00         0.12167E+06
 
    0.20800E+06         0.78056E+06         0.00000E+00
    0.78056E+06         0.38479E+06         0.00000E+00
    0.00000E+00         0.00000E+00         0.11856E+06
 
    0.18606E+06         0.77818E+06         0.00000E+00
    0.77818E+06         0.39243E+06         0.00000E+00
    0.00000E+00         0.00000E+00         0.11570E+06
 
    0.16563E+06         0.77577E+06         0.00000E+00
    0.77577E+06         0.39983E+06         0.00000E+00
    0.00000E+00         0.00000E+00         0.11309E+06
 
    0.14671E+06         0.77343E+06         0.00000E+00
    0.77343E+06         0.40697E+06         0.00000E+00
    0.00000E+00         0.00000E+00         0.11074E+06
 
    0.12933E+06         0.77123E+06         0.00000E+00
    0.77123E+06         0.41385E+06         0.00000E+00
    0.00000E+00         0.00000E+00         0.10864E+06
 
    0.11347E+06         0.76926E+06         0.00000E+00
    0.76926E+06         0.42047E+06         0.00000E+00
    0.00000E+00         0.00000E+00         0.10679E+06
 
    0.22572E+07         0.31502E+05         0.00000E+00
    0.31502E+05        -0.34505E+03         0.00000E+00
    0.00000E+00         0.00000E+00         0.45137E+06
 
    0.22136E+07         0.88376E+05         0.00000E+00
    0.88376E+05         0.10877E+04         0.00000E+00
    0.00000E+00         0.00000E+00         0.44293E+06
 
    0.21677E+07         0.14264E+06         0.00000E+00
    0.14264E+06         0.36608E+04         0.00000E+00
    0.00000E+00         0.00000E+00         0.43427E+06
 
    0.21197E+07         0.19433E+06         0.00000E+00
    0.19433E+06         0.72530E+04         0.00000E+00
    0.00000E+00         0.00000E+00         0.42540E+06
 
    0.20700E+07         0.24346E+06         0.00000E+00
    0.24346E+06         0.11750E+05         0.00000E+00
    0.00000E+00         0.00000E+00         0.41634E+06
 
    0.20186E+07         0.29007E+06         0.00000E+00
    0.29007E+06         0.17043E+05         0.00000E+00
    0.00000E+00         0.00000E+00         0.40713E+06
 
    0.19659E+07         0.33420E+06         0.00000E+00
    0.33420E+06         0.23031E+05         0.00000E+00
    0.00000E+00         0.00000E+00         0.39778E+06
 
    0.19120E+07         0.37591E+06         0.00000E+00
    0.37591E+06         0.29622E+05         0.00000E+00
    0.00000E+00         0.00000E+00         0.38833E+06
 
    0.18572E+07         0.41526E+06         0.00000E+00
    0.41526E+06         0.36727E+05         0.00000E+00
    0.00000E+00         0.00000E+00         0.37878E+06
 
    0.18015E+07         0.45230E+06         0.00000E+00
    0.45230E+06         0.44267E+05         0.00000E+00
    0.00000E+00         0.00000E+00         0.36916E+06
 
    0.17453E+07         0.48710E+06         0.00000E+00
    0.48710E+06         0.52170E+05         0.00000E+00
    0.00000E+00         0.00000E+00         0.35949E+06
 
    0.16886E+07         0.51973E+06         0.00000E+00
    0.51973E+06         0.60370E+05         0.00000E+00
    0.00000E+00         0.00000E+00         0.34980E+06
 
    0.16317E+07         0.55026E+06         0.00000E+00
    0.55026E+06         0.68808E+05         0.00000E+00
    0.00000E+00         0.00000E+00         0.34010E+06
 
    0.15746E+07         0.57877E+06         0.00000E+00
    0.57877E+06         0.77433E+05         0.00000E+00
    0.00000E+00         0.00000E+00         0.33040E+06
 
    0.15175E+07         0.60533E+06         0.00000E+00
    0.60533E+06         0.86199E+05         0.00000E+00
    0.00000E+00         0.00000E+00         0.32074E+06
 
    0.14605E+07         0.63001E+06         0.00000E+00
    0.63001E+06         0.95066E+05         0.00000E+00
    0.00000E+00         0.00000E+00         0.31111E+06
 
    0.14037E+07         0.65290E+06         0.00000E+00
    0.65290E+06         0.10400E+06         0.00000E+00
    0.00000E+00         0.00000E+00         0.30155E+06
 
    0.13473E+07         0.67406E+06         0.00000E+00
    0.67406E+06         0.11298E+06         0.00000E+00
    0.00000E+00         0.00000E+00         0.29206E+06
 
    0.12914E+07         0.69358E+06         0.00000E+00
    0.69358E+06         0.12197E+06         0.00000E+00
    0.00000E+00         0.00000E+00         0.28267E+06
 
    0.12359E+07         0.71152E+06         0.00000E+00
    0.71152E+06         0.13096E+06         0.00000E+00
    0.00000E+00         0.00000E+00         0.27337E+06
 
    0.11811E+07         0.72795E+06         0.00000E+00
    0.72795E+06         0.13994E+06         0.00000E+00
    0.00000E+00         0.00000E+00         0.26420E+06
 
    0.11269E+07         0.74296E+06         0.00000E+00
    0.74296E+06         0.14889E+06         0.00000E+00
    0.00000E+00         0.00000E+00         0.25516E+06
 
    0.10735E+07         0.75659E+06         0.00000E+00
    0.75659E+06         0.15781E+06         0.00000E+00
    0.00000E+00         0.00000E+00         0.24627E+06
 
    0.10210E+07         0.76892E+06         0.00000E+00
    0.76892E+06         0.16669E+06         0.00000E+00
    0.00000E+00         0.00000E+00         0.23753E+06
 
    0.96926E+06         0.78001E+06         0.00000E+00
    0.78001E+06         0.17553E+06         0.00000E+00
    0.00000E+00         0.00000E+00         0.22896E+06
 
    0.91851E+06         0.78992E+06         0.00000E+00
    0.78992E+06         0.18433E+06         0.00000E+00
    0.00000E+00         0.00000E+00         0.22057E+06
 
    0.86874E+06         0.79870E+06         0.00000E+00
    0.79870E+06         0.19309E+06         0.00000E+00
    0.00000E+00         0.00000E+00         0.21237E+06
 
    0.82001E+06         0.80641E+06         0.00000E+00
    0.80641E+06         0.20182E+06         0.00000E+00
    0.00000E+00         0.00000E+00         0.20437E+06
 
    0.77236E+06         0.81309E+06         0.00000E+00
    0.81309E+06         0.21051E+06         0.00000E+00
    0.00000E+00         0.00000E+00         0.19657E+06
 
    0.72584E+06         0.81880E+06         0.00000E+00
    0.81880E+06         0.21916E+06         0.00000E+00
    0.00000E+00         0.00000E+00         0.18900E+06
 
    0.68050E+06         0.82359E+06         0.00000E+00
    0.82359E+06         0.22778E+06         0.00000E+00
    0.00000E+00         0.00000E+00         0.18166E+06
 
    0.63637E+06         0.82749E+06         0.00000E+00
    0.82749E+06         0.23637E+06         0.00000E+00
    0.00000E+00         0.00000E+00         0.17455E+06
 
    0.59351E+06         0.83055E+06         0.00000E+00
    0.83055E+06         0.24492E+06         0.00000E+00
    0.00000E+00         0.00000E+00         0.16769E+06
 
    0.55194E+06         0.83282E+06         0.00000E+00
    0.83282E+06         0.25343E+06         0.00000E+00
    0.00000E+00         0.00000E+00         0.16107E+06
 
    0.51172E+06         0.83434E+06         0.00000E+00
    0.83434E+06         0.26190E+06         0.00000E+00
    0.00000E+00         0.00000E+00         0.15473E+06
 
    0.47289E+06         0.83514E+06         0.00000E+00
    0.83514E+06         0.27033E+06         0.00000E+00
    0.00000E+00         0.00000E+00         0.14864E+06
 
    0.43550E+06         0.83527E+06         0.00000E+00
    0.83527E+06         0.27869E+06         0.00000E+00
    0.00000E+00         0.00000E+00         0.14284E+06
 
    0.39958E+06         0.83478E+06         0.00000E+00
    0.83478E+06         0.28698E+06         0.00000E+00
    0.00000E+00         0.00000E+00         0.13731E+06
 
    0.36519E+06         0.83370E+06         0.00000E+00
    0.83370E+06         0.29519E+06         0.00000E+00
    0.00000E+00         0.00000E+00         0.13208E+06
 
    0.33237E+06         0.83209E+06         0.00000E+00
    0.83209E+06         0.30330E+06         0.00000E+00
    0.00000E+00         0.00000E+00         0.12713E+06
 
    0.30118E+06         0.83000E+06         0.00000E+00
    0.83000E+06         0.31129E+06         0.00000E+00
    0.00000E+00         0.00000E+00         0.12249E+06
 
    0.27165E+06         0.82748E+06         0.00000E+00
    0.82748E+06         0.31914E+06         0.00000E+00
    0.00000E+00         0.00000E+00         0.11816E+06
 
    0.24384E+06         0.82459E+06         0.00000E+00
    0.82459E+06         0.32683E+06         0.00000E+00
    0.00000E+00         0.00000E+00         0.11413E+06
 
    0.21779E+06         0.82138E+06         0.00000E+00
    0.82138E+06         0.33435E+06         0.00000E+00
    0.00000E+00         0.00000E+00         0.11043E+06
 
    0.19356E+06         0.81794E+06         0.00000E+00
    0.81794E+06         0.34165E+06         0.00000E+00
    0.00000E+00         0.00000E+00         0.10704E+06
 
    0.17118E+06         0.81432E+06         0.00000E+00
    0.81432E+06         0.34873E+06         0.00000E+00
    0.00000E+00         0.00000E+00         0.10398E+06
 
    0.15071E+06         0.81062E+06         0.00000E+00
    0.81062E+06         0.35555E+06         0.00000E+00
    0.00000E+00         0.00000E+00         0.10125E+06
 
    0.13217E+06         0.80690E+06         0.00000E+00
    0.80690E+06         0.36210E+06         0.00000E+00
    0.00000E+00         0.00000E+00         0.98854E+05
 
    0.11561E+06         0.80328E+06         0.00000E+00
    0.80328E+06         0.36834E+06         0.00000E+00
    0.00000E+00         0.00000E+00         0.96791E+05
 
    0.10106E+06         0.79984E+06         0.00000E+00
    0.79984E+06         0.37427E+06         0.00000E+00
    0.00000E+00         0.00000E+00         0.95065E+05
 
    0.25638E+07         0.35296E+05         0.00000E+00
    0.35296E+05        -0.32854E+03         0.00000E+00
    0.00000E+00         0.00000E+00         0.51269E+06
 
    0.25054E+07         0.98053E+05         0.00000E+00
    0.98053E+05         0.10752E+04         0.00000E+00
    0.00000E+00         0.00000E+00         0.50130E+06
 
    0.24449E+07         0.15752E+06         0.00000E+00
    0.15752E+06         0.35297E+04         0.00000E+00
    0.00000E+00         0.00000E+00         0.48969E+06
 
    0.23826E+07         0.21377E+06         0.00000E+00
    0.21377E+06         0.68904E+04         0.00000E+00
    0.00000E+00         0.00000E+00         0.47790E+06
 
    0.23187E+07         0.26685E+06         0.00000E+00
    0.26685E+06         0.11022E+05         0.00000E+00
    0.00000E+00         0.00000E+00         0.46595E+06
 
    0.22536E+07         0.31685E+06         0.00000E+00
    0.31685E+06         0.15800E+05         0.00000E+00
    0.00000E+00         0.00000E+00         0.45387E+06
 
    0.21874E+07         0.36386E+06         0.00000E+00
    0.36386E+06         0.21107E+05         0.00000E+00
    0.00000E+00         0.00000E+00         0.44170E+06
 
    0.21204E+07         0.40797E+06         0.00000E+00
    0.40797E+06         0.26839E+05         0.00000E+00
    0.00000E+00         0.00000E+00         0.42945E+06
 
    0.20529E+07         0.44928E+06         0.00000E+00
    0.44928E+06         0.32900E+05         0.00000E+00
    0.00000E+00         0.00000E+00         0.41715E+06
 
    0.19849E+07         0.48789E+06         0.00000E+00
    0.48789E+06         0.39206E+05         0.00000E+00
    0.00000E+00         0.00000E+00         0.40483E+06
 
    0.19169E+07         0.52392E+06         0.00000E+00
    0.52392E+06         0.45681E+05         0.00000E+00
    0.00000E+00         0.00000E+00         0.39251E+06
 
    0.18488E+07         0.55746E+06         0.00000E+00
    0.55746E+06         0.52260E+05         0.00000E+00
    0.00000E+00         0.00000E+00         0.38022E+06
 
    0.17809E+07         0.58864E+06         0.00000E+00
    0.58864E+06         0.58888E+05         0.00000E+00
    0.00000E+00         0.00000E+00         0.36797E+06
 
    0.17134E+07         0.61757E+06         0.00000E+00
    0.61757E+06         0.65520E+05         0.00000E+00
    0.00000E+00         0.00000E+00         0.35578E+06
 
    0.16463E+07         0.64436E+06         0.00000E+00
    0.64436E+06         0.72119E+05         0.00000E+00
    0.00000E+00         0.00000E+00         0.34368E+06
 
    0.15798E+07         0.66911E+06         0.00000E+00
    0.66911E+06         0.78656E+05         0.00000E+00
    0.00000E+00         0.00000E+00         0.33169E+06
 
    0.15139E+07         0.69195E+06         0.00000E+00
    0.69195E+06         0.85112E+05         0.00000E+00
    0.00000E+00         0.00000E+00         0.31981E+06
 
    0.14489E+07         0.71297E+06         0.00000E+00
    0.71297E+06         0.91474E+05         0.00000E+00
    0.00000E+00         0.00000E+00         0.30807E+06
 
    0.13847E+07         0.73228E+06         0.00000E+00
    0.73228E+06         0.97736E+05         0.00000E+00
    0.00000E+00         0.00000E+00         0.29649E+06
 
    0.13215E+07         0.74998E+06         0.00000E+00
    0.74998E+06         0.10390E+06         0.00000E+00
    0.00000E+00         0.00000E+00         0.28508E+06
 
    0.12593E+07         0.76615E+06         0.00000E+00
    0.76615E+06         0.10997E+06         0.00000E+00
    0.00000E+00         0.00000E+00         0.27385E+06
 
    0.11981E+07         0.78089E+06         0.00000E+00
    0.78089E+06         0.11595E+06         0.00000E+00
    0.00000E+00         0.00000E+00         0.26282E+06
 
    0.11381E+07         0.79429E+06         0.00000E+00
    0.79429E+06         0.12187E+06         0.00000E+00
    0.00000E+00         0.00000E+00         0.25199E+06
 
    0.10792E+07         0.80641E+06         0.00000E+00
    0.80641E+06         0.12773E+06         0.00000E+00
    0.00000E+00         0.00000E+00         0.24139E+06
 
    0.10216E+07         0.81733E+06         0.00000E+00
    0.81733E+06         0.13356E+06         0.00000E+00
    0.00000E+00         0.00000E+00         0.23103E+06
 
    0.96515E+06         0.82712E+06         0.00000E+00
    0.82712E+06         0.13937E+06         0.00000E+00
    0.00000E+00         0.00000E+00         0.22090E+06
 
    0.90999E+06         0.83583E+06         0.00000E+00
    0.83583E+06         0.14520E+06         0.00000E+00
    0.00000E+00         0.00000E+00         0.21104E+06
 
    0.85613E+06         0.84352E+06         0.00000E+00
    0.84352E+06         0.15105E+06         0.00000E+00
    0.00000E+00         0.00000E+00         0.20144E+06
 
    0.80359E+06         0.85024E+06         0.00000E+00
    0.85024E+06         0.15696E+06         0.00000E+00
    0.00000E+00         0.00000E+00         0.19211E+06
 
    0.75241E+06         0.85602E+06         0.00000E+00
    0.85602E+06         0.16294E+06         0.00000E+00
    0.00000E+00         0.00000E+00         0.18307E+06
 
    0.70261E+06         0.86092E+06         0.00000E+00
    0.86092E+06         0.16900E+06         0.00000E+00
    0.00000E+00         0.00000E+00         0.17432E+06
 
    0.65422E+06         0.86496E+06         0.00000E+00
    0.86496E+06         0.17516E+06         0.00000E+00
    0.00000E+00         0.00000E+00         0.16588E+06
 
    0.60727E+06         0.86817E+06         0.00000E+00
    0.86817E+06         0.18144E+06         0.00000E+00
    0.00000E+00         0.00000E+00         0.15774E+06
 
    0.56181E+06         0.87058E+06         0.00000E+00
    0.87058E+06         0.18783E+06         0.00000E+00
    0.00000E+00         0.00000E+00         0.14993E+06
 
    0.51786E+06         0.87223E+06         0.00000E+00
    0.87223E+06         0.19435E+06         0.00000E+00
    0.00000E+00         0.00000E+00         0.14244E+06
 
    0.47547E+06         0.87313E+06         0.00000E+00
    0.87313E+06         0.20098E+06         0.00000E+00
    0.00000E+00         0.00000E+00         0.13529E+06
 
    0.43470E+06         0.87331E+06         0.00000E+00
    0.87331E+06         0.20773E+06         0.00000E+00
    0.00000E+00         0.00000E+00         0.12848E+06
 
    0.39558E+06         0.87280E+06         0.00000E+00
    0.87280E+06         0.21457E+06         0.00000E+00
    0.00000E+00         0.00000E+00         0.12203E+06
 
    0.35818E+06         0.87162E+06         0.00000E+00
    0.87162E+06         0.22150E+06         0.00000E+00
    0.00000E+00         0.00000E+00         0.11594E+06
 
    0.32255E+06         0.86981E+06         0.00000E+00
    0.86981E+06         0.22849E+06         0.00000E+00
    0.00000E+00         0.00000E+00         0.11021E+06
 
    0.28878E+06         0.86739E+06         0.00000E+00
    0.86739E+06         0.23551E+06         0.00000E+00
    0.00000E+00         0.00000E+00         0.10486E+06
 
    0.25691E+06         0.86440E+06         0.00000E+00
    0.86440E+06         0.24253E+06         0.00000E+00
    0.00000E+00         0.00000E+00         0.99887E+05
 
    0.22703E+06         0.86090E+06         0.00000E+00
    0.86090E+06         0.24951E+06         0.00000E+00
    0.00000E+00         0.00000E+00         0.95309E+05
 
    0.19922E+06         0.85692E+06         0.00000E+00
    0.85692E+06         0.25642E+06         0.00000E+00
    0.00000E+00         0.00000E+00         0.91128E+05
 
    0.17355E+06         0.85254E+06         0.00000E+00
    0.85254E+06         0.26321E+06         0.00000E+00
    0.00000E+00         0.00000E+00         0.87351E+05
 
    0.15011E+06         0.84780E+06         0.00000E+00
    0.84780E+06         0.26982E+06         0.00000E+00
    0.00000E+00         0.00000E+00         0.83986E+05
 
    0.12898E+06         0.84280E+06         0.00000E+00
    0.84280E+06         0.27622E+06         0.00000E+00
    0.00000E+00         0.00000E+00         0.81039E+05
 
    0.11024E+06         0.83761E+06         0.00000E+00
    0.83761E+06         0.28234E+06         0.00000E+00
    0.00000E+00         0.00000E+00         0.78516E+05
 
    0.93973E+05         0.83233E+06         0.00000E+00
    0.83233E+06         0.28814E+06         0.00000E+00
    0.00000E+00         0.00000E+00         0.76423E+05
 
    0.80257E+05         0.82707E+06         0.00000E+00
    0.82707E+06         0.29357E+06         0.00000E+00
    0.00000E+00         0.00000E+00         0.74765E+05
 
    0.29003E+07         0.38950E+05         0.00000E+00
    0.38950E+05        -0.32241E+03         0.00000E+00
    0.00000E+00         0.00000E+00         0.58000E+06
 
    0.28233E+07         0.10695E+06         0.00000E+00
    0.10695E+06         0.95235E+03         0.00000E+00
    0.00000E+00         0.00000E+00         0.56486E+06
 
    0.27446E+07         0.17085E+06         0.00000E+00
    0.17085E+06         0.30751E+04         0.00000E+00
    0.00000E+00         0.00000E+00         0.54954E+06
 
    0.26645E+07         0.23076E+06         0.00000E+00
    0.23076E+06         0.58731E+04         0.00000E+00
    0.00000E+00         0.00000E+00         0.53408E+06
 
    0.25834E+07         0.28680E+06         0.00000E+00
    0.28680E+06         0.91868E+04         0.00000E+00
    0.00000E+00         0.00000E+00         0.51852E+06
 
    0.25016E+07         0.33912E+06         0.00000E+00
    0.33912E+06         0.12870E+05         0.00000E+00
    0.00000E+00         0.00000E+00         0.50288E+06
 
    0.24193E+07         0.38786E+06         0.00000E+00
    0.38786E+06         0.16792E+05         0.00000E+00
    0.00000E+00         0.00000E+00         0.48721E+06
 
    0.23368E+07         0.43317E+06         0.00000E+00
    0.43317E+06         0.20835E+05         0.00000E+00
    0.00000E+00         0.00000E+00         0.47153E+06
 
    0.22545E+07         0.47522E+06         0.00000E+00
    0.47522E+06         0.24895E+05         0.00000E+00
    0.00000E+00         0.00000E+00         0.45587E+06
 
    0.21724E+07         0.51416E+06         0.00000E+00
    0.51416E+06         0.28887E+05         0.00000E+00
    0.00000E+00         0.00000E+00         0.44026E+06
 
    0.20909E+07         0.55018E+06         0.00000E+00
    0.55018E+06         0.32736E+05         0.00000E+00
    0.00000E+00         0.00000E+00         0.42473E+06
 
    0.20101E+07         0.58343E+06         0.00000E+00
    0.58343E+06         0.36383E+05         0.00000E+00
    0.00000E+00         0.00000E+00         0.40930E+06
 
    0.19302E+07         0.61409E+06         0.00000E+00
    0.61409E+06         0.39784E+05         0.00000E+00
    0.00000E+00         0.00000E+00         0.39399E+06
 
    0.18513E+07         0.64233E+06         0.00000E+00
    0.64233E+06         0.42907E+05         0.00000E+00
    0.00000E+00         0.00000E+00         0.37883E+06
 
    0.17735E+07         0.66830E+06         0.00000E+00
    0.66830E+06         0.45734E+05         0.00000E+00
    0.00000E+00         0.00000E+00         0.36384E+06
 
    0.16969E+07         0.69218E+06         0.00000E+00
    0.69218E+06         0.48257E+05         0.00000E+00
    0.00000E+00         0.00000E+00         0.34904E+06
 
    0.16217E+07         0.71411E+06         0.00000E+00
    0.71411E+06         0.50481E+05         0.00000E+00
    0.00000E+00         0.00000E+00         0.33444E+06
 
    0.15479E+07         0.73424E+06         0.00000E+00
    0.73424E+06         0.52419E+05         0.00000E+00
    0.00000E+00         0.00000E+00         0.32007E+06
 
    0.14756E+07         0.75272E+06         0.00000E+00
    0.75272E+06         0.54096E+05         0.00000E+00
    0.00000E+00         0.00000E+00         0.30594E+06
 
    0.14048E+07         0.76967E+06         0.00000E+00
    0.76967E+06         0.55543E+05         0.00000E+00
    0.00000E+00         0.00000E+00         0.29206E+06
 
    0.13354E+07         0.78521E+06         0.00000E+00
    0.78521E+06         0.56797E+05         0.00000E+00
    0.00000E+00         0.00000E+00         0.27845E+06
 
    0.12677E+07         0.79945E+06         0.00000E+00
    0.79945E+06         0.57903E+05         0.00000E+00
    0.00000E+00         0.00000E+00         0.26511E+06
 
    0.12015E+07         0.81250E+06         0.00000E+00
    0.81250E+06         0.58908E+05         0.00000E+00
    0.00000E+00         0.00000E+00         0.25207E+06
 
    0.11368E+07         0.82445E+06         0.00000E+00
    0.82445E+06         0.59865E+05         0.00000E+00
    0.00000E+00         0.00000E+00         0.23933E+06
 
    0.10737E+07         0.83538E+06         0.00000E+00
    0.83538E+06         0.60826E+05         0.00000E+00
    0.00000E+00         0.00000E+00         0.22691E+06
 
    0.10122E+07         0.84535E+06         0.00000E+00
    0.84535E+06         0.61847E+05         0.00000E+00
    0.00000E+00         0.00000E+00         0.21481E+06
 
    0.95219E+06         0.85442E+06         0.00000E+00
    0.85442E+06         0.62982E+05         0.00000E+00
    0.00000E+00         0.00000E+00         0.20303E+06
 
    0.89373E+06         0.86265E+06         0.00000E+00
    0.86265E+06         0.64283E+05         0.00000E+00
    0.00000E+00         0.00000E+00         0.19160E+06
 
    0.83679E+06         0.87007E+06         0.00000E+00
    0.87007E+06         0.65800E+05         0.00000E+00
    0.00000E+00         0.00000E+00         0.18052E+06
 
    0.78138E+06         0.87670E+06         0.00000E+00
    0.87670E+06         0.67581E+05         0.00000E+00
    0.00000E+00         0.00000E+00         0.16979E+06
 
    0.72749E+06         0.88258E+06         0.00000E+00
    0.88258E+06         0.69668E+05         0.00000E+00
    0.00000E+00         0.00000E+00         0.15943E+06
 
    0.67512E+06         0.88771E+06         0.00000E+00
    0.88771E+06         0.72097E+05         0.00000E+00
    0.00000E+00         0.00000E+00         0.14944E+06
 
    0.62427E+06         0.89210E+06         0.00000E+00
    0.89210E+06         0.74899E+05         0.00000E+00
    0.00000E+00         0.00000E+00         0.13983E+06
 
    0.57498E+06         0.89575E+06         0.00000E+00
    0.89575E+06         0.78096E+05         0.00000E+00
    0.00000E+00         0.00000E+00         0.13062E+06
 
    0.52726E+06         0.89865E+06         0.00000E+00
    0.89865E+06         0.81705E+05         0.00000E+00
    0.00000E+00         0.00000E+00         0.12179E+06
 
    0.48115E+06         0.90080E+06         0.00000E+00
    0.90080E+06         0.85732E+05         0.00000E+00
    0.00000E+00         0.00000E+00         0.11338E+06
 
    0.43669E+06         0.90219E+06         0.00000E+00
    0.90219E+06         0.90175E+05         0.00000E+00
    0.00000E+00         0.00000E+00         0.10537E+06
 
    0.39394E+06         0.90281E+06         0.00000E+00
    0.90281E+06         0.95024E+05         0.00000E+00
    0.00000E+00         0.00000E+00         0.97793E+05
 
    0.35297E+06         0.90264E+06         0.00000E+00
    0.90264E+06         0.10026E+06         0.00000E+00
    0.00000E+00         0.00000E+00         0.90644E+05
 
    0.31384E+06         0.90170E+06         0.00000E+00
    0.90170E+06         0.10584E+06         0.00000E+00
    0.00000E+00         0.00000E+00         0.83937E+05
 
    0.27666E+06         0.89996E+06         0.00000E+00
    0.89996E+06         0.11174E+06         0.00000E+00
    0.00000E+00         0.00000E+00         0.77680E+05
 
    0.24152E+06         0.89744E+06         0.00000E+00
    0.89744E+06         0.11790E+06         0.00000E+00
    0.00000E+00         0.00000E+00         0.71885E+05
 
    0.20853E+06         0.89414E+06         0.00000E+00
    0.89414E+06         0.12427E+06         0.00000E+00
    0.00000E+00         0.00000E+00         0.66560E+05
 
    0.17781E+06         0.89010E+06         0.00000E+00
    0.89010E+06         0.13077E+06         0.00000E+00
    0.00000E+00         0.00000E+00         0.61717E+05
 
    0.14950E+06         0.88533E+06         0.00000E+00
    0.88533E+06         0.13733E+06         0.00000E+00
    0.00000E+00         0.00000E+00         0.57365E+05
 
    0.12372E+06         0.87989E+06         0.00000E+00
    0.87989E+06         0.14387E+06         0.00000E+00
    0.00000E+00         0.00000E+00         0.53517E+05
 
    0.10062E+06         0.87383E+06         0.00000E+00
    0.87383E+06         0.15029E+06         0.00000E+00
    0.00000E+00         0.00000E+00         0.50182E+05
 
    0.80352E+05         0.86722E+06         0.00000E+00
    0.86722E+06         0.15651E+06         0.00000E+00
    0.00000E+00         0.00000E+00         0.47372E+05
 
    0.63065E+05         0.86016E+06         0.00000E+00
    0.86016E+06         0.16242E+06         0.00000E+00
    0.00000E+00         0.00000E+00         0.45096E+05
 
    0.48912E+05         0.85276E+06         0.00000E+00
    0.85276E+06         0.16792E+06         0.00000E+00
    0.00000E+00         0.00000E+00         0.43366E+05
 
    0.32623E+07         0.42189E+05         0.00000E+00
    0.42189E+05        -0.44836E+03         0.00000E+00
    0.00000E+00         0.00000E+00         0.65237E+06
 
    0.31620E+07         0.11415E+06         0.00000E+00
    0.11415E+06         0.56834E+03         0.00000E+00
    0.00000E+00         0.00000E+00         0.63252E+06
 
    0.30608E+07         0.18102E+06         0.00000E+00
    0.18102E+06         0.20754E+04         0.00000E+00
    0.00000E+00         0.00000E+00         0.61257E+06
 
    0.29590E+07         0.24299E+06         0.00000E+00
    0.24299E+06         0.38625E+04         0.00000E+00
    0.00000E+00         0.00000E+00         0.59256E+06
 
    0.28569E+07         0.30027E+06         0.00000E+00
    0.30027E+06         0.57381E+04         0.00000E+00
    0.00000E+00         0.00000E+00         0.57253E+06
 
    0.27551E+07         0.35307E+06         0.00000E+00
    0.35307E+06         0.75306E+04         0.00000E+00
    0.00000E+00         0.00000E+00         0.55252E+06
 
    0.26538E+07         0.40163E+06         0.00000E+00
    0.40163E+06         0.90895E+04         0.00000E+00
    0.00000E+00         0.00000E+00         0.53257E+06
 
    0.25533E+07         0.44620E+06         0.00000E+00
    0.44620E+06         0.10286E+05         0.00000E+00
    0.00000E+00         0.00000E+00         0.51272E+06
 
    0.24540E+07         0.48702E+06         0.00000E+00
    0.48702E+06         0.11011E+05         0.00000E+00
    0.00000E+00         0.00000E+00         0.49299E+06
 
    0.23560E+07         0.52435E+06         0.00000E+00
    0.52435E+06         0.11181E+05         0.00000E+00
    0.00000E+00         0.00000E+00         0.47343E+06
 
    0.22596E+07         0.55844E+06         0.00000E+00
    0.55844E+06         0.10731E+05         0.00000E+00
    0.00000E+00         0.00000E+00         0.45406E+06
 
    0.21649E+07         0.58955E+06         0.00000E+00
    0.58955E+06         0.96170E+04         0.00000E+00
    0.00000E+00         0.00000E+00         0.43490E+06
 
    0.20722E+07         0.61793E+06         0.00000E+00
    0.61793E+06         0.78156E+04         0.00000E+00
    0.00000E+00         0.00000E+00         0.41599E+06
 
    0.19814E+07         0.64382E+06         0.00000E+00
    0.64382E+06         0.53224E+04         0.00000E+00
    0.00000E+00         0.00000E+00         0.39735E+06
 
    0.18928E+07         0.66746E+06         0.00000E+00
    0.66746E+06         0.21506E+04         0.00000E+00
    0.00000E+00         0.00000E+00         0.37900E+06
 
    0.18064E+07         0.68909E+06         0.00000E+00
    0.68909E+06        -0.16699E+04         0.00000E+00
    0.00000E+00         0.00000E+00         0.36095E+06
 
    0.17222E+07         0.70890E+06         0.00000E+00
    0.70890E+06        -0.60944E+04         0.00000E+00
    0.00000E+00         0.00000E+00         0.34323E+06
 
    0.16403E+07         0.72712E+06         0.00000E+00
    0.72712E+06        -0.11065E+05         0.00000E+00
    0.00000E+00         0.00000E+00         0.32585E+06
 
    0.15606E+07         0.74392E+06         0.00000E+00
    0.74392E+06        -0.16511E+05         0.00000E+00
    0.00000E+00         0.00000E+00         0.30882E+06
 
    0.14831E+07         0.75948E+06         0.00000E+00
    0.75948E+06        -0.22353E+05         0.00000E+00
    0.00000E+00         0.00000E+00         0.29215E+06
 
    0.14078E+07         0.77396E+06         0.00000E+00
    0.77396E+06        -0.28502E+05         0.00000E+00
    0.00000E+00         0.00000E+00         0.27587E+06
 
    0.13347E+07         0.78749E+06         0.00000E+00
    0.78749E+06        -0.34863E+05         0.00000E+00
    0.00000E+00         0.00000E+00         0.25996E+06
 
    0.12636E+07         0.80019E+06         0.00000E+00
    0.80019E+06        -0.41337E+05         0.00000E+00
    0.00000E+00         0.00000E+00         0.24445E+06
 
    0.11945E+07         0.81217E+06         0.00000E+00
    0.81217E+06        -0.47819E+05         0.00000E+00
    0.00000E+00         0.00000E+00         0.22934E+06
 
    0.11274E+07         0.82351E+06         0.00000E+00
    0.82351E+06        -0.54206E+05         0.00000E+00
    0.00000E+00         0.00000E+00         0.21464E+06
 
    0.10621E+07         0.83428E+06         0.00000E+00
    0.83428E+06        -0.60392E+05         0.00000E+00
    0.00000E+00         0.00000E+00         0.20035E+06
 
    0.99865E+06         0.84453E+06         0.00000E+00
    0.84453E+06        -0.66275E+05         0.00000E+00
    0.00000E+00         0.00000E+00         0.18647E+06
 
    0.93687E+06         0.85430E+06         0.00000E+00
    0.85430E+06        -0.71756E+05         0.00000E+00
    0.00000E+00         0.00000E+00         0.17302E+06
 
    0.87673E+06         0.86360E+06         0.00000E+00
    0.86360E+06        -0.76740E+05         0.00000E+00
    0.00000E+00         0.00000E+00         0.16000E+06
 
    0.81816E+06         0.87243E+06         0.00000E+00
    0.87243E+06        -0.81139E+05         0.00000E+00
    0.00000E+00         0.00000E+00         0.14740E+06
 
    0.76111E+06         0.88078E+06         0.00000E+00
    0.88078E+06        -0.84874E+05         0.00000E+00
    0.00000E+00         0.00000E+00         0.13525E+06
 
    0.70553E+06         0.88862E+06         0.00000E+00
    0.88862E+06        -0.87872E+05         0.00000E+00
    0.00000E+00         0.00000E+00         0.12353E+06
 
    0.65139E+06         0.89592E+06         0.00000E+00
    0.89592E+06        -0.90073E+05         0.00000E+00
    0.00000E+00         0.00000E+00         0.11226E+06
 
    0.59867E+06         0.90263E+06         0.00000E+00
    0.90263E+06        -0.91428E+05         0.00000E+00
    0.00000E+00         0.00000E+00         0.10145E+06
 
    0.54736E+06         0.90869E+06         0.00000E+00
    0.90869E+06        -0.91901E+05         0.00000E+00
    0.00000E+00         0.00000E+00         0.91091E+05
 
    0.49748E+06         0.91404E+06         0.00000E+00
    0.91404E+06        -0.91469E+05         0.00000E+00
    0.00000E+00         0.00000E+00         0.81202E+05
 
    0.44906E+06         0.91860E+06         0.00000E+00
    0.91860E+06        -0.90124E+05         0.00000E+00
    0.00000E+00         0.00000E+00         0.71787E+05
 
    0.40216E+06         0.92232E+06         0.00000E+00
    0.92232E+06        -0.87873E+05         0.00000E+00
    0.00000E+00         0.00000E+00         0.62856E+05
 
    0.35684E+06         0.92511E+06         0.00000E+00
    0.92511E+06        -0.84739E+05         0.00000E+00
    0.00000E+00         0.00000E+00         0.54420E+05
 
    0.31320E+06         0.92691E+06         0.00000E+00
    0.92691E+06        -0.80762E+05         0.00000E+00
    0.00000E+00         0.00000E+00         0.46488E+05
 
    0.27136E+06         0.92765E+06         0.00000E+00
    0.92765E+06        -0.75996E+05         0.00000E+00
    0.00000E+00         0.00000E+00         0.39072E+05
 
    0.23145E+06         0.92727E+06         0.00000E+00
    0.92727E+06        -0.70516E+05         0.00000E+00
    0.00000E+00         0.00000E+00         0.32187E+05
 
    0.19363E+06         0.92572E+06         0.00000E+00
    0.92572E+06        -0.64410E+05         0.00000E+00
    0.00000E+00         0.00000E+00         0.25844E+05
 
    0.15808E+06         0.92296E+06         0.00000E+00
    0.92296E+06        -0.57784E+05         0.00000E+00
    0.00000E+00         0.00000E+00         0.20059E+05
 
    0.12500E+06         0.91897E+06         0.00000E+00
    0.91897E+06        -0.50758E+05         0.00000E+00
    0.00000E+00         0.00000E+00         0.14848E+05
 
    0.94603E+05         0.91374E+06         0.00000E+00
    0.91374E+06        -0.43468E+05         0.00000E+00
    0.00000E+00         0.00000E+00         0.10227E+05
 
    0.67125E+05         0.90729E+06         0.00000E+00
    0.90729E+06        -0.36061E+05         0.00000E+00
    0.00000E+00         0.00000E+00         0.62127E+04
 
    0.42814E+05         0.89966E+06         0.00000E+00
    0.89966E+06        -0.28700E+05         0.00000E+00
    0.00000E+00         0.00000E+00         0.28229E+04
 
    0.21932E+05         0.89091E+06         0.00000E+00
    0.89091E+06        -0.21553E+05         0.00000E+00
    0.00000E+00         0.00000E+00         0.75715E+02
 
    0.47472E+04         0.88112E+06         0.00000E+00
    0.88112E+06        -0.14800E+05         0.00000E+00
    0.00000E+00         0.00000E+00        -0.20106E+04
 
    0.36413E+07         0.44681E+05         0.00000E+00
    0.44681E+05        -0.11814E+04         0.00000E+00
    0.00000E+00         0.00000E+00         0.72802E+06
 
    0.35121E+07         0.11845E+06         0.00000E+00
    0.11845E+06        -0.58457E+03         0.00000E+00
    0.00000E+00         0.00000E+00         0.70230E+06
 
    0.33830E+07         0.18590E+06         0.00000E+00
    0.18590E+06        -0.69643E+02         0.00000E+00
    0.00000E+00         0.00000E+00         0.67659E+06
 
    0.32546E+07         0.24733E+06         0.00000E+00
    0.24733E+06         0.97307E+02         0.00000E+00
    0.00000E+00         0.00000E+00         0.65094E+06
 
    0.31274E+07         0.30307E+06         0.00000E+00
    0.30307E+06        -0.32001E+03         0.00000E+00
    0.00000E+00         0.00000E+00         0.62541E+06
 
    0.30018E+07         0.35346E+06         0.00000E+00
    0.35346E+06        -0.15267E+04         0.00000E+00
    0.00000E+00         0.00000E+00         0.60005E+06
 
    0.28782E+07         0.39888E+06         0.00000E+00
    0.39888E+06        -0.36951E+04         0.00000E+00
    0.00000E+00         0.00000E+00         0.57491E+06
 
    0.27571E+07         0.43969E+06         0.00000E+00
    0.43969E+06        -0.69643E+04         0.00000E+00
    0.00000E+00         0.00000E+00         0.55003E+06
 
    0.26386E+07         0.47629E+06         0.00000E+00
    0.47629E+06        -0.11440E+05         0.00000E+00
    0.00000E+00         0.00000E+00         0.52544E+06
 
    0.25231E+07         0.50905E+06         0.00000E+00
    0.50905E+06        -0.17196E+05         0.00000E+00
    0.00000E+00         0.00000E+00         0.50118E+06
 
    0.24108E+07         0.53837E+06         0.00000E+00
    0.53837E+06        -0.24274E+05         0.00000E+00
    0.00000E+00         0.00000E+00         0.47730E+06
 
    0.23017E+07         0.56461E+06         0.00000E+00
    0.56461E+06        -0.32685E+05         0.00000E+00
    0.00000E+00         0.00000E+00         0.45380E+06
 
    0.21961E+07         0.58815E+06         0.00000E+00
    0.58815E+06        -0.42411E+05         0.00000E+00
    0.00000E+00         0.00000E+00         0.43073E+06
 
    0.20939E+07         0.60934E+06         0.00000E+00
    0.60934E+06        -0.53409E+05         0.00000E+00
    0.00000E+00         0.00000E+00         0.40810E+06
 
    0.19953E+07         0.62852E+06         0.00000E+00
    0.62852E+06        -0.65610E+05         0.00000E+00
    0.00000E+00         0.00000E+00         0.38594E+06
 
    0.19002E+07         0.64601E+06         0.00000E+00
    0.64601E+06        -0.78926E+05         0.00000E+00
    0.00000E+00         0.00000E+00         0.36425E+06
 
    0.18085E+07         0.66209E+06         0.00000E+00
    0.66209E+06        -0.93245E+05         0.00000E+00
    0.00000E+00         0.00000E+00         0.34305E+06
 
    0.17202E+07         0.67706E+06         0.00000E+00
    0.67706E+06        -0.10844E+06         0.00000E+00
    0.00000E+00         0.00000E+00         0.32235E+06
 
    0.16352E+07         0.69115E+06         0.00000E+00
    0.69115E+06        -0.12438E+06         0.00000E+00
    0.00000E+00         0.00000E+00         0.30216E+06
 
    0.15533E+07         0.70458E+06         0.00000E+00
    0.70458E+06        -0.14090E+06         0.00000E+00
    0.00000E+00         0.00000E+00         0.28249E+06
 
    0.14745E+07         0.71756E+06         0.00000E+00
    0.71756E+06        -0.15784E+06         0.00000E+00
    0.00000E+00         0.00000E+00         0.26333E+06
 
    0.13985E+07         0.73025E+06         0.00000E+00
    0.73025E+06        -0.17503E+06         0.00000E+00
    0.00000E+00         0.00000E+00         0.24468E+06
 
    0.13251E+07         0.74279E+06         0.00000E+00
    0.74279E+06        -0.19231E+06         0.00000E+00
    0.00000E+00         0.00000E+00         0.22656E+06
 
    0.12543E+07         0.75530E+06         0.00000E+00
    0.75530E+06        -0.20949E+06         0.00000E+00
    0.00000E+00         0.00000E+00         0.20896E+06
 
    0.11857E+07         0.76785E+06         0.00000E+00
    0.76785E+06        -0.22640E+06         0.00000E+00
    0.00000E+00         0.00000E+00         0.19187E+06
 
    0.11193E+07         0.78051E+06         0.00000E+00
    0.78051E+06        -0.24286E+06         0.00000E+00
    0.00000E+00         0.00000E+00         0.17529E+06
 
    0.10548E+07         0.79331E+06         0.00000E+00
    0.79331E+06        -0.25871E+06         0.00000E+00
    0.00000E+00         0.00000E+00         0.15923E+06
 
    0.99213E+06         0.80625E+06         0.00000E+00
    0.80625E+06        -0.27378E+06         0.00000E+00
    0.00000E+00         0.00000E+00         0.14367E+06
 
    0.93100E+06         0.81931E+06         0.00000E+00
    0.81931E+06        -0.28792E+06         0.00000E+00
    0.00000E+00         0.00000E+00         0.12862E+06
 
    0.87130E+06         0.83246E+06         0.00000E+00
    0.83246E+06        -0.30098E+06         0.00000E+00
    0.00000E+00         0.00000E+00         0.11406E+06
 
    0.81289E+06         0.84562E+06         0.00000E+00
    0.84562E+06        -0.31283E+06         0.00000E+00
    0.00000E+00         0.00000E+00         0.10001E+06
 
    0.75563E+06         0.85872E+06         0.00000E+00
    0.85872E+06        -0.32334E+06         0.00000E+00
    0.00000E+00         0.00000E+00         0.86457E+05
 
    0.69943E+06         0.87163E+06         0.00000E+00
    0.87163E+06        -0.33242E+06         0.00000E+00
    0.00000E+00         0.00000E+00         0.73401E+05
 
    0.64420E+06         0.88426E+06         0.00000E+00
    0.88426E+06        -0.33998E+06         0.00000E+00
    0.00000E+00         0.00000E+00         0.60844E+05
 
    0.58988E+06         0.89645E+06         0.00000E+00
    0.89645E+06        -0.34594E+06         0.00000E+00
    0.00000E+00         0.00000E+00         0.48788E+05
 
    0.53645E+06         0.90805E+06         0.00000E+00
    0.90805E+06        -0.35026E+06         0.00000E+00
    0.00000E+00         0.00000E+00         0.37238E+05
 
    0.48390E+06         0.91891E+06         0.00000E+00
    0.91891E+06        -0.35290E+06         0.00000E+00
    0.00000E+00         0.00000E+00         0.26200E+05
 
    0.43228E+06         0.92885E+06         0.00000E+00
    0.92885E+06        -0.35388E+06         0.00000E+00
    0.00000E+00         0.00000E+00         0.15680E+05
 
    0.38164E+06         0.93771E+06         0.00000E+00
    0.93771E+06        -0.35319E+06         0.00000E+00
    0.00000E+00         0.00000E+00         0.56888E+04
 
    0.33208E+06         0.94531E+06         0.00000E+00
    0.94531E+06        -0.35089E+06         0.00000E+00
    0.00000E+00         0.00000E+00        -0.37621E+04
 
    0.28376E+06         0.95148E+06         0.00000E+00
    0.95148E+06        -0.34706E+06         0.00000E+00
    0.00000E+00         0.00000E+00        -0.12659E+05
 
    0.23685E+06         0.95605E+06         0.00000E+00
    0.95605E+06        -0.34177E+06         0.00000E+00
    0.00000E+00         0.00000E+00        -0.20986E+05
 
    0.19155E+06         0.95886E+06         0.00000E+00
    0.95886E+06        -0.33517E+06         0.00000E+00
    0.00000E+00         0.00000E+00        -0.28725E+05
 
    0.14812E+06         0.95978E+06         0.00000E+00
    0.95978E+06        -0.32741E+06         0.00000E+00
    0.00000E+00         0.00000E+00        -0.35856E+05
 
    0.10686E+06         0.95867E+06         0.00000E+00
    0.95867E+06        -0.31865E+06         0.00000E+00
    0.00000E+00         0.00000E+00        -0.42357E+05
 
    0.68094E+05         0.95544E+06         0.00000E+00
    0.95544E+06        -0.30911E+06         0.00000E+00
    0.00000E+00         0.00000E+00        -0.48203E+05
 
    0.32173E+05         0.95001E+06         0.00000E+00
    0.95001E+06        -0.29902E+06         0.00000E+00
    0.00000E+00         0.00000E+00        -0.53369E+05
 
   -0.50446E+03         0.94234E+06         0.00000E+00
    0.94234E+06        -0.28863E+06         0.00000E+00
    0.00000E+00         0.00000E+00        -0.57826E+05
 
   -0.29516E+05         0.93241E+06         0.00000E+00
    0.93241E+06        -0.27821E+06         0.00000E+00
    0.00000E+00         0.00000E+00        -0.61546E+05
 
   -0.54414E+05         0.92028E+06         0.00000E+00
    0.92028E+06        -0.26807E+06         0.00000E+00
    0.00000E+00         0.00000E+00        -0.64498E+05
 
    0.40229E+07         0.46021E+05         0.00000E+00
    0.46021E+05        -0.41894E+04         0.00000E+00
    0.00000E+00         0.00000E+00         0.80373E+06
 
    0.38573E+07         0.11823E+06         0.00000E+00
    0.11823E+06        -0.42309E+04         0.00000E+00
    0.00000E+00         0.00000E+00         0.77061E+06
 
    0.36937E+07         0.18251E+06         0.00000E+00
    0.18251E+06        -0.52454E+04         0.00000E+00
    0.00000E+00         0.00000E+00         0.73769E+06
 
    0.35328E+07         0.23935E+06         0.00000E+00
    0.23935E+06        -0.75817E+04         0.00000E+00
    0.00000E+00         0.00000E+00         0.70505E+06
 
    0.33753E+07         0.28927E+06         0.00000E+00
    0.28927E+06        -0.11538E+05         0.00000E+00
    0.00000E+00         0.00000E+00         0.67276E+06
 
    0.32217E+07         0.33284E+06         0.00000E+00
    0.33284E+06        -0.17359E+05         0.00000E+00
    0.00000E+00         0.00000E+00         0.64087E+06
 
    0.30725E+07         0.37062E+06         0.00000E+00
    0.37062E+06        -0.25235E+05         0.00000E+00
    0.00000E+00         0.00000E+00         0.60945E+06
 
    0.29280E+07         0.40320E+06         0.00000E+00
    0.40320E+06        -0.35303E+05         0.00000E+00
    0.00000E+00         0.00000E+00         0.57855E+06
 
    0.27887E+07         0.43118E+06         0.00000E+00
    0.43118E+06        -0.47649E+05         0.00000E+00
    0.00000E+00         0.00000E+00         0.54821E+06
 
    0.26547E+07         0.45512E+06         0.00000E+00
    0.45512E+06        -0.62308E+05         0.00000E+00
    0.00000E+00         0.00000E+00         0.51848E+06
 
    0.25262E+07         0.47561E+06         0.00000E+00
    0.47561E+06        -0.79270E+05         0.00000E+00
    0.00000E+00         0.00000E+00         0.48938E+06
 
    0.24032E+07         0.49319E+06         0.00000E+00
    0.49319E+06        -0.98481E+05         0.00000E+00
    0.00000E+00         0.00000E+00         0.46095E+06
 
    0.22859E+07         0.50840E+06         0.00000E+00
    0.50840E+06        -0.11985E+06         0.00000E+00
    0.00000E+00         0.00000E+00         0.43320E+06
 
    0.21740E+07         0.52174E+06         0.00000E+00
    0.52174E+06        -0.14324E+06         0.00000E+00
    0.00000E+00         0.00000E+00         0.40616E+06
 
    0.20677E+07         0.53366E+06         0.00000E+00
    0.53366E+06        -0.16851E+06         0.00000E+00
    0.00000E+00         0.00000E+00         0.37984E+06
 
    0.19666E+07         0.54461E+06         0.00000E+00
    0.54461E+06        -0.19546E+06         0.00000E+00
    0.00000E+00         0.00000E+00         0.35423E+06
 
    0.18707E+07         0.55498E+06         0.00000E+00
    0.55498E+06        -0.22389E+06         0.00000E+00
    0.00000E+00         0.00000E+00         0.32936E+06
 
    0.17796E+07         0.56512E+06         0.00000E+00
    0.56512E+06        -0.25356E+06         0.00000E+00
    0.00000E+00         0.00000E+00         0.30520E+06
 
    0.16931E+07         0.57536E+06         0.00000E+00
    0.57536E+06        -0.28424E+06         0.00000E+00
    0.00000E+00         0.00000E+00         0.28177E+06
 
    0.16109E+07         0.58596E+06         0.00000E+00
    0.58596E+06        -0.31568E+06         0.00000E+00
    0.00000E+00         0.00000E+00         0.25905E+06
 
    0.15327E+07         0.59717E+06         0.00000E+00
    0.59717E+06        -0.34760E+06         0.00000E+00
    0.00000E+00         0.00000E+00         0.23703E+06
 
    0.14582E+07         0.60917E+06         0.00000E+00
    0.60917E+06        -0.37975E+06         0.00000E+00
    0.00000E+00         0.00000E+00         0.21569E+06
 
    0.13870E+07         0.62211E+06         0.00000E+00
    0.62211E+06        -0.41186E+06         0.00000E+00
    0.00000E+00         0.00000E+00         0.19503E+06
 
    0.13188E+07         0.63612E+06         0.00000E+00
    0.63612E+06        -0.44365E+06         0.00000E+00
    0.00000E+00         0.00000E+00         0.17503E+06
 
    0.12532E+07         0.65125E+06         0.00000E+00
    0.65125E+06        -0.47487E+06         0.00000E+00
    0.00000E+00         0.00000E+00         0.15567E+06
 
    0.11899E+07         0.66756E+06         0.00000E+00
    0.66756E+06        -0.50524E+06         0.00000E+00
    0.00000E+00         0.00000E+00         0.13693E+06
 
    0.11285E+07         0.68503E+06         0.00000E+00
    0.68503E+06        -0.53453E+06         0.00000E+00
    0.00000E+00         0.00000E+00         0.11879E+06
 
    0.10687E+07         0.70362E+06         0.00000E+00
    0.70362E+06        -0.56248E+06         0.00000E+00
    0.00000E+00         0.00000E+00         0.10125E+06
 
    0.10102E+07         0.72327E+06         0.00000E+00
    0.72327E+06        -0.58886E+06         0.00000E+00
    0.00000E+00         0.00000E+00         0.84275E+05
 
    0.95274E+06         0.74386E+06         0.00000E+00
    0.74386E+06        -0.61346E+06         0.00000E+00
    0.00000E+00         0.00000E+00         0.67856E+05
 
    0.89597E+06         0.76526E+06         0.00000E+00
    0.76526E+06        -0.63608E+06         0.00000E+00
    0.00000E+00         0.00000E+00         0.51978E+05
 
    0.83967E+06         0.78729E+06         0.00000E+00
    0.78729E+06        -0.65653E+06         0.00000E+00
    0.00000E+00         0.00000E+00         0.36627E+05
 
    0.78361E+06         0.80977E+06         0.00000E+00
    0.80977E+06        -0.67464E+06         0.00000E+00
    0.00000E+00         0.00000E+00         0.21794E+05
 
    0.72762E+06         0.83245E+06         0.00000E+00
    0.83245E+06        -0.69028E+06         0.00000E+00
    0.00000E+00         0.00000E+00         0.74677E+04
 
    0.67154E+06         0.85511E+06         0.00000E+00
    0.85511E+06        -0.70332E+06         0.00000E+00
    0.00000E+00         0.00000E+00        -0.63563E+04
 
    0.61527E+06         0.87746E+06         0.00000E+00
    0.87746E+06        -0.71368E+06         0.00000E+00
    0.00000E+00         0.00000E+00        -0.19682E+05
 
    0.55874E+06         0.89921E+06         0.00000E+00
    0.89921E+06        -0.72128E+06         0.00000E+00
    0.00000E+00         0.00000E+00        -0.32509E+05
 
    0.50193E+06         0.92007E+06         0.00000E+00
    0.92007E+06        -0.72610E+06         0.00000E+00
    0.00000E+00         0.00000E+00        -0.44836E+05
 
    0.44487E+06         0.93970E+06         0.00000E+00
    0.93970E+06        -0.72814E+06         0.00000E+00
    0.00000E+00         0.00000E+00        -0.56654E+05
 
    0.38766E+06         0.95777E+06         0.00000E+00
    0.95777E+06        -0.72743E+06         0.00000E+00
    0.00000E+00         0.00000E+00        -0.67954E+05
 
    0.33044E+06         0.97396E+06         0.00000E+00
    0.97396E+06        -0.72405E+06         0.00000E+00
    0.00000E+00         0.00000E+00        -0.78722E+05
 
    0.27341E+06         0.98793E+06         0.00000E+00
    0.98793E+06        -0.71811E+06         0.00000E+00
    0.00000E+00         0.00000E+00        -0.88939E+05
 
    0.21685E+06         0.99936E+06         0.00000E+00
    0.99936E+06        -0.70976E+06         0.00000E+00
    0.00000E+00         0.00000E+00        -0.98583E+05
 
    0.16107E+06         0.10079E+07         0.00000E+00
    0.10079E+07        -0.69921E+06         0.00000E+00
    0.00000E+00         0.00000E+00        -0.10763E+06
 
    0.10648E+06         0.10133E+07         0.00000E+00
    0.10133E+07        -0.68670E+06         0.00000E+00
    0.00000E+00         0.00000E+00        -0.11604E+06
 
    0.53536E+05         0.10153E+07         0.00000E+00
    0.10153E+07        -0.67251E+06         0.00000E+00
    0.00000E+00         0.00000E+00        -0.12380E+06
 
    0.27645E+04         0.10135E+07         0.00000E+00
    0.10135E+07        -0.65698E+06         0.00000E+00
    0.00000E+00         0.00000E+00        -0.13084E+06
 
   -0.45246E+05         0.10079E+07         0.00000E+00
    0.10079E+07        -0.64049E+06         0.00000E+00
    0.00000E+00         0.00000E+00        -0.13715E+06
 
   -0.89847E+05         0.99826E+06         0.00000E+00
    0.99826E+06        -0.62346E+06         0.00000E+00
    0.00000E+00         0.00000E+00        -0.14266E+06
 
   -0.13033E+06         0.98447E+06         0.00000E+00
    0.98447E+06        -0.60635E+06         0.00000E+00
    0.00000E+00         0.00000E+00        -0.14734E+06
 
    0.43817E+07         0.45617E+05         0.00000E+00
    0.45617E+05        -0.14863E+05         0.00000E+00
    0.00000E+00         0.00000E+00         0.87336E+06
 
    0.41698E+07         0.11100E+06         0.00000E+00
    0.11100E+06        -0.15914E+05         0.00000E+00
    0.00000E+00         0.00000E+00         0.83078E+06
 
    0.39630E+07         0.16628E+06         0.00000E+00
    0.16628E+06        -0.19349E+05         0.00000E+00
    0.00000E+00         0.00000E+00         0.78873E+06
 
    0.37622E+07         0.21228E+06         0.00000E+00
    0.21228E+06        -0.25629E+05         0.00000E+00
    0.00000E+00         0.00000E+00         0.74732E+06
 
    0.35683E+07         0.24990E+06         0.00000E+00
    0.24990E+06        -0.35116E+05         0.00000E+00
    0.00000E+00         0.00000E+00         0.70665E+06
 
    0.33820E+07         0.28003E+06         0.00000E+00
    0.28003E+06        -0.48080E+05         0.00000E+00
    0.00000E+00         0.00000E+00         0.66679E+06
 
    0.32038E+07         0.30360E+06         0.00000E+00
    0.30360E+06        -0.64697E+05         0.00000E+00
    0.00000E+00         0.00000E+00         0.62782E+06
 
    0.30340E+07         0.32152E+06         0.00000E+00
    0.32152E+06        -0.85063E+05         0.00000E+00
    0.00000E+00         0.00000E+00         0.58980E+06
 
    0.28730E+07         0.33470E+06         0.00000E+00
    0.33470E+06        -0.10919E+06         0.00000E+00
    0.00000E+00         0.00000E+00         0.55277E+06
 
    0.27209E+07         0.34400E+06         0.00000E+00
    0.34400E+06        -0.13701E+06         0.00000E+00
    0.00000E+00         0.00000E+00         0.51678E+06
 
    0.25777E+07         0.35026E+06         0.00000E+00
    0.35026E+06        -0.16842E+06         0.00000E+00
    0.00000E+00         0.00000E+00         0.48185E+06
 
    0.24432E+07         0.35427E+06         0.00000E+00
    0.35427E+06        -0.20322E+06         0.00000E+00
    0.00000E+00         0.00000E+00         0.44800E+06
 
    0.23174E+07         0.35676E+06         0.00000E+00
    0.35676E+06        -0.24120E+06         0.00000E+00
    0.00000E+00         0.00000E+00         0.41525E+06
 
    0.22000E+07         0.35840E+06         0.00000E+00
    0.35840E+06        -0.28207E+06         0.00000E+00
    0.00000E+00         0.00000E+00         0.38359E+06
 
    0.20906E+07         0.35983E+06         0.00000E+00
    0.35983E+06        -0.32555E+06         0.00000E+00
    0.00000E+00         0.00000E+00         0.35302E+06
 
    0.19889E+07         0.36159E+06         0.00000E+00
    0.36159E+06        -0.37129E+06         0.00000E+00
    0.00000E+00         0.00000E+00         0.32352E+06
 
    0.18943E+07         0.36418E+06         0.00000E+00
    0.36418E+06        -0.41895E+06         0.00000E+00
    0.00000E+00         0.00000E+00         0.29508E+06
 
    0.18065E+07         0.36804E+06         0.00000E+00
    0.36804E+06        -0.46817E+06         0.00000E+00
    0.00000E+00         0.00000E+00         0.26767E+06
 
    0.17249E+07         0.37353E+06         0.00000E+00
    0.37353E+06        -0.51856E+06         0.00000E+00
    0.00000E+00         0.00000E+00         0.24127E+06
 
    0.16489E+07         0.38098E+06         0.00000E+00
    0.38098E+06        -0.56975E+06         0.00000E+00
    0.00000E+00         0.00000E+00         0.21584E+06
 
    0.15781E+07         0.39064E+06         0.00000E+00
    0.39064E+06        -0.62136E+06         0.00000E+00
    0.00000E+00         0.00000E+00         0.19134E+06
 
    0.15117E+07         0.40270E+06         0.00000E+00
    0.40270E+06        -0.67299E+06         0.00000E+00
    0.00000E+00         0.00000E+00         0.16775E+06
 
    0.14494E+07         0.41732E+06         0.00000E+00
    0.41732E+06        -0.72428E+06         0.00000E+00
    0.00000E+00         0.00000E+00         0.14502E+06
 
    0.13904E+07         0.43457E+06         0.00000E+00
    0.43457E+06        -0.77486E+06         0.00000E+00
    0.00000E+00         0.00000E+00         0.12310E+06
 
    0.13342E+07         0.45450E+06         0.00000E+00
    0.45450E+06        -0.82435E+06         0.00000E+00
    0.00000E+00         0.00000E+00         0.10196E+06
 
    0.12802E+07         0.47710E+06         0.00000E+00
    0.47710E+06        -0.87241E+06         0.00000E+00
    0.00000E+00         0.00000E+00         0.81560E+05
 
    0.12280E+07         0.50233E+06         0.00000E+00
    0.50233E+06        -0.91870E+06         0.00000E+00
    0.00000E+00         0.00000E+00         0.61850E+05
 
    0.11769E+07         0.53006E+06         0.00000E+00
    0.53006E+06        -0.96290E+06         0.00000E+00
    0.00000E+00         0.00000E+00         0.42793E+05
 
    0.11264E+07         0.56017E+06         0.00000E+00
    0.56017E+06        -0.10047E+07         0.00000E+00
    0.00000E+00         0.00000E+00         0.24350E+05
 
    0.10762E+07         0.59247E+06         0.00000E+00
    0.59247E+06        -0.10437E+07         0.00000E+00
    0.00000E+00         0.00000E+00         0.64818E+04
 
    0.10256E+07         0.62672E+06         0.00000E+00
    0.62672E+06        -0.10798E+07         0.00000E+00
    0.00000E+00         0.00000E+00        -0.10846E+05
 
    0.97435E+06         0.66265E+06         0.00000E+00
    0.66265E+06        -0.11127E+07         0.00000E+00
    0.00000E+00         0.00000E+00        -0.27665E+05
 
    0.92200E+06         0.69997E+06         0.00000E+00
    0.69997E+06        -0.11420E+07         0.00000E+00
    0.00000E+00         0.00000E+00        -0.44006E+05
 
    0.86822E+06         0.73831E+06         0.00000E+00
    0.73831E+06        -0.11677E+07         0.00000E+00
    0.00000E+00         0.00000E+00        -0.59895E+05
 
    0.81270E+06         0.77731E+06         0.00000E+00
    0.77731E+06        -0.11895E+07         0.00000E+00
    0.00000E+00         0.00000E+00        -0.75353E+05
 
    0.75521E+06         0.81653E+06         0.00000E+00
    0.81653E+06        -0.12072E+07         0.00000E+00
    0.00000E+00         0.00000E+00        -0.90398E+05
 
    0.69555E+06         0.85552E+06         0.00000E+00
    0.85552E+06        -0.12208E+07         0.00000E+00
    0.00000E+00         0.00000E+00        -0.10504E+06
 
    0.63359E+06         0.89381E+06         0.00000E+00
    0.89381E+06        -0.12301E+07         0.00000E+00
    0.00000E+00         0.00000E+00        -0.11929E+06
 
    0.56928E+06         0.93087E+06         0.00000E+00
    0.93087E+06        -0.12351E+07         0.00000E+00
    0.00000E+00         0.00000E+00        -0.13315E+06
 
    0.50263E+06         0.96618E+06         0.00000E+00
    0.96618E+06        -0.12357E+07         0.00000E+00
    0.00000E+00         0.00000E+00        -0.14662E+06
 
    0.43373E+06         0.99916E+06         0.00000E+00
    0.99916E+06        -0.12321E+07         0.00000E+00
    0.00000E+00         0.00000E+00        -0.15968E+06
 
    0.36277E+06         0.10292E+07         0.00000E+00
    0.10292E+07        -0.12244E+07         0.00000E+00
    0.00000E+00         0.00000E+00        -0.17232E+06
 
    0.29003E+06         0.10558E+07         0.00000E+00
    0.10558E+07        -0.12126E+07         0.00000E+00
    0.00000E+00         0.00000E+00        -0.18451E+06
 
    0.21587E+06         0.10784E+07         0.00000E+00
    0.10784E+07        -0.11970E+07         0.00000E+00
    0.00000E+00         0.00000E+00        -0.19622E+06
 
    0.14078E+06         0.10962E+07         0.00000E+00
    0.10962E+07        -0.11778E+07         0.00000E+00
    0.00000E+00         0.00000E+00        -0.20741E+06
 
    0.65343E+05         0.11089E+07         0.00000E+00
    0.11089E+07        -0.11556E+07         0.00000E+00
    0.00000E+00         0.00000E+00        -0.21804E+06
 
   -0.97321E+04         0.11158E+07         0.00000E+00
    0.11158E+07        -0.11306E+07         0.00000E+00
    0.00000E+00         0.00000E+00        -0.22806E+06
 
   -0.83631E+05         0.11164E+07         0.00000E+00
    0.11164E+07        -0.11034E+07         0.00000E+00
    0.00000E+00         0.00000E+00        -0.23740E+06
 
   -0.15542E+06         0.11103E+07         0.00000E+00
    0.11103E+07        -0.10745E+07         0.00000E+00
    0.00000E+00         0.00000E+00        -0.24599E+06
 
   -0.22405E+06         0.10971E+07         0.00000E+00
    0.10971E+07        -0.10448E+07         0.00000E+00
    0.00000E+00         0.00000E+00        -0.25376E+06
 
    0.46699E+07         0.42262E+05         0.00000E+00
    0.42262E+05        -0.49205E+05         0.00000E+00
    0.00000E+00         0.00000E+00         0.92414E+06
 
    0.43979E+07         0.92231E+05         0.00000E+00
    0.92231E+05        -0.52053E+05         0.00000E+00
    0.00000E+00         0.00000E+00         0.86917E+06
 
    0.41365E+07         0.12922E+06         0.00000E+00
    0.12922E+06        -0.59619E+05         0.00000E+00
    0.00000E+00         0.00000E+00         0.81537E+06
 
    0.38869E+07         0.15473E+06         0.00000E+00
    0.15473E+06        -0.72434E+05         0.00000E+00
    0.00000E+00         0.00000E+00         0.76290E+06
 
    0.36502E+07         0.17028E+06         0.00000E+00
    0.17028E+06        -0.90871E+05         0.00000E+00
    0.00000E+00         0.00000E+00         0.71186E+06
 
    0.34269E+07         0.17736E+06         0.00000E+00
    0.17736E+06        -0.11514E+06         0.00000E+00
    0.00000E+00         0.00000E+00         0.66235E+06
 
    0.32176E+07         0.17746E+06         0.00000E+00
    0.17746E+06        -0.14530E+06         0.00000E+00
    0.00000E+00         0.00000E+00         0.61445E+06
 
    0.30224E+07         0.17200E+06         0.00000E+00
    0.17200E+06        -0.18128E+06         0.00000E+00
    0.00000E+00         0.00000E+00         0.56822E+06
 
    0.28414E+07         0.16232E+06         0.00000E+00
    0.16232E+06        -0.22291E+06         0.00000E+00
    0.00000E+00         0.00000E+00         0.52370E+06
 
    0.26744E+07         0.14968E+06         0.00000E+00
    0.14968E+06        -0.26992E+06         0.00000E+00
    0.00000E+00         0.00000E+00         0.48089E+06
 
    0.25211E+07         0.13525E+06         0.00000E+00
    0.13525E+06        -0.32196E+06         0.00000E+00
    0.00000E+00         0.00000E+00         0.43982E+06
 
    0.23810E+07         0.12008E+06         0.00000E+00
    0.12008E+06        -0.37863E+06         0.00000E+00
    0.00000E+00         0.00000E+00         0.40047E+06
 
    0.22535E+07         0.10513E+06         0.00000E+00
    0.10513E+06        -0.43946E+06         0.00000E+00
    0.00000E+00         0.00000E+00         0.36282E+06
 
    0.21381E+07         0.91270E+05         0.00000E+00
    0.91270E+05        -0.50396E+06         0.00000E+00
    0.00000E+00         0.00000E+00         0.32683E+06
 
    0.20339E+07         0.79236E+05         0.00000E+00
    0.79236E+05        -0.57163E+06         0.00000E+00
    0.00000E+00         0.00000E+00         0.29246E+06
 
    0.19402E+07         0.69685E+05         0.00000E+00
    0.69685E+05        -0.64194E+06         0.00000E+00
    0.00000E+00         0.00000E+00         0.25966E+06
 
    0.18562E+07         0.63173E+05         0.00000E+00
    0.63173E+05        -0.71434E+06         0.00000E+00
    0.00000E+00         0.00000E+00         0.22837E+06
 
    0.17810E+07         0.60165E+05         0.00000E+00
    0.60165E+05        -0.78831E+06         0.00000E+00
    0.00000E+00         0.00000E+00         0.19853E+06
 
    0.17137E+07         0.61040E+05         0.00000E+00
    0.61040E+05        -0.86332E+06         0.00000E+00
    0.00000E+00         0.00000E+00         0.17007E+06
 
    0.16534E+07         0.66100E+05         0.00000E+00
    0.66100E+05        -0.93885E+06         0.00000E+00
    0.00000E+00         0.00000E+00         0.14291E+06
 
    0.15993E+07         0.75569E+05         0.00000E+00
    0.75569E+05        -0.10144E+07         0.00000E+00
    0.00000E+00         0.00000E+00         0.11698E+06
 
    0.15505E+07         0.89604E+05         0.00000E+00
    0.89604E+05        -0.10895E+07         0.00000E+00
    0.00000E+00         0.00000E+00         0.92201E+05
 
    0.15061E+07         0.10830E+06         0.00000E+00
    0.10830E+06        -0.11636E+07         0.00000E+00
    0.00000E+00         0.00000E+00         0.68492E+05
 
    0.14652E+07         0.13168E+06         0.00000E+00
    0.13168E+06        -0.12363E+07         0.00000E+00
    0.00000E+00         0.00000E+00         0.45774E+05
 
    0.14271E+07         0.15973E+06         0.00000E+00
    0.15973E+06        -0.13072E+07         0.00000E+00
    0.00000E+00         0.00000E+00         0.23970E+05
 
    0.13909E+07         0.19236E+06         0.00000E+00
    0.19236E+06        -0.13759E+07         0.00000E+00
    0.00000E+00         0.00000E+00         0.30006E+04
 
    0.13558E+07         0.22946E+06         0.00000E+00
    0.22946E+06        -0.14419E+07         0.00000E+00
    0.00000E+00         0.00000E+00        -0.17211E+05
 
    0.13211E+07         0.27085E+06         0.00000E+00
    0.27085E+06        -0.15048E+07         0.00000E+00
    0.00000E+00         0.00000E+00        -0.36739E+05
 
    0.12860E+07         0.31630E+06         0.00000E+00
    0.31630E+06        -0.15643E+07         0.00000E+00
    0.00000E+00         0.00000E+00        -0.55657E+05
 
    0.12499E+07         0.36554E+06         0.00000E+00
    0.36554E+06        -0.16200E+07         0.00000E+00
    0.00000E+00         0.00000E+00        -0.74033E+05
 
    0.12119E+07         0.41826E+06         0.00000E+00
    0.41826E+06        -0.16716E+07         0.00000E+00
    0.00000E+00         0.00000E+00        -0.91934E+05
 
    0.11716E+07         0.47409E+06         0.00000E+00
    0.47409E+06        -0.17187E+07         0.00000E+00
    0.00000E+00         0.00000E+00        -0.10942E+06
 
    0.11283E+07         0.53263E+06         0.00000E+00
    0.53263E+06        -0.17611E+07         0.00000E+00
    0.00000E+00         0.00000E+00        -0.12656E+06
 
    0.10814E+07         0.59340E+06         0.00000E+00
    0.59340E+06        -0.17983E+07         0.00000E+00
    0.00000E+00         0.00000E+00        -0.14339E+06
 
    0.10304E+07         0.65591E+06         0.00000E+00
    0.65591E+06        -0.18303E+07         0.00000E+00
    0.00000E+00         0.00000E+00        -0.15997E+06
 
    0.97490E+06         0.71958E+06         0.00000E+00
    0.71958E+06        -0.18566E+07         0.00000E+00
    0.00000E+00         0.00000E+00        -0.17634E+06
 
    0.91443E+06         0.78379E+06         0.00000E+00
    0.78379E+06        -0.18771E+07         0.00000E+00
    0.00000E+00         0.00000E+00        -0.19253E+06
 
    0.84866E+06         0.84788E+06         0.00000E+00
    0.84788E+06        -0.18916E+07         0.00000E+00
    0.00000E+00         0.00000E+00        -0.20858E+06
 
    0.77735E+06         0.91111E+06         0.00000E+00
    0.91111E+06        -0.18998E+07         0.00000E+00
    0.00000E+00         0.00000E+00        -0.22450E+06
 
    0.70031E+06         0.97270E+06         0.00000E+00
    0.97270E+06        -0.19018E+07         0.00000E+00
    0.00000E+00         0.00000E+00        -0.24030E+06
 
    0.61747E+06         0.10318E+07         0.00000E+00
    0.10318E+07        -0.18974E+07         0.00000E+00
    0.00000E+00         0.00000E+00        -0.25599E+06
 
    0.52885E+06         0.10876E+07         0.00000E+00
    0.10876E+07        -0.18867E+07         0.00000E+00
    0.00000E+00         0.00000E+00        -0.27156E+06
 
    0.43463E+06         0.11390E+07         0.00000E+00
    0.11390E+07        -0.18696E+07         0.00000E+00
    0.00000E+00         0.00000E+00        -0.28700E+06
 
    0.33510E+06         0.11852E+07         0.00000E+00
    0.11852E+07        -0.18464E+07         0.00000E+00
    0.00000E+00         0.00000E+00        -0.30227E+06
 
    0.23070E+06         0.12251E+07         0.00000E+00
    0.12251E+07        -0.18174E+07         0.00000E+00
    0.00000E+00         0.00000E+00        -0.31733E+06
 
    0.12205E+06         0.12577E+07         0.00000E+00
    0.12577E+07        -0.17828E+07         0.00000E+00
    0.00000E+00         0.00000E+00        -0.33214E+06
 
    0.99615E+04         0.12820E+07         0.00000E+00
    0.12820E+07        -0.17431E+07         0.00000E+00
    0.00000E+00         0.00000E+00        -0.34662E+06
 
   -0.10458E+06         0.12969E+07         0.00000E+00
    0.12969E+07        -0.16989E+07         0.00000E+00
    0.00000E+00         0.00000E+00        -0.36069E+06
 
   -0.22037E+06         0.13014E+07         0.00000E+00
    0.13014E+07        -0.16510E+07         0.00000E+00
    0.00000E+00         0.00000E+00        -0.37427E+06
 
   -0.33599E+06         0.12947E+07         0.00000E+00
    0.12947E+07        -0.16002E+07         0.00000E+00
    0.00000E+00         0.00000E+00        -0.38724E+06
 
    0.47899E+07         0.32988E+05         0.00000E+00
    0.32988E+05        -0.15031E+06         0.00000E+00
    0.00000E+00         0.00000E+00         0.92792E+06
 
    0.44400E+07         0.52850E+05         0.00000E+00
    0.52850E+05        -0.15676E+06         0.00000E+00
    0.00000E+00         0.00000E+00         0.85664E+06
 
    0.41108E+07         0.56532E+05         0.00000E+00
    0.56532E+05        -0.17178E+06         0.00000E+00
    0.00000E+00         0.00000E+00         0.78781E+06
 
    0.38037E+07         0.46695E+05         0.00000E+00
    0.46695E+05        -0.19585E+06         0.00000E+00
    0.00000E+00         0.00000E+00         0.72156E+06
 
    0.35193E+07         0.25939E+05         0.00000E+00
    0.25939E+05        -0.22908E+06         0.00000E+00
    0.00000E+00         0.00000E+00         0.65804E+06
 
    0.32579E+07        -0.32933E+04         0.00000E+00
   -0.32933E+04        -0.27135E+06         0.00000E+00
    0.00000E+00         0.00000E+00         0.59732E+06
 
    0.30195E+07        -0.38731E+05         0.00000E+00
   -0.38731E+05        -0.32237E+06         0.00000E+00
    0.00000E+00         0.00000E+00         0.53943E+06
 
    0.28036E+07        -0.78287E+05         0.00000E+00
   -0.78287E+05        -0.38167E+06         0.00000E+00
    0.00000E+00         0.00000E+00         0.48439E+06
 
    0.26096E+07        -0.12007E+06         0.00000E+00
   -0.12007E+06        -0.44866E+06         0.00000E+00
    0.00000E+00         0.00000E+00         0.43219E+06
 
    0.24366E+07        -0.16240E+06         0.00000E+00
   -0.16240E+06        -0.52267E+06         0.00000E+00
    0.00000E+00         0.00000E+00         0.38278E+06
 
    0.22835E+07        -0.20379E+06         0.00000E+00
   -0.20379E+06        -0.60295E+06         0.00000E+00
    0.00000E+00         0.00000E+00         0.33611E+06
 
    0.21492E+07        -0.24294E+06         0.00000E+00
   -0.24294E+06        -0.68872E+06         0.00000E+00
    0.00000E+00         0.00000E+00         0.29209E+06
 
    0.20324E+07        -0.27876E+06         0.00000E+00
   -0.27876E+06        -0.77918E+06         0.00000E+00
    0.00000E+00         0.00000E+00         0.25064E+06
 
    0.19317E+07        -0.31031E+06         0.00000E+00
   -0.31031E+06        -0.87353E+06         0.00000E+00
    0.00000E+00         0.00000E+00         0.21164E+06
 
    0.18459E+07        -0.33682E+06         0.00000E+00
   -0.33682E+06        -0.97099E+06         0.00000E+00
    0.00000E+00         0.00000E+00         0.17497E+06
 
    0.17734E+07        -0.35766E+06         0.00000E+00
   -0.35766E+06        -0.10708E+07         0.00000E+00
    0.00000E+00         0.00000E+00         0.14053E+06
 
    0.17131E+07        -0.37235E+06         0.00000E+00
   -0.37235E+06        -0.11722E+07         0.00000E+00
    0.00000E+00         0.00000E+00         0.10817E+06
 
    0.16634E+07        -0.38051E+06         0.00000E+00
   -0.38051E+06        -0.12745E+07         0.00000E+00
    0.00000E+00         0.00000E+00         0.77771E+05
 
    0.16231E+07        -0.38187E+06         0.00000E+00
   -0.38187E+06        -0.13771E+07         0.00000E+00
    0.00000E+00         0.00000E+00         0.49191E+05
 
    0.15909E+07        -0.37626E+06         0.00000E+00
   -0.37626E+06        -0.14794E+07         0.00000E+00
    0.00000E+00         0.00000E+00         0.22296E+05
 
    0.15655E+07        -0.36357E+06         0.00000E+00
   -0.36357E+06        -0.15807E+07         0.00000E+00
    0.00000E+00         0.00000E+00        -0.30491E+04
 
    0.15457E+07        -0.34377E+06         0.00000E+00
   -0.34377E+06        -0.16806E+07         0.00000E+00
    0.00000E+00         0.00000E+00        -0.26979E+05
 
    0.15304E+07        -0.31689E+06         0.00000E+00
   -0.31689E+06        -0.17785E+07         0.00000E+00
    0.00000E+00         0.00000E+00        -0.49628E+05
 
    0.15184E+07        -0.28302E+06         0.00000E+00
   -0.28302E+06        -0.18740E+07         0.00000E+00
    0.00000E+00         0.00000E+00        -0.71127E+05
 
    0.15086E+07        -0.24229E+06         0.00000E+00
   -0.24229E+06        -0.19666E+07         0.00000E+00
    0.00000E+00         0.00000E+00        -0.91605E+05
 
    0.15000E+07        -0.19487E+06         0.00000E+00
   -0.19487E+06        -0.20560E+07         0.00000E+00
    0.00000E+00         0.00000E+00        -0.11119E+06
 
    0.14916E+07        -0.14097E+06         0.00000E+00
   -0.14097E+06        -0.21416E+07         0.00000E+00
    0.00000E+00         0.00000E+00        -0.13000E+06
 
    0.14825E+07        -0.80830E+05         0.00000E+00
   -0.80830E+05        -0.22232E+07         0.00000E+00
    0.00000E+00         0.00000E+00        -0.14815E+06
 
    0.14715E+07        -0.14740E+05         0.00000E+00
   -0.14740E+05        -0.23004E+07         0.00000E+00
    0.00000E+00         0.00000E+00        -0.16577E+06
 
    0.14579E+07         0.56982E+05         0.00000E+00
    0.56982E+05        -0.23727E+07         0.00000E+00
    0.00000E+00         0.00000E+00        -0.18296E+06
 
    0.14407E+07         0.13397E+06         0.00000E+00
    0.13397E+06        -0.24398E+07         0.00000E+00
    0.00000E+00         0.00000E+00        -0.19982E+06
 
    0.14191E+07         0.21582E+06         0.00000E+00
    0.21582E+06        -0.25014E+07         0.00000E+00
    0.00000E+00         0.00000E+00        -0.21647E+06
 
    0.13921E+07         0.30208E+06         0.00000E+00
    0.30208E+06        -0.25571E+07         0.00000E+00
    0.00000E+00         0.00000E+00        -0.23300E+06
 
    0.13590E+07         0.39223E+06         0.00000E+00
    0.39223E+06        -0.26065E+07         0.00000E+00
    0.00000E+00         0.00000E+00        -0.24950E+06
 
    0.13189E+07         0.48571E+06         0.00000E+00
    0.48571E+06        -0.26492E+07         0.00000E+00
    0.00000E+00         0.00000E+00        -0.26606E+06
 
    0.12711E+07         0.58188E+06         0.00000E+00
    0.58188E+06        -0.26848E+07         0.00000E+00
    0.00000E+00         0.00000E+00        -0.28275E+06
 
    0.12148E+07         0.68001E+06         0.00000E+00
    0.68001E+06        -0.27131E+07         0.00000E+00
    0.00000E+00         0.00000E+00        -0.29966E+06
 
    0.11493E+07         0.77931E+06         0.00000E+00
    0.77931E+06        -0.27335E+07         0.00000E+00
    0.00000E+00         0.00000E+00        -0.31684E+06
 
    0.10740E+07         0.87888E+06         0.00000E+00
    0.87888E+06        -0.27458E+07         0.00000E+00
    0.00000E+00         0.00000E+00        -0.33436E+06
 
    0.98830E+06         0.97773E+06         0.00000E+00
    0.97773E+06        -0.27496E+07         0.00000E+00
    0.00000E+00         0.00000E+00        -0.35226E+06
 
    0.89177E+06         0.10748E+07         0.00000E+00
    0.10748E+07        -0.27446E+07         0.00000E+00
    0.00000E+00         0.00000E+00        -0.37057E+06
 
    0.78403E+06         0.11688E+07         0.00000E+00
    0.11688E+07        -0.27307E+07         0.00000E+00
    0.00000E+00         0.00000E+00        -0.38933E+06
 
    0.66486E+06         0.12584E+07         0.00000E+00
    0.12584E+07        -0.27075E+07         0.00000E+00
    0.00000E+00         0.00000E+00        -0.40853E+06
 
    0.53416E+06         0.13423E+07         0.00000E+00
    0.13423E+07        -0.26750E+07         0.00000E+00
    0.00000E+00         0.00000E+00        -0.42817E+06
 
    0.39208E+06         0.14188E+07         0.00000E+00
    0.14188E+07        -0.26333E+07         0.00000E+00
    0.00000E+00         0.00000E+00        -0.44823E+06
 
    0.23895E+06         0.14863E+07         0.00000E+00
    0.14863E+07        -0.25823E+07         0.00000E+00
    0.00000E+00         0.00000E+00        -0.46867E+06
 
    0.75363E+05         0.15430E+07         0.00000E+00
    0.15430E+07        -0.25225E+07         0.00000E+00
    0.00000E+00         0.00000E+00        -0.48943E+06
 
   -0.97798E+05         0.15870E+07         0.00000E+00
    0.15870E+07        -0.24543E+07         0.00000E+00
    0.00000E+00         0.00000E+00        -0.51043E+06
 
   -0.27930E+06         0.16165E+07         0.00000E+00
    0.16165E+07        -0.23784E+07         0.00000E+00
    0.00000E+00         0.00000E+00        -0.53154E+06
 
   -0.46758E+06         0.16296E+07         0.00000E+00
    0.16296E+07        -0.22957E+07         0.00000E+00
    0.00000E+00         0.00000E+00        -0.55265E+06
 
    0.45408E+07         0.10881E+05         0.00000E+00
    0.10881E+05        -0.42185E+06         0.00000E+00
    0.00000E+00         0.00000E+00         0.82379E+06
 
    0.40952E+07        -0.24635E+05         0.00000E+00
   -0.24635E+05        -0.43544E+06         0.00000E+00
    0.00000E+00         0.00000E+00         0.73196E+06
 
    0.36888E+07        -0.78133E+05         0.00000E+00
   -0.78133E+05        -0.46399E+06         0.00000E+00
    0.00000E+00         0.00000E+00         0.64496E+06
 
    0.33216E+07        -0.14502E+06         0.00000E+00
   -0.14502E+06        -0.50700E+06         0.00000E+00
    0.00000E+00         0.00000E+00         0.56291E+06
 
    0.29929E+07        -0.22127E+06         0.00000E+00
   -0.22127E+06        -0.56387E+06         0.00000E+00
    0.00000E+00         0.00000E+00         0.48580E+06
 
    0.27016E+07        -0.30328E+06         0.00000E+00
   -0.30328E+06        -0.63367E+06         0.00000E+00
    0.00000E+00         0.00000E+00         0.41358E+06
 
    0.24461E+07        -0.38785E+06         0.00000E+00
   -0.38785E+06        -0.71525E+06         0.00000E+00
    0.00000E+00         0.00000E+00         0.34616E+06
 
    0.22244E+07        -0.47224E+06         0.00000E+00
   -0.47224E+06        -0.80736E+06         0.00000E+00
    0.00000E+00         0.00000E+00         0.28342E+06
 
    0.20346E+07        -0.55411E+06         0.00000E+00
   -0.55411E+06        -0.90864E+06         0.00000E+00
    0.00000E+00         0.00000E+00         0.22518E+06
 
    0.18741E+07        -0.63154E+06         0.00000E+00
   -0.63154E+06        -0.10177E+07         0.00000E+00
    0.00000E+00         0.00000E+00         0.17127E+06
 
    0.17407E+07        -0.70294E+06         0.00000E+00
   -0.70294E+06        -0.11333E+07         0.00000E+00
    0.00000E+00         0.00000E+00         0.12147E+06
 
    0.16319E+07        -0.76705E+06         0.00000E+00
   -0.76705E+06        -0.12541E+07         0.00000E+00
    0.00000E+00         0.00000E+00         0.75564E+05
 
    0.15454E+07        -0.82290E+06         0.00000E+00
   -0.82290E+06        -0.13788E+07         0.00000E+00
    0.00000E+00         0.00000E+00         0.33318E+05
 
    0.14789E+07        -0.86975E+06         0.00000E+00
   -0.86975E+06        -0.15064E+07         0.00000E+00
    0.00000E+00         0.00000E+00        -0.55026E+04
 
    0.14300E+07        -0.90709E+06         0.00000E+00
   -0.90709E+06        -0.16357E+07         0.00000E+00
    0.00000E+00         0.00000E+00        -0.41135E+05
 
    0.13967E+07        -0.93459E+06         0.00000E+00
   -0.93459E+06        -0.17658E+07         0.00000E+00
    0.00000E+00         0.00000E+00        -0.73819E+05
 
    0.13770E+07        -0.95207E+06         0.00000E+00
   -0.95207E+06        -0.18959E+07         0.00000E+00
    0.00000E+00         0.00000E+00        -0.10379E+06
 
    0.13688E+07        -0.95947E+06         0.00000E+00
   -0.95947E+06        -0.20251E+07         0.00000E+00
    0.00000E+00         0.00000E+00        -0.13127E+06
 
    0.13704E+07        -0.95684E+06         0.00000E+00
   -0.95684E+06        -0.21529E+07         0.00000E+00
    0.00000E+00         0.00000E+00        -0.15650E+06
 
    0.13801E+07        -0.94429E+06         0.00000E+00
   -0.94429E+06        -0.22786E+07         0.00000E+00
    0.00000E+00         0.00000E+00        -0.17969E+06
 
    0.13964E+07        -0.92200E+06         0.00000E+00
   -0.92200E+06        -0.24017E+07         0.00000E+00
    0.00000E+00         0.00000E+00        -0.20106E+06
 
    0.14177E+07        -0.89018E+06         0.00000E+00
   -0.89018E+06        -0.25217E+07         0.00000E+00
    0.00000E+00         0.00000E+00        -0.22080E+06
 
    0.14428E+07        -0.84908E+06         0.00000E+00
   -0.84908E+06        -0.26384E+07         0.00000E+00
    0.00000E+00         0.00000E+00        -0.23913E+06
 
    0.14702E+07        -0.79895E+06         0.00000E+00
   -0.79895E+06        -0.27513E+07         0.00000E+00
    0.00000E+00         0.00000E+00        -0.25622E+06
 
    0.14989E+07        -0.74008E+06         0.00000E+00
   -0.74008E+06        -0.28602E+07         0.00000E+00
    0.00000E+00         0.00000E+00        -0.27226E+06
 
    0.15276E+07        -0.67273E+06         0.00000E+00
   -0.67273E+06        -0.29648E+07         0.00000E+00
    0.00000E+00         0.00000E+00        -0.28743E+06
 
    0.15552E+07        -0.59718E+06         0.00000E+00
   -0.59718E+06        -0.30647E+07         0.00000E+00
    0.00000E+00         0.00000E+00        -0.30190E+06
 
    0.15807E+07        -0.51371E+06         0.00000E+00
   -0.51371E+06        -0.31598E+07         0.00000E+00
    0.00000E+00         0.00000E+00        -0.31583E+06
 
    0.16028E+07        -0.42261E+06         0.00000E+00
   -0.42261E+06        -0.32498E+07         0.00000E+00
    0.00000E+00         0.00000E+00        -0.32939E+06
 
    0.16207E+07        -0.32417E+06         0.00000E+00
   -0.32417E+06        -0.33344E+07         0.00000E+00
    0.00000E+00         0.00000E+00        -0.34273E+06
 
    0.16333E+07        -0.21869E+06         0.00000E+00
   -0.21869E+06        -0.34133E+07         0.00000E+00
    0.00000E+00         0.00000E+00        -0.35600E+06
 
    0.16394E+07        -0.10650E+06         0.00000E+00
   -0.10650E+06        -0.34861E+07         0.00000E+00
    0.00000E+00         0.00000E+00        -0.36935E+06
 
    0.16380E+07         0.12037E+05         0.00000E+00
    0.12037E+05        -0.35526E+07         0.00000E+00
    0.00000E+00         0.00000E+00        -0.38293E+06
 
    0.16279E+07         0.13652E+06         0.00000E+00
    0.13652E+06        -0.36122E+07         0.00000E+00
    0.00000E+00         0.00000E+00        -0.39687E+06
 
    0.16081E+07         0.26648E+06         0.00000E+00
    0.26648E+06        -0.36646E+07         0.00000E+00
    0.00000E+00         0.00000E+00        -0.41131E+06
 
    0.15773E+07         0.40139E+06         0.00000E+00
    0.40139E+06        -0.37092E+07         0.00000E+00
    0.00000E+00         0.00000E+00        -0.42638E+06
 
    0.15344E+07         0.54062E+06         0.00000E+00
    0.54062E+06        -0.37455E+07         0.00000E+00
    0.00000E+00         0.00000E+00        -0.44222E+06
 
    0.14781E+07         0.68343E+06         0.00000E+00
    0.68343E+06        -0.37728E+07         0.00000E+00
    0.00000E+00         0.00000E+00        -0.45895E+06
 
    0.14072E+07         0.82895E+06         0.00000E+00
    0.82895E+06        -0.37906E+07         0.00000E+00
    0.00000E+00         0.00000E+00        -0.47667E+06
 
    0.13205E+07         0.97616E+06         0.00000E+00
    0.97616E+06        -0.37980E+07         0.00000E+00
    0.00000E+00         0.00000E+00        -0.49551E+06
 
    0.12168E+07         0.11239E+07         0.00000E+00
    0.11239E+07        -0.37946E+07         0.00000E+00
    0.00000E+00         0.00000E+00        -0.51555E+06
 
    0.10949E+07         0.12707E+07         0.00000E+00
    0.12707E+07        -0.37794E+07         0.00000E+00
    0.00000E+00         0.00000E+00        -0.53690E+06
 
    0.95379E+06         0.14150E+07         0.00000E+00
    0.14150E+07        -0.37519E+07         0.00000E+00
    0.00000E+00         0.00000E+00        -0.55963E+06
 
    0.79244E+06         0.15550E+07         0.00000E+00
    0.15550E+07        -0.37114E+07         0.00000E+00
    0.00000E+00         0.00000E+00        -0.58379E+06
 
    0.61008E+06         0.16886E+07         0.00000E+00
    0.16886E+07        -0.36572E+07         0.00000E+00
    0.00000E+00         0.00000E+00        -0.60943E+06
 
    0.40611E+06         0.18133E+07         0.00000E+00
    0.18133E+07        -0.35889E+07         0.00000E+00
    0.00000E+00         0.00000E+00        -0.63656E+06
 
    0.18025E+06         0.19266E+07         0.00000E+00
    0.19266E+07        -0.35061E+07         0.00000E+00
    0.00000E+00         0.00000E+00        -0.66517E+06
 
   -0.67483E+05         0.20256E+07         0.00000E+00
    0.20256E+07        -0.34087E+07         0.00000E+00
    0.00000E+00         0.00000E+00        -0.69524E+06
 
   -0.33667E+06         0.21069E+07         0.00000E+00
    0.21069E+07        -0.32968E+07         0.00000E+00
    0.00000E+00         0.00000E+00        -0.72670E+06
 
   -0.62629E+06         0.21671E+07         0.00000E+00
    0.21671E+07        -0.31707E+07         0.00000E+00
    0.00000E+00         0.00000E+00        -0.75940E+06
 
    0.35346E+07        -0.37524E+05         0.00000E+00
   -0.37524E+05        -0.10814E+07         0.00000E+00
    0.00000E+00         0.00000E+00         0.49066E+06
 
    0.29917E+07        -0.16918E+06         0.00000E+00
   -0.16918E+06        -0.11083E+07         0.00000E+00
    0.00000E+00         0.00000E+00         0.37668E+06
 
    0.25173E+07        -0.31428E+06         0.00000E+00
   -0.31428E+06        -0.11585E+07         0.00000E+00
    0.00000E+00         0.00000E+00         0.27175E+06
 
    0.21077E+07        -0.46667E+06         0.00000E+00
   -0.46667E+06        -0.12305E+07         0.00000E+00
    0.00000E+00         0.00000E+00         0.17545E+06
 
    0.17591E+07        -0.62070E+06         0.00000E+00
   -0.62070E+06        -0.13215E+07         0.00000E+00
    0.00000E+00         0.00000E+00         0.87511E+05
 
    0.14668E+07        -0.77178E+06         0.00000E+00
   -0.77178E+06        -0.14289E+07         0.00000E+00
    0.00000E+00         0.00000E+00         0.75672E+04
 
    0.12260E+07        -0.91629E+06         0.00000E+00
   -0.91629E+06        -0.15500E+07         0.00000E+00
    0.00000E+00         0.00000E+00        -0.64814E+05
 
    0.10319E+07        -0.10514E+07         0.00000E+00
   -0.10514E+07        -0.16824E+07         0.00000E+00
    0.00000E+00         0.00000E+00        -0.13009E+06
 
    0.87973E+06        -0.11750E+07         0.00000E+00
   -0.11750E+07        -0.18234E+07         0.00000E+00
    0.00000E+00         0.00000E+00        -0.18874E+06
 
    0.76490E+06        -0.12855E+07         0.00000E+00
   -0.12855E+07        -0.19711E+07         0.00000E+00
    0.00000E+00         0.00000E+00        -0.24123E+06
 
    0.68301E+06        -0.13818E+07         0.00000E+00
   -0.13818E+07        -0.21231E+07         0.00000E+00
    0.00000E+00         0.00000E+00        -0.28802E+06
 
    0.62991E+06        -0.14634E+07         0.00000E+00
   -0.14634E+07        -0.22778E+07         0.00000E+00
    0.00000E+00         0.00000E+00        -0.32959E+06
 
    0.60174E+06        -0.15299E+07         0.00000E+00
   -0.15299E+07        -0.24335E+07         0.00000E+00
    0.00000E+00         0.00000E+00        -0.36636E+06
 
    0.59495E+06        -0.15813E+07         0.00000E+00
   -0.15813E+07        -0.25889E+07         0.00000E+00
    0.00000E+00         0.00000E+00        -0.39878E+06
 
    0.60629E+06        -0.16180E+07         0.00000E+00
   -0.16180E+07        -0.27426E+07         0.00000E+00
    0.00000E+00         0.00000E+00        -0.42727E+06
 
    0.63284E+06        -0.16402E+07         0.00000E+00
   -0.16402E+07        -0.28939E+07         0.00000E+00
    0.00000E+00         0.00000E+00        -0.45221E+06
 
    0.67196E+06        -0.16485E+07         0.00000E+00
   -0.16485E+07        -0.30419E+07         0.00000E+00
    0.00000E+00         0.00000E+00        -0.47398E+06
 
    0.72130E+06        -0.16435E+07         0.00000E+00
   -0.16435E+07        -0.31860E+07         0.00000E+00
    0.00000E+00         0.00000E+00        -0.49293E+06
 
    0.77879E+06        -0.16258E+07         0.00000E+00
   -0.16258E+07        -0.33258E+07         0.00000E+00
    0.00000E+00         0.00000E+00        -0.50940E+06
 
    0.84257E+06        -0.15960E+07         0.00000E+00
   -0.15960E+07        -0.34610E+07         0.00000E+00
    0.00000E+00         0.00000E+00        -0.52368E+06
 
    0.91100E+06        -0.15548E+07         0.00000E+00
   -0.15548E+07        -0.35914E+07         0.00000E+00
    0.00000E+00         0.00000E+00        -0.53608E+06
 
    0.98261E+06        -0.15026E+07         0.00000E+00
   -0.15026E+07        -0.37168E+07         0.00000E+00
    0.00000E+00         0.00000E+00        -0.54684E+06
 
    0.10561E+07        -0.14400E+07         0.00000E+00
   -0.14400E+07        -0.38373E+07         0.00000E+00
    0.00000E+00         0.00000E+00        -0.55624E+06
 
    0.11302E+07        -0.13675E+07         0.00000E+00
   -0.13675E+07        -0.39527E+07         0.00000E+00
    0.00000E+00         0.00000E+00        -0.56450E+06
 
    0.12039E+07        -0.12855E+07         0.00000E+00
   -0.12855E+07        -0.40632E+07         0.00000E+00
    0.00000E+00         0.00000E+00        -0.57185E+06
 
    0.12762E+07        -0.11943E+07         0.00000E+00
   -0.11943E+07        -0.41687E+07         0.00000E+00
    0.00000E+00         0.00000E+00        -0.57850E+06
 
    0.13460E+07        -0.10942E+07         0.00000E+00
   -0.10942E+07        -0.42693E+07         0.00000E+00
    0.00000E+00         0.00000E+00        -0.58465E+06
 
    0.14124E+07        -0.98550E+06         0.00000E+00
   -0.98550E+06        -0.43650E+07         0.00000E+00
    0.00000E+00         0.00000E+00        -0.59051E+06
 
    0.14745E+07        -0.86830E+06         0.00000E+00
   -0.86830E+06        -0.44558E+07         0.00000E+00
    0.00000E+00         0.00000E+00        -0.59626E+06
 
    0.15312E+07        -0.74275E+06         0.00000E+00
   -0.74275E+06        -0.45416E+07         0.00000E+00
    0.00000E+00         0.00000E+00        -0.60208E+06
 
    0.15815E+07        -0.60892E+06         0.00000E+00
   -0.60892E+06        -0.46224E+07         0.00000E+00
    0.00000E+00         0.00000E+00        -0.60817E+06
 
    0.16244E+07        -0.46689E+06         0.00000E+00
   -0.46689E+06        -0.46979E+07         0.00000E+00
    0.00000E+00         0.00000E+00        -0.61470E+06
 
    0.16586E+07        -0.31670E+06         0.00000E+00
   -0.31670E+06        -0.47679E+07         0.00000E+00
    0.00000E+00         0.00000E+00        -0.62186E+06
 
    0.16828E+07        -0.15838E+06         0.00000E+00
   -0.15838E+06        -0.48321E+07         0.00000E+00
    0.00000E+00         0.00000E+00        -0.62984E+06
 
    0.16957E+07         0.79743E+04         0.00000E+00
    0.79743E+04        -0.48899E+07         0.00000E+00
    0.00000E+00         0.00000E+00        -0.63883E+06
 
    0.16957E+07         0.18226E+06         0.00000E+00
    0.18226E+06        -0.49408E+07         0.00000E+00
    0.00000E+00         0.00000E+00        -0.64901E+06
 
    0.16812E+07         0.36427E+06         0.00000E+00
    0.36427E+06        -0.49841E+07         0.00000E+00
    0.00000E+00         0.00000E+00        -0.66059E+06
 
    0.16502E+07         0.55372E+06         0.00000E+00
    0.55372E+06        -0.50190E+07         0.00000E+00
    0.00000E+00         0.00000E+00        -0.67376E+06
 
    0.16007E+07         0.75015E+06         0.00000E+00
    0.75015E+06        -0.50444E+07         0.00000E+00
    0.00000E+00         0.00000E+00        -0.68873E+06
 
    0.15307E+07         0.95294E+06         0.00000E+00
    0.95294E+06        -0.50592E+07         0.00000E+00
    0.00000E+00         0.00000E+00        -0.70569E+06
 
    0.14379E+07         0.11612E+07         0.00000E+00
    0.11612E+07        -0.50622E+07         0.00000E+00
    0.00000E+00         0.00000E+00        -0.72486E+06
 
    0.13197E+07         0.13739E+07         0.00000E+00
    0.13739E+07        -0.50519E+07         0.00000E+00
    0.00000E+00         0.00000E+00        -0.74644E+06
 
    0.11738E+07         0.15895E+07         0.00000E+00
    0.15895E+07        -0.50269E+07         0.00000E+00
    0.00000E+00         0.00000E+00        -0.77061E+06
 
    0.99750E+06         0.18061E+07         0.00000E+00
    0.18061E+07        -0.49855E+07         0.00000E+00
    0.00000E+00         0.00000E+00        -0.79759E+06
 
    0.78823E+06         0.20217E+07         0.00000E+00
    0.20217E+07        -0.49260E+07         0.00000E+00
    0.00000E+00         0.00000E+00        -0.82755E+06
 
    0.54339E+06         0.22334E+07         0.00000E+00
    0.22334E+07        -0.48468E+07         0.00000E+00
    0.00000E+00         0.00000E+00        -0.86067E+06
 
    0.26053E+06         0.24379E+07         0.00000E+00
    0.24379E+07        -0.47460E+07         0.00000E+00
    0.00000E+00         0.00000E+00        -0.89710E+06
 
   -0.62536E+05         0.26313E+07         0.00000E+00
    0.26313E+07        -0.46221E+07         0.00000E+00
    0.00000E+00         0.00000E+00        -0.93692E+06
 
   -0.42752E+06         0.28090E+07         0.00000E+00
    0.28090E+07        -0.44733E+07         0.00000E+00
    0.00000E+00         0.00000E+00        -0.98017E+06
 
   -0.83609E+06         0.29660E+07         0.00000E+00
    0.29660E+07        -0.42993E+07         0.00000E+00
    0.00000E+00         0.00000E+00        -0.10271E+07
 
    0.11168E+07        -0.13198E+06         0.00000E+00
   -0.13198E+06        -0.25159E+07         0.00000E+00
    0.00000E+00         0.00000E+00        -0.27982E+06
 
    0.52428E+06        -0.41570E+06         0.00000E+00
   -0.41570E+06        -0.25615E+07         0.00000E+00
    0.00000E+00         0.00000E+00        -0.40744E+06
 
    0.38998E+05        -0.69541E+06         0.00000E+00
   -0.69541E+06        -0.26426E+07         0.00000E+00
    0.00000E+00         0.00000E+00        -0.52072E+06
 
   -0.34932E+06        -0.96239E+06         0.00000E+00
   -0.96239E+06        -0.27510E+07         0.00000E+00
    0.00000E+00         0.00000E+00        -0.62007E+06
 
   -0.65217E+06        -0.12116E+07         0.00000E+00
   -0.12116E+07        -0.28814E+07         0.00000E+00
    0.00000E+00         0.00000E+00        -0.70672E+06
 
   -0.88011E+06        -0.14397E+07         0.00000E+00
   -0.14397E+07        -0.30290E+07         0.00000E+00
    0.00000E+00         0.00000E+00        -0.78182E+06
 
   -0.10429E+07        -0.16439E+07         0.00000E+00
   -0.16439E+07        -0.31892E+07         0.00000E+00
    0.00000E+00         0.00000E+00        -0.84642E+06
 
   -0.11495E+07        -0.18229E+07         0.00000E+00
   -0.18229E+07        -0.33579E+07         0.00000E+00
    0.00000E+00         0.00000E+00        -0.90147E+06
 
   -0.12083E+07        -0.19760E+07         0.00000E+00
   -0.19760E+07        -0.35312E+07         0.00000E+00
    0.00000E+00         0.00000E+00        -0.94792E+06
 
   -0.12271E+07        -0.21032E+07         0.00000E+00
   -0.21032E+07        -0.37061E+07         0.00000E+00
    0.00000E+00         0.00000E+00        -0.98664E+06
 
   -0.12126E+07        -0.22051E+07         0.00000E+00
   -0.22051E+07        -0.38798E+07         0.00000E+00
    0.00000E+00         0.00000E+00        -0.10185E+07
 
   -0.11709E+07        -0.22830E+07         0.00000E+00
   -0.22830E+07        -0.40502E+07         0.00000E+00
    0.00000E+00         0.00000E+00        -0.10442E+07
 
   -0.11075E+07        -0.23382E+07         0.00000E+00
   -0.23382E+07        -0.42156E+07         0.00000E+00
    0.00000E+00         0.00000E+00        -0.10646E+07
 
   -0.10267E+07        -0.23724E+07         0.00000E+00
   -0.23724E+07        -0.43750E+07         0.00000E+00
    0.00000E+00         0.00000E+00        -0.10803E+07
 
   -0.93248E+06        -0.23872E+07         0.00000E+00
   -0.23872E+07        -0.45275E+07         0.00000E+00
    0.00000E+00         0.00000E+00        -0.10920E+07
 
   -0.82810E+06        -0.23843E+07         0.00000E+00
   -0.23843E+07        -0.46726E+07         0.00000E+00
    0.00000E+00         0.00000E+00        -0.11001E+07
 
   -0.71621E+06        -0.23651E+07         0.00000E+00
   -0.23651E+07        -0.48101E+07         0.00000E+00
    0.00000E+00         0.00000E+00        -0.11053E+07
 
   -0.59905E+06        -0.23314E+07         0.00000E+00
   -0.23314E+07        -0.49401E+07         0.00000E+00
    0.00000E+00         0.00000E+00        -0.11078E+07
 
   -0.47845E+06        -0.22843E+07         0.00000E+00
   -0.22843E+07        -0.50626E+07         0.00000E+00
    0.00000E+00         0.00000E+00        -0.11082E+07
 
   -0.35589E+06        -0.22251E+07         0.00000E+00
   -0.22251E+07        -0.51781E+07         0.00000E+00
    0.00000E+00         0.00000E+00        -0.11068E+07
 
   -0.23258E+06        -0.21549E+07         0.00000E+00
   -0.21549E+07        -0.52867E+07         0.00000E+00
    0.00000E+00         0.00000E+00        -0.11039E+07
 
   -0.10953E+06        -0.20746E+07         0.00000E+00
   -0.20746E+07        -0.53891E+07         0.00000E+00
    0.00000E+00         0.00000E+00        -0.10997E+07
 
    0.12448E+05        -0.19849E+07         0.00000E+00
   -0.19849E+07        -0.54856E+07         0.00000E+00
    0.00000E+00         0.00000E+00        -0.10946E+07
 
    0.13267E+06        -0.18865E+07         0.00000E+00
   -0.18865E+07        -0.55767E+07         0.00000E+00
    0.00000E+00         0.00000E+00        -0.10888E+07
 
    0.25054E+06        -0.17797E+07         0.00000E+00
   -0.17797E+07        -0.56630E+07         0.00000E+00
    0.00000E+00         0.00000E+00        -0.10825E+07
 
    0.36552E+06        -0.16650E+07         0.00000E+00
   -0.16650E+07        -0.57448E+07         0.00000E+00
    0.00000E+00         0.00000E+00        -0.10759E+07
 
    0.47712E+06        -0.15425E+07         0.00000E+00
   -0.15425E+07        -0.58227E+07         0.00000E+00
    0.00000E+00         0.00000E+00        -0.10691E+07
 
    0.58481E+06        -0.14122E+07         0.00000E+00
   -0.14122E+07        -0.58971E+07         0.00000E+00
    0.00000E+00         0.00000E+00        -0.10625E+07
 
    0.68807E+06        -0.12740E+07         0.00000E+00
   -0.12740E+07        -0.59682E+07         0.00000E+00
    0.00000E+00         0.00000E+00        -0.10560E+07
 
    0.78630E+06        -0.11279E+07         0.00000E+00
   -0.11279E+07        -0.60364E+07         0.00000E+00
    0.00000E+00         0.00000E+00        -0.10500E+07
 
    0.87880E+06        -0.97337E+06         0.00000E+00
   -0.97337E+06        -0.61018E+07         0.00000E+00
    0.00000E+00         0.00000E+00        -0.10446E+07
 
    0.96476E+06        -0.81016E+06         0.00000E+00
   -0.81016E+06        -0.61646E+07         0.00000E+00
    0.00000E+00         0.00000E+00        -0.10400E+07
 
    0.10432E+07        -0.63772E+06         0.00000E+00
   -0.63772E+06        -0.62247E+07         0.00000E+00
    0.00000E+00         0.00000E+00        -0.10363E+07
 
    0.11130E+07        -0.45549E+06         0.00000E+00
   -0.45549E+06        -0.62821E+07         0.00000E+00
    0.00000E+00         0.00000E+00        -0.10338E+07
 
    0.11728E+07        -0.26282E+06         0.00000E+00
   -0.26282E+06        -0.63364E+07         0.00000E+00
    0.00000E+00         0.00000E+00        -0.10327E+07
 
    0.12209E+07        -0.59025E+05         0.00000E+00
   -0.59025E+05        -0.63871E+07         0.00000E+00
    0.00000E+00         0.00000E+00        -0.10332E+07
 
    0.12554E+07         0.15659E+06         0.00000E+00
    0.15659E+06        -0.64335E+07         0.00000E+00
    0.00000E+00         0.00000E+00        -0.10356E+07
 
    0.12739E+07         0.38472E+06         0.00000E+00
    0.38472E+06        -0.64749E+07         0.00000E+00
    0.00000E+00         0.00000E+00        -0.10402E+07
 
    0.12738E+07         0.62596E+06         0.00000E+00
    0.62596E+06        -0.65098E+07         0.00000E+00
    0.00000E+00         0.00000E+00        -0.10472E+07
 
    0.12521E+07         0.88081E+06         0.00000E+00
    0.88081E+06        -0.65370E+07         0.00000E+00
    0.00000E+00         0.00000E+00        -0.10570E+07
 
    0.12051E+07         0.11496E+07         0.00000E+00
    0.11496E+07        -0.65545E+07         0.00000E+00
    0.00000E+00         0.00000E+00        -0.10699E+07
 
    0.11288E+07         0.14322E+07         0.00000E+00
    0.14322E+07        -0.65602E+07         0.00000E+00
    0.00000E+00         0.00000E+00        -0.10863E+07
 
    0.10188E+07         0.17284E+07         0.00000E+00
    0.17284E+07        -0.65514E+07         0.00000E+00
    0.00000E+00         0.00000E+00        -0.11065E+07
 
    0.87019E+06         0.20373E+07         0.00000E+00
    0.20373E+07        -0.65254E+07         0.00000E+00
    0.00000E+00         0.00000E+00        -0.11310E+07
 
    0.67776E+06         0.23574E+07         0.00000E+00
    0.23574E+07        -0.64788E+07         0.00000E+00
    0.00000E+00         0.00000E+00        -0.11602E+07
 
    0.43589E+06         0.26867E+07         0.00000E+00
    0.26867E+07        -0.64081E+07         0.00000E+00
    0.00000E+00         0.00000E+00        -0.11944E+07
 
    0.13857E+06         0.30224E+07         0.00000E+00
    0.30224E+07        -0.63096E+07         0.00000E+00
    0.00000E+00         0.00000E+00        -0.12342E+07
 
   -0.22074E+06         0.33611E+07         0.00000E+00
    0.33611E+07        -0.61796E+07         0.00000E+00
    0.00000E+00         0.00000E+00        -0.12801E+07
 
   -0.64906E+06         0.36982E+07         0.00000E+00
    0.36982E+07        -0.60135E+07         0.00000E+00
    0.00000E+00         0.00000E+00        -0.13325E+07
 
   -0.11517E+07         0.40257E+07         0.00000E+00
    0.40257E+07        -0.58046E+07         0.00000E+00
    0.00000E+00         0.00000E+00        -0.13913E+07
 
   -0.36140E+07        -0.29051E+06         0.00000E+00
   -0.29051E+06        -0.52769E+07         0.00000E+00
    0.00000E+00         0.00000E+00        -0.17782E+07
 
   -0.41060E+07        -0.78709E+06         0.00000E+00
   -0.78709E+06        -0.53495E+07         0.00000E+00
    0.00000E+00         0.00000E+00        -0.18911E+07
 
   -0.44539E+07        -0.12323E+07         0.00000E+00
   -0.12323E+07        -0.54555E+07         0.00000E+00
    0.00000E+00         0.00000E+00        -0.19819E+07
 
   -0.46836E+07        -0.16283E+07         0.00000E+00
   -0.16283E+07        -0.55918E+07         0.00000E+00
    0.00000E+00         0.00000E+00        -0.20551E+07
 
   -0.48134E+07        -0.19729E+07         0.00000E+00
   -0.19729E+07        -0.57501E+07         0.00000E+00
    0.00000E+00         0.00000E+00        -0.21127E+07
 
   -0.48602E+07        -0.22651E+07         0.00000E+00
   -0.22651E+07        -0.59212E+07         0.00000E+00
    0.00000E+00         0.00000E+00        -0.21563E+07
 
   -0.48403E+07        -0.25057E+07         0.00000E+00
   -0.25057E+07        -0.60973E+07         0.00000E+00
    0.00000E+00         0.00000E+00        -0.21875E+07
 
   -0.47682E+07        -0.26974E+07         0.00000E+00
   -0.26974E+07        -0.62721E+07         0.00000E+00
    0.00000E+00         0.00000E+00        -0.22081E+07
 
   -0.46567E+07        -0.28438E+07         0.00000E+00
   -0.28438E+07        -0.64408E+07         0.00000E+00
    0.00000E+00         0.00000E+00        -0.22195E+07
 
   -0.45164E+07        -0.29495E+07         0.00000E+00
   -0.29495E+07        -0.66003E+07         0.00000E+00
    0.00000E+00         0.00000E+00        -0.22233E+07
 
   -0.43557E+07        -0.30189E+07         0.00000E+00
   -0.30189E+07        -0.67486E+07         0.00000E+00
    0.00000E+00         0.00000E+00        -0.22209E+07
 
   -0.41816E+07        -0.30567E+07         0.00000E+00
   -0.30567E+07        -0.68846E+07         0.00000E+00
    0.00000E+00         0.00000E+00        -0.22132E+07
 
   -0.39992E+07        -0.30672E+07         0.00000E+00
   -0.30672E+07        -0.70078E+07         0.00000E+00
    0.00000E+00         0.00000E+00        -0.22014E+07
 
   -0.38125E+07        -0.30541E+07         0.00000E+00
   -0.30541E+07        -0.71183E+07         0.00000E+00
    0.00000E+00         0.00000E+00        -0.21862E+07
 
   -0.36247E+07        -0.30210E+07         0.00000E+00
   -0.30210E+07        -0.72166E+07         0.00000E+00
    0.00000E+00         0.00000E+00        -0.21683E+07
 
   -0.34377E+07        -0.29709E+07         0.00000E+00
   -0.29709E+07        -0.73035E+07         0.00000E+00
    0.00000E+00         0.00000E+00        -0.21482E+07
 
   -0.32532E+07        -0.29064E+07         0.00000E+00
   -0.29064E+07        -0.73798E+07         0.00000E+00
    0.00000E+00         0.00000E+00        -0.21266E+07
 
   -0.30722E+07        -0.28299E+07         0.00000E+00
   -0.28299E+07        -0.74466E+07         0.00000E+00
    0.00000E+00         0.00000E+00        -0.21038E+07
 
   -0.28952E+07        -0.27431E+07         0.00000E+00
   -0.27431E+07        -0.75048E+07         0.00000E+00
    0.00000E+00         0.00000E+00        -0.20800E+07
 
   -0.27228E+07        -0.26477E+07         0.00000E+00
   -0.26477E+07        -0.75556E+07         0.00000E+00
    0.00000E+00         0.00000E+00        -0.20557E+07
 
   -0.25548E+07        -0.25448E+07         0.00000E+00
   -0.25448E+07        -0.75999E+07         0.00000E+00
    0.00000E+00         0.00000E+00        -0.20309E+07
 
   -0.23914E+07        -0.24355E+07         0.00000E+00
   -0.24355E+07        -0.76387E+07         0.00000E+00
    0.00000E+00         0.00000E+00        -0.20060E+07
 
   -0.22324E+07        -0.23204E+07         0.00000E+00
   -0.23204E+07        -0.76732E+07         0.00000E+00
    0.00000E+00         0.00000E+00        -0.19811E+07
 
   -0.20775E+07        -0.22001E+07         0.00000E+00
   -0.22001E+07        -0.77040E+07         0.00000E+00
    0.00000E+00         0.00000E+00        -0.19563E+07
 
   -0.19265E+07        -0.20749E+07         0.00000E+00
   -0.20749E+07        -0.77323E+07         0.00000E+00
    0.00000E+00         0.00000E+00        -0.19318E+07
 
   -0.17791E+07        -0.19449E+07         0.00000E+00
   -0.19449E+07        -0.77586E+07         0.00000E+00
    0.00000E+00         0.00000E+00        -0.19076E+07
 
   -0.16351E+07        -0.18101E+07         0.00000E+00
   -0.18101E+07        -0.77839E+07         0.00000E+00
    0.00000E+00         0.00000E+00        -0.18838E+07
 
   -0.14941E+07        -0.16702E+07         0.00000E+00
   -0.16702E+07        -0.78088E+07         0.00000E+00
    0.00000E+00         0.00000E+00        -0.18606E+07
 
   -0.13561E+07        -0.15248E+07         0.00000E+00
   -0.15248E+07        -0.78340E+07         0.00000E+00
    0.00000E+00         0.00000E+00        -0.18380E+07
 
   -0.12209E+07        -0.13734E+07         0.00000E+00
   -0.13734E+07        -0.78600E+07         0.00000E+00
    0.00000E+00         0.00000E+00        -0.18162E+07
 
   -0.10884E+07        -0.12151E+07         0.00000E+00
   -0.12151E+07        -0.78873E+07         0.00000E+00
    0.00000E+00         0.00000E+00        -0.17951E+07
 
   -0.95890E+06        -0.10492E+07         0.00000E+00
   -0.10492E+07        -0.79163E+07         0.00000E+00
    0.00000E+00         0.00000E+00        -0.17750E+07
 
   -0.83258E+06        -0.87448E+06         0.00000E+00
   -0.87448E+06        -0.79475E+07         0.00000E+00
    0.00000E+00         0.00000E+00        -0.17560E+07
 
   -0.70996E+06        -0.68971E+06         0.00000E+00
   -0.68971E+06        -0.79809E+07         0.00000E+00
    0.00000E+00         0.00000E+00        -0.17382E+07
 
   -0.59180E+06        -0.49339E+06         0.00000E+00
   -0.49339E+06        -0.80168E+07         0.00000E+00
    0.00000E+00         0.00000E+00        -0.17217E+07
 
   -0.47917E+06        -0.28385E+06         0.00000E+00
   -0.28385E+06        -0.80550E+07         0.00000E+00
    0.00000E+00         0.00000E+00        -0.17068E+07
 
   -0.37353E+06        -0.59189E+05         0.00000E+00
   -0.59189E+05        -0.80952E+07         0.00000E+00
    0.00000E+00         0.00000E+00        -0.16938E+07
 
   -0.27683E+06         0.18270E+06         0.00000E+00
    0.18270E+06        -0.81370E+07         0.00000E+00
    0.00000E+00         0.00000E+00        -0.16828E+07
 
   -0.19161E+06         0.44411E+06         0.00000E+00
    0.44411E+06        -0.81796E+07         0.00000E+00
    0.00000E+00         0.00000E+00        -0.16742E+07
 
   -0.12111E+06         0.72752E+06         0.00000E+00
    0.72752E+06        -0.82216E+07         0.00000E+00
    0.00000E+00         0.00000E+00        -0.16686E+07
 
   -0.69433E+05         0.10355E+07         0.00000E+00
    0.10355E+07        -0.82615E+07         0.00000E+00
    0.00000E+00         0.00000E+00        -0.16662E+07
 
   -0.41677E+05         0.13707E+07         0.00000E+00
    0.13707E+07        -0.82968E+07         0.00000E+00
    0.00000E+00         0.00000E+00        -0.16677E+07
 
   -0.44074E+05         0.17355E+07         0.00000E+00
    0.17355E+07        -0.83244E+07         0.00000E+00
    0.00000E+00         0.00000E+00        -0.16737E+07
 
   -0.84082E+05         0.21321E+07         0.00000E+00
    0.21321E+07        -0.83405E+07         0.00000E+00
    0.00000E+00         0.00000E+00        -0.16849E+07
 
   -0.17039E+06         0.25621E+07         0.00000E+00
    0.25621E+07        -0.83399E+07         0.00000E+00
    0.00000E+00         0.00000E+00        -0.17021E+07
 
   -0.31274E+06         0.30259E+07         0.00000E+00
    0.30259E+07        -0.83167E+07         0.00000E+00
    0.00000E+00         0.00000E+00        -0.17259E+07
 
   -0.52160E+06         0.35229E+07         0.00000E+00
    0.35229E+07        -0.82636E+07         0.00000E+00
    0.00000E+00         0.00000E+00        -0.17570E+07
 
   -0.80775E+06         0.40510E+07         0.00000E+00
    0.40510E+07        -0.81730E+07         0.00000E+00
    0.00000E+00         0.00000E+00        -0.17961E+07
 
   -0.11831E+07         0.46083E+07         0.00000E+00
    0.46083E+07        -0.80381E+07         0.00000E+00
    0.00000E+00         0.00000E+00        -0.18442E+07
 
   -0.16666E+07         0.51965E+07         0.00000E+00
    0.51965E+07        -0.78566E+07         0.00000E+00
    0.00000E+00         0.00000E+00        -0.19046E+07
 
   -0.11537E+08        -0.50992E+06         0.00000E+00
   -0.50992E+06        -0.99412E+07         0.00000E+00
    0.00000E+00         0.00000E+00        -0.42957E+07
 
   -0.11628E+08        -0.12350E+07         0.00000E+00
   -0.12350E+07        -0.10003E+08         0.00000E+00
    0.00000E+00         0.00000E+00        -0.43262E+07
 
   -0.11578E+08        -0.18582E+07         0.00000E+00
   -0.18582E+07        -0.10128E+08         0.00000E+00
    0.00000E+00         0.00000E+00        -0.43413E+07
 
   -0.11408E+08        -0.23637E+07         0.00000E+00
   -0.23637E+07        -0.10275E+08         0.00000E+00
    0.00000E+00         0.00000E+00        -0.43366E+07
 
   -0.11150E+08        -0.27556E+07         0.00000E+00
   -0.27556E+07        -0.10423E+08         0.00000E+00
    0.00000E+00         0.00000E+00        -0.43146E+07
 
   -0.10837E+08        -0.30460E+07         0.00000E+00
   -0.30460E+07        -0.10558E+08         0.00000E+00
    0.00000E+00         0.00000E+00        -0.42790E+07
 
   -0.10495E+08        -0.32499E+07         0.00000E+00
   -0.32499E+07        -0.10672E+08         0.00000E+00
    0.00000E+00         0.00000E+00        -0.42336E+07
 
   -0.10141E+08        -0.33820E+07         0.00000E+00
   -0.33820E+07        -0.10765E+08         0.00000E+00
    0.00000E+00         0.00000E+00        -0.41812E+07
 
   -0.97880E+07        -0.34556E+07         0.00000E+00
   -0.34556E+07        -0.10834E+08         0.00000E+00
    0.00000E+00         0.00000E+00        -0.41243E+07
 
   -0.94429E+07        -0.34823E+07         0.00000E+00
   -0.34823E+07        -0.10880E+08         0.00000E+00
    0.00000E+00         0.00000E+00        -0.40647E+07
 
   -0.91109E+07        -0.34718E+07         0.00000E+00
   -0.34718E+07        -0.10907E+08         0.00000E+00
    0.00000E+00         0.00000E+00        -0.40035E+07
 
   -0.87947E+07        -0.34321E+07         0.00000E+00
   -0.34321E+07        -0.10915E+08         0.00000E+00
    0.00000E+00         0.00000E+00        -0.39419E+07
 
   -0.84955E+07        -0.33697E+07         0.00000E+00
   -0.33697E+07        -0.10907E+08         0.00000E+00
    0.00000E+00         0.00000E+00        -0.38805E+07
 
   -0.82135E+07        -0.32900E+07         0.00000E+00
   -0.32900E+07        -0.10885E+08         0.00000E+00
    0.00000E+00         0.00000E+00        -0.38198E+07
 
   -0.79483E+07        -0.31970E+07         0.00000E+00
   -0.31970E+07        -0.10852E+08         0.00000E+00
    0.00000E+00         0.00000E+00        -0.37601E+07
 
   -0.76989E+07        -0.30942E+07         0.00000E+00
   -0.30942E+07        -0.10810E+08         0.00000E+00
    0.00000E+00         0.00000E+00        -0.37018E+07
 
   -0.74642E+07        -0.29843E+07         0.00000E+00
   -0.29843E+07        -0.10760E+08         0.00000E+00
    0.00000E+00         0.00000E+00        -0.36448E+07
 
   -0.72429E+07        -0.28691E+07         0.00000E+00
   -0.28691E+07        -0.10704E+08         0.00000E+00
    0.00000E+00         0.00000E+00        -0.35895E+07
 
   -0.70336E+07        -0.27505E+07         0.00000E+00
   -0.27505E+07        -0.10645E+08         0.00000E+00
    0.00000E+00         0.00000E+00        -0.35357E+07
 
   -0.68349E+07        -0.26294E+07         0.00000E+00
   -0.26294E+07        -0.10582E+08         0.00000E+00
    0.00000E+00         0.00000E+00        -0.34834E+07
 
   -0.66455E+07        -0.25067E+07         0.00000E+00
   -0.25067E+07        -0.10518E+08         0.00000E+00
    0.00000E+00         0.00000E+00        -0.34327E+07
 
   -0.64641E+07        -0.23831E+07         0.00000E+00
   -0.23831E+07        -0.10454E+08         0.00000E+00
    0.00000E+00         0.00000E+00        -0.33836E+07
 
   -0.62892E+07        -0.22588E+07         0.00000E+00
   -0.22588E+07        -0.10390E+08         0.00000E+00
    0.00000E+00         0.00000E+00        -0.33358E+07
 
   -0.61197E+07        -0.21339E+07         0.00000E+00
   -0.21339E+07        -0.10327E+08         0.00000E+00
    0.00000E+00         0.00000E+00        -0.32894E+07
 
   -0.59544E+07        -0.20086E+07         0.00000E+00
   -0.20086E+07        -0.10267E+08         0.00000E+00
    0.00000E+00         0.00000E+00        -0.32444E+07
 
   -0.57922E+07        -0.18825E+07         0.00000E+00
   -0.18825E+07        -0.10210E+08         0.00000E+00
    0.00000E+00         0.00000E+00        -0.32005E+07
 
   -0.56318E+07        -0.17553E+07         0.00000E+00
   -0.17553E+07        -0.10157E+08         0.00000E+00
    0.00000E+00         0.00000E+00        -0.31578E+07
 
   -0.54723E+07        -0.16265E+07         0.00000E+00
   -0.16265E+07        -0.10108E+08         0.00000E+00
    0.00000E+00         0.00000E+00        -0.31161E+07
 
   -0.53127E+07        -0.14955E+07         0.00000E+00
   -0.14955E+07        -0.10065E+08         0.00000E+00
    0.00000E+00         0.00000E+00        -0.30755E+07
 
   -0.51520E+07        -0.13614E+07         0.00000E+00
   -0.13614E+07        -0.10027E+08         0.00000E+00
    0.00000E+00         0.00000E+00        -0.30357E+07
 
   -0.49892E+07        -0.12233E+07         0.00000E+00
   -0.12233E+07        -0.99949E+07         0.00000E+00
    0.00000E+00         0.00000E+00        -0.29968E+07
 
   -0.48236E+07        -0.10801E+07         0.00000E+00
   -0.10801E+07        -0.99700E+07         0.00000E+00
    0.00000E+00         0.00000E+00        -0.29587E+07
 
   -0.46543E+07        -0.93020E+06         0.00000E+00
   -0.93020E+06        -0.99526E+07         0.00000E+00
    0.00000E+00         0.00000E+00        -0.29214E+07
 
   -0.44806E+07        -0.77210E+06         0.00000E+00
   -0.77210E+06        -0.99431E+07         0.00000E+00
    0.00000E+00         0.00000E+00        -0.28848E+07
 
   -0.43020E+07        -0.60382E+06         0.00000E+00
   -0.60382E+06        -0.99422E+07         0.00000E+00
    0.00000E+00         0.00000E+00        -0.28489E+07
 
   -0.41181E+07        -0.42306E+06         0.00000E+00
   -0.42306E+06        -0.99505E+07         0.00000E+00
    0.00000E+00         0.00000E+00        -0.28137E+07
 
   -0.39286E+07        -0.22711E+06         0.00000E+00
   -0.22711E+06        -0.99683E+07         0.00000E+00
    0.00000E+00         0.00000E+00        -0.27794E+07
 
   -0.37336E+07        -0.12763E+05         0.00000E+00
   -0.12763E+05        -0.99961E+07         0.00000E+00
    0.00000E+00         0.00000E+00        -0.27460E+07
 
   -0.35338E+07         0.22376E+06         0.00000E+00
    0.22376E+06        -0.10034E+08         0.00000E+00
    0.00000E+00         0.00000E+00        -0.27136E+07
 
   -0.33302E+07         0.48690E+06         0.00000E+00
    0.48690E+06        -0.10083E+08         0.00000E+00
    0.00000E+00         0.00000E+00        -0.26826E+07
 
   -0.31248E+07         0.78190E+06         0.00000E+00
    0.78190E+06        -0.10142E+08         0.00000E+00
    0.00000E+00         0.00000E+00        -0.26534E+07
 
   -0.29208E+07         0.11149E+07         0.00000E+00
    0.11149E+07        -0.10211E+08         0.00000E+00
    0.00000E+00         0.00000E+00        -0.26263E+07
 
   -0.27230E+07         0.14929E+07         0.00000E+00
    0.14929E+07        -0.10288E+08         0.00000E+00
    0.00000E+00         0.00000E+00        -0.26021E+07
 
   -0.25383E+07         0.19240E+07         0.00000E+00
    0.19240E+07        -0.10371E+08         0.00000E+00
    0.00000E+00         0.00000E+00        -0.25818E+07
 
   -0.23767E+07         0.24171E+07         0.00000E+00
    0.24171E+07        -0.10457E+08         0.00000E+00
    0.00000E+00         0.00000E+00        -0.25666E+07
 
   -0.22518E+07         0.29814E+07         0.00000E+00
    0.29814E+07        -0.10539E+08         0.00000E+00
    0.00000E+00         0.00000E+00        -0.25582E+07
 
   -0.21818E+07         0.36257E+07         0.00000E+00
    0.36257E+07        -0.10609E+08         0.00000E+00
    0.00000E+00         0.00000E+00        -0.25582E+07
 
   -0.21886E+07         0.43558E+07         0.00000E+00
    0.43558E+07        -0.10654E+08         0.00000E+00
    0.00000E+00         0.00000E+00        -0.25686E+07
 
   -0.22934E+07         0.51708E+07         0.00000E+00
    0.51708E+07        -0.10654E+08         0.00000E+00
    0.00000E+00         0.00000E+00        -0.25894E+07
 
   -0.25005E+07         0.60547E+07         0.00000E+00
    0.60547E+07        -0.10576E+08         0.00000E+00
    0.00000E+00         0.00000E+00        -0.26153E+07
 
   -0.23009E+08        -0.76134E+06         0.00000E+00
   -0.76134E+06        -0.16746E+08         0.00000E+00
    0.00000E+00         0.00000E+00        -0.79511E+07
 
   -0.22189E+08        -0.17337E+07         0.00000E+00
   -0.17337E+07        -0.16924E+08         0.00000E+00
    0.00000E+00         0.00000E+00        -0.78226E+07
 
   -0.21237E+08        -0.23828E+07         0.00000E+00
   -0.23828E+07        -0.17016E+08         0.00000E+00
    0.00000E+00         0.00000E+00        -0.76504E+07
 
   -0.20285E+08        -0.27993E+07         0.00000E+00
   -0.27993E+07        -0.17031E+08         0.00000E+00
    0.00000E+00         0.00000E+00        -0.74633E+07
 
   -0.19392E+08        -0.30501E+07         0.00000E+00
   -0.30501E+07        -0.16983E+08         0.00000E+00
    0.00000E+00         0.00000E+00        -0.72749E+07
 
   -0.18576E+08        -0.31837E+07         0.00000E+00
   -0.31837E+07        -0.16884E+08         0.00000E+00
    0.00000E+00         0.00000E+00        -0.70919E+07
 
   -0.17843E+08        -0.32345E+07         0.00000E+00
   -0.32345E+07        -0.16744E+08         0.00000E+00
    0.00000E+00         0.00000E+00        -0.69173E+07
 
   -0.17189E+08        -0.32273E+07         0.00000E+00
   -0.32273E+07        -0.16573E+08         0.00000E+00
    0.00000E+00         0.00000E+00        -0.67523E+07
 
   -0.16607E+08        -0.31798E+07         0.00000E+00
   -0.31798E+07        -0.16379E+08         0.00000E+00
    0.00000E+00         0.00000E+00        -0.65972E+07
 
   -0.16089E+08        -0.31046E+07         0.00000E+00
   -0.31046E+07        -0.16170E+08         0.00000E+00
    0.00000E+00         0.00000E+00        -0.64518E+07
 
   -0.15629E+08        -0.30109E+07         0.00000E+00
   -0.30109E+07        -0.15949E+08         0.00000E+00
    0.00000E+00         0.00000E+00        -0.63156E+07
 
   -0.15218E+08        -0.29052E+07         0.00000E+00
   -0.29052E+07        -0.15722E+08         0.00000E+00
    0.00000E+00         0.00000E+00        -0.61882E+07
 
   -0.14851E+08        -0.27922E+07         0.00000E+00
   -0.27922E+07        -0.15493E+08         0.00000E+00
    0.00000E+00         0.00000E+00        -0.60687E+07
 
   -0.14521E+08        -0.26753E+07         0.00000E+00
   -0.26753E+07        -0.15263E+08         0.00000E+00
    0.00000E+00         0.00000E+00        -0.59568E+07
 
   -0.14223E+08        -0.25570E+07         0.00000E+00
   -0.25570E+07        -0.15035E+08         0.00000E+00
    0.00000E+00         0.00000E+00        -0.58516E+07
 
   -0.13952E+08        -0.24387E+07         0.00000E+00
   -0.24387E+07        -0.14811E+08         0.00000E+00
    0.00000E+00         0.00000E+00        -0.57527E+07
 
   -0.13705E+08        -0.23219E+07         0.00000E+00
   -0.23219E+07        -0.14593E+08         0.00000E+00
    0.00000E+00         0.00000E+00        -0.56595E+07
 
   -0.13478E+08        -0.22072E+07         0.00000E+00
   -0.22072E+07        -0.14380E+08         0.00000E+00
    0.00000E+00         0.00000E+00        -0.55715E+07
 
   -0.13267E+08        -0.20950E+07         0.00000E+00
   -0.20950E+07        -0.14174E+08         0.00000E+00
    0.00000E+00         0.00000E+00        -0.54881E+07
 
   -0.13070E+08        -0.19858E+07         0.00000E+00
   -0.19858E+07        -0.13975E+08         0.00000E+00
    0.00000E+00         0.00000E+00        -0.54091E+07
 
   -0.12884E+08        -0.18795E+07         0.00000E+00
   -0.18795E+07        -0.13785E+08         0.00000E+00
    0.00000E+00         0.00000E+00        -0.53338E+07
 
   -0.12707E+08        -0.17760E+07         0.00000E+00
   -0.17760E+07        -0.13603E+08         0.00000E+00
    0.00000E+00         0.00000E+00        -0.52620E+07
 
   -0.12537E+08        -0.16753E+07         0.00000E+00
   -0.16753E+07        -0.13429E+08         0.00000E+00
    0.00000E+00         0.00000E+00        -0.51933E+07
 
   -0.12372E+08        -0.15772E+07         0.00000E+00
   -0.15772E+07        -0.13265E+08         0.00000E+00
    0.00000E+00         0.00000E+00        -0.51273E+07
 
   -0.12210E+08        -0.14811E+07         0.00000E+00
   -0.14811E+07        -0.13109E+08         0.00000E+00
    0.00000E+00         0.00000E+00        -0.50638E+07
 
   -0.12049E+08        -0.13869E+07         0.00000E+00
   -0.13869E+07        -0.12963E+08         0.00000E+00
    0.00000E+00         0.00000E+00        -0.50023E+07
 
   -0.11887E+08        -0.12940E+07         0.00000E+00
   -0.12940E+07        -0.12826E+08         0.00000E+00
    0.00000E+00         0.00000E+00        -0.49426E+07
 
   -0.11724E+08        -0.12019E+07         0.00000E+00
   -0.12019E+07        -0.12698E+08         0.00000E+00
    0.00000E+00         0.00000E+00        -0.48845E+07
 
   -0.11557E+08        -0.11100E+07         0.00000E+00
   -0.11100E+07        -0.12581E+08         0.00000E+00
    0.00000E+00         0.00000E+00        -0.48276E+07
 
   -0.11384E+08        -0.10174E+07         0.00000E+00
   -0.10174E+07        -0.12474E+08         0.00000E+00
    0.00000E+00         0.00000E+00        -0.47717E+07
 
   -0.11205E+08        -0.92355E+06         0.00000E+00
   -0.92355E+06        -0.12377E+08         0.00000E+00
    0.00000E+00         0.00000E+00        -0.47164E+07
 
   -0.11016E+08        -0.82728E+06         0.00000E+00
   -0.82728E+06        -0.12292E+08         0.00000E+00
    0.00000E+00         0.00000E+00        -0.46616E+07
 
   -0.10817E+08        -0.72751E+06         0.00000E+00
   -0.72751E+06        -0.12218E+08         0.00000E+00
    0.00000E+00         0.00000E+00        -0.46070E+07
 
   -0.10605E+08        -0.62289E+06         0.00000E+00
   -0.62289E+06        -0.12156E+08         0.00000E+00
    0.00000E+00         0.00000E+00        -0.45522E+07
 
   -0.10378E+08        -0.51179E+06         0.00000E+00
   -0.51179E+06        -0.12107E+08         0.00000E+00
    0.00000E+00         0.00000E+00        -0.44970E+07
 
   -0.10134E+08        -0.39228E+06         0.00000E+00
   -0.39228E+06        -0.12072E+08         0.00000E+00
    0.00000E+00         0.00000E+00        -0.44412E+07
 
   -0.98698E+07        -0.26198E+06         0.00000E+00
   -0.26198E+06        -0.12052E+08         0.00000E+00
    0.00000E+00         0.00000E+00        -0.43843E+07
 
   -0.95827E+07        -0.11800E+06         0.00000E+00
   -0.11800E+06        -0.12048E+08         0.00000E+00
    0.00000E+00         0.00000E+00        -0.43261E+07
 
   -0.92696E+07         0.43269E+05         0.00000E+00
    0.43269E+05        -0.12062E+08         0.00000E+00
    0.00000E+00         0.00000E+00        -0.42663E+07
 
   -0.89271E+07         0.22629E+06         0.00000E+00
    0.22629E+06        -0.12096E+08         0.00000E+00
    0.00000E+00         0.00000E+00        -0.42046E+07
 
   -0.85517E+07         0.43671E+06         0.00000E+00
    0.43671E+06        -0.12152E+08         0.00000E+00
    0.00000E+00         0.00000E+00        -0.41406E+07
 
   -0.81394E+07         0.68168E+06         0.00000E+00
    0.68168E+06        -0.12231E+08         0.00000E+00
    0.00000E+00         0.00000E+00        -0.40742E+07
 
   -0.76867E+07         0.97039E+06         0.00000E+00
    0.97039E+06        -0.12339E+08         0.00000E+00
    0.00000E+00         0.00000E+00        -0.40051E+07
 
   -0.71904E+07         0.13147E+07         0.00000E+00
    0.13147E+07        -0.12476E+08         0.00000E+00
    0.00000E+00         0.00000E+00        -0.39332E+07
 
   -0.66488E+07         0.17301E+07         0.00000E+00
    0.17301E+07        -0.12646E+08         0.00000E+00
    0.00000E+00         0.00000E+00        -0.38590E+07
 
   -0.60630E+07         0.22369E+07         0.00000E+00
    0.22369E+07        -0.12853E+08         0.00000E+00
    0.00000E+00         0.00000E+00        -0.37831E+07
 
   -0.54411E+07         0.28622E+07         0.00000E+00
    0.28622E+07        -0.13098E+08         0.00000E+00
    0.00000E+00         0.00000E+00        -0.37078E+07
 
   -0.48041E+07         0.36418E+07         0.00000E+00
    0.36418E+07        -0.13383E+08         0.00000E+00
    0.00000E+00         0.00000E+00        -0.36375E+07
 
   -0.42007E+07         0.46229E+07         0.00000E+00
    0.46229E+07        -0.13706E+08         0.00000E+00
    0.00000E+00         0.00000E+00        -0.35814E+07
 
   -0.37383E+07         0.58660E+07         0.00000E+00
    0.58660E+07        -0.14060E+08         0.00000E+00
    0.00000E+00         0.00000E+00        -0.35596E+07
 
   -0.36721E+08        -0.11451E+07         0.00000E+00
   -0.11451E+07        -0.25560E+08         0.00000E+00
    0.00000E+00         0.00000E+00        -0.12456E+08
 
   -0.33869E+08        -0.14578E+07         0.00000E+00
   -0.14578E+07        -0.25169E+08         0.00000E+00
    0.00000E+00         0.00000E+00        -0.11807E+08
 
   -0.31657E+08        -0.15910E+07         0.00000E+00
   -0.15910E+07        -0.24691E+08         0.00000E+00
    0.00000E+00         0.00000E+00        -0.11270E+08
 
   -0.29903E+08        -0.16288E+07         0.00000E+00
   -0.16288E+07        -0.24167E+08         0.00000E+00
    0.00000E+00         0.00000E+00        -0.10814E+08
 
   -0.28486E+08        -0.16149E+07         0.00000E+00
   -0.16149E+07        -0.23621E+08         0.00000E+00
    0.00000E+00         0.00000E+00        -0.10421E+08
 
   -0.27325E+08        -0.15729E+07         0.00000E+00
   -0.15729E+07        -0.23069E+08         0.00000E+00
    0.00000E+00         0.00000E+00        -0.10079E+08
 
   -0.26362E+08        -0.15156E+07         0.00000E+00
   -0.15156E+07        -0.22524E+08         0.00000E+00
    0.00000E+00         0.00000E+00        -0.97773E+07
 
   -0.25555E+08        -0.14508E+07         0.00000E+00
   -0.14508E+07        -0.21992E+08         0.00000E+00
    0.00000E+00         0.00000E+00        -0.95094E+07
 
   -0.24874E+08        -0.13827E+07         0.00000E+00
   -0.13827E+07        -0.21476E+08         0.00000E+00
    0.00000E+00         0.00000E+00        -0.92699E+07
 
   -0.24292E+08        -0.13139E+07         0.00000E+00
   -0.13139E+07        -0.20980E+08         0.00000E+00
    0.00000E+00         0.00000E+00        -0.90544E+07
 
   -0.23793E+08        -0.12461E+07         0.00000E+00
   -0.12461E+07        -0.20504E+08         0.00000E+00
    0.00000E+00         0.00000E+00        -0.88594E+07
 
   -0.23361E+08        -0.11801E+07         0.00000E+00
   -0.11801E+07        -0.20050E+08         0.00000E+00
    0.00000E+00         0.00000E+00        -0.86822E+07
 
   -0.22984E+08        -0.11165E+07         0.00000E+00
   -0.11165E+07        -0.19618E+08         0.00000E+00
    0.00000E+00         0.00000E+00        -0.85204E+07
 
   -0.22653E+08        -0.10556E+07         0.00000E+00
   -0.10556E+07        -0.19207E+08         0.00000E+00
    0.00000E+00         0.00000E+00        -0.83719E+07
 
   -0.22359E+08        -0.99740E+06         0.00000E+00
   -0.99740E+06        -0.18817E+08         0.00000E+00
    0.00000E+00         0.00000E+00        -0.82352E+07
 
   -0.22097E+08        -0.94201E+06         0.00000E+00
   -0.94201E+06        -0.18447E+08         0.00000E+00
    0.00000E+00         0.00000E+00        -0.81088E+07
 
   -0.21860E+08        -0.88933E+06         0.00000E+00
   -0.88933E+06        -0.18097E+08         0.00000E+00
    0.00000E+00         0.00000E+00        -0.79914E+07
 
   -0.21645E+08        -0.83925E+06         0.00000E+00
   -0.83925E+06        -0.17765E+08         0.00000E+00
    0.00000E+00         0.00000E+00        -0.78820E+07
 
   -0.21447E+08        -0.79165E+06         0.00000E+00
   -0.79165E+06        -0.17451E+08         0.00000E+00
    0.00000E+00         0.00000E+00        -0.77797E+07
 
   -0.21263E+08        -0.74636E+06         0.00000E+00
   -0.74636E+06        -0.17155E+08         0.00000E+00
    0.00000E+00         0.00000E+00        -0.76836E+07
 
   -0.21090E+08        -0.70321E+06         0.00000E+00
   -0.70321E+06        -0.16875E+08         0.00000E+00
    0.00000E+00         0.00000E+00        -0.75930E+07
 
   -0.20925E+08        -0.66204E+06         0.00000E+00
   -0.66204E+06        -0.16612E+08         0.00000E+00
    0.00000E+00         0.00000E+00        -0.75072E+07
 
   -0.20765E+08        -0.62264E+06         0.00000E+00
   -0.62264E+06        -0.16363E+08         0.00000E+00
    0.00000E+00         0.00000E+00        -0.74257E+07
 
   -0.20610E+08        -0.58482E+06         0.00000E+00
   -0.58482E+06        -0.16129E+08         0.00000E+00
    0.00000E+00         0.00000E+00        -0.73478E+07
 
   -0.20456E+08        -0.54839E+06         0.00000E+00
   -0.54839E+06        -0.15910E+08         0.00000E+00
    0.00000E+00         0.00000E+00        -0.72730E+07
 
   -0.20301E+08        -0.51313E+06         0.00000E+00
   -0.51313E+06        -0.15704E+08         0.00000E+00
    0.00000E+00         0.00000E+00        -0.72010E+07
 
   -0.20144E+08        -0.47881E+06         0.00000E+00
   -0.47881E+06        -0.15511E+08         0.00000E+00
    0.00000E+00         0.00000E+00        -0.71312E+07
 
   -0.19984E+08        -0.44520E+06         0.00000E+00
   -0.44520E+06        -0.15332E+08         0.00000E+00
    0.00000E+00         0.00000E+00        -0.70631E+07
 
   -0.19817E+08        -0.41204E+06         0.00000E+00
   -0.41204E+06        -0.15166E+08         0.00000E+00
    0.00000E+00         0.00000E+00        -0.69965E+07
 
   -0.19641E+08        -0.37904E+06         0.00000E+00
   -0.37904E+06        -0.15012E+08         0.00000E+00
    0.00000E+00         0.00000E+00        -0.69308E+07
 
   -0.19456E+08        -0.34586E+06         0.00000E+00
   -0.34586E+06        -0.14872E+08         0.00000E+00
    0.00000E+00         0.00000E+00        -0.68656E+07
 
   -0.19258E+08        -0.31216E+06         0.00000E+00
   -0.31216E+06        -0.14745E+08         0.00000E+00
    0.00000E+00         0.00000E+00        -0.68005E+07
 
   -0.19045E+08        -0.27748E+06         0.00000E+00
   -0.27748E+06        -0.14631E+08         0.00000E+00
    0.00000E+00         0.00000E+00        -0.67351E+07
 
   -0.18813E+08        -0.24132E+06         0.00000E+00
   -0.24132E+06        -0.14531E+08         0.00000E+00
    0.00000E+00         0.00000E+00        -0.66688E+07
 
   -0.18561E+08        -0.20308E+06         0.00000E+00
   -0.20308E+06        -0.14446E+08         0.00000E+00
    0.00000E+00         0.00000E+00        -0.66012E+07
 
   -0.18283E+08        -0.16201E+06         0.00000E+00
   -0.16201E+06        -0.14376E+08         0.00000E+00
    0.00000E+00         0.00000E+00        -0.65317E+07
 
   -0.17976E+08        -0.11720E+06         0.00000E+00
   -0.11720E+06        -0.14323E+08         0.00000E+00
    0.00000E+00         0.00000E+00        -0.64597E+07
 
   -0.17634E+08        -0.67505E+05         0.00000E+00
   -0.67505E+05        -0.14288E+08         0.00000E+00
    0.00000E+00         0.00000E+00        -0.63844E+07
 
   -0.17251E+08        -0.11479E+05         0.00000E+00
   -0.11479E+05        -0.14275E+08         0.00000E+00
    0.00000E+00         0.00000E+00        -0.63051E+07
 
   -0.16819E+08         0.52737E+05         0.00000E+00
    0.52737E+05        -0.14284E+08         0.00000E+00
    0.00000E+00         0.00000E+00        -0.62207E+07
 
   -0.16330E+08         0.12757E+06         0.00000E+00
    0.12757E+06        -0.14321E+08         0.00000E+00
    0.00000E+00         0.00000E+00        -0.61302E+07
 
   -0.15772E+08         0.21624E+06         0.00000E+00
    0.21624E+06        -0.14389E+08         0.00000E+00
    0.00000E+00         0.00000E+00        -0.60323E+07
 
   -0.15132E+08         0.32309E+06         0.00000E+00
    0.32309E+06        -0.14494E+08         0.00000E+00
    0.00000E+00         0.00000E+00        -0.59251E+07
 
   -0.14390E+08         0.45413E+06         0.00000E+00
    0.45413E+06        -0.14643E+08         0.00000E+00
    0.00000E+00         0.00000E+00        -0.58067E+07
 
   -0.13524E+08         0.61784E+06         0.00000E+00
    0.61784E+06        -0.14847E+08         0.00000E+00
    0.00000E+00         0.00000E+00        -0.56743E+07
 
   -0.12504E+08         0.82656E+06         0.00000E+00
    0.82656E+06        -0.15118E+08         0.00000E+00
    0.00000E+00         0.00000E+00        -0.55244E+07
 
   -0.11287E+08         0.10989E+07         0.00000E+00
    0.10989E+07        -0.15474E+08         0.00000E+00
    0.00000E+00         0.00000E+00        -0.53521E+07
 
   -0.98152E+07         0.14640E+07         0.00000E+00
    0.14640E+07        -0.15937E+08         0.00000E+00
    0.00000E+00         0.00000E+00        -0.51504E+07
 
   -0.80038E+07         0.19700E+07         0.00000E+00
    0.19700E+07        -0.16539E+08         0.00000E+00
    0.00000E+00         0.00000E+00        -0.49086E+07
 
   -0.57215E+07         0.27004E+07         0.00000E+00
    0.27004E+07        -0.17325E+08         0.00000E+00
    0.00000E+00         0.00000E+00        -0.46093E+07
 
TENSORS stresstot double 
   -0.44684E+08        -0.47695E+06         0.00000E+00
   -0.47695E+06        -0.49711E+08         0.00000E+00
    0.00000E+00         0.00000E+00        -0.54887E+08
 
   -0.45526E+08        -0.68074E+06         0.00000E+00
   -0.68074E+06        -0.49956E+08         0.00000E+00
    0.00000E+00         0.00000E+00        -0.55999E+08
 
   -0.46324E+08        -0.81821E+06         0.00000E+00
   -0.81821E+06        -0.50227E+08         0.00000E+00
    0.00000E+00         0.00000E+00        -0.57029E+08
 
   -0.47046E+08        -0.90832E+06         0.00000E+00
   -0.90832E+06        -0.50522E+08         0.00000E+00
    0.00000E+00         0.00000E+00        -0.57962E+08
 
   -0.47679E+08        -0.96710E+06         0.00000E+00
   -0.96710E+06        -0.50835E+08         0.00000E+00
    0.00000E+00         0.00000E+00        -0.58795E+08
 
   -0.48219E+08        -0.10089E+07         0.00000E+00
   -0.10089E+07        -0.51161E+08         0.00000E+00
    0.00000E+00         0.00000E+00        -0.59531E+08
 
   -0.48801E+08        -0.10389E+07         0.00000E+00
   -0.10389E+07        -0.51526E+08         0.00000E+00
    0.00000E+00         0.00000E+00        -0.60065E+08
 
   -0.49395E+08        -0.10402E+07         0.00000E+00
   -0.10402E+07        -0.51902E+08         0.00000E+00
    0.00000E+00         0.00000E+00        -0.60406E+08
 
   -0.49970E+08        -0.10047E+07         0.00000E+00
   -0.10047E+07        -0.52264E+08         0.00000E+00
    0.00000E+00         0.00000E+00        -0.60594E+08
 
   -0.50443E+08        -0.95845E+06         0.00000E+00
   -0.95845E+06        -0.52616E+08         0.00000E+00
    0.00000E+00         0.00000E+00        -0.60759E+08
 
   -0.50837E+08        -0.90829E+06         0.00000E+00
   -0.90829E+06        -0.52954E+08         0.00000E+00
    0.00000E+00         0.00000E+00        -0.60905E+08
 
   -0.51171E+08        -0.85762E+06         0.00000E+00
   -0.85762E+06        -0.53278E+08         0.00000E+00
    0.00000E+00         0.00000E+00        -0.61037E+08
 
   -0.51456E+08        -0.80814E+06         0.00000E+00
   -0.80814E+06        -0.53586E+08         0.00000E+00
    0.00000E+00         0.00000E+00        -0.61155E+08
 
   -0.51703E+08        -0.76070E+06         0.00000E+00
   -0.76070E+06        -0.53878E+08         0.00000E+00
    0.00000E+00         0.00000E+00        -0.61263E+08
 
   -0.51919E+08        -0.71563E+06         0.00000E+00
   -0.71563E+06        -0.54155E+08         0.00000E+00
    0.00000E+00         0.00000E+00        -0.61362E+08
 
   -0.52110E+08        -0.67305E+06         0.00000E+00
   -0.67305E+06        -0.54417E+08         0.00000E+00
    0.00000E+00         0.00000E+00        -0.61452E+08
 
   -0.52280E+08        -0.63291E+06         0.00000E+00
   -0.63291E+06        -0.54665E+08         0.00000E+00
    0.00000E+00         0.00000E+00        -0.61536E+08
 
   -0.52434E+08        -0.59510E+06         0.00000E+00
   -0.59510E+06        -0.54898E+08         0.00000E+00
    0.00000E+00         0.00000E+00        -0.61613E+08
 
   -0.52574E+08        -0.55947E+06         0.00000E+00
   -0.55947E+06        -0.55119E+08         0.00000E+00
    0.00000E+00         0.00000E+00        -0.61686E+08
 
   -0.52704E+08        -0.52587E+06         0.00000E+00
   -0.52587E+06        -0.55327E+08         0.00000E+00
    0.00000E+00         0.00000E+00        -0.61753E+08
 
   -0.52825E+08        -0.49410E+06         0.00000E+00
   -0.49410E+06        -0.55523E+08         0.00000E+00
    0.00000E+00         0.00000E+00        -0.61816E+08
 
   -0.52940E+08        -0.46401E+06         0.00000E+00
   -0.46401E+06        -0.55707E+08         0.00000E+00
    0.00000E+00         0.00000E+00        -0.61876E+08
 
   -0.53050E+08        -0.43542E+06         0.00000E+00
   -0.43542E+06        -0.55880E+08         0.00000E+00
    0.00000E+00         0.00000E+00        -0.61933E+08
 
   -0.53157E+08        -0.40816E+06         0.00000E+00
   -0.40816E+06        -0.56043E+08         0.00000E+00
    0.00000E+00         0.00000E+00        -0.61987E+08
 
   -0.53262E+08        -0.38206E+06         0.00000E+00
   -0.38206E+06        -0.56196E+08         0.00000E+00
    0.00000E+00         0.00000E+00        -0.62039E+08
 
   -0.53367E+08        -0.35694E+06         0.00000E+00
   -0.35694E+06        -0.56339E+08         0.00000E+00
    0.00000E+00         0.00000E+00        -0.62088E+08
 
   -0.53474E+08        -0.33263E+06         0.00000E+00
   -0.33263E+06        -0.56472E+08         0.00000E+00
    0.00000E+00         0.00000E+00        -0.62136E+08
 
   -0.53583E+08        -0.30894E+06         0.00000E+00
   -0.30894E+06        -0.56596E+08         0.00000E+00
    0.00000E+00         0.00000E+00        -0.62183E+08
 
   -0.53695E+08        -0.28569E+06         0.00000E+00
   -0.28569E+06        -0.56712E+08         0.00000E+00
    0.00000E+00         0.00000E+00        -0.62228E+08
 
   -0.53813E+08        -0.26266E+06         0.00000E+00
   -0.26266E+06        -0.56818E+08         0.00000E+00
    0.00000E+00         0.00000E+00        -0.62273E+08
 
   -0.53938E+08        -0.23962E+06         0.00000E+00
   -0.23962E+06        -0.56915E+08         0.00000E+00
    0.00000E+00         0.00000E+00        -0.62317E+08
 
   -0.54071E+08        -0.21632E+06         0.00000E+00
   -0.21632E+06        -0.57003E+08         0.00000E+00
    0.00000E+00         0.00000E+00        -0.62362E+08
 
   -0.54213E+08        -0.19245E+06         0.00000E+00
   -0.19245E+06        -0.57082E+08         0.00000E+00
    0.00000E+00         0.00000E+00        -0.62406E+08
 
   -0.54368E+08        -0.16767E+06         0.00000E+00
   -0.16767E+06        -0.57151E+08         0.00000E+00
    0.00000E+00         0.00000E+00        -0.62451E+08
 
   -0.54537E+08        -0.14157E+06         0.00000E+00
   -0.14157E+06        -0.57211E+08         0.00000E+00
    0.00000E+00         0.00000E+00        -0.62496E+08
 
   -0.54722E+08        -0.11363E+06         0.00000E+00
   -0.11363E+06        -0.57259E+08         0.00000E+00
    0.00000E+00         0.00000E+00        -0.62543E+08
 
   -0.54927E+08        -0.83258E+05         0.00000E+00
   -0.83258E+05        -0.57297E+08         0.00000E+00
    0.00000E+00         0.00000E+00        -0.62592E+08
 
   -0.55155E+08        -0.49677E+05         0.00000E+00
   -0.49677E+05        -0.57321E+08         0.00000E+00
    0.00000E+00         0.00000E+00        -0.62642E+08
 
   -0.55411E+08        -0.11921E+05         0.00000E+00
   -0.11921E+05        -0.57332E+08         0.00000E+00
    0.00000E+00         0.00000E+00        -0.62696E+08
 
   -0.55698E+08         0.31253E+05         0.00000E+00
    0.31253E+05        -0.57327E+08         0.00000E+00
    0.00000E+00         0.00000E+00        -0.62752E+08
 
   -0.56024E+08         0.81465E+05         0.00000E+00
    0.81465E+05        -0.57304E+08         0.00000E+00
    0.00000E+00         0.00000E+00        -0.62813E+08
 
   -0.56395E+08         0.14086E+06         0.00000E+00
    0.14086E+06        -0.57260E+08         0.00000E+00
    0.00000E+00         0.00000E+00        -0.62878E+08
 
   -0.56822E+08         0.21234E+06         0.00000E+00
    0.21234E+06        -0.57192E+08         0.00000E+00
    0.00000E+00         0.00000E+00        -0.62950E+08
 
   -0.57315E+08         0.29991E+06         0.00000E+00
    0.29991E+06        -0.57093E+08         0.00000E+00
    0.00000E+00         0.00000E+00        -0.63029E+08
 
   -0.57892E+08         0.40921E+06         0.00000E+00
    0.40921E+06        -0.56958E+08         0.00000E+00
    0.00000E+00         0.00000E+00        -0.63117E+08
 
   -0.58571E+08         0.54849E+06         0.00000E+00
    0.54849E+06        -0.56779E+08         0.00000E+00
    0.00000E+00         0.00000E+00        -0.63217E+08
 
   -0.59381E+08         0.73013E+06         0.00000E+00
    0.73013E+06        -0.56543E+08         0.00000E+00
    0.00000E+00         0.00000E+00        -0.63332E+08
 
   -0.60360E+08         0.97358E+06         0.00000E+00
    0.97358E+06        -0.56235E+08         0.00000E+00
    0.00000E+00         0.00000E+00        -0.63466E+08
 
   -0.61566E+08         0.13109E+07         0.00000E+00
    0.13109E+07        -0.55834E+08         0.00000E+00
    0.00000E+00         0.00000E+00        -0.63627E+08
 
   -0.63086E+08         0.17978E+07         0.00000E+00
    0.17978E+07        -0.55311E+08         0.00000E+00
    0.00000E+00         0.00000E+00        -0.63826E+08
 
   -0.47029E+08        -0.27888E+06         0.00000E+00
   -0.27888E+06        -0.50233E+08         0.00000E+00
    0.00000E+00         0.00000E+00        -0.56169E+08
 
   -0.47228E+08        -0.84321E+06         0.00000E+00
   -0.84321E+06        -0.50075E+08         0.00000E+00
    0.00000E+00         0.00000E+00        -0.56177E+08
 
   -0.47558E+08        -0.12591E+07         0.00000E+00
   -0.12591E+07        -0.50000E+08         0.00000E+00
    0.00000E+00         0.00000E+00        -0.56228E+08
 
   -0.47940E+08        -0.15638E+07         0.00000E+00
   -0.15638E+07        -0.49985E+08         0.00000E+00
    0.00000E+00         0.00000E+00        -0.56302E+08
 
   -0.48337E+08        -0.17850E+07         0.00000E+00
   -0.17850E+07        -0.50014E+08         0.00000E+00
    0.00000E+00         0.00000E+00        -0.56387E+08
 
   -0.48739E+08        -0.19456E+07         0.00000E+00
   -0.19456E+07        -0.50078E+08         0.00000E+00
    0.00000E+00         0.00000E+00        -0.56480E+08
 
   -0.49134E+08        -0.20603E+07         0.00000E+00
   -0.20603E+07        -0.50131E+08         0.00000E+00
    0.00000E+00         0.00000E+00        -0.56570E+08
 
   -0.49526E+08        -0.21237E+07         0.00000E+00
   -0.21237E+07        -0.50196E+08         0.00000E+00
    0.00000E+00         0.00000E+00        -0.56661E+08
 
   -0.49908E+08        -0.21397E+07         0.00000E+00
   -0.21397E+07        -0.50292E+08         0.00000E+00
    0.00000E+00         0.00000E+00        -0.56757E+08
 
   -0.50265E+08        -0.21190E+07         0.00000E+00
   -0.21190E+07        -0.50405E+08         0.00000E+00
    0.00000E+00         0.00000E+00        -0.56851E+08
 
   -0.50592E+08        -0.20735E+07         0.00000E+00
   -0.20735E+07        -0.50531E+08         0.00000E+00
    0.00000E+00         0.00000E+00        -0.56941E+08
 
   -0.50886E+08        -0.20119E+07         0.00000E+00
   -0.20119E+07        -0.50667E+08         0.00000E+00
    0.00000E+00         0.00000E+00        -0.57027E+08
 
   -0.51152E+08        -0.19400E+07         0.00000E+00
   -0.19400E+07        -0.50808E+08         0.00000E+00
    0.00000E+00         0.00000E+00        -0.57109E+08
 
   -0.51390E+08        -0.18621E+07         0.00000E+00
   -0.18621E+07        -0.50952E+08         0.00000E+00
    0.00000E+00         0.00000E+00        -0.57185E+08
 
   -0.51606E+08        -0.17811E+07         0.00000E+00
   -0.17811E+07        -0.51098E+08         0.00000E+00
    0.00000E+00         0.00000E+00        -0.57258E+08
 
   -0.51801E+08        -0.16989E+07         0.00000E+00
   -0.16989E+07        -0.51243E+08         0.00000E+00
    0.00000E+00         0.00000E+00        -0.57326E+08
 
   -0.51978E+08        -0.16169E+07         0.00000E+00
   -0.16169E+07        -0.51387E+08         0.00000E+00
    0.00000E+00         0.00000E+00        -0.57390E+08
 
   -0.52141E+08        -0.15361E+07         0.00000E+00
   -0.15361E+07        -0.51528E+08         0.00000E+00
    0.00000E+00         0.00000E+00        -0.57450E+08
 
   -0.52290E+08        -0.14568E+07         0.00000E+00
   -0.14568E+07        -0.51664E+08         0.00000E+00
    0.00000E+00         0.00000E+00        -0.57508E+08
 
   -0.52430E+08        -0.13796E+07         0.00000E+00
   -0.13796E+07        -0.51797E+08         0.00000E+00
    0.00000E+00         0.00000E+00        -0.57562E+08
 
   -0.52561E+08        -0.13045E+07         0.00000E+00
   -0.13045E+07        -0.51925E+08         0.00000E+00
    0.00000E+00         0.00000E+00        -0.57614E+08
 
   -0.52685E+08        -0.12315E+07         0.00000E+00
   -0.12315E+07        -0.52048E+08         0.00000E+00
    0.00000E+00         0.00000E+00        -0.57663E+08
 
   -0.52803E+08        -0.11606E+07         0.00000E+00
   -0.11606E+07        -0.52165E+08         0.00000E+00
    0.00000E+00         0.00000E+00        -0.57710E+08
 
   -0.52918E+08        -0.10916E+07         0.00000E+00
   -0.10916E+07        -0.52276E+08         0.00000E+00
    0.00000E+00         0.00000E+00        -0.57756E+08
 
   -0.53030E+08        -0.10244E+07         0.00000E+00
   -0.10244E+07        -0.52382E+08         0.00000E+00
    0.00000E+00         0.00000E+00        -0.57799E+08
 
   -0.53141E+08        -0.95854E+06         0.00000E+00
   -0.95854E+06        -0.52481E+08         0.00000E+00
    0.00000E+00         0.00000E+00        -0.57841E+08
 
   -0.53251E+08        -0.89382E+06         0.00000E+00
   -0.89382E+06        -0.52574E+08         0.00000E+00
    0.00000E+00         0.00000E+00        -0.57882E+08
 
   -0.53363E+08        -0.82985E+06         0.00000E+00
   -0.82985E+06        -0.52661E+08         0.00000E+00
    0.00000E+00         0.00000E+00        -0.57921E+08
 
   -0.53476E+08        -0.76619E+06         0.00000E+00
   -0.76619E+06        -0.52741E+08         0.00000E+00
    0.00000E+00         0.00000E+00        -0.57960E+08
 
   -0.53593E+08        -0.70235E+06         0.00000E+00
   -0.70235E+06        -0.52814E+08         0.00000E+00
    0.00000E+00         0.00000E+00        -0.57998E+08
 
   -0.53715E+08        -0.63776E+06         0.00000E+00
   -0.63776E+06        -0.52880E+08         0.00000E+00
    0.00000E+00         0.00000E+00        -0.58036E+08
 
   -0.53842E+08        -0.57175E+06         0.00000E+00
   -0.57175E+06        -0.52938E+08         0.00000E+00
    0.00000E+00         0.00000E+00        -0.58073E+08
 
   -0.53976E+08        -0.50356E+06         0.00000E+00
   -0.50356E+06        -0.52989E+08         0.00000E+00
    0.00000E+00         0.00000E+00        -0.58110E+08
 
   -0.54118E+08        -0.43227E+06         0.00000E+00
   -0.43227E+06        -0.53032E+08         0.00000E+00
    0.00000E+00         0.00000E+00        -0.58147E+08
 
   -0.54270E+08        -0.35679E+06         0.00000E+00
   -0.35679E+06        -0.53066E+08         0.00000E+00
    0.00000E+00         0.00000E+00        -0.58184E+08
 
   -0.54434E+08        -0.27582E+06         0.00000E+00
   -0.27582E+06        -0.53090E+08         0.00000E+00
    0.00000E+00         0.00000E+00        -0.58222E+08
 
   -0.54610E+08        -0.18777E+06         0.00000E+00
   -0.18777E+06        -0.53105E+08         0.00000E+00
    0.00000E+00         0.00000E+00        -0.58260E+08
 
   -0.54802E+08        -0.90697E+05         0.00000E+00
   -0.90697E+05        -0.53109E+08         0.00000E+00
    0.00000E+00         0.00000E+00        -0.58299E+08
 
   -0.55011E+08         0.17791E+05         0.00000E+00
    0.17791E+05        -0.53100E+08         0.00000E+00
    0.00000E+00         0.00000E+00        -0.58339E+08
 
   -0.55239E+08         0.14069E+06         0.00000E+00
    0.14069E+06        -0.53079E+08         0.00000E+00
    0.00000E+00         0.00000E+00        -0.58380E+08
 
   -0.55490E+08         0.28176E+06         0.00000E+00
    0.28176E+06        -0.53042E+08         0.00000E+00
    0.00000E+00         0.00000E+00        -0.58423E+08
 
   -0.55765E+08         0.44577E+06         0.00000E+00
    0.44577E+06        -0.52990E+08         0.00000E+00
    0.00000E+00         0.00000E+00        -0.58468E+08
 
   -0.56066E+08         0.63884E+06         0.00000E+00
    0.63884E+06        -0.52919E+08         0.00000E+00
    0.00000E+00         0.00000E+00        -0.58514E+08
 
   -0.56397E+08         0.86889E+06         0.00000E+00
    0.86889E+06        -0.52829E+08         0.00000E+00
    0.00000E+00         0.00000E+00        -0.58562E+08
 
   -0.56757E+08         0.11462E+07         0.00000E+00
    0.11462E+07        -0.52716E+08         0.00000E+00
    0.00000E+00         0.00000E+00        -0.58611E+08
 
   -0.57147E+08         0.14844E+07         0.00000E+00
    0.14844E+07        -0.52579E+08         0.00000E+00
    0.00000E+00         0.00000E+00        -0.58662E+08
 
   -0.57561E+08         0.19015E+07         0.00000E+00
    0.19015E+07        -0.52416E+08         0.00000E+00
    0.00000E+00         0.00000E+00        -0.58712E+08
 
   -0.57984E+08         0.24213E+07         0.00000E+00
    0.24213E+07        -0.52226E+08         0.00000E+00
    0.00000E+00         0.00000E+00        -0.58759E+08
 
   -0.58385E+08         0.30753E+07         0.00000E+00
    0.30753E+07        -0.52012E+08         0.00000E+00
    0.00000E+00         0.00000E+00        -0.58796E+08
 
   -0.58692E+08         0.39038E+07         0.00000E+00
    0.39038E+07        -0.51777E+08         0.00000E+00
    0.00000E+00         0.00000E+00        -0.58811E+08
 
   -0.49474E+08        -0.31452E+06         0.00000E+00
   -0.31452E+06        -0.49978E+08         0.00000E+00
    0.00000E+00         0.00000E+00        -0.53883E+08
 
   -0.49378E+08        -0.71019E+06         0.00000E+00
   -0.71019E+06        -0.49993E+08         0.00000E+00
    0.00000E+00         0.00000E+00        -0.53867E+08
 
   -0.49333E+08        -0.10726E+07         0.00000E+00
   -0.10726E+07        -0.49957E+08         0.00000E+00
    0.00000E+00         0.00000E+00        -0.53851E+08
 
   -0.49354E+08        -0.13857E+07         0.00000E+00
   -0.13857E+07        -0.49895E+08         0.00000E+00
    0.00000E+00         0.00000E+00        -0.53843E+08
 
   -0.49434E+08        -0.16452E+07         0.00000E+00
   -0.16452E+07        -0.49822E+08         0.00000E+00
    0.00000E+00         0.00000E+00        -0.53844E+08
 
   -0.49559E+08        -0.18516E+07         0.00000E+00
   -0.18516E+07        -0.49746E+08         0.00000E+00
    0.00000E+00         0.00000E+00        -0.53854E+08
 
   -0.49717E+08        -0.20091E+07         0.00000E+00
   -0.20091E+07        -0.49679E+08         0.00000E+00
    0.00000E+00         0.00000E+00        -0.53872E+08
 
   -0.49896E+08        -0.21263E+07         0.00000E+00
   -0.21263E+07        -0.49619E+08         0.00000E+00
    0.00000E+00         0.00000E+00        -0.53896E+08
 
   -0.50088E+08        -0.22074E+07         0.00000E+00
   -0.22074E+07        -0.49563E+08         0.00000E+00
    0.00000E+00         0.00000E+00        -0.53923E+08
 
   -0.50290E+08        -0.22556E+07         0.00000E+00
   -0.22556E+07        -0.49517E+08         0.00000E+00
    0.00000E+00         0.00000E+00        -0.53954E+08
 
   -0.50494E+08        -0.22747E+07         0.00000E+00
   -0.22747E+07        -0.49483E+08         0.00000E+00
    0.00000E+00         0.00000E+00        -0.53988E+08
 
   -0.50697E+08        -0.22697E+07         0.00000E+00
   -0.22697E+07        -0.49461E+08         0.00000E+00
    0.00000E+00         0.00000E+00        -0.54024E+08
 
   -0.50894E+08        -0.22450E+07         0.00000E+00
   -0.22450E+07        -0.49450E+08         0.00000E+00
    0.00000E+00         0.00000E+00        -0.54062E+08
 
   -0.51084E+08        -0.22048E+07         0.00000E+00
   -0.22048E+07        -0.49449E+08         0.00000E+00
    0.00000E+00         0.00000E+00        -0.54099E+08
 
   -0.51265E+08        -0.21524E+07         0.00000E+00
   -0.21524E+07        -0.49458E+08         0.00000E+00
    0.00000E+00         0.00000E+00        -0.54137E+08
 
   -0.51436E+08        -0.20908E+07         0.00000E+00
   -0.20908E+07        -0.49474E+08         0.00000E+00
    0.00000E+00         0.00000E+00        -0.54175E+08
 
   -0.51599E+08        -0.20222E+07         0.00000E+00
   -0.20222E+07        -0.49497E+08         0.00000E+00
    0.00000E+00         0.00000E+00        -0.54212E+08
 
   -0.51753E+08        -0.19485E+07         0.00000E+00
   -0.19485E+07        -0.49525E+08         0.00000E+00
    0.00000E+00         0.00000E+00        -0.54248E+08
 
   -0.51899E+08        -0.18711E+07         0.00000E+00
   -0.18711E+07        -0.49557E+08         0.00000E+00
    0.00000E+00         0.00000E+00        -0.54284E+08
 
   -0.52037E+08        -0.17911E+07         0.00000E+00
   -0.17911E+07        -0.49592E+08         0.00000E+00
    0.00000E+00         0.00000E+00        -0.54319E+08
 
   -0.52169E+08        -0.17093E+07         0.00000E+00
   -0.17093E+07        -0.49629E+08         0.00000E+00
    0.00000E+00         0.00000E+00        -0.54352E+08
 
   -0.52295E+08        -0.16263E+07         0.00000E+00
   -0.16263E+07        -0.49668E+08         0.00000E+00
    0.00000E+00         0.00000E+00        -0.54385E+08
 
   -0.52417E+08        -0.15425E+07         0.00000E+00
   -0.15425E+07        -0.49706E+08         0.00000E+00
    0.00000E+00         0.00000E+00        -0.54417E+08
 
   -0.52534E+08        -0.14580E+07         0.00000E+00
   -0.14580E+07        -0.49745E+08         0.00000E+00
    0.00000E+00         0.00000E+00        -0.54449E+08
 
   -0.52649E+08        -0.13730E+07         0.00000E+00
   -0.13730E+07        -0.49782E+08         0.00000E+00
    0.00000E+00         0.00000E+00        -0.54479E+08
 
   -0.52760E+08        -0.12874E+07         0.00000E+00
   -0.12874E+07        -0.49818E+08         0.00000E+00
    0.00000E+00         0.00000E+00        -0.54508E+08
 
   -0.52871E+08        -0.12009E+07         0.00000E+00
   -0.12009E+07        -0.49852E+08         0.00000E+00
    0.00000E+00         0.00000E+00        -0.54537E+08
 
   -0.52980E+08        -0.11134E+07         0.00000E+00
   -0.11134E+07        -0.49883E+08         0.00000E+00
    0.00000E+00         0.00000E+00        -0.54565E+08
 
   -0.53089E+08        -0.10244E+07         0.00000E+00
   -0.10244E+07        -0.49911E+08         0.00000E+00
    0.00000E+00         0.00000E+00        -0.54593E+08
 
   -0.53199E+08        -0.93333E+06         0.00000E+00
   -0.93333E+06        -0.49935E+08         0.00000E+00
    0.00000E+00         0.00000E+00        -0.54620E+08
 
   -0.53309E+08        -0.83967E+06         0.00000E+00
   -0.83967E+06        -0.49956E+08         0.00000E+00
    0.00000E+00         0.00000E+00        -0.54646E+08
 
   -0.53422E+08        -0.74259E+06         0.00000E+00
   -0.74259E+06        -0.49972E+08         0.00000E+00
    0.00000E+00         0.00000E+00        -0.54671E+08
 
   -0.53536E+08        -0.64119E+06         0.00000E+00
   -0.64119E+06        -0.49983E+08         0.00000E+00
    0.00000E+00         0.00000E+00        -0.54697E+08
 
   -0.53654E+08        -0.53437E+06         0.00000E+00
   -0.53437E+06        -0.49989E+08         0.00000E+00
    0.00000E+00         0.00000E+00        -0.54721E+08
 
   -0.53774E+08        -0.42083E+06         0.00000E+00
   -0.42083E+06        -0.49989E+08         0.00000E+00
    0.00000E+00         0.00000E+00        -0.54745E+08
 
   -0.53898E+08        -0.29904E+06         0.00000E+00
   -0.29904E+06        -0.49984E+08         0.00000E+00
    0.00000E+00         0.00000E+00        -0.54769E+08
 
   -0.54025E+08        -0.16721E+06         0.00000E+00
   -0.16721E+06        -0.49972E+08         0.00000E+00
    0.00000E+00         0.00000E+00        -0.54792E+08
 
   -0.54156E+08        -0.23198E+05         0.00000E+00
   -0.23198E+05        -0.49953E+08         0.00000E+00
    0.00000E+00         0.00000E+00        -0.54815E+08
 
   -0.54290E+08         0.13551E+06         0.00000E+00
    0.13551E+06        -0.49928E+08         0.00000E+00
    0.00000E+00         0.00000E+00        -0.54836E+08
 
   -0.54426E+08         0.31188E+06         0.00000E+00
    0.31188E+06        -0.49895E+08         0.00000E+00
    0.00000E+00         0.00000E+00        -0.54857E+08
 
   -0.54564E+08         0.50940E+06         0.00000E+00
    0.50940E+06        -0.49856E+08         0.00000E+00
    0.00000E+00         0.00000E+00        -0.54877E+08
 
   -0.54700E+08         0.73214E+06         0.00000E+00
    0.73214E+06        -0.49810E+08         0.00000E+00
    0.00000E+00         0.00000E+00        -0.54895E+08
 
   -0.54832E+08         0.98481E+06         0.00000E+00
    0.98481E+06        -0.49759E+08         0.00000E+00
    0.00000E+00         0.00000E+00        -0.54911E+08
 
   -0.54956E+08         0.12728E+07         0.00000E+00
    0.12728E+07        -0.49704E+08         0.00000E+00
    0.00000E+00         0.00000E+00        -0.54925E+08
 
   -0.55063E+08         0.16019E+07         0.00000E+00
    0.16019E+07        -0.49647E+08         0.00000E+00
    0.00000E+00         0.00000E+00        -0.54935E+08
 
   -0.55146E+08         0.19785E+07         0.00000E+00
    0.19785E+07        -0.49592E+08         0.00000E+00
    0.00000E+00         0.00000E+00        -0.54940E+08
 
   -0.55193E+08         0.24082E+07         0.00000E+00
    0.24082E+07        -0.49546E+08         0.00000E+00
    0.00000E+00         0.00000E+00        -0.54940E+08
 
   -0.55188E+08         0.28949E+07         0.00000E+00
    0.28949E+07        -0.49516E+08         0.00000E+00
    0.00000E+00         0.00000E+00        -0.54934E+08
 
   -0.55118E+08         0.34381E+07         0.00000E+00
    0.34381E+07        -0.49516E+08         0.00000E+00
    0.00000E+00         0.00000E+00        -0.54920E+08
 
   -0.54979E+08         0.40271E+07         0.00000E+00
    0.40271E+07        -0.49569E+08         0.00000E+00
    0.00000E+00         0.00000E+00        -0.54902E+08
 
   -0.51424E+08        -0.17388E+06         0.00000E+00
   -0.17388E+06        -0.50038E+08         0.00000E+00
    0.00000E+00         0.00000E+00        -0.52420E+08
 
   -0.51076E+08        -0.48436E+06         0.00000E+00
   -0.48436E+06        -0.49983E+08         0.00000E+00
    0.00000E+00         0.00000E+00        -0.52339E+08
 
   -0.50823E+08        -0.75717E+06         0.00000E+00
   -0.75717E+06        -0.49918E+08         0.00000E+00
    0.00000E+00         0.00000E+00        -0.52276E+08
 
   -0.50644E+08        -0.10001E+07         0.00000E+00
   -0.10001E+07        -0.49840E+08         0.00000E+00
    0.00000E+00         0.00000E+00        -0.52224E+08
 
   -0.50525E+08        -0.12148E+07         0.00000E+00
   -0.12148E+07        -0.49749E+08         0.00000E+00
    0.00000E+00         0.00000E+00        -0.52182E+08
 
   -0.50458E+08        -0.14017E+07         0.00000E+00
   -0.14017E+07        -0.49650E+08         0.00000E+00
    0.00000E+00         0.00000E+00        -0.52149E+08
 
   -0.50435E+08        -0.15609E+07         0.00000E+00
   -0.15609E+07        -0.49544E+08         0.00000E+00
    0.00000E+00         0.00000E+00        -0.52124E+08
 
   -0.50450E+08        -0.16920E+07         0.00000E+00
   -0.16920E+07        -0.49437E+08         0.00000E+00
    0.00000E+00         0.00000E+00        -0.52105E+08
 
   -0.50493E+08        -0.17970E+07         0.00000E+00
   -0.17970E+07        -0.49332E+08         0.00000E+00
    0.00000E+00         0.00000E+00        -0.52093E+08
 
   -0.50560E+08        -0.18780E+07         0.00000E+00
   -0.18780E+07        -0.49229E+08         0.00000E+00
    0.00000E+00         0.00000E+00        -0.52086E+08
 
   -0.50645E+08        -0.19366E+07         0.00000E+00
   -0.19366E+07        -0.49130E+08         0.00000E+00
    0.00000E+00         0.00000E+00        -0.52083E+08
 
   -0.50743E+08        -0.19747E+07         0.00000E+00
   -0.19747E+07        -0.49038E+08         0.00000E+00
    0.00000E+00         0.00000E+00        -0.52084E+08
 
   -0.50852E+08        -0.19943E+07         0.00000E+00
   -0.19943E+07        -0.48951E+08         0.00000E+00
    0.00000E+00         0.00000E+00        -0.52088E+08
 
   -0.50967E+08        -0.19973E+07         0.00000E+00
   -0.19973E+07        -0.48872E+08         0.00000E+00
    0.00000E+00         0.00000E+00        -0.52095E+08
 
   -0.51085E+08        -0.19858E+07         0.00000E+00
   -0.19858E+07        -0.48800E+08         0.00000E+00
    0.00000E+00         0.00000E+00        -0.52105E+08
 
   -0.51206E+08        -0.19617E+07         0.00000E+00
   -0.19617E+07        -0.48735E+08         0.00000E+00
    0.00000E+00         0.00000E+00        -0.52116E+08
 
   -0.51327E+08        -0.19267E+07         0.00000E+00
   -0.19267E+07        -0.48677E+08         0.00000E+00
    0.00000E+00         0.00000E+00        -0.52129E+08
 
   -0.51447E+08        -0.18824E+07         0.00000E+00
   -0.18824E+07        -0.48626E+08         0.00000E+00
    0.00000E+00         0.00000E+00        -0.52142E+08
 
   -0.51565E+08        -0.18300E+07         0.00000E+00
   -0.18300E+07        -0.48581E+08         0.00000E+00
    0.00000E+00         0.00000E+00        -0.52157E+08
 
   -0.51682E+08        -0.17708E+07         0.00000E+00
   -0.17708E+07        -0.48541E+08         0.00000E+00
    0.00000E+00         0.00000E+00        -0.52172E+08
 
   -0.51795E+08        -0.17058E+07         0.00000E+00
   -0.17058E+07        -0.48505E+08         0.00000E+00
    0.00000E+00         0.00000E+00        -0.52188E+08
 
   -0.51907E+08        -0.16357E+07         0.00000E+00
   -0.16357E+07        -0.48474E+08         0.00000E+00
    0.00000E+00         0.00000E+00        -0.52204E+08
 
   -0.52015E+08        -0.15611E+07         0.00000E+00
   -0.15611E+07        -0.48446E+08         0.00000E+00
    0.00000E+00         0.00000E+00        -0.52220E+08
 
   -0.52121E+08        -0.14824E+07         0.00000E+00
   -0.14824E+07        -0.48421E+08         0.00000E+00
    0.00000E+00         0.00000E+00        -0.52236E+08
 
   -0.52224E+08        -0.14000E+07         0.00000E+00
   -0.14000E+07        -0.48398E+08         0.00000E+00
    0.00000E+00         0.00000E+00        -0.52252E+08
 
   -0.52325E+08        -0.13140E+07         0.00000E+00
   -0.13140E+07        -0.48377E+08         0.00000E+00
    0.00000E+00         0.00000E+00        -0.52268E+08
 
   -0.52423E+08        -0.12245E+07         0.00000E+00
   -0.12245E+07        -0.48357E+08         0.00000E+00
    0.00000E+00         0.00000E+00        -0.52284E+08
 
   -0.52520E+08        -0.11313E+07         0.00000E+00
   -0.11313E+07        -0.48337E+08         0.00000E+00
    0.00000E+00         0.00000E+00        -0.52299E+08
 
   -0.52614E+08        -0.10342E+07         0.00000E+00
   -0.10342E+07        -0.48318E+08         0.00000E+00
    0.00000E+00         0.00000E+00        -0.52314E+08
 
   -0.52706E+08        -0.93296E+06         0.00000E+00
   -0.93296E+06        -0.48298E+08         0.00000E+00
    0.00000E+00         0.00000E+00        -0.52328E+08
 
   -0.52796E+08        -0.82705E+06         0.00000E+00
   -0.82705E+06        -0.48278E+08         0.00000E+00
    0.00000E+00         0.00000E+00        -0.52342E+08
 
   -0.52885E+08        -0.71591E+06         0.00000E+00
   -0.71591E+06        -0.48256E+08         0.00000E+00
    0.00000E+00         0.00000E+00        -0.52356E+08
 
   -0.52971E+08        -0.59885E+06         0.00000E+00
   -0.59885E+06        -0.48234E+08         0.00000E+00
    0.00000E+00         0.00000E+00        -0.52369E+08
 
   -0.53054E+08        -0.47503E+06         0.00000E+00
   -0.47503E+06        -0.48210E+08         0.00000E+00
    0.00000E+00         0.00000E+00        -0.52381E+08
 
   -0.53134E+08        -0.34348E+06         0.00000E+00
   -0.34348E+06        -0.48185E+08         0.00000E+00
    0.00000E+00         0.00000E+00        -0.52392E+08
 
   -0.53211E+08        -0.20310E+06         0.00000E+00
   -0.20310E+06        -0.48159E+08         0.00000E+00
    0.00000E+00         0.00000E+00        -0.52401E+08
 
   -0.53282E+08        -0.52650E+05         0.00000E+00
   -0.52650E+05        -0.48131E+08         0.00000E+00
    0.00000E+00         0.00000E+00        -0.52410E+08
 
   -0.53348E+08         0.10927E+06         0.00000E+00
    0.10927E+06        -0.48102E+08         0.00000E+00
    0.00000E+00         0.00000E+00        -0.52418E+08
 
   -0.53406E+08         0.28419E+06         0.00000E+00
    0.28419E+06        -0.48073E+08         0.00000E+00
    0.00000E+00         0.00000E+00        -0.52423E+08
 
   -0.53454E+08         0.47373E+06         0.00000E+00
    0.47373E+06        -0.48044E+08         0.00000E+00
    0.00000E+00         0.00000E+00        -0.52427E+08
 
   -0.53489E+08         0.67960E+06         0.00000E+00
    0.67960E+06        -0.48017E+08         0.00000E+00
    0.00000E+00         0.00000E+00        -0.52429E+08
 
   -0.53508E+08         0.90355E+06         0.00000E+00
    0.90355E+06        -0.47993E+08         0.00000E+00
    0.00000E+00         0.00000E+00        -0.52428E+08
 
   -0.53507E+08         0.11472E+07         0.00000E+00
    0.11472E+07        -0.47974E+08         0.00000E+00
    0.00000E+00         0.00000E+00        -0.52424E+08
 
   -0.53481E+08         0.14120E+07         0.00000E+00
    0.14120E+07        -0.47963E+08         0.00000E+00
    0.00000E+00         0.00000E+00        -0.52417E+08
 
   -0.53424E+08         0.16989E+07         0.00000E+00
    0.16989E+07        -0.47963E+08         0.00000E+00
    0.00000E+00         0.00000E+00        -0.52405E+08
 
   -0.53330E+08         0.20083E+07         0.00000E+00
    0.20083E+07        -0.47978E+08         0.00000E+00
    0.00000E+00         0.00000E+00        -0.52389E+08
 
   -0.53191E+08         0.23396E+07         0.00000E+00
    0.23396E+07        -0.48014E+08         0.00000E+00
    0.00000E+00         0.00000E+00        -0.52369E+08
 
   -0.53001E+08         0.26916E+07         0.00000E+00
    0.26916E+07        -0.48074E+08         0.00000E+00
    0.00000E+00         0.00000E+00        -0.52343E+08
 
   -0.52751E+08         0.30629E+07         0.00000E+00
    0.30629E+07        -0.48164E+08         0.00000E+00
    0.00000E+00         0.00000E+00        -0.52311E+08
 
   -0.52429E+08         0.34547E+07         0.00000E+00
    0.34547E+07        -0.48284E+08         0.00000E+00
    0.00000E+00         0.00000E+00        -0.52270E+08
 
   -0.52624E+08        -0.81000E+05         0.00000E+00
   -0.81000E+05        -0.50017E+08         0.00000E+00
    0.00000E+00         0.00000E+00        -0.51547E+08
 
   -0.52223E+08        -0.25418E+06         0.00000E+00
   -0.25418E+06        -0.49992E+08         0.00000E+00
    0.00000E+00         0.00000E+00        -0.51461E+08
 
   -0.51889E+08        -0.42823E+06         0.00000E+00
   -0.42823E+06        -0.49941E+08         0.00000E+00
    0.00000E+00         0.00000E+00        -0.51385E+08
 
   -0.51618E+08        -0.59553E+06         0.00000E+00
   -0.59553E+06        -0.49873E+08         0.00000E+00
    0.00000E+00         0.00000E+00        -0.51317E+08
 
   -0.51402E+08        -0.75261E+06         0.00000E+00
   -0.75261E+06        -0.49792E+08         0.00000E+00
    0.00000E+00         0.00000E+00        -0.51257E+08
 
   -0.51234E+08        -0.89735E+06         0.00000E+00
   -0.89735E+06        -0.49699E+08         0.00000E+00
    0.00000E+00         0.00000E+00        -0.51205E+08
 
   -0.51109E+08        -0.10284E+07         0.00000E+00
   -0.10284E+07        -0.49599E+08         0.00000E+00
    0.00000E+00         0.00000E+00        -0.51160E+08
 
   -0.51021E+08        -0.11450E+07         0.00000E+00
   -0.11450E+07        -0.49493E+08         0.00000E+00
    0.00000E+00         0.00000E+00        -0.51121E+08
 
   -0.50964E+08        -0.12465E+07         0.00000E+00
   -0.12465E+07        -0.49384E+08         0.00000E+00
    0.00000E+00         0.00000E+00        -0.51088E+08
 
   -0.50936E+08        -0.13327E+07         0.00000E+00
   -0.13327E+07        -0.49272E+08         0.00000E+00
    0.00000E+00         0.00000E+00        -0.51060E+08
 
   -0.50930E+08        -0.14036E+07         0.00000E+00
   -0.14036E+07        -0.49160E+08         0.00000E+00
    0.00000E+00         0.00000E+00        -0.51036E+08
 
   -0.50944E+08        -0.14599E+07         0.00000E+00
   -0.14599E+07        -0.49049E+08         0.00000E+00
    0.00000E+00         0.00000E+00        -0.51017E+08
 
   -0.50974E+08        -0.15019E+07         0.00000E+00
   -0.15019E+07        -0.48940E+08         0.00000E+00
    0.00000E+00         0.00000E+00        -0.51001E+08
 
   -0.51017E+08        -0.15306E+07         0.00000E+00
   -0.15306E+07        -0.48834E+08         0.00000E+00
    0.00000E+00         0.00000E+00        -0.50989E+08
 
   -0.51071E+08        -0.15465E+07         0.00000E+00
   -0.15465E+07        -0.48732E+08         0.00000E+00
    0.00000E+00         0.00000E+00        -0.50979E+08
 
   -0.51133E+08        -0.15506E+07         0.00000E+00
   -0.15506E+07        -0.48634E+08         0.00000E+00
    0.00000E+00         0.00000E+00        -0.50972E+08
 
   -0.51202E+08        -0.15438E+07         0.00000E+00
   -0.15438E+07        -0.48540E+08         0.00000E+00
    0.00000E+00         0.00000E+00        -0.50967E+08
 
   -0.51276E+08        -0.15268E+07         0.00000E+00
   -0.15268E+07        -0.48451E+08         0.00000E+00
    0.00000E+00         0.00000E+00        -0.50964E+08
 
   -0.51353E+08        -0.15006E+07         0.00000E+00
   -0.15006E+07        -0.48366E+08         0.00000E+00
    0.00000E+00         0.00000E+00        -0.50962E+08
 
   -0.51432E+08        -0.14658E+07         0.00000E+00
   -0.14658E+07        -0.48286E+08         0.00000E+00
    0.00000E+00         0.00000E+00        -0.50962E+08
 
   -0.51513E+08        -0.14232E+07         0.00000E+00
   -0.14232E+07        -0.48210E+08         0.00000E+00
    0.00000E+00         0.00000E+00        -0.50963E+08
 
   -0.51594E+08        -0.13733E+07         0.00000E+00
   -0.13733E+07        -0.48138E+08         0.00000E+00
    0.00000E+00         0.00000E+00        -0.50965E+08
 
   -0.51675E+08        -0.13167E+07         0.00000E+00
   -0.13167E+07        -0.48071E+08         0.00000E+00
    0.00000E+00         0.00000E+00        -0.50968E+08
 
   -0.51755E+08        -0.12539E+07         0.00000E+00
   -0.12539E+07        -0.48006E+08         0.00000E+00
    0.00000E+00         0.00000E+00        -0.50971E+08
 
   -0.51835E+08        -0.11851E+07         0.00000E+00
   -0.11851E+07        -0.47946E+08         0.00000E+00
    0.00000E+00         0.00000E+00        -0.50975E+08
 
   -0.51912E+08        -0.11106E+07         0.00000E+00
   -0.11106E+07        -0.47888E+08         0.00000E+00
    0.00000E+00         0.00000E+00        -0.50978E+08
 
   -0.51987E+08        -0.10305E+07         0.00000E+00
   -0.10305E+07        -0.47833E+08         0.00000E+00
    0.00000E+00         0.00000E+00        -0.50983E+08
 
   -0.52060E+08        -0.94499E+06         0.00000E+00
   -0.94499E+06        -0.47781E+08         0.00000E+00
    0.00000E+00         0.00000E+00        -0.50987E+08
 
   -0.52130E+08        -0.85399E+06         0.00000E+00
   -0.85399E+06        -0.47731E+08         0.00000E+00
    0.00000E+00         0.00000E+00        -0.50991E+08
 
   -0.52197E+08        -0.75741E+06         0.00000E+00
   -0.75741E+06        -0.47683E+08         0.00000E+00
    0.00000E+00         0.00000E+00        -0.50994E+08
 
   -0.52260E+08        -0.65508E+06         0.00000E+00
   -0.65508E+06        -0.47637E+08         0.00000E+00
    0.00000E+00         0.00000E+00        -0.50998E+08
 
   -0.52318E+08        -0.54676E+06         0.00000E+00
   -0.54676E+06        -0.47593E+08         0.00000E+00
    0.00000E+00         0.00000E+00        -0.51001E+08
 
   -0.52372E+08        -0.43215E+06         0.00000E+00
   -0.43215E+06        -0.47551E+08         0.00000E+00
    0.00000E+00         0.00000E+00        -0.51003E+08
 
   -0.52419E+08        -0.31089E+06         0.00000E+00
   -0.31089E+06        -0.47511E+08         0.00000E+00
    0.00000E+00         0.00000E+00        -0.51005E+08
 
   -0.52460E+08        -0.18257E+06         0.00000E+00
   -0.18257E+06        -0.47473E+08         0.00000E+00
    0.00000E+00         0.00000E+00        -0.51005E+08
 
   -0.52494E+08        -0.46760E+05         0.00000E+00
   -0.46760E+05        -0.47438E+08         0.00000E+00
    0.00000E+00         0.00000E+00        -0.51005E+08
 
   -0.52518E+08         0.96996E+05         0.00000E+00
    0.96996E+05        -0.47406E+08         0.00000E+00
    0.00000E+00         0.00000E+00        -0.51003E+08
 
   -0.52531E+08         0.24913E+06         0.00000E+00
    0.24913E+06        -0.47377E+08         0.00000E+00
    0.00000E+00         0.00000E+00        -0.51000E+08
 
   -0.52532E+08         0.41005E+06         0.00000E+00
    0.41005E+06        -0.47352E+08         0.00000E+00
    0.00000E+00         0.00000E+00        -0.50995E+08
 
   -0.52519E+08         0.58005E+06         0.00000E+00
    0.58005E+06        -0.47333E+08         0.00000E+00
    0.00000E+00         0.00000E+00        -0.50989E+08
 
   -0.52488E+08         0.75933E+06         0.00000E+00
    0.75933E+06        -0.47321E+08         0.00000E+00
    0.00000E+00         0.00000E+00        -0.50980E+08
 
   -0.52438E+08         0.94786E+06         0.00000E+00
    0.94786E+06        -0.47316E+08         0.00000E+00
    0.00000E+00         0.00000E+00        -0.50969E+08
 
   -0.52366E+08         0.11454E+07         0.00000E+00
    0.11454E+07        -0.47321E+08         0.00000E+00
    0.00000E+00         0.00000E+00        -0.50956E+08
 
   -0.52268E+08         0.13513E+07         0.00000E+00
    0.13513E+07        -0.47338E+08         0.00000E+00
    0.00000E+00         0.00000E+00        -0.50940E+08
 
   -0.52141E+08         0.15647E+07         0.00000E+00
    0.15647E+07        -0.47368E+08         0.00000E+00
    0.00000E+00         0.00000E+00        -0.50920E+08
 
   -0.51980E+08         0.17842E+07         0.00000E+00
    0.17842E+07        -0.47415E+08         0.00000E+00
    0.00000E+00         0.00000E+00        -0.50897E+08
 
   -0.51783E+08         0.20079E+07         0.00000E+00
    0.20079E+07        -0.47480E+08         0.00000E+00
    0.00000E+00         0.00000E+00        -0.50871E+08
 
   -0.51544E+08         0.22335E+07         0.00000E+00
    0.22335E+07        -0.47566E+08         0.00000E+00
    0.00000E+00         0.00000E+00        -0.50841E+08
 
   -0.51260E+08         0.24579E+07         0.00000E+00
    0.24579E+07        -0.47676E+08         0.00000E+00
    0.00000E+00         0.00000E+00        -0.50806E+08
 
   -0.50926E+08         0.26759E+07         0.00000E+00
    0.26759E+07        -0.47815E+08         0.00000E+00
    0.00000E+00         0.00000E+00        -0.50767E+08
 
   -0.53216E+08        -0.20328E+05         0.00000E+00
   -0.20328E+05        -0.50013E+08         0.00000E+00
    0.00000E+00         0.00000E+00        -0.51086E+08
 
   -0.52850E+08        -0.10017E+06         0.00000E+00
   -0.10017E+06        -0.49995E+08         0.00000E+00
    0.00000E+00         0.00000E+00        -0.51009E+08
 
   -0.52530E+08        -0.18887E+06         0.00000E+00
   -0.18887E+06        -0.49963E+08         0.00000E+00
    0.00000E+00         0.00000E+00        -0.50939E+08
 
   -0.52251E+08        -0.28323E+06         0.00000E+00
   -0.28323E+06        -0.49918E+08         0.00000E+00
    0.00000E+00         0.00000E+00        -0.50874E+08
 
   -0.52011E+08        -0.37965E+06         0.00000E+00
   -0.37965E+06        -0.49860E+08         0.00000E+00
    0.00000E+00         0.00000E+00        -0.50814E+08
 
   -0.51808E+08        -0.47511E+06         0.00000E+00
   -0.47511E+06        -0.49792E+08         0.00000E+00
    0.00000E+00         0.00000E+00        -0.50760E+08
 
   -0.51638E+08        -0.56722E+06         0.00000E+00
   -0.56722E+06        -0.49715E+08         0.00000E+00
    0.00000E+00         0.00000E+00        -0.50711E+08
 
   -0.51500E+08        -0.65406E+06         0.00000E+00
   -0.65406E+06        -0.49630E+08         0.00000E+00
    0.00000E+00         0.00000E+00        -0.50666E+08
 
   -0.51389E+08        -0.73425E+06         0.00000E+00
   -0.73425E+06        -0.49540E+08         0.00000E+00
    0.00000E+00         0.00000E+00        -0.50626E+08
 
   -0.51303E+08        -0.80676E+06         0.00000E+00
   -0.80676E+06        -0.49445E+08         0.00000E+00
    0.00000E+00         0.00000E+00        -0.50590E+08
 
   -0.51239E+08        -0.87078E+06         0.00000E+00
   -0.87078E+06        -0.49346E+08         0.00000E+00
    0.00000E+00         0.00000E+00        -0.50557E+08
 
   -0.51194E+08        -0.92581E+06         0.00000E+00
   -0.92581E+06        -0.49246E+08         0.00000E+00
    0.00000E+00         0.00000E+00        -0.50528E+08
 
   -0.51167E+08        -0.97155E+06         0.00000E+00
   -0.97155E+06        -0.49145E+08         0.00000E+00
    0.00000E+00         0.00000E+00        -0.50502E+08
 
   -0.51154E+08        -0.10079E+07         0.00000E+00
   -0.10079E+07        -0.49043E+08         0.00000E+00
    0.00000E+00         0.00000E+00        -0.50479E+08
 
   -0.51154E+08        -0.10349E+07         0.00000E+00
   -0.10349E+07        -0.48942E+08         0.00000E+00
    0.00000E+00         0.00000E+00        -0.50459E+08
 
   -0.51165E+08        -0.10526E+07         0.00000E+00
   -0.10526E+07        -0.48842E+08         0.00000E+00
    0.00000E+00         0.00000E+00        -0.50441E+08
 
   -0.51186E+08        -0.10613E+07         0.00000E+00
   -0.10613E+07        -0.48743E+08         0.00000E+00
    0.00000E+00         0.00000E+00        -0.50426E+08
 
   -0.51213E+08        -0.10612E+07         0.00000E+00
   -0.10612E+07        -0.48647E+08         0.00000E+00
    0.00000E+00         0.00000E+00        -0.50412E+08
 
   -0.51247E+08        -0.10527E+07         0.00000E+00
   -0.10527E+07        -0.48553E+08         0.00000E+00
    0.00000E+00         0.00000E+00        -0.50400E+08
 
   -0.51286E+08        -0.10361E+07         0.00000E+00
   -0.10361E+07        -0.48462E+08         0.00000E+00
    0.00000E+00         0.00000E+00        -0.50390E+08
 
   -0.51329E+08        -0.10118E+07         0.00000E+00
   -0.10118E+07        -0.48374E+08         0.00000E+00
    0.00000E+00         0.00000E+00        -0.50381E+08
 
   -0.51374E+08        -0.97999E+06         0.00000E+00
   -0.97999E+06        -0.48289E+08         0.00000E+00
    0.00000E+00         0.00000E+00        -0.50373E+08
 
   -0.51421E+08        -0.94110E+06         0.00000E+00
   -0.94110E+06        -0.48207E+08         0.00000E+00
    0.00000E+00         0.00000E+00        -0.50366E+08
 
   -0.51469E+08        -0.89539E+06         0.00000E+00
   -0.89539E+06        -0.48128E+08         0.00000E+00
    0.00000E+00         0.00000E+00        -0.50360E+08
 
   -0.51517E+08        -0.84312E+06         0.00000E+00
   -0.84312E+06        -0.48053E+08         0.00000E+00
    0.00000E+00         0.00000E+00        -0.50354E+08
 
   -0.51565E+08        -0.78453E+06         0.00000E+00
   -0.78453E+06        -0.47981E+08         0.00000E+00
    0.00000E+00         0.00000E+00        -0.50349E+08
 
   -0.51611E+08        -0.71980E+06         0.00000E+00
   -0.71980E+06        -0.47912E+08         0.00000E+00
    0.00000E+00         0.00000E+00        -0.50345E+08
 
   -0.51655E+08        -0.64910E+06         0.00000E+00
   -0.64910E+06        -0.47846E+08         0.00000E+00
    0.00000E+00         0.00000E+00        -0.50340E+08
 
   -0.51697E+08        -0.57255E+06         0.00000E+00
   -0.57255E+06        -0.47784E+08         0.00000E+00
    0.00000E+00         0.00000E+00        -0.50336E+08
 
   -0.51735E+08        -0.49024E+06         0.00000E+00
   -0.49024E+06        -0.47725E+08         0.00000E+00
    0.00000E+00         0.00000E+00        -0.50332E+08
 
   -0.51769E+08        -0.40225E+06         0.00000E+00
   -0.40225E+06        -0.47669E+08         0.00000E+00
    0.00000E+00         0.00000E+00        -0.50328E+08
 
   -0.51798E+08        -0.30863E+06         0.00000E+00
   -0.30863E+06        -0.47617E+08         0.00000E+00
    0.00000E+00         0.00000E+00        -0.50323E+08
 
   -0.51821E+08        -0.20943E+06         0.00000E+00
   -0.20943E+06        -0.47569E+08         0.00000E+00
    0.00000E+00         0.00000E+00        -0.50318E+08
 
   -0.51838E+08        -0.10469E+06         0.00000E+00
   -0.10469E+06        -0.47524E+08         0.00000E+00
    0.00000E+00         0.00000E+00        -0.50313E+08
 
   -0.51847E+08         0.55242E+04         0.00000E+00
    0.55242E+04        -0.47484E+08         0.00000E+00
    0.00000E+00         0.00000E+00        -0.50306E+08
 
   -0.51848E+08         0.12112E+06         0.00000E+00
    0.12112E+06        -0.47449E+08         0.00000E+00
    0.00000E+00         0.00000E+00        -0.50299E+08
 
   -0.51839E+08         0.24195E+06         0.00000E+00
    0.24195E+06        -0.47419E+08         0.00000E+00
    0.00000E+00         0.00000E+00        -0.50292E+08
 
   -0.51819E+08         0.36781E+06         0.00000E+00
    0.36781E+06        -0.47395E+08         0.00000E+00
    0.00000E+00         0.00000E+00        -0.50283E+08
 
   -0.51787E+08         0.49839E+06         0.00000E+00
    0.49839E+06        -0.47377E+08         0.00000E+00
    0.00000E+00         0.00000E+00        -0.50273E+08
 
   -0.51741E+08         0.63325E+06         0.00000E+00
    0.63325E+06        -0.47366E+08         0.00000E+00
    0.00000E+00         0.00000E+00        -0.50261E+08
 
   -0.51680E+08         0.77182E+06         0.00000E+00
    0.77182E+06        -0.47363E+08         0.00000E+00
    0.00000E+00         0.00000E+00        -0.50249E+08
 
   -0.51602E+08         0.91332E+06         0.00000E+00
    0.91332E+06        -0.47369E+08         0.00000E+00
    0.00000E+00         0.00000E+00        -0.50234E+08
 
   -0.51506E+08         0.10568E+07         0.00000E+00
    0.10568E+07        -0.47384E+08         0.00000E+00
    0.00000E+00         0.00000E+00        -0.50218E+08
 
   -0.51389E+08         0.12010E+07         0.00000E+00
    0.12010E+07        -0.47411E+08         0.00000E+00
    0.00000E+00         0.00000E+00        -0.50200E+08
 
   -0.51251E+08         0.13444E+07         0.00000E+00
    0.13444E+07        -0.47450E+08         0.00000E+00
    0.00000E+00         0.00000E+00        -0.50180E+08
 
   -0.51089E+08         0.14853E+07         0.00000E+00
    0.14853E+07        -0.47502E+08         0.00000E+00
    0.00000E+00         0.00000E+00        -0.50158E+08
 
   -0.50902E+08         0.16214E+07         0.00000E+00
    0.16214E+07        -0.47569E+08         0.00000E+00
    0.00000E+00         0.00000E+00        -0.50134E+08
 
   -0.50687E+08         0.17500E+07         0.00000E+00
    0.17500E+07        -0.47651E+08         0.00000E+00
    0.00000E+00         0.00000E+00        -0.50108E+08
 
   -0.50445E+08         0.18681E+07         0.00000E+00
    0.18681E+07        -0.47749E+08         0.00000E+00
    0.00000E+00         0.00000E+00        -0.50079E+08
 
   -0.50175E+08         0.19724E+07         0.00000E+00
    0.19724E+07        -0.47864E+08         0.00000E+00
    0.00000E+00         0.00000E+00        -0.50048E+08
 
   -0.53407E+08         0.10072E+05         0.00000E+00
    0.10072E+05        -0.50007E+08         0.00000E+00
    0.00000E+00         0.00000E+00        -0.50855E+08
 
   -0.53108E+08        -0.81144E+04         0.00000E+00
   -0.81144E+04        -0.49998E+08         0.00000E+00
    0.00000E+00         0.00000E+00        -0.50794E+08
 
   -0.52834E+08        -0.38722E+05         0.00000E+00
   -0.38722E+05        -0.49980E+08         0.00000E+00
    0.00000E+00         0.00000E+00        -0.50736E+08
 
   -0.52586E+08        -0.78544E+05         0.00000E+00
   -0.78544E+05        -0.49953E+08         0.00000E+00
    0.00000E+00         0.00000E+00        -0.50681E+08
 
   -0.52363E+08        -0.12500E+06         0.00000E+00
   -0.12500E+06        -0.49916E+08         0.00000E+00
    0.00000E+00         0.00000E+00        -0.50629E+08
 
   -0.52165E+08        -0.17576E+06         0.00000E+00
   -0.17576E+06        -0.49872E+08         0.00000E+00
    0.00000E+00         0.00000E+00        -0.50580E+08
 
   -0.51989E+08        -0.22876E+06         0.00000E+00
   -0.22876E+06        -0.49819E+08         0.00000E+00
    0.00000E+00         0.00000E+00        -0.50535E+08
 
   -0.51836E+08        -0.28220E+06         0.00000E+00
   -0.28220E+06        -0.49760E+08         0.00000E+00
    0.00000E+00         0.00000E+00        -0.50492E+08
 
   -0.51704E+08        -0.33453E+06         0.00000E+00
   -0.33453E+06        -0.49695E+08         0.00000E+00
    0.00000E+00         0.00000E+00        -0.50453E+08
 
   -0.51591E+08        -0.38446E+06         0.00000E+00
   -0.38446E+06        -0.49625E+08         0.00000E+00
    0.00000E+00         0.00000E+00        -0.50416E+08
 
   -0.51496E+08        -0.43092E+06         0.00000E+00
   -0.43092E+06        -0.49550E+08         0.00000E+00
    0.00000E+00         0.00000E+00        -0.50382E+08
 
   -0.51418E+08        -0.47305E+06         0.00000E+00
   -0.47305E+06        -0.49471E+08         0.00000E+00
    0.00000E+00         0.00000E+00        -0.50351E+08
 
   -0.51355E+08        -0.51016E+06         0.00000E+00
   -0.51016E+06        -0.49390E+08         0.00000E+00
    0.00000E+00         0.00000E+00        -0.50322E+08
 
   -0.51305E+08        -0.54173E+06         0.00000E+00
   -0.54173E+06        -0.49307E+08         0.00000E+00
    0.00000E+00         0.00000E+00        -0.50295E+08
 
   -0.51267E+08        -0.56735E+06         0.00000E+00
   -0.56735E+06        -0.49222E+08         0.00000E+00
    0.00000E+00         0.00000E+00        -0.50271E+08
 
   -0.51239E+08        -0.58675E+06         0.00000E+00
   -0.58675E+06        -0.49137E+08         0.00000E+00
    0.00000E+00         0.00000E+00        -0.50248E+08
 
   -0.51222E+08        -0.59976E+06         0.00000E+00
   -0.59976E+06        -0.49051E+08         0.00000E+00
    0.00000E+00         0.00000E+00        -0.50227E+08
 
   -0.51212E+08        -0.60628E+06         0.00000E+00
   -0.60628E+06        -0.48966E+08         0.00000E+00
    0.00000E+00         0.00000E+00        -0.50208E+08
 
   -0.51209E+08        -0.60627E+06         0.00000E+00
   -0.60627E+06        -0.48881E+08         0.00000E+00
    0.00000E+00         0.00000E+00        -0.50191E+08
 
   -0.51212E+08        -0.59978E+06         0.00000E+00
   -0.59978E+06        -0.48797E+08         0.00000E+00
    0.00000E+00         0.00000E+00        -0.50175E+08
 
   -0.51220E+08        -0.58686E+06         0.00000E+00
   -0.58686E+06        -0.48715E+08         0.00000E+00
    0.00000E+00         0.00000E+00        -0.50160E+08
 
   -0.51231E+08        -0.56763E+06         0.00000E+00
   -0.56763E+06        -0.48635E+08         0.00000E+00
    0.00000E+00         0.00000E+00        -0.50146E+08
 
   -0.51245E+08        -0.54220E+06         0.00000E+00
   -0.54220E+06        -0.48557E+08         0.00000E+00
    0.00000E+00         0.00000E+00        -0.50133E+08
 
   -0.51262E+08        -0.51073E+06         0.00000E+00
   -0.51073E+06        -0.48481E+08         0.00000E+00
    0.00000E+00         0.00000E+00        -0.50121E+08
 
   -0.51279E+08        -0.47336E+06         0.00000E+00
   -0.47336E+06        -0.48408E+08         0.00000E+00
    0.00000E+00         0.00000E+00        -0.50110E+08
 
   -0.51297E+08        -0.43027E+06         0.00000E+00
   -0.43027E+06        -0.48337E+08         0.00000E+00
    0.00000E+00         0.00000E+00        -0.50100E+08
 
   -0.51314E+08        -0.38163E+06         0.00000E+00
   -0.38163E+06        -0.48270E+08         0.00000E+00
    0.00000E+00         0.00000E+00        -0.50090E+08
 
   -0.51330E+08        -0.32762E+06         0.00000E+00
   -0.32762E+06        -0.48205E+08         0.00000E+00
    0.00000E+00         0.00000E+00        -0.50080E+08
 
   -0.51344E+08        -0.26841E+06         0.00000E+00
   -0.26841E+06        -0.48144E+08         0.00000E+00
    0.00000E+00         0.00000E+00        -0.50071E+08
 
   -0.51356E+08        -0.20420E+06         0.00000E+00
   -0.20420E+06        -0.48087E+08         0.00000E+00
    0.00000E+00         0.00000E+00        -0.50061E+08
 
   -0.51364E+08        -0.13520E+06         0.00000E+00
   -0.13520E+06        -0.48033E+08         0.00000E+00
    0.00000E+00         0.00000E+00        -0.50052E+08
 
   -0.51368E+08        -0.61624E+05         0.00000E+00
   -0.61624E+05        -0.47984E+08         0.00000E+00
    0.00000E+00         0.00000E+00        -0.50043E+08
 
   -0.51367E+08         0.16283E+05         0.00000E+00
    0.16283E+05        -0.47938E+08         0.00000E+00
    0.00000E+00         0.00000E+00        -0.50034E+08
 
   -0.51360E+08         0.98248E+05         0.00000E+00
    0.98248E+05        -0.47898E+08         0.00000E+00
    0.00000E+00         0.00000E+00        -0.50024E+08
 
   -0.51347E+08         0.18396E+06         0.00000E+00
    0.18396E+06        -0.47862E+08         0.00000E+00
    0.00000E+00         0.00000E+00        -0.50015E+08
 
   -0.51327E+08         0.27304E+06         0.00000E+00
    0.27304E+06        -0.47831E+08         0.00000E+00
    0.00000E+00         0.00000E+00        -0.50004E+08
 
   -0.51299E+08         0.36508E+06         0.00000E+00
    0.36508E+06        -0.47806E+08         0.00000E+00
    0.00000E+00         0.00000E+00        -0.49994E+08
 
   -0.51262E+08         0.45958E+06         0.00000E+00
    0.45958E+06        -0.47787E+08         0.00000E+00
    0.00000E+00         0.00000E+00        -0.49983E+08
 
   -0.51215E+08         0.55595E+06         0.00000E+00
    0.55595E+06        -0.47774E+08         0.00000E+00
    0.00000E+00         0.00000E+00        -0.49971E+08
 
   -0.51158E+08         0.65349E+06         0.00000E+00
    0.65349E+06        -0.47768E+08         0.00000E+00
    0.00000E+00         0.00000E+00        -0.49958E+08
 
   -0.51089E+08         0.75142E+06         0.00000E+00
    0.75142E+06        -0.47769E+08         0.00000E+00
    0.00000E+00         0.00000E+00        -0.49945E+08
 
   -0.51009E+08         0.84880E+06         0.00000E+00
    0.84880E+06        -0.47779E+08         0.00000E+00
    0.00000E+00         0.00000E+00        -0.49930E+08
 
   -0.50916E+08         0.94456E+06         0.00000E+00
    0.94456E+06        -0.47796E+08         0.00000E+00
    0.00000E+00         0.00000E+00        -0.49915E+08
 
   -0.50809E+08         0.10375E+07         0.00000E+00
    0.10375E+07        -0.47823E+08         0.00000E+00
    0.00000E+00         0.00000E+00        -0.49899E+08
 
   -0.50689E+08         0.11261E+07         0.00000E+00
    0.11261E+07        -0.47858E+08         0.00000E+00
    0.00000E+00         0.00000E+00        -0.49882E+08
 
   -0.50554E+08         0.12089E+07         0.00000E+00
    0.12089E+07        -0.47903E+08         0.00000E+00
    0.00000E+00         0.00000E+00        -0.49864E+08
 
   -0.50404E+08         0.12841E+07         0.00000E+00
    0.12841E+07        -0.47957E+08         0.00000E+00
    0.00000E+00         0.00000E+00        -0.49845E+08
 
   -0.50240E+08         0.13496E+07         0.00000E+00
    0.13496E+07        -0.48021E+08         0.00000E+00
    0.00000E+00         0.00000E+00        -0.49825E+08
 
   -0.50062E+08         0.14036E+07         0.00000E+00
    0.14036E+07        -0.48095E+08         0.00000E+00
    0.00000E+00         0.00000E+00        -0.49804E+08
 
   -0.49871E+08         0.14434E+07         0.00000E+00
    0.14434E+07        -0.48179E+08         0.00000E+00
    0.00000E+00         0.00000E+00        -0.49783E+08
 
   -0.53365E+08         0.23946E+05         0.00000E+00
    0.23946E+05        -0.50003E+08         0.00000E+00
    0.00000E+00         0.00000E+00        -0.50736E+08
 
   -0.53131E+08         0.40865E+05         0.00000E+00
    0.40865E+05        -0.49999E+08         0.00000E+00
    0.00000E+00         0.00000E+00        -0.50688E+08
 
   -0.52911E+08         0.46901E+05         0.00000E+00
    0.46901E+05        -0.49990E+08         0.00000E+00
    0.00000E+00         0.00000E+00        -0.50642E+08
 
   -0.52704E+08         0.43718E+05         0.00000E+00
    0.43718E+05        -0.49975E+08         0.00000E+00
    0.00000E+00         0.00000E+00        -0.50598E+08
 
   -0.52512E+08         0.33026E+05         0.00000E+00
    0.33026E+05        -0.49953E+08         0.00000E+00
    0.00000E+00         0.00000E+00        -0.50555E+08
 
   -0.52335E+08         0.16428E+05         0.00000E+00
    0.16428E+05        -0.49926E+08         0.00000E+00
    0.00000E+00         0.00000E+00        -0.50515E+08
 
   -0.52173E+08        -0.45905E+04         0.00000E+00
   -0.45905E+04        -0.49894E+08         0.00000E+00
    0.00000E+00         0.00000E+00        -0.50476E+08
 
   -0.52026E+08        -0.28660E+05         0.00000E+00
   -0.28660E+05        -0.49856E+08         0.00000E+00
    0.00000E+00         0.00000E+00        -0.50439E+08
 
   -0.51893E+08        -0.54540E+05         0.00000E+00
   -0.54540E+05        -0.49812E+08         0.00000E+00
    0.00000E+00         0.00000E+00        -0.50403E+08
 
   -0.51774E+08        -0.81114E+05         0.00000E+00
   -0.81114E+05        -0.49765E+08         0.00000E+00
    0.00000E+00         0.00000E+00        -0.50370E+08
 
   -0.51669E+08        -0.10739E+06         0.00000E+00
   -0.10739E+06        -0.49713E+08         0.00000E+00
    0.00000E+00         0.00000E+00        -0.50338E+08
 
   -0.51575E+08        -0.13250E+06         0.00000E+00
   -0.13250E+06        -0.49657E+08         0.00000E+00
    0.00000E+00         0.00000E+00        -0.50309E+08
 
   -0.51494E+08        -0.15571E+06         0.00000E+00
   -0.15571E+06        -0.49598E+08         0.00000E+00
    0.00000E+00         0.00000E+00        -0.50281E+08
 
   -0.51423E+08        -0.17637E+06         0.00000E+00
   -0.17637E+06        -0.49537E+08         0.00000E+00
    0.00000E+00         0.00000E+00        -0.50254E+08
 
   -0.51362E+08        -0.19395E+06         0.00000E+00
   -0.19395E+06        -0.49473E+08         0.00000E+00
    0.00000E+00         0.00000E+00        -0.50229E+08
 
   -0.51310E+08        -0.20801E+06         0.00000E+00
   -0.20801E+06        -0.49408E+08         0.00000E+00
    0.00000E+00         0.00000E+00        -0.50206E+08
 
   -0.51266E+08        -0.21821E+06         0.00000E+00
   -0.21821E+06        -0.49341E+08         0.00000E+00
    0.00000E+00         0.00000E+00        -0.50184E+08
 
   -0.51230E+08        -0.22425E+06         0.00000E+00
   -0.22425E+06        -0.49274E+08         0.00000E+00
    0.00000E+00         0.00000E+00        -0.50163E+08
 
   -0.51199E+08        -0.22593E+06         0.00000E+00
   -0.22593E+06        -0.49207E+08         0.00000E+00
    0.00000E+00         0.00000E+00        -0.50143E+08
 
   -0.51175E+08        -0.22311E+06         0.00000E+00
   -0.22311E+06        -0.49139E+08         0.00000E+00
    0.00000E+00         0.00000E+00        -0.50125E+08
 
   -0.51155E+08        -0.21570E+06         0.00000E+00
   -0.21570E+06        -0.49072E+08         0.00000E+00
    0.00000E+00         0.00000E+00        -0.50108E+08
 
   -0.51140E+08        -0.20363E+06         0.00000E+00
   -0.20363E+06        -0.49006E+08         0.00000E+00
    0.00000E+00         0.00000E+00        -0.50091E+08
 
   -0.51127E+08        -0.18692E+06         0.00000E+00
   -0.18692E+06        -0.48941E+08         0.00000E+00
    0.00000E+00         0.00000E+00        -0.50076E+08
 
   -0.51117E+08        -0.16560E+06         0.00000E+00
   -0.16560E+06        -0.48877E+08         0.00000E+00
    0.00000E+00         0.00000E+00        -0.50061E+08
 
   -0.51109E+08        -0.13972E+06         0.00000E+00
   -0.13972E+06        -0.48815E+08         0.00000E+00
    0.00000E+00         0.00000E+00        -0.50047E+08
 
   -0.51102E+08        -0.10939E+06         0.00000E+00
   -0.10939E+06        -0.48756E+08         0.00000E+00
    0.00000E+00         0.00000E+00        -0.50034E+08
 
   -0.51095E+08        -0.74738E+05         0.00000E+00
   -0.74738E+05        -0.48698E+08         0.00000E+00
    0.00000E+00         0.00000E+00        -0.50021E+08
 
   -0.51087E+08        -0.35905E+05         0.00000E+00
   -0.35905E+05        -0.48644E+08         0.00000E+00
    0.00000E+00         0.00000E+00        -0.50008E+08
 
   -0.51079E+08         0.69258E+04         0.00000E+00
    0.69258E+04        -0.48592E+08         0.00000E+00
    0.00000E+00         0.00000E+00        -0.49996E+08
 
   -0.51069E+08         0.53548E+05         0.00000E+00
    0.53548E+05        -0.48543E+08         0.00000E+00
    0.00000E+00         0.00000E+00        -0.49985E+08
 
   -0.51057E+08         0.10373E+06         0.00000E+00
    0.10373E+06        -0.48498E+08         0.00000E+00
    0.00000E+00         0.00000E+00        -0.49973E+08
 
   -0.51042E+08         0.15720E+06         0.00000E+00
    0.15720E+06        -0.48457E+08         0.00000E+00
    0.00000E+00         0.00000E+00        -0.49962E+08
 
   -0.51024E+08         0.21366E+06         0.00000E+00
    0.21366E+06        -0.48419E+08         0.00000E+00
    0.00000E+00         0.00000E+00        -0.49951E+08
 
   -0.51001E+08         0.27277E+06         0.00000E+00
    0.27277E+06        -0.48385E+08         0.00000E+00
    0.00000E+00         0.00000E+00        -0.49940E+08
 
   -0.50974E+08         0.33415E+06         0.00000E+00
    0.33415E+06        -0.48356E+08         0.00000E+00
    0.00000E+00         0.00000E+00        -0.49928E+08
 
   -0.50942E+08         0.39738E+06         0.00000E+00
    0.39738E+06        -0.48332E+08         0.00000E+00
    0.00000E+00         0.00000E+00        -0.49917E+08
 
   -0.50905E+08         0.46197E+06         0.00000E+00
    0.46197E+06        -0.48312E+08         0.00000E+00
    0.00000E+00         0.00000E+00        -0.49906E+08
 
   -0.50862E+08         0.52739E+06         0.00000E+00
    0.52739E+06        -0.48298E+08         0.00000E+00
    0.00000E+00         0.00000E+00        -0.49894E+08
 
   -0.50812E+08         0.59305E+06         0.00000E+00
    0.59305E+06        -0.48289E+08         0.00000E+00
    0.00000E+00         0.00000E+00        -0.49882E+08
 
   -0.50755E+08         0.65827E+06         0.00000E+00
    0.65827E+06        -0.48286E+08         0.00000E+00
    0.00000E+00         0.00000E+00        -0.49870E+08
 
   -0.50691E+08         0.72233E+06         0.00000E+00
    0.72233E+06        -0.48289E+08         0.00000E+00
    0.00000E+00         0.00000E+00        -0.49858E+08
 
   -0.50620E+08         0.78442E+06         0.00000E+00
    0.78442E+06        -0.48298E+08         0.00000E+00
    0.00000E+00         0.00000E+00        -0.49846E+08
 
   -0.50541E+08         0.84365E+06         0.00000E+00
    0.84365E+06        -0.48312E+08         0.00000E+00
    0.00000E+00         0.00000E+00        -0.49833E+08
 
   -0.50455E+08         0.89905E+06         0.00000E+00
    0.89905E+06        -0.48333E+08         0.00000E+00
    0.00000E+00         0.00000E+00        -0.49820E+08
 
   -0.50361E+08         0.94960E+06         0.00000E+00
    0.94960E+06        -0.48361E+08         0.00000E+00
    0.00000E+00         0.00000E+00        -0.49807E+08
 
   -0.50260E+08         0.99416E+06         0.00000E+00
    0.99416E+06        -0.48394E+08         0.00000E+00
    0.00000E+00         0.00000E+00        -0.49793E+08
 
   -0.50152E+08         0.10316E+07         0.00000E+00
    0.10316E+07        -0.48433E+08         0.00000E+00
    0.00000E+00         0.00000E+00        -0.49779E+08
 
   -0.50037E+08         0.10606E+07         0.00000E+00
    0.10606E+07        -0.48478E+08         0.00000E+00
    0.00000E+00         0.00000E+00        -0.49765E+08
 
   -0.49918E+08         0.10800E+07         0.00000E+00
    0.10800E+07        -0.48528E+08         0.00000E+00
    0.00000E+00         0.00000E+00        -0.49751E+08
 
   -0.49794E+08         0.10885E+07         0.00000E+00
    0.10885E+07        -0.48583E+08         0.00000E+00
    0.00000E+00         0.00000E+00        -0.49737E+08
 
   -0.53200E+08         0.29561E+05         0.00000E+00
    0.29561E+05        -0.50002E+08         0.00000E+00
    0.00000E+00         0.00000E+00        -0.50661E+08
 
   -0.53019E+08         0.65539E+05         0.00000E+00
    0.65539E+05        -0.50000E+08         0.00000E+00
    0.00000E+00         0.00000E+00        -0.50624E+08
 
   -0.52844E+08         0.92772E+05         0.00000E+00
    0.92772E+05        -0.49995E+08         0.00000E+00
    0.00000E+00         0.00000E+00        -0.50588E+08
 
   -0.52676E+08         0.11225E+06         0.00000E+00
    0.11225E+06        -0.49987E+08         0.00000E+00
    0.00000E+00         0.00000E+00        -0.50553E+08
 
   -0.52517E+08         0.12495E+06         0.00000E+00
    0.12495E+06        -0.49975E+08         0.00000E+00
    0.00000E+00         0.00000E+00        -0.50519E+08
 
   -0.52367E+08         0.13186E+06         0.00000E+00
    0.13186E+06        -0.49960E+08         0.00000E+00
    0.00000E+00         0.00000E+00        -0.50486E+08
 
   -0.52225E+08         0.13395E+06         0.00000E+00
    0.13395E+06        -0.49941E+08         0.00000E+00
    0.00000E+00         0.00000E+00        -0.50454E+08
 
   -0.52093E+08         0.13215E+06         0.00000E+00
    0.13215E+06        -0.49918E+08         0.00000E+00
    0.00000E+00         0.00000E+00        -0.50423E+08
 
   -0.51970E+08         0.12734E+06         0.00000E+00
    0.12734E+06        -0.49891E+08         0.00000E+00
    0.00000E+00         0.00000E+00        -0.50393E+08
 
   -0.51857E+08         0.12035E+06         0.00000E+00
    0.12035E+06        -0.49861E+08         0.00000E+00
    0.00000E+00         0.00000E+00        -0.50364E+08
 
   -0.51752E+08         0.11197E+06         0.00000E+00
    0.11197E+06        -0.49827E+08         0.00000E+00
    0.00000E+00         0.00000E+00        -0.50337E+08
 
   -0.51656E+08         0.10288E+06         0.00000E+00
    0.10288E+06        -0.49791E+08         0.00000E+00
    0.00000E+00         0.00000E+00        -0.50310E+08
 
   -0.51569E+08         0.93746E+05         0.00000E+00
    0.93746E+05        -0.49751E+08         0.00000E+00
    0.00000E+00         0.00000E+00        -0.50285E+08
 
   -0.51489E+08         0.85127E+05         0.00000E+00
    0.85127E+05        -0.49709E+08         0.00000E+00
    0.00000E+00         0.00000E+00        -0.50260E+08
 
   -0.51417E+08         0.77536E+05         0.00000E+00
    0.77536E+05        -0.49665E+08         0.00000E+00
    0.00000E+00         0.00000E+00        -0.50237E+08
 
   -0.51352E+08         0.71415E+05         0.00000E+00
    0.71415E+05        -0.49620E+08         0.00000E+00
    0.00000E+00         0.00000E+00        -0.50215E+08
 
   -0.51293E+08         0.67148E+05         0.00000E+00
    0.67148E+05        -0.49572E+08         0.00000E+00
    0.00000E+00         0.00000E+00        -0.50194E+08
 
   -0.51241E+08         0.65058E+05         0.00000E+00
    0.65058E+05        -0.49524E+08         0.00000E+00
    0.00000E+00         0.00000E+00        -0.50174E+08
 
   -0.51193E+08         0.65411E+05         0.00000E+00
    0.65411E+05        -0.49475E+08         0.00000E+00
    0.00000E+00         0.00000E+00        -0.50154E+08
 
   -0.51151E+08         0.68424E+05         0.00000E+00
    0.68424E+05        -0.49425E+08         0.00000E+00
    0.00000E+00         0.00000E+00        -0.50136E+08
 
   -0.51113E+08         0.74261E+05         0.00000E+00
    0.74261E+05        -0.49375E+08         0.00000E+00
    0.00000E+00         0.00000E+00        -0.50118E+08
 
   -0.51078E+08         0.83042E+05         0.00000E+00
    0.83042E+05        -0.49326E+08         0.00000E+00
    0.00000E+00         0.00000E+00        -0.50101E+08
 
   -0.51047E+08         0.94844E+05         0.00000E+00
    0.94844E+05        -0.49277E+08         0.00000E+00
    0.00000E+00         0.00000E+00        -0.50085E+08
 
   -0.51018E+08         0.10970E+06         0.00000E+00
    0.10970E+06        -0.49229E+08         0.00000E+00
    0.00000E+00         0.00000E+00        -0.50070E+08
 
   -0.50991E+08         0.12762E+06         0.00000E+00
    0.12762E+06        -0.49182E+08         0.00000E+00
    0.00000E+00         0.00000E+00        -0.50055E+08
 
   -0.50965E+08         0.14854E+06         0.00000E+00
    0.14854E+06        -0.49136E+08         0.00000E+00
    0.00000E+00         0.00000E+00        -0.50041E+08
 
   -0.50940E+08         0.17242E+06         0.00000E+00
    0.17242E+06        -0.49093E+08         0.00000E+00
    0.00000E+00         0.00000E+00        -0.50027E+08
 
   -0.50916E+08         0.19913E+06         0.00000E+00
    0.19913E+06        -0.49051E+08         0.00000E+00
    0.00000E+00         0.00000E+00        -0.50014E+08
 
   -0.50891E+08         0.22854E+06         0.00000E+00
    0.22854E+06        -0.49011E+08         0.00000E+00
    0.00000E+00         0.00000E+00        -0.50001E+08
 
   -0.50866E+08         0.26047E+06         0.00000E+00
    0.26047E+06        -0.48974E+08         0.00000E+00
    0.00000E+00         0.00000E+00        -0.49989E+08
 
   -0.50840E+08         0.29473E+06         0.00000E+00
    0.29473E+06        -0.48939E+08         0.00000E+00
    0.00000E+00         0.00000E+00        -0.49977E+08
 
   -0.50813E+08         0.33108E+06         0.00000E+00
    0.33108E+06        -0.48908E+08         0.00000E+00
    0.00000E+00         0.00000E+00        -0.49965E+08
 
   -0.50783E+08         0.36925E+06         0.00000E+00
    0.36925E+06        -0.48879E+08         0.00000E+00
    0.00000E+00         0.00000E+00        -0.49953E+08
 
   -0.50751E+08         0.40893E+06         0.00000E+00
    0.40893E+06        -0.48854E+08         0.00000E+00
    0.00000E+00         0.00000E+00        -0.49942E+08
 
   -0.50717E+08         0.44980E+06         0.00000E+00
    0.44980E+06        -0.48833E+08         0.00000E+00
    0.00000E+00         0.00000E+00        -0.49931E+08
 
   -0.50680E+08         0.49147E+06         0.00000E+00
    0.49147E+06        -0.48815E+08         0.00000E+00
    0.00000E+00         0.00000E+00        -0.49920E+08
 
   -0.50639E+08         0.53353E+06         0.00000E+00
    0.53353E+06        -0.48801E+08         0.00000E+00
    0.00000E+00         0.00000E+00        -0.49909E+08
 
   -0.50596E+08         0.57555E+06         0.00000E+00
    0.57555E+06        -0.48791E+08         0.00000E+00
    0.00000E+00         0.00000E+00        -0.49898E+08
 
   -0.50548E+08         0.61703E+06         0.00000E+00
    0.61703E+06        -0.48785E+08         0.00000E+00
    0.00000E+00         0.00000E+00        -0.49887E+08
 
   -0.50497E+08         0.65745E+06         0.00000E+00
    0.65745E+06        -0.48783E+08         0.00000E+00
    0.00000E+00         0.00000E+00        -0.49877E+08
 
   -0.50442E+08         0.69626E+06         0.00000E+00
    0.69626E+06        -0.48786E+08         0.00000E+00
    0.00000E+00         0.00000E+00        -0.49866E+08
 
   -0.50383E+08         0.73287E+06         0.00000E+00
    0.73287E+06        -0.48793E+08         0.00000E+00
    0.00000E+00         0.00000E+00        -0.49856E+08
 
   -0.50321E+08         0.76666E+06         0.00000E+00
    0.76666E+06        -0.48804E+08         0.00000E+00
    0.00000E+00         0.00000E+00        -0.49846E+08
 
   -0.50255E+08         0.79697E+06         0.00000E+00
    0.79697E+06        -0.48819E+08         0.00000E+00
    0.00000E+00         0.00000E+00        -0.49835E+08
 
   -0.50186E+08         0.82315E+06         0.00000E+00
    0.82315E+06        -0.48838E+08         0.00000E+00
    0.00000E+00         0.00000E+00        -0.49825E+08
 
   -0.50114E+08         0.84450E+06         0.00000E+00
    0.84450E+06        -0.48860E+08         0.00000E+00
    0.00000E+00         0.00000E+00        -0.49816E+08
 
   -0.50041E+08         0.86034E+06         0.00000E+00
    0.86034E+06        -0.48886E+08         0.00000E+00
    0.00000E+00         0.00000E+00        -0.49806E+08
 
   -0.49965E+08         0.86999E+06         0.00000E+00
    0.86999E+06        -0.48915E+08         0.00000E+00
    0.00000E+00         0.00000E+00        -0.49797E+08
 
   -0.49889E+08         0.87279E+06         0.00000E+00
    0.87279E+06        -0.48947E+08         0.00000E+00
    0.00000E+00         0.00000E+00        -0.49788E+08
 
   -0.49813E+08         0.86813E+06         0.00000E+00
    0.86813E+06        -0.48980E+08         0.00000E+00
    0.00000E+00         0.00000E+00        -0.49779E+08
 
   -0.52973E+08         0.31432E+05         0.00000E+00
    0.31432E+05        -0.50001E+08         0.00000E+00
    0.00000E+00         0.00000E+00        -0.50601E+08
 
   -0.52831E+08         0.76988E+05         0.00000E+00
    0.76988E+05        -0.50000E+08         0.00000E+00
    0.00000E+00         0.00000E+00        -0.50573E+08
 
   -0.52693E+08         0.11576E+06         0.00000E+00
    0.11576E+06        -0.49998E+08         0.00000E+00
    0.00000E+00         0.00000E+00        -0.50545E+08
 
   -0.52559E+08         0.14828E+06         0.00000E+00
    0.14828E+06        -0.49994E+08         0.00000E+00
    0.00000E+00         0.00000E+00        -0.50517E+08
 
   -0.52429E+08         0.17513E+06         0.00000E+00
    0.17513E+06        -0.49988E+08         0.00000E+00
    0.00000E+00         0.00000E+00        -0.50490E+08
 
   -0.52304E+08         0.19690E+06         0.00000E+00
    0.19690E+06        -0.49980E+08         0.00000E+00
    0.00000E+00         0.00000E+00        -0.50463E+08
 
   -0.52184E+08         0.21420E+06         0.00000E+00
    0.21420E+06        -0.49970E+08         0.00000E+00
    0.00000E+00         0.00000E+00        -0.50437E+08
 
   -0.52069E+08         0.22761E+06         0.00000E+00
    0.22761E+06        -0.49957E+08         0.00000E+00
    0.00000E+00         0.00000E+00        -0.50412E+08
 
   -0.51961E+08         0.23774E+06         0.00000E+00
    0.23774E+06        -0.49942E+08         0.00000E+00
    0.00000E+00         0.00000E+00        -0.50387E+08
 
   -0.51858E+08         0.24516E+06         0.00000E+00
    0.24516E+06        -0.49924E+08         0.00000E+00
    0.00000E+00         0.00000E+00        -0.50363E+08
 
   -0.51761E+08         0.25042E+06         0.00000E+00
    0.25042E+06        -0.49904E+08         0.00000E+00
    0.00000E+00         0.00000E+00        -0.50339E+08
 
   -0.51669E+08         0.25404E+06         0.00000E+00
    0.25404E+06        -0.49881E+08         0.00000E+00
    0.00000E+00         0.00000E+00        -0.50317E+08
 
   -0.51584E+08         0.25651E+06         0.00000E+00
    0.25651E+06        -0.49857E+08         0.00000E+00
    0.00000E+00         0.00000E+00        -0.50295E+08
 
   -0.51504E+08         0.25828E+06         0.00000E+00
    0.25828E+06        -0.49831E+08         0.00000E+00
    0.00000E+00         0.00000E+00        -0.50273E+08
 
   -0.51429E+08         0.25978E+06         0.00000E+00
    0.25978E+06        -0.49802E+08         0.00000E+00
    0.00000E+00         0.00000E+00        -0.50253E+08
 
   -0.51359E+08         0.26137E+06         0.00000E+00
    0.26137E+06        -0.49773E+08         0.00000E+00
    0.00000E+00         0.00000E+00        -0.50233E+08
 
   -0.51294E+08         0.26338E+06         0.00000E+00
    0.26338E+06        -0.49742E+08         0.00000E+00
    0.00000E+00         0.00000E+00        -0.50214E+08
 
   -0.51234E+08         0.26613E+06         0.00000E+00
    0.26613E+06        -0.49710E+08         0.00000E+00
    0.00000E+00         0.00000E+00        -0.50195E+08
 
   -0.51178E+08         0.26985E+06         0.00000E+00
    0.26985E+06        -0.49677E+08         0.00000E+00
    0.00000E+00         0.00000E+00        -0.50177E+08
 
   -0.51125E+08         0.27477E+06         0.00000E+00
    0.27477E+06        -0.49644E+08         0.00000E+00
    0.00000E+00         0.00000E+00        -0.50160E+08
 
   -0.51077E+08         0.28107E+06         0.00000E+00
    0.28107E+06        -0.49610E+08         0.00000E+00
    0.00000E+00         0.00000E+00        -0.50144E+08
 
   -0.51031E+08         0.28889E+06         0.00000E+00
    0.28889E+06        -0.49576E+08         0.00000E+00
    0.00000E+00         0.00000E+00        -0.50128E+08
 
   -0.50988E+08         0.29832E+06         0.00000E+00
    0.29832E+06        -0.49542E+08         0.00000E+00
    0.00000E+00         0.00000E+00        -0.50112E+08
 
   -0.50947E+08         0.30944E+06         0.00000E+00
    0.30944E+06        -0.49509E+08         0.00000E+00
    0.00000E+00         0.00000E+00        -0.50098E+08
 
   -0.50908E+08         0.32230E+06         0.00000E+00
    0.32230E+06        -0.49477E+08         0.00000E+00
    0.00000E+00         0.00000E+00        -0.50083E+08
 
   -0.50871E+08         0.33688E+06         0.00000E+00
    0.33688E+06        -0.49445E+08         0.00000E+00
    0.00000E+00         0.00000E+00        -0.50070E+08
 
   -0.50835E+08         0.35316E+06         0.00000E+00
    0.35316E+06        -0.49415E+08         0.00000E+00
    0.00000E+00         0.00000E+00        -0.50056E+08
 
   -0.50799E+08         0.37108E+06         0.00000E+00
    0.37108E+06        -0.49385E+08         0.00000E+00
    0.00000E+00         0.00000E+00        -0.50043E+08
 
   -0.50765E+08         0.39056E+06         0.00000E+00
    0.39056E+06        -0.49358E+08         0.00000E+00
    0.00000E+00         0.00000E+00        -0.50031E+08
 
   -0.50730E+08         0.41148E+06         0.00000E+00
    0.41148E+06        -0.49332E+08         0.00000E+00
    0.00000E+00         0.00000E+00        -0.50019E+08
 
   -0.50696E+08         0.43368E+06         0.00000E+00
    0.43368E+06        -0.49308E+08         0.00000E+00
    0.00000E+00         0.00000E+00        -0.50007E+08
 
   -0.50661E+08         0.45700E+06         0.00000E+00
    0.45700E+06        -0.49286E+08         0.00000E+00
    0.00000E+00         0.00000E+00        -0.49996E+08
 
   -0.50626E+08         0.48124E+06         0.00000E+00
    0.48124E+06        -0.49267E+08         0.00000E+00
    0.00000E+00         0.00000E+00        -0.49985E+08
 
   -0.50589E+08         0.50617E+06         0.00000E+00
    0.50617E+06        -0.49249E+08         0.00000E+00
    0.00000E+00         0.00000E+00        -0.49974E+08
 
   -0.50552E+08         0.53154E+06         0.00000E+00
    0.53154E+06        -0.49235E+08         0.00000E+00
    0.00000E+00         0.00000E+00        -0.49964E+08
 
   -0.50513E+08         0.55707E+06         0.00000E+00
    0.55707E+06        -0.49223E+08         0.00000E+00
    0.00000E+00         0.00000E+00        -0.49954E+08
 
   -0.50473E+08         0.58247E+06         0.00000E+00
    0.58247E+06        -0.49214E+08         0.00000E+00
    0.00000E+00         0.00000E+00        -0.49944E+08
 
   -0.50432E+08         0.60741E+06         0.00000E+00
    0.60741E+06        -0.49208E+08         0.00000E+00
    0.00000E+00         0.00000E+00        -0.49934E+08
 
   -0.50389E+08         0.63156E+06         0.00000E+00
    0.63156E+06        -0.49204E+08         0.00000E+00
    0.00000E+00         0.00000E+00        -0.49925E+08
 
   -0.50344E+08         0.65457E+06         0.00000E+00
    0.65457E+06        -0.49203E+08         0.00000E+00
    0.00000E+00         0.00000E+00        -0.49916E+08
 
   -0.50298E+08         0.67605E+06         0.00000E+00
    0.67605E+06        -0.49206E+08         0.00000E+00
    0.00000E+00         0.00000E+00        -0.49907E+08
 
   -0.50251E+08         0.69564E+06         0.00000E+00
    0.69564E+06        -0.49211E+08         0.00000E+00
    0.00000E+00         0.00000E+00        -0.49899E+08
 
   -0.50203E+08         0.71293E+06         0.00000E+00
    0.71293E+06        -0.49218E+08         0.00000E+00
    0.00000E+00         0.00000E+00        -0.49891E+08
 
   -0.50154E+08         0.72755E+06         0.00000E+00
    0.72755E+06        -0.49228E+08         0.00000E+00
    0.00000E+00         0.00000E+00        -0.49883E+08
 
   -0.50104E+08         0.73911E+06         0.00000E+00
    0.73911E+06        -0.49241E+08         0.00000E+00
    0.00000E+00         0.00000E+00        -0.49875E+08
 
   -0.50054E+08         0.74723E+06         0.00000E+00
    0.74723E+06        -0.49255E+08         0.00000E+00
    0.00000E+00         0.00000E+00        -0.49868E+08
 
   -0.50005E+08         0.75155E+06         0.00000E+00
    0.75155E+06        -0.49272E+08         0.00000E+00
    0.00000E+00         0.00000E+00        -0.49862E+08
 
   -0.49956E+08         0.75175E+06         0.00000E+00
    0.75175E+06        -0.49289E+08         0.00000E+00
    0.00000E+00         0.00000E+00        -0.49856E+08
 
   -0.49909E+08         0.74753E+06         0.00000E+00
    0.74753E+06        -0.49308E+08         0.00000E+00
    0.00000E+00         0.00000E+00        -0.49850E+08
 
   -0.49864E+08         0.73865E+06         0.00000E+00
    0.73865E+06        -0.49328E+08         0.00000E+00
    0.00000E+00         0.00000E+00        -0.49845E+08
 
   -0.52717E+08         0.31444E+05         0.00000E+00
    0.31444E+05        -0.50000E+08         0.00000E+00
    0.00000E+00         0.00000E+00        -0.50545E+08
 
   -0.52607E+08         0.81071E+05         0.00000E+00
    0.81071E+05        -0.50000E+08         0.00000E+00
    0.00000E+00         0.00000E+00        -0.50523E+08
 
   -0.52498E+08         0.12538E+06         0.00000E+00
    0.12538E+06        -0.50000E+08         0.00000E+00
    0.00000E+00         0.00000E+00        -0.50501E+08
 
   -0.52390E+08         0.16469E+06         0.00000E+00
    0.16469E+06        -0.49999E+08         0.00000E+00
    0.00000E+00         0.00000E+00        -0.50480E+08
 
   -0.52285E+08         0.19934E+06         0.00000E+00
    0.19934E+06        -0.49996E+08         0.00000E+00
    0.00000E+00         0.00000E+00        -0.50458E+08
 
   -0.52182E+08         0.22969E+06         0.00000E+00
    0.22969E+06        -0.49993E+08         0.00000E+00
    0.00000E+00         0.00000E+00        -0.50437E+08
 
   -0.52082E+08         0.25612E+06         0.00000E+00
    0.25612E+06        -0.49988E+08         0.00000E+00
    0.00000E+00         0.00000E+00        -0.50416E+08
 
   -0.51985E+08         0.27902E+06         0.00000E+00
    0.27902E+06        -0.49982E+08         0.00000E+00
    0.00000E+00         0.00000E+00        -0.50395E+08
 
   -0.51891E+08         0.29876E+06         0.00000E+00
    0.29876E+06        -0.49974E+08         0.00000E+00
    0.00000E+00         0.00000E+00        -0.50375E+08
 
   -0.51801E+08         0.31573E+06         0.00000E+00
    0.31573E+06        -0.49965E+08         0.00000E+00
    0.00000E+00         0.00000E+00        -0.50355E+08
 
   -0.51714E+08         0.33031E+06         0.00000E+00
    0.33031E+06        -0.49954E+08         0.00000E+00
    0.00000E+00         0.00000E+00        -0.50335E+08
 
   -0.51631E+08         0.34287E+06         0.00000E+00
    0.34287E+06        -0.49942E+08         0.00000E+00
    0.00000E+00         0.00000E+00        -0.50316E+08
 
   -0.51552E+08         0.35375E+06         0.00000E+00
    0.35375E+06        -0.49928E+08         0.00000E+00
    0.00000E+00         0.00000E+00        -0.50298E+08
 
   -0.51476E+08         0.36328E+06         0.00000E+00
    0.36328E+06        -0.49913E+08         0.00000E+00
    0.00000E+00         0.00000E+00        -0.50280E+08
 
   -0.51404E+08         0.37179E+06         0.00000E+00
    0.37179E+06        -0.49897E+08         0.00000E+00
    0.00000E+00         0.00000E+00        -0.50262E+08
 
   -0.51335E+08         0.37955E+06         0.00000E+00
    0.37955E+06        -0.49880E+08         0.00000E+00
    0.00000E+00         0.00000E+00        -0.50245E+08
 
   -0.51270E+08         0.38684E+06         0.00000E+00
    0.38684E+06        -0.49862E+08         0.00000E+00
    0.00000E+00         0.00000E+00        -0.50228E+08
 
   -0.51208E+08         0.39389E+06         0.00000E+00
    0.39389E+06        -0.49843E+08         0.00000E+00
    0.00000E+00         0.00000E+00        -0.50212E+08
 
   -0.51149E+08         0.40092E+06         0.00000E+00
    0.40092E+06        -0.49823E+08         0.00000E+00
    0.00000E+00         0.00000E+00        -0.50196E+08
 
   -0.51093E+08         0.40811E+06         0.00000E+00
    0.40811E+06        -0.49803E+08         0.00000E+00
    0.00000E+00         0.00000E+00        -0.50181E+08
 
   -0.51039E+08         0.41563E+06         0.00000E+00
    0.41563E+06        -0.49782E+08         0.00000E+00
    0.00000E+00         0.00000E+00        -0.50166E+08
 
   -0.50988E+08         0.42361E+06         0.00000E+00
    0.42361E+06        -0.49761E+08         0.00000E+00
    0.00000E+00         0.00000E+00        -0.50152E+08
 
   -0.50940E+08         0.43215E+06         0.00000E+00
    0.43215E+06        -0.49740E+08         0.00000E+00
    0.00000E+00         0.00000E+00        -0.50138E+08
 
   -0.50893E+08         0.44134E+06         0.00000E+00
    0.44134E+06        -0.49720E+08         0.00000E+00
    0.00000E+00         0.00000E+00        -0.50124E+08
 
   -0.50848E+08         0.45123E+06         0.00000E+00
    0.45123E+06        -0.49699E+08         0.00000E+00
    0.00000E+00         0.00000E+00        -0.50111E+08
 
   -0.50805E+08         0.46185E+06         0.00000E+00
    0.46185E+06        -0.49679E+08         0.00000E+00
    0.00000E+00         0.00000E+00        -0.50099E+08
 
   -0.50763E+08         0.47320E+06         0.00000E+00
    0.47320E+06        -0.49660E+08         0.00000E+00
    0.00000E+00         0.00000E+00        -0.50086E+08
 
   -0.50722E+08         0.48526E+06         0.00000E+00
    0.48526E+06        -0.49642E+08         0.00000E+00
    0.00000E+00         0.00000E+00        -0.50075E+08
 
   -0.50682E+08         0.49799E+06         0.00000E+00
    0.49799E+06        -0.49625E+08         0.00000E+00
    0.00000E+00         0.00000E+00        -0.50063E+08
 
   -0.50643E+08         0.51133E+06         0.00000E+00
    0.51133E+06        -0.49609E+08         0.00000E+00
    0.00000E+00         0.00000E+00        -0.50052E+08
 
   -0.50605E+08         0.52518E+06         0.00000E+00
    0.52518E+06        -0.49594E+08         0.00000E+00
    0.00000E+00         0.00000E+00        -0.50042E+08
 
   -0.50566E+08         0.53944E+06         0.00000E+00
    0.53944E+06        -0.49580E+08         0.00000E+00
    0.00000E+00         0.00000E+00        -0.50031E+08
 
   -0.50528E+08         0.55398E+06         0.00000E+00
    0.55398E+06        -0.49568E+08         0.00000E+00
    0.00000E+00         0.00000E+00        -0.50021E+08
 
   -0.50491E+08         0.56866E+06         0.00000E+00
    0.56866E+06        -0.49558E+08         0.00000E+00
    0.00000E+00         0.00000E+00        -0.50012E+08
 
   -0.50453E+08         0.58332E+06         0.00000E+00
    0.58332E+06        -0.49550E+08         0.00000E+00
    0.00000E+00         0.00000E+00        -0.50002E+08
 
   -0.50415E+08         0.59777E+06         0.00000E+00
    0.59777E+06        -0.49543E+08         0.00000E+00
    0.00000E+00         0.00000E+00        -0.49993E+08
 
   -0.50377E+08         0.61183E+06         0.00000E+00
    0.61183E+06        -0.49538E+08         0.00000E+00
    0.00000E+00         0.00000E+00        -0.49985E+08
 
   -0.50339E+08         0.62530E+06         0.00000E+00
    0.62530E+06        -0.49534E+08         0.00000E+00
    0.00000E+00         0.00000E+00        -0.49976E+08
 
   -0.50301E+08         0.63796E+06         0.00000E+00
    0.63796E+06        -0.49533E+08         0.00000E+00
    0.00000E+00         0.00000E+00        -0.49969E+08
 
   -0.50262E+08         0.64961E+06         0.00000E+00
    0.64961E+06        -0.49533E+08         0.00000E+00
    0.00000E+00         0.00000E+00        -0.49961E+08
 
   -0.50224E+08         0.66002E+06         0.00000E+00
    0.66002E+06        -0.49536E+08         0.00000E+00
    0.00000E+00         0.00000E+00        -0.49954E+08
 
   -0.50186E+08         0.66898E+06         0.00000E+00
    0.66898E+06        -0.49540E+08         0.00000E+00
    0.00000E+00         0.00000E+00        -0.49947E+08
 
   -0.50148E+08         0.67626E+06         0.00000E+00
    0.67626E+06        -0.49545E+08         0.00000E+00
    0.00000E+00         0.00000E+00        -0.49941E+08
 
   -0.50111E+08         0.68166E+06         0.00000E+00
    0.68166E+06        -0.49552E+08         0.00000E+00
    0.00000E+00         0.00000E+00        -0.49935E+08
 
   -0.50075E+08         0.68499E+06         0.00000E+00
    0.68499E+06        -0.49560E+08         0.00000E+00
    0.00000E+00         0.00000E+00        -0.49929E+08
 
   -0.50040E+08         0.68606E+06         0.00000E+00
    0.68606E+06        -0.49569E+08         0.00000E+00
    0.00000E+00         0.00000E+00        -0.49924E+08
 
   -0.50007E+08         0.68471E+06         0.00000E+00
    0.68471E+06        -0.49579E+08         0.00000E+00
    0.00000E+00         0.00000E+00        -0.49919E+08
 
   -0.49975E+08         0.68083E+06         0.00000E+00
    0.68083E+06        -0.49590E+08         0.00000E+00
    0.00000E+00         0.00000E+00        -0.49915E+08
 
   -0.49946E+08         0.67429E+06         0.00000E+00
    0.67429E+06        -0.49601E+08         0.00000E+00
    0.00000E+00         0.00000E+00        -0.49911E+08
 
   -0.49919E+08         0.66505E+06         0.00000E+00
    0.66505E+06        -0.49613E+08         0.00000E+00
    0.00000E+00         0.00000E+00        -0.49908E+08
 
   -0.52454E+08         0.30366E+05         0.00000E+00
    0.30366E+05        -0.50000E+08         0.00000E+00
    0.00000E+00         0.00000E+00        -0.50491E+08
 
   -0.52368E+08         0.80683E+05         0.00000E+00
    0.80683E+05        -0.50001E+08         0.00000E+00
    0.00000E+00         0.00000E+00        -0.50474E+08
 
   -0.52282E+08         0.12677E+06         0.00000E+00
    0.12677E+06        -0.50001E+08         0.00000E+00
    0.00000E+00         0.00000E+00        -0.50457E+08
 
   -0.52196E+08         0.16882E+06         0.00000E+00
    0.16882E+06        -0.50001E+08         0.00000E+00
    0.00000E+00         0.00000E+00        -0.50440E+08
 
   -0.52112E+08         0.20704E+06         0.00000E+00
    0.20704E+06        -0.50001E+08         0.00000E+00
    0.00000E+00         0.00000E+00        -0.50423E+08
 
   -0.52028E+08         0.24166E+06         0.00000E+00
    0.24166E+06        -0.50001E+08         0.00000E+00
    0.00000E+00         0.00000E+00        -0.50406E+08
 
   -0.51945E+08         0.27293E+06         0.00000E+00
    0.27293E+06        -0.50000E+08         0.00000E+00
    0.00000E+00         0.00000E+00        -0.50389E+08
 
   -0.51864E+08         0.30108E+06         0.00000E+00
    0.30108E+06        -0.49998E+08         0.00000E+00
    0.00000E+00         0.00000E+00        -0.50373E+08
 
   -0.51784E+08         0.32636E+06         0.00000E+00
    0.32636E+06        -0.49995E+08         0.00000E+00
    0.00000E+00         0.00000E+00        -0.50356E+08
 
   -0.51706E+08         0.34904E+06         0.00000E+00
    0.34904E+06        -0.49992E+08         0.00000E+00
    0.00000E+00         0.00000E+00        -0.50340E+08
 
   -0.51631E+08         0.36935E+06         0.00000E+00
    0.36935E+06        -0.49988E+08         0.00000E+00
    0.00000E+00         0.00000E+00        -0.50324E+08
 
   -0.51557E+08         0.38756E+06         0.00000E+00
    0.38756E+06        -0.49982E+08         0.00000E+00
    0.00000E+00         0.00000E+00        -0.50308E+08
 
   -0.51486E+08         0.40391E+06         0.00000E+00
    0.40391E+06        -0.49977E+08         0.00000E+00
    0.00000E+00         0.00000E+00        -0.50293E+08
 
   -0.51417E+08         0.41862E+06         0.00000E+00
    0.41862E+06        -0.49970E+08         0.00000E+00
    0.00000E+00         0.00000E+00        -0.50278E+08
 
   -0.51351E+08         0.43193E+06         0.00000E+00
    0.43193E+06        -0.49962E+08         0.00000E+00
    0.00000E+00         0.00000E+00        -0.50263E+08
 
   -0.51286E+08         0.44405E+06         0.00000E+00
    0.44405E+06        -0.49954E+08         0.00000E+00
    0.00000E+00         0.00000E+00        -0.50249E+08
 
   -0.51224E+08         0.45517E+06         0.00000E+00
    0.45517E+06        -0.49945E+08         0.00000E+00
    0.00000E+00         0.00000E+00        -0.50234E+08
 
   -0.51164E+08         0.46547E+06         0.00000E+00
    0.46547E+06        -0.49935E+08         0.00000E+00
    0.00000E+00         0.00000E+00        -0.50220E+08
 
   -0.51107E+08         0.47513E+06         0.00000E+00
    0.47513E+06        -0.49925E+08         0.00000E+00
    0.00000E+00         0.00000E+00        -0.50207E+08
 
   -0.51051E+08         0.48430E+06         0.00000E+00
    0.48430E+06        -0.49915E+08         0.00000E+00
    0.00000E+00         0.00000E+00        -0.50194E+08
 
   -0.50998E+08         0.49310E+06         0.00000E+00
    0.49310E+06        -0.49904E+08         0.00000E+00
    0.00000E+00         0.00000E+00        -0.50181E+08
 
   -0.50946E+08         0.50166E+06         0.00000E+00
    0.50166E+06        -0.49893E+08         0.00000E+00
    0.00000E+00         0.00000E+00        -0.50168E+08
 
   -0.50896E+08         0.51006E+06         0.00000E+00
    0.51006E+06        -0.49882E+08         0.00000E+00
    0.00000E+00         0.00000E+00        -0.50156E+08
 
   -0.50848E+08         0.51839E+06         0.00000E+00
    0.51839E+06        -0.49871E+08         0.00000E+00
    0.00000E+00         0.00000E+00        -0.50144E+08
 
   -0.50802E+08         0.52671E+06         0.00000E+00
    0.52671E+06        -0.49860E+08         0.00000E+00
    0.00000E+00         0.00000E+00        -0.50133E+08
 
   -0.50756E+08         0.53505E+06         0.00000E+00
    0.53505E+06        -0.49850E+08         0.00000E+00
    0.00000E+00         0.00000E+00        -0.50122E+08
 
   -0.50713E+08         0.54346E+06         0.00000E+00
    0.54346E+06        -0.49839E+08         0.00000E+00
    0.00000E+00         0.00000E+00        -0.50111E+08
 
   -0.50670E+08         0.55192E+06         0.00000E+00
    0.55192E+06        -0.49830E+08         0.00000E+00
    0.00000E+00         0.00000E+00        -0.50100E+08
 
   -0.50629E+08         0.56043E+06         0.00000E+00
    0.56043E+06        -0.49821E+08         0.00000E+00
    0.00000E+00         0.00000E+00        -0.50090E+08
 
   -0.50588E+08         0.56898E+06         0.00000E+00
    0.56898E+06        -0.49812E+08         0.00000E+00
    0.00000E+00         0.00000E+00        -0.50081E+08
 
   -0.50549E+08         0.57751E+06         0.00000E+00
    0.57751E+06        -0.49805E+08         0.00000E+00
    0.00000E+00         0.00000E+00        -0.50071E+08
 
   -0.50510E+08         0.58597E+06         0.00000E+00
    0.58597E+06        -0.49798E+08         0.00000E+00
    0.00000E+00         0.00000E+00        -0.50062E+08
 
   -0.50472E+08         0.59431E+06         0.00000E+00
    0.59431E+06        -0.49792E+08         0.00000E+00
    0.00000E+00         0.00000E+00        -0.50053E+08
 
   -0.50435E+08         0.60243E+06         0.00000E+00
    0.60243E+06        -0.49787E+08         0.00000E+00
    0.00000E+00         0.00000E+00        -0.50045E+08
 
   -0.50398E+08         0.61026E+06         0.00000E+00
    0.61026E+06        -0.49783E+08         0.00000E+00
    0.00000E+00         0.00000E+00        -0.50037E+08
 
   -0.50362E+08         0.61770E+06         0.00000E+00
    0.61770E+06        -0.49781E+08         0.00000E+00
    0.00000E+00         0.00000E+00        -0.50029E+08
 
   -0.50327E+08         0.62464E+06         0.00000E+00
    0.62464E+06        -0.49779E+08         0.00000E+00
    0.00000E+00         0.00000E+00        -0.50022E+08
 
   -0.50292E+08         0.63097E+06         0.00000E+00
    0.63097E+06        -0.49778E+08         0.00000E+00
    0.00000E+00         0.00000E+00        -0.50015E+08
 
   -0.50258E+08         0.63659E+06         0.00000E+00
    0.63659E+06        -0.49779E+08         0.00000E+00
    0.00000E+00         0.00000E+00        -0.50008E+08
 
   -0.50225E+08         0.64138E+06         0.00000E+00
    0.64138E+06        -0.49781E+08         0.00000E+00
    0.00000E+00         0.00000E+00        -0.50002E+08
 
   -0.50192E+08         0.64522E+06         0.00000E+00
    0.64522E+06        -0.49783E+08         0.00000E+00
    0.00000E+00         0.00000E+00        -0.49996E+08
 
   -0.50161E+08         0.64802E+06         0.00000E+00
    0.64802E+06        -0.49787E+08         0.00000E+00
    0.00000E+00         0.00000E+00        -0.49990E+08
 
   -0.50131E+08         0.64966E+06         0.00000E+00
    0.64966E+06        -0.49791E+08         0.00000E+00
    0.00000E+00         0.00000E+00        -0.49985E+08
 
   -0.50102E+08         0.65007E+06         0.00000E+00
    0.65007E+06        -0.49796E+08         0.00000E+00
    0.00000E+00         0.00000E+00        -0.49980E+08
 
   -0.50074E+08         0.64915E+06         0.00000E+00
    0.64915E+06        -0.49802E+08         0.00000E+00
    0.00000E+00         0.00000E+00        -0.49976E+08
 
   -0.50049E+08         0.64684E+06         0.00000E+00
    0.64684E+06        -0.49808E+08         0.00000E+00
    0.00000E+00         0.00000E+00        -0.49972E+08
 
   -0.50025E+08         0.64310E+06         0.00000E+00
    0.64310E+06        -0.49815E+08         0.00000E+00
    0.00000E+00         0.00000E+00        -0.49968E+08
 
   -0.50003E+08         0.63790E+06         0.00000E+00
    0.63790E+06        -0.49822E+08         0.00000E+00
    0.00000E+00         0.00000E+00        -0.49965E+08
 
   -0.49984E+08         0.63124E+06         0.00000E+00
    0.63124E+06        -0.49829E+08         0.00000E+00
    0.00000E+00         0.00000E+00        -0.49963E+08
 
   -0.49968E+08         0.62314E+06         0.00000E+00
    0.62314E+06        -0.49835E+08         0.00000E+00
    0.00000E+00         0.00000E+00        -0.49961E+08
 
   -0.52196E+08         0.28567E+05         0.00000E+00
    0.28567E+05        -0.50000E+08         0.00000E+00
    0.00000E+00         0.00000E+00        -0.50439E+08
 
   -0.52129E+08         0.77418E+05         0.00000E+00
    0.77418E+05        -0.50001E+08         0.00000E+00
    0.00000E+00         0.00000E+00        -0.50426E+08
 
   -0.52062E+08         0.12287E+06         0.00000E+00
    0.12287E+06        -0.50002E+08         0.00000E+00
    0.00000E+00         0.00000E+00        -0.50413E+08
 
   -0.51994E+08         0.16503E+06         0.00000E+00
    0.16503E+06        -0.50003E+08         0.00000E+00
    0.00000E+00         0.00000E+00        -0.50400E+08
 
   -0.51926E+08         0.20405E+06         0.00000E+00
    0.20405E+06        -0.50004E+08         0.00000E+00
    0.00000E+00         0.00000E+00        -0.50386E+08
 
   -0.51858E+08         0.24007E+06         0.00000E+00
    0.24007E+06        -0.50006E+08         0.00000E+00
    0.00000E+00         0.00000E+00        -0.50373E+08
 
   -0.51790E+08         0.27323E+06         0.00000E+00
    0.27323E+06        -0.50007E+08         0.00000E+00
    0.00000E+00         0.00000E+00        -0.50360E+08
 
   -0.51723E+08         0.30370E+06         0.00000E+00
    0.30370E+06        -0.50008E+08         0.00000E+00
    0.00000E+00         0.00000E+00        -0.50346E+08
 
   -0.51656E+08         0.33164E+06         0.00000E+00
    0.33164E+06        -0.50009E+08         0.00000E+00
    0.00000E+00         0.00000E+00        -0.50333E+08
 
   -0.51591E+08         0.35721E+06         0.00000E+00
    0.35721E+06        -0.50010E+08         0.00000E+00
    0.00000E+00         0.00000E+00        -0.50320E+08
 
   -0.51526E+08         0.38058E+06         0.00000E+00
    0.38058E+06        -0.50010E+08         0.00000E+00
    0.00000E+00         0.00000E+00        -0.50307E+08
 
   -0.51462E+08         0.40193E+06         0.00000E+00
    0.40193E+06        -0.50009E+08         0.00000E+00
    0.00000E+00         0.00000E+00        -0.50294E+08
 
   -0.51400E+08         0.42141E+06         0.00000E+00
    0.42141E+06        -0.50008E+08         0.00000E+00
    0.00000E+00         0.00000E+00        -0.50282E+08
 
   -0.51339E+08         0.43919E+06         0.00000E+00
    0.43919E+06        -0.50007E+08         0.00000E+00
    0.00000E+00         0.00000E+00        -0.50269E+08
 
   -0.51279E+08         0.45542E+06         0.00000E+00
    0.45542E+06        -0.50006E+08         0.00000E+00
    0.00000E+00         0.00000E+00        -0.50257E+08
 
   -0.51221E+08         0.47027E+06         0.00000E+00
    0.47027E+06        -0.50003E+08         0.00000E+00
    0.00000E+00         0.00000E+00        -0.50245E+08
 
   -0.51164E+08         0.48386E+06         0.00000E+00
    0.48386E+06        -0.50001E+08         0.00000E+00
    0.00000E+00         0.00000E+00        -0.50233E+08
 
   -0.51109E+08         0.49634E+06         0.00000E+00
    0.49634E+06        -0.49998E+08         0.00000E+00
    0.00000E+00         0.00000E+00        -0.50222E+08
 
   -0.51055E+08         0.50783E+06         0.00000E+00
    0.50783E+06        -0.49995E+08         0.00000E+00
    0.00000E+00         0.00000E+00        -0.50210E+08
 
   -0.51003E+08         0.51845E+06         0.00000E+00
    0.51845E+06        -0.49991E+08         0.00000E+00
    0.00000E+00         0.00000E+00        -0.50199E+08
 
   -0.50952E+08         0.52830E+06         0.00000E+00
    0.52830E+06        -0.49988E+08         0.00000E+00
    0.00000E+00         0.00000E+00        -0.50188E+08
 
   -0.50902E+08         0.53748E+06         0.00000E+00
    0.53748E+06        -0.49984E+08         0.00000E+00
    0.00000E+00         0.00000E+00        -0.50177E+08
 
   -0.50854E+08         0.54607E+06         0.00000E+00
    0.54607E+06        -0.49980E+08         0.00000E+00
    0.00000E+00         0.00000E+00        -0.50167E+08
 
   -0.50808E+08         0.55413E+06         0.00000E+00
    0.55413E+06        -0.49976E+08         0.00000E+00
    0.00000E+00         0.00000E+00        -0.50157E+08
 
   -0.50762E+08         0.56174E+06         0.00000E+00
    0.56174E+06        -0.49972E+08         0.00000E+00
    0.00000E+00         0.00000E+00        -0.50147E+08
 
   -0.50718E+08         0.56893E+06         0.00000E+00
    0.56893E+06        -0.49969E+08         0.00000E+00
    0.00000E+00         0.00000E+00        -0.50137E+08
 
   -0.50675E+08         0.57575E+06         0.00000E+00
    0.57575E+06        -0.49965E+08         0.00000E+00
    0.00000E+00         0.00000E+00        -0.50128E+08
 
   -0.50633E+08         0.58221E+06         0.00000E+00
    0.58221E+06        -0.49962E+08         0.00000E+00
    0.00000E+00         0.00000E+00        -0.50119E+08
 
   -0.50593E+08         0.58833E+06         0.00000E+00
    0.58833E+06        -0.49959E+08         0.00000E+00
    0.00000E+00         0.00000E+00        -0.50110E+08
 
   -0.50553E+08         0.59412E+06         0.00000E+00
    0.59412E+06        -0.49956E+08         0.00000E+00
    0.00000E+00         0.00000E+00        -0.50102E+08
 
   -0.50514E+08         0.59957E+06         0.00000E+00
    0.59957E+06        -0.49954E+08         0.00000E+00
    0.00000E+00         0.00000E+00        -0.50094E+08
 
   -0.50477E+08         0.60466E+06         0.00000E+00
    0.60466E+06        -0.49952E+08         0.00000E+00
    0.00000E+00         0.00000E+00        -0.50086E+08
 
   -0.50440E+08         0.60937E+06         0.00000E+00
    0.60937E+06        -0.49951E+08         0.00000E+00
    0.00000E+00         0.00000E+00        -0.50078E+08
 
   -0.50405E+08         0.61368E+06         0.00000E+00
    0.61368E+06        -0.49950E+08         0.00000E+00
    0.00000E+00         0.00000E+00        -0.50071E+08
 
   -0.50370E+08         0.61755E+06         0.00000E+00
    0.61755E+06        -0.49950E+08         0.00000E+00
    0.00000E+00         0.00000E+00        -0.50064E+08
 
   -0.50336E+08         0.62094E+06         0.00000E+00
    0.62094E+06        -0.49951E+08         0.00000E+00
    0.00000E+00         0.00000E+00        -0.50058E+08
 
   -0.50304E+08         0.62380E+06         0.00000E+00
    0.62380E+06        -0.49952E+08         0.00000E+00
    0.00000E+00         0.00000E+00        -0.50051E+08
 
   -0.50272E+08         0.62610E+06         0.00000E+00
    0.62610E+06        -0.49953E+08         0.00000E+00
    0.00000E+00         0.00000E+00        -0.50045E+08
 
   -0.50242E+08         0.62778E+06         0.00000E+00
    0.62778E+06        -0.49956E+08         0.00000E+00
    0.00000E+00         0.00000E+00        -0.50040E+08
 
   -0.50213E+08         0.62880E+06         0.00000E+00
    0.62880E+06        -0.49958E+08         0.00000E+00
    0.00000E+00         0.00000E+00        -0.50034E+08
 
   -0.50184E+08         0.62913E+06         0.00000E+00
    0.62913E+06        -0.49962E+08         0.00000E+00
    0.00000E+00         0.00000E+00        -0.50029E+08
 
   -0.50158E+08         0.62872E+06         0.00000E+00
    0.62872E+06        -0.49965E+08         0.00000E+00
    0.00000E+00         0.00000E+00        -0.50025E+08
 
   -0.50132E+08         0.62754E+06         0.00000E+00
    0.62754E+06        -0.49969E+08         0.00000E+00
    0.00000E+00         0.00000E+00        -0.50020E+08
 
   -0.50109E+08         0.62558E+06         0.00000E+00
    0.62558E+06        -0.49974E+08         0.00000E+00
    0.00000E+00         0.00000E+00        -0.50017E+08
 
   -0.50086E+08         0.62281E+06         0.00000E+00
    0.62281E+06        -0.49978E+08         0.00000E+00
    0.00000E+00         0.00000E+00        -0.50013E+08
 
   -0.50066E+08         0.61924E+06         0.00000E+00
    0.61924E+06        -0.49983E+08         0.00000E+00
    0.00000E+00         0.00000E+00        -0.50010E+08
 
   -0.50048E+08         0.61488E+06         0.00000E+00
    0.61488E+06        -0.49988E+08         0.00000E+00
    0.00000E+00         0.00000E+00        -0.50007E+08
 
   -0.50032E+08         0.60975E+06         0.00000E+00
    0.60975E+06        -0.49993E+08         0.00000E+00
    0.00000E+00         0.00000E+00        -0.50005E+08
 
   -0.50018E+08         0.60391E+06         0.00000E+00
    0.60391E+06        -0.49998E+08         0.00000E+00
    0.00000E+00         0.00000E+00        -0.50003E+08
 
   -0.50006E+08         0.59741E+06         0.00000E+00
    0.59741E+06        -0.50002E+08         0.00000E+00
    0.00000E+00         0.00000E+00        -0.50002E+08
 
   -0.51950E+08         0.26305E+05         0.00000E+00
    0.26305E+05        -0.50000E+08         0.00000E+00
    0.00000E+00         0.00000E+00        -0.50390E+08
 
   -0.51899E+08         0.72319E+05         0.00000E+00
    0.72319E+05        -0.50001E+08         0.00000E+00
    0.00000E+00         0.00000E+00        -0.50380E+08
 
   -0.51847E+08         0.11560E+06         0.00000E+00
    0.11560E+06        -0.50002E+08         0.00000E+00
    0.00000E+00         0.00000E+00        -0.50370E+08
 
   -0.51794E+08         0.15621E+06         0.00000E+00
    0.15621E+06        -0.50004E+08         0.00000E+00
    0.00000E+00         0.00000E+00        -0.50360E+08
 
   -0.51740E+08         0.19423E+06         0.00000E+00
    0.19423E+06        -0.50007E+08         0.00000E+00
    0.00000E+00         0.00000E+00        -0.50349E+08
 
   -0.51685E+08         0.22976E+06         0.00000E+00
    0.22976E+06        -0.50009E+08         0.00000E+00
    0.00000E+00         0.00000E+00        -0.50339E+08
 
   -0.51630E+08         0.26288E+06         0.00000E+00
    0.26288E+06        -0.50012E+08         0.00000E+00
    0.00000E+00         0.00000E+00        -0.50328E+08
 
   -0.51575E+08         0.29370E+06         0.00000E+00
    0.29370E+06        -0.50015E+08         0.00000E+00
    0.00000E+00         0.00000E+00        -0.50318E+08
 
   -0.51520E+08         0.32232E+06         0.00000E+00
    0.32232E+06        -0.50018E+08         0.00000E+00
    0.00000E+00         0.00000E+00        -0.50308E+08
 
   -0.51465E+08         0.34885E+06         0.00000E+00
    0.34885E+06        -0.50021E+08         0.00000E+00
    0.00000E+00         0.00000E+00        -0.50297E+08
 
   -0.51410E+08         0.37340E+06         0.00000E+00
    0.37340E+06        -0.50024E+08         0.00000E+00
    0.00000E+00         0.00000E+00        -0.50287E+08
 
   -0.51356E+08         0.39608E+06         0.00000E+00
    0.39608E+06        -0.50026E+08         0.00000E+00
    0.00000E+00         0.00000E+00        -0.50277E+08
 
   -0.51303E+08         0.41701E+06         0.00000E+00
    0.41701E+06        -0.50029E+08         0.00000E+00
    0.00000E+00         0.00000E+00        -0.50266E+08
 
   -0.51250E+08         0.43628E+06         0.00000E+00
    0.43628E+06        -0.50031E+08         0.00000E+00
    0.00000E+00         0.00000E+00        -0.50256E+08
 
   -0.51197E+08         0.45402E+06         0.00000E+00
    0.45402E+06        -0.50034E+08         0.00000E+00
    0.00000E+00         0.00000E+00        -0.50246E+08
 
   -0.51146E+08         0.47033E+06         0.00000E+00
    0.47033E+06        -0.50036E+08         0.00000E+00
    0.00000E+00         0.00000E+00        -0.50236E+08
 
   -0.51095E+08         0.48530E+06         0.00000E+00
    0.48530E+06        -0.50037E+08         0.00000E+00
    0.00000E+00         0.00000E+00        -0.50227E+08
 
   -0.51046E+08         0.49905E+06         0.00000E+00
    0.49905E+06        -0.50039E+08         0.00000E+00
    0.00000E+00         0.00000E+00        -0.50217E+08
 
   -0.50997E+08         0.51165E+06         0.00000E+00
    0.51165E+06        -0.50041E+08         0.00000E+00
    0.00000E+00         0.00000E+00        -0.50208E+08
 
   -0.50949E+08         0.52320E+06         0.00000E+00
    0.52320E+06        -0.50042E+08         0.00000E+00
    0.00000E+00         0.00000E+00        -0.50198E+08
 
   -0.50902E+08         0.53379E+06         0.00000E+00
    0.53379E+06        -0.50043E+08         0.00000E+00
    0.00000E+00         0.00000E+00        -0.50189E+08
 
   -0.50857E+08         0.54348E+06         0.00000E+00
    0.54348E+06        -0.50044E+08         0.00000E+00
    0.00000E+00         0.00000E+00        -0.50180E+08
 
   -0.50812E+08         0.55234E+06         0.00000E+00
    0.55234E+06        -0.50045E+08         0.00000E+00
    0.00000E+00         0.00000E+00        -0.50171E+08
 
   -0.50768E+08         0.56044E+06         0.00000E+00
    0.56044E+06        -0.50046E+08         0.00000E+00
    0.00000E+00         0.00000E+00        -0.50163E+08
 
   -0.50726E+08         0.56783E+06         0.00000E+00
    0.56783E+06        -0.50047E+08         0.00000E+00
    0.00000E+00         0.00000E+00        -0.50155E+08
 
   -0.50684E+08         0.57455E+06         0.00000E+00
    0.57455E+06        -0.50048E+08         0.00000E+00
    0.00000E+00         0.00000E+00        -0.50147E+08
 
   -0.50644E+08         0.58065E+06         0.00000E+00
    0.58065E+06        -0.50049E+08         0.00000E+00
    0.00000E+00         0.00000E+00        -0.50139E+08
 
   -0.50604E+08         0.58617E+06         0.00000E+00
    0.58617E+06        -0.50050E+08         0.00000E+00
    0.00000E+00         0.00000E+00        -0.50131E+08
 
   -0.50566E+08         0.59112E+06         0.00000E+00
    0.59112E+06        -0.50052E+08         0.00000E+00
    0.00000E+00         0.00000E+00        -0.50124E+08
 
   -0.50529E+08         0.59553E+06         0.00000E+00
    0.59553E+06        -0.50053E+08         0.00000E+00
    0.00000E+00         0.00000E+00        -0.50116E+08
 
   -0.50492E+08         0.59942E+06         0.00000E+00
    0.59942E+06        -0.50055E+08         0.00000E+00
    0.00000E+00         0.00000E+00        -0.50109E+08
 
   -0.50457E+08         0.60280E+06         0.00000E+00
    0.60280E+06        -0.50057E+08         0.00000E+00
    0.00000E+00         0.00000E+00        -0.50103E+08
 
   -0.50423E+08         0.60566E+06         0.00000E+00
    0.60566E+06        -0.50059E+08         0.00000E+00
    0.00000E+00         0.00000E+00        -0.50096E+08
 
   -0.50389E+08         0.60803E+06         0.00000E+00
    0.60803E+06        -0.50061E+08         0.00000E+00
    0.00000E+00         0.00000E+00        -0.50090E+08
 
   -0.50357E+08         0.60988E+06         0.00000E+00
    0.60988E+06        -0.50064E+08         0.00000E+00
    0.00000E+00         0.00000E+00        -0.50084E+08
 
   -0.50326E+08         0.61123E+06         0.00000E+00
    0.61123E+06        -0.50067E+08         0.00000E+00
    0.00000E+00         0.00000E+00        -0.50079E+08
 
   -0.50296E+08         0.61207E+06         0.00000E+00
    0.61207E+06        -0.50070E+08         0.00000E+00
    0.00000E+00         0.00000E+00        -0.50073E+08
 
   -0.50267E+08         0.61239E+06         0.00000E+00
    0.61239E+06        -0.50073E+08         0.00000E+00
    0.00000E+00         0.00000E+00        -0.50068E+08
 
   -0.50240E+08         0.61219E+06         0.00000E+00
    0.61219E+06        -0.50077E+08         0.00000E+00
    0.00000E+00         0.00000E+00        -0.50063E+08
 
   -0.50213E+08         0.61146E+06         0.00000E+00
    0.61146E+06        -0.50081E+08         0.00000E+00
    0.00000E+00         0.00000E+00        -0.50059E+08
 
   -0.50188E+08         0.61022E+06         0.00000E+00
    0.61022E+06        -0.50085E+08         0.00000E+00
    0.00000E+00         0.00000E+00        -0.50055E+08
 
   -0.50165E+08         0.60846E+06         0.00000E+00
    0.60846E+06        -0.50089E+08         0.00000E+00
    0.00000E+00         0.00000E+00        -0.50051E+08
 
   -0.50143E+08         0.60619E+06         0.00000E+00
    0.60619E+06        -0.50093E+08         0.00000E+00
    0.00000E+00         0.00000E+00        -0.50047E+08
 
   -0.50122E+08         0.60343E+06         0.00000E+00
    0.60343E+06        -0.50098E+08         0.00000E+00
    0.00000E+00         0.00000E+00        -0.50044E+08
 
   -0.50103E+08         0.60020E+06         0.00000E+00
    0.60020E+06        -0.50102E+08         0.00000E+00
    0.00000E+00         0.00000E+00        -0.50041E+08
 
   -0.50086E+08         0.59654E+06         0.00000E+00
    0.59654E+06        -0.50107E+08         0.00000E+00
    0.00000E+00         0.00000E+00        -0.50038E+08
 
   -0.50070E+08         0.59248E+06         0.00000E+00
    0.59248E+06        -0.50111E+08         0.00000E+00
    0.00000E+00         0.00000E+00        -0.50036E+08
 
   -0.50057E+08         0.58808E+06         0.00000E+00
    0.58808E+06        -0.50115E+08         0.00000E+00
    0.00000E+00         0.00000E+00        -0.50034E+08
 
   -0.50045E+08         0.58339E+06         0.00000E+00
    0.58339E+06        -0.50119E+08         0.00000E+00
    0.00000E+00         0.00000E+00        -0.50033E+08
 
   -0.50035E+08         0.57849E+06         0.00000E+00
    0.57849E+06        -0.50123E+08         0.00000E+00
    0.00000E+00         0.00000E+00        -0.50032E+08
 
   -0.51723E+08         0.23792E+05         0.00000E+00
    0.23792E+05        -0.50000E+08         0.00000E+00
    0.00000E+00         0.00000E+00        -0.50345E+08
 
   -0.51684E+08         0.66163E+05         0.00000E+00
    0.66163E+05        -0.50001E+08         0.00000E+00
    0.00000E+00         0.00000E+00        -0.50337E+08
 
   -0.51644E+08         0.10634E+06         0.00000E+00
    0.10634E+06        -0.50002E+08         0.00000E+00
    0.00000E+00         0.00000E+00        -0.50329E+08
 
   -0.51603E+08         0.14437E+06         0.00000E+00
    0.14437E+06        -0.50005E+08         0.00000E+00
    0.00000E+00         0.00000E+00        -0.50322E+08
 
   -0.51560E+08         0.18029E+06         0.00000E+00
    0.18029E+06        -0.50008E+08         0.00000E+00
    0.00000E+00         0.00000E+00        -0.50314E+08
 
   -0.51517E+08         0.21414E+06         0.00000E+00
    0.21414E+06        -0.50011E+08         0.00000E+00
    0.00000E+00         0.00000E+00        -0.50306E+08
 
   -0.51473E+08         0.24599E+06         0.00000E+00
    0.24599E+06        -0.50015E+08         0.00000E+00
    0.00000E+00         0.00000E+00        -0.50297E+08
 
   -0.51428E+08         0.27590E+06         0.00000E+00
    0.27590E+06        -0.50019E+08         0.00000E+00
    0.00000E+00         0.00000E+00        -0.50289E+08
 
   -0.51383E+08         0.30392E+06         0.00000E+00
    0.30392E+06        -0.50023E+08         0.00000E+00
    0.00000E+00         0.00000E+00        -0.50281E+08
 
   -0.51338E+08         0.33013E+06         0.00000E+00
    0.33013E+06        -0.50027E+08         0.00000E+00
    0.00000E+00         0.00000E+00        -0.50273E+08
 
   -0.51292E+08         0.35460E+06         0.00000E+00
    0.35460E+06        -0.50032E+08         0.00000E+00
    0.00000E+00         0.00000E+00        -0.50265E+08
 
   -0.51246E+08         0.37740E+06         0.00000E+00
    0.37740E+06        -0.50036E+08         0.00000E+00
    0.00000E+00         0.00000E+00        -0.50257E+08
 
   -0.51201E+08         0.39860E+06         0.00000E+00
    0.39860E+06        -0.50041E+08         0.00000E+00
    0.00000E+00         0.00000E+00        -0.50248E+08
 
   -0.51156E+08         0.41827E+06         0.00000E+00
    0.41827E+06        -0.50046E+08         0.00000E+00
    0.00000E+00         0.00000E+00        -0.50240E+08
 
   -0.51111E+08         0.43650E+06         0.00000E+00
    0.43650E+06        -0.50050E+08         0.00000E+00
    0.00000E+00         0.00000E+00        -0.50232E+08
 
   -0.51066E+08         0.45335E+06         0.00000E+00
    0.45335E+06        -0.50055E+08         0.00000E+00
    0.00000E+00         0.00000E+00        -0.50224E+08
 
   -0.51022E+08         0.46890E+06         0.00000E+00
    0.46890E+06        -0.50060E+08         0.00000E+00
    0.00000E+00         0.00000E+00        -0.50216E+08
 
   -0.50978E+08         0.48321E+06         0.00000E+00
    0.48321E+06        -0.50064E+08         0.00000E+00
    0.00000E+00         0.00000E+00        -0.50208E+08
 
   -0.50935E+08         0.49636E+06         0.00000E+00
    0.49636E+06        -0.50069E+08         0.00000E+00
    0.00000E+00         0.00000E+00        -0.50201E+08
 
   -0.50892E+08         0.50841E+06         0.00000E+00
    0.50841E+06        -0.50073E+08         0.00000E+00
    0.00000E+00         0.00000E+00        -0.50193E+08
 
   -0.50851E+08         0.51943E+06         0.00000E+00
    0.51943E+06        -0.50077E+08         0.00000E+00
    0.00000E+00         0.00000E+00        -0.50186E+08
 
   -0.50809E+08         0.52946E+06         0.00000E+00
    0.52946E+06        -0.50082E+08         0.00000E+00
    0.00000E+00         0.00000E+00        -0.50178E+08
 
   -0.50769E+08         0.53857E+06         0.00000E+00
    0.53857E+06        -0.50086E+08         0.00000E+00
    0.00000E+00         0.00000E+00        -0.50171E+08
 
   -0.50729E+08         0.54682E+06         0.00000E+00
    0.54682E+06        -0.50090E+08         0.00000E+00
    0.00000E+00         0.00000E+00        -0.50164E+08
 
   -0.50691E+08         0.55424E+06         0.00000E+00
    0.55424E+06        -0.50094E+08         0.00000E+00
    0.00000E+00         0.00000E+00        -0.50157E+08
 
   -0.50653E+08         0.56088E+06         0.00000E+00
    0.56088E+06        -0.50098E+08         0.00000E+00
    0.00000E+00         0.00000E+00        -0.50150E+08
 
   -0.50615E+08         0.56679E+06         0.00000E+00
    0.56679E+06        -0.50103E+08         0.00000E+00
    0.00000E+00         0.00000E+00        -0.50144E+08
 
   -0.50579E+08         0.57199E+06         0.00000E+00
    0.57199E+06        -0.50107E+08         0.00000E+00
    0.00000E+00         0.00000E+00        -0.50137E+08
 
   -0.50544E+08         0.57653E+06         0.00000E+00
    0.57653E+06        -0.50111E+08         0.00000E+00
    0.00000E+00         0.00000E+00        -0.50131E+08
 
   -0.50509E+08         0.58044E+06         0.00000E+00
    0.58044E+06        -0.50115E+08         0.00000E+00
    0.00000E+00         0.00000E+00        -0.50125E+08
 
   -0.50476E+08         0.58373E+06         0.00000E+00
    0.58373E+06        -0.50120E+08         0.00000E+00
    0.00000E+00         0.00000E+00        -0.50119E+08
 
   -0.50443E+08         0.58645E+06         0.00000E+00
    0.58645E+06        -0.50124E+08         0.00000E+00
    0.00000E+00         0.00000E+00        -0.50113E+08
 
   -0.50411E+08         0.58860E+06         0.00000E+00
    0.58860E+06        -0.50128E+08         0.00000E+00
    0.00000E+00         0.00000E+00        -0.50108E+08
 
   -0.50381E+08         0.59021E+06         0.00000E+00
    0.59021E+06        -0.50133E+08         0.00000E+00
    0.00000E+00         0.00000E+00        -0.50103E+08
 
   -0.50351E+08         0.59129E+06         0.00000E+00
    0.59129E+06        -0.50137E+08         0.00000E+00
    0.00000E+00         0.00000E+00        -0.50098E+08
 
   -0.50322E+08         0.59188E+06         0.00000E+00
    0.59188E+06        -0.50142E+08         0.00000E+00
    0.00000E+00         0.00000E+00        -0.50093E+08
 
   -0.50295E+08         0.59198E+06         0.00000E+00
    0.59198E+06        -0.50147E+08         0.00000E+00
    0.00000E+00         0.00000E+00        -0.50088E+08
 
   -0.50269E+08         0.59161E+06         0.00000E+00
    0.59161E+06        -0.50151E+08         0.00000E+00
    0.00000E+00         0.00000E+00        -0.50084E+08
 
   -0.50243E+08         0.59079E+06         0.00000E+00
    0.59079E+06        -0.50156E+08         0.00000E+00
    0.00000E+00         0.00000E+00        -0.50080E+08
 
   -0.50219E+08         0.58956E+06         0.00000E+00
    0.58956E+06        -0.50161E+08         0.00000E+00
    0.00000E+00         0.00000E+00        -0.50076E+08
 
   -0.50197E+08         0.58792E+06         0.00000E+00
    0.58792E+06        -0.50166E+08         0.00000E+00
    0.00000E+00         0.00000E+00        -0.50072E+08
 
   -0.50175E+08         0.58590E+06         0.00000E+00
    0.58590E+06        -0.50170E+08         0.00000E+00
    0.00000E+00         0.00000E+00        -0.50069E+08
 
   -0.50155E+08         0.58355E+06         0.00000E+00
    0.58355E+06        -0.50175E+08         0.00000E+00
    0.00000E+00         0.00000E+00        -0.50066E+08
 
   -0.50136E+08         0.58088E+06         0.00000E+00
    0.58088E+06        -0.50180E+08         0.00000E+00
    0.00000E+00         0.00000E+00        -0.50063E+08
 
   -0.50119E+08         0.57795E+06         0.00000E+00
    0.57795E+06        -0.50185E+08         0.00000E+00
    0.00000E+00         0.00000E+00        -0.50061E+08
 
   -0.50103E+08         0.57480E+06         0.00000E+00
    0.57480E+06        -0.50189E+08         0.00000E+00
    0.00000E+00         0.00000E+00        -0.50058E+08
 
   -0.50089E+08         0.57147E+06         0.00000E+00
    0.57147E+06        -0.50193E+08         0.00000E+00
    0.00000E+00         0.00000E+00        -0.50056E+08
 
   -0.50076E+08         0.56804E+06         0.00000E+00
    0.56804E+06        -0.50198E+08         0.00000E+00
    0.00000E+00         0.00000E+00        -0.50055E+08
 
   -0.50065E+08         0.56455E+06         0.00000E+00
    0.56455E+06        -0.50202E+08         0.00000E+00
    0.00000E+00         0.00000E+00        -0.50053E+08
 
   -0.50056E+08         0.56110E+06         0.00000E+00
    0.56110E+06        -0.50205E+08         0.00000E+00
    0.00000E+00         0.00000E+00        -0.50052E+08
 
   -0.51516E+08         0.21205E+05         0.00000E+00
    0.21205E+05        -0.50000E+08         0.00000E+00
    0.00000E+00         0.00000E+00        -0.50303E+08
 
   -0.51487E+08         0.59542E+05         0.00000E+00
    0.59542E+05        -0.50001E+08         0.00000E+00
    0.00000E+00         0.00000E+00        -0.50298E+08
 
   -0.51457E+08         0.96145E+05         0.00000E+00
    0.96145E+05        -0.50002E+08         0.00000E+00
    0.00000E+00         0.00000E+00        -0.50292E+08
 
   -0.51425E+08         0.13103E+06         0.00000E+00
    0.13103E+06        -0.50005E+08         0.00000E+00
    0.00000E+00         0.00000E+00        -0.50286E+08
 
   -0.51392E+08         0.16420E+06         0.00000E+00
    0.16420E+06        -0.50008E+08         0.00000E+00
    0.00000E+00         0.00000E+00        -0.50280E+08
 
   -0.51358E+08         0.19569E+06         0.00000E+00
    0.19569E+06        -0.50012E+08         0.00000E+00
    0.00000E+00         0.00000E+00        -0.50274E+08
 
   -0.51323E+08         0.22553E+06         0.00000E+00
    0.22553E+06        -0.50016E+08         0.00000E+00
    0.00000E+00         0.00000E+00        -0.50268E+08
 
   -0.51287E+08         0.25375E+06         0.00000E+00
    0.25375E+06        -0.50020E+08         0.00000E+00
    0.00000E+00         0.00000E+00        -0.50261E+08
 
   -0.51250E+08         0.28038E+06         0.00000E+00
    0.28038E+06        -0.50025E+08         0.00000E+00
    0.00000E+00         0.00000E+00        -0.50255E+08
 
   -0.51213E+08         0.30547E+06         0.00000E+00
    0.30547E+06        -0.50030E+08         0.00000E+00
    0.00000E+00         0.00000E+00        -0.50249E+08
 
   -0.51176E+08         0.32905E+06         0.00000E+00
    0.32905E+06        -0.50036E+08         0.00000E+00
    0.00000E+00         0.00000E+00        -0.50242E+08
 
   -0.51138E+08         0.35117E+06         0.00000E+00
    0.35117E+06        -0.50041E+08         0.00000E+00
    0.00000E+00         0.00000E+00        -0.50236E+08
 
   -0.51100E+08         0.37188E+06         0.00000E+00
    0.37188E+06        -0.50047E+08         0.00000E+00
    0.00000E+00         0.00000E+00        -0.50229E+08
 
   -0.51061E+08         0.39123E+06         0.00000E+00
    0.39123E+06        -0.50053E+08         0.00000E+00
    0.00000E+00         0.00000E+00        -0.50223E+08
 
   -0.51023E+08         0.40926E+06         0.00000E+00
    0.40926E+06        -0.50059E+08         0.00000E+00
    0.00000E+00         0.00000E+00        -0.50216E+08
 
   -0.50985E+08         0.42602E+06         0.00000E+00
    0.42602E+06        -0.50065E+08         0.00000E+00
    0.00000E+00         0.00000E+00        -0.50210E+08
 
   -0.50947E+08         0.44157E+06         0.00000E+00
    0.44157E+06        -0.50072E+08         0.00000E+00
    0.00000E+00         0.00000E+00        -0.50204E+08
 
   -0.50909E+08         0.45596E+06         0.00000E+00
    0.45596E+06        -0.50078E+08         0.00000E+00
    0.00000E+00         0.00000E+00        -0.50197E+08
 
   -0.50871E+08         0.46923E+06         0.00000E+00
    0.46923E+06        -0.50084E+08         0.00000E+00
    0.00000E+00         0.00000E+00        -0.50191E+08
 
   -0.50834E+08         0.48143E+06         0.00000E+00
    0.48143E+06        -0.50090E+08         0.00000E+00
    0.00000E+00         0.00000E+00        -0.50185E+08
 
   -0.50797E+08         0.49261E+06         0.00000E+00
    0.49261E+06        -0.50096E+08         0.00000E+00
    0.00000E+00         0.00000E+00        -0.50179E+08
 
   -0.50761E+08         0.50282E+06         0.00000E+00
    0.50282E+06        -0.50103E+08         0.00000E+00
    0.00000E+00         0.00000E+00        -0.50173E+08
 
   -0.50725E+08         0.51210E+06         0.00000E+00
    0.51210E+06        -0.50109E+08         0.00000E+00
    0.00000E+00         0.00000E+00        -0.50167E+08
 
   -0.50690E+08         0.52049E+06         0.00000E+00
    0.52049E+06        -0.50115E+08         0.00000E+00
    0.00000E+00         0.00000E+00        -0.50161E+08
 
   -0.50655E+08         0.52804E+06         0.00000E+00
    0.52804E+06        -0.50121E+08         0.00000E+00
    0.00000E+00         0.00000E+00        -0.50155E+08
 
   -0.50621E+08         0.53479E+06         0.00000E+00
    0.53479E+06        -0.50127E+08         0.00000E+00
    0.00000E+00         0.00000E+00        -0.50150E+08
 
   -0.50587E+08         0.54077E+06         0.00000E+00
    0.54077E+06        -0.50133E+08         0.00000E+00
    0.00000E+00         0.00000E+00        -0.50144E+08
 
   -0.50554E+08         0.54602E+06         0.00000E+00
    0.54602E+06        -0.50139E+08         0.00000E+00
    0.00000E+00         0.00000E+00        -0.50139E+08
 
   -0.50522E+08         0.55058E+06         0.00000E+00
    0.55058E+06        -0.50145E+08         0.00000E+00
    0.00000E+00         0.00000E+00        -0.50134E+08
 
   -0.50491E+08         0.55447E+06         0.00000E+00
    0.55447E+06        -0.50151E+08         0.00000E+00
    0.00000E+00         0.00000E+00        -0.50129E+08
 
   -0.50461E+08         0.55774E+06         0.00000E+00
    0.55774E+06        -0.50157E+08         0.00000E+00
    0.00000E+00         0.00000E+00        -0.50124E+08
 
   -0.50431E+08         0.56040E+06         0.00000E+00
    0.56040E+06        -0.50163E+08         0.00000E+00
    0.00000E+00         0.00000E+00        -0.50119E+08
 
   -0.50402E+08         0.56250E+06         0.00000E+00
    0.56250E+06        -0.50169E+08         0.00000E+00
    0.00000E+00         0.00000E+00        -0.50114E+08
 
   -0.50374E+08         0.56406E+06         0.00000E+00
    0.56406E+06        -0.50175E+08         0.00000E+00
    0.00000E+00         0.00000E+00        -0.50110E+08
 
   -0.50347E+08         0.56510E+06         0.00000E+00
    0.56510E+06        -0.50181E+08         0.00000E+00
    0.00000E+00         0.00000E+00        -0.50106E+08
 
   -0.50321E+08         0.56567E+06         0.00000E+00
    0.56567E+06        -0.50187E+08         0.00000E+00
    0.00000E+00         0.00000E+00        -0.50101E+08
 
   -0.50296E+08         0.56578E+06         0.00000E+00
    0.56578E+06        -0.50192E+08         0.00000E+00
    0.00000E+00         0.00000E+00        -0.50098E+08
 
   -0.50271E+08         0.56547E+06         0.00000E+00
    0.56547E+06        -0.50198E+08         0.00000E+00
    0.00000E+00         0.00000E+00        -0.50094E+08
 
   -0.50248E+08         0.56478E+06         0.00000E+00
    0.56478E+06        -0.50204E+08         0.00000E+00
    0.00000E+00         0.00000E+00        -0.50090E+08
 
   -0.50226E+08         0.56372E+06         0.00000E+00
    0.56372E+06        -0.50209E+08         0.00000E+00
    0.00000E+00         0.00000E+00        -0.50087E+08
 
   -0.50205E+08         0.56234E+06         0.00000E+00
    0.56234E+06        -0.50215E+08         0.00000E+00
    0.00000E+00         0.00000E+00        -0.50084E+08
 
   -0.50185E+08         0.56068E+06         0.00000E+00
    0.56068E+06        -0.50220E+08         0.00000E+00
    0.00000E+00         0.00000E+00        -0.50081E+08
 
   -0.50166E+08         0.55877E+06         0.00000E+00
    0.55877E+06        -0.50225E+08         0.00000E+00
    0.00000E+00         0.00000E+00        -0.50078E+08
 
   -0.50149E+08         0.55665E+06         0.00000E+00
    0.55665E+06        -0.50230E+08         0.00000E+00
    0.00000E+00         0.00000E+00        -0.50076E+08
 
   -0.50132E+08         0.55438E+06         0.00000E+00
    0.55438E+06        -0.50235E+08         0.00000E+00
    0.00000E+00         0.00000E+00        -0.50074E+08
 
   -0.50117E+08         0.55199E+06         0.00000E+00
    0.55199E+06        -0.50240E+08         0.00000E+00
    0.00000E+00         0.00000E+00        -0.50071E+08
 
   -0.50103E+08         0.54956E+06         0.00000E+00
    0.54956E+06        -0.50245E+08         0.00000E+00
    0.00000E+00         0.00000E+00        -0.50070E+08
 
   -0.50091E+08         0.54712E+06         0.00000E+00
    0.54712E+06        -0.50249E+08         0.00000E+00
    0.00000E+00         0.00000E+00        -0.50068E+08
 
   -0.50079E+08         0.54475E+06         0.00000E+00
    0.54475E+06        -0.50254E+08         0.00000E+00
    0.00000E+00         0.00000E+00        -0.50067E+08
 
   -0.50070E+08         0.54251E+06         0.00000E+00
    0.54251E+06        -0.50258E+08         0.00000E+00
    0.00000E+00         0.00000E+00        -0.50065E+08
 
   -0.51331E+08         0.18676E+05         0.00000E+00
    0.18676E+05        -0.50000E+08         0.00000E+00
    0.00000E+00         0.00000E+00        -0.50266E+08
 
   -0.51310E+08         0.52894E+05         0.00000E+00
    0.52894E+05        -0.50001E+08         0.00000E+00
    0.00000E+00         0.00000E+00        -0.50262E+08
 
   -0.51287E+08         0.85757E+05         0.00000E+00
    0.85757E+05        -0.50002E+08         0.00000E+00
    0.00000E+00         0.00000E+00        -0.50258E+08
 
   -0.51263E+08         0.11726E+06         0.00000E+00
    0.11726E+06        -0.50005E+08         0.00000E+00
    0.00000E+00         0.00000E+00        -0.50254E+08
 
   -0.51238E+08         0.14740E+06         0.00000E+00
    0.14740E+06        -0.50008E+08         0.00000E+00
    0.00000E+00         0.00000E+00        -0.50249E+08
 
   -0.51211E+08         0.17619E+06         0.00000E+00
    0.17619E+06        -0.50012E+08         0.00000E+00
    0.00000E+00         0.00000E+00        -0.50245E+08
 
   -0.51183E+08         0.20363E+06         0.00000E+00
    0.20363E+06        -0.50016E+08         0.00000E+00
    0.00000E+00         0.00000E+00        -0.50240E+08
 
   -0.51155E+08         0.22973E+06         0.00000E+00
    0.22973E+06        -0.50020E+08         0.00000E+00
    0.00000E+00         0.00000E+00        -0.50235E+08
 
   -0.51125E+08         0.25451E+06         0.00000E+00
    0.25451E+06        -0.50026E+08         0.00000E+00
    0.00000E+00         0.00000E+00        -0.50230E+08
 
   -0.51095E+08         0.27800E+06         0.00000E+00
    0.27800E+06        -0.50031E+08         0.00000E+00
    0.00000E+00         0.00000E+00        -0.50225E+08
 
   -0.51064E+08         0.30021E+06         0.00000E+00
    0.30021E+06        -0.50037E+08         0.00000E+00
    0.00000E+00         0.00000E+00        -0.50220E+08
 
   -0.51033E+08         0.32117E+06         0.00000E+00
    0.32117E+06        -0.50043E+08         0.00000E+00
    0.00000E+00         0.00000E+00        -0.50215E+08
 
   -0.51001E+08         0.34091E+06         0.00000E+00
    0.34091E+06        -0.50049E+08         0.00000E+00
    0.00000E+00         0.00000E+00        -0.50210E+08
 
   -0.50970E+08         0.35946E+06         0.00000E+00
    0.35946E+06        -0.50056E+08         0.00000E+00
    0.00000E+00         0.00000E+00        -0.50205E+08
 
   -0.50937E+08         0.37685E+06         0.00000E+00
    0.37685E+06        -0.50062E+08         0.00000E+00
    0.00000E+00         0.00000E+00        -0.50200E+08
 
   -0.50905E+08         0.39311E+06         0.00000E+00
    0.39311E+06        -0.50069E+08         0.00000E+00
    0.00000E+00         0.00000E+00        -0.50195E+08
 
   -0.50873E+08         0.40827E+06         0.00000E+00
    0.40827E+06        -0.50076E+08         0.00000E+00
    0.00000E+00         0.00000E+00        -0.50190E+08
 
   -0.50840E+08         0.42238E+06         0.00000E+00
    0.42238E+06        -0.50083E+08         0.00000E+00
    0.00000E+00         0.00000E+00        -0.50185E+08
 
   -0.50808E+08         0.43546E+06         0.00000E+00
    0.43546E+06        -0.50090E+08         0.00000E+00
    0.00000E+00         0.00000E+00        -0.50180E+08
 
   -0.50776E+08         0.44756E+06         0.00000E+00
    0.44756E+06        -0.50098E+08         0.00000E+00
    0.00000E+00         0.00000E+00        -0.50175E+08
 
   -0.50744E+08         0.45870E+06         0.00000E+00
    0.45870E+06        -0.50105E+08         0.00000E+00
    0.00000E+00         0.00000E+00        -0.50170E+08
 
   -0.50712E+08         0.46892E+06         0.00000E+00
    0.46892E+06        -0.50112E+08         0.00000E+00
    0.00000E+00         0.00000E+00        -0.50165E+08
 
   -0.50681E+08         0.47826E+06         0.00000E+00
    0.47826E+06        -0.50119E+08         0.00000E+00
    0.00000E+00         0.00000E+00        -0.50160E+08
 
   -0.50649E+08         0.48676E+06         0.00000E+00
    0.48676E+06        -0.50127E+08         0.00000E+00
    0.00000E+00         0.00000E+00        -0.50155E+08
 
   -0.50619E+08         0.49444E+06         0.00000E+00
    0.49444E+06        -0.50134E+08         0.00000E+00
    0.00000E+00         0.00000E+00        -0.50150E+08
 
   -0.50588E+08         0.50135E+06         0.00000E+00
    0.50135E+06        -0.50141E+08         0.00000E+00
    0.00000E+00         0.00000E+00        -0.50146E+08
 
   -0.50559E+08         0.50751E+06         0.00000E+00
    0.50751E+06        -0.50148E+08         0.00000E+00
    0.00000E+00         0.00000E+00        -0.50141E+08
 
   -0.50529E+08         0.51296E+06         0.00000E+00
    0.51296E+06        -0.50155E+08         0.00000E+00
    0.00000E+00         0.00000E+00        -0.50137E+08
 
   -0.50501E+08         0.51774E+06         0.00000E+00
    0.51774E+06        -0.50162E+08         0.00000E+00
    0.00000E+00         0.00000E+00        -0.50133E+08
 
   -0.50472E+08         0.52187E+06         0.00000E+00
    0.52187E+06        -0.50169E+08         0.00000E+00
    0.00000E+00         0.00000E+00        -0.50128E+08
 
   -0.50445E+08         0.52539E+06         0.00000E+00
    0.52539E+06        -0.50176E+08         0.00000E+00
    0.00000E+00         0.00000E+00        -0.50124E+08
 
   -0.50418E+08         0.52832E+06         0.00000E+00
    0.52832E+06        -0.50183E+08         0.00000E+00
    0.00000E+00         0.00000E+00        -0.50120E+08
 
   -0.50392E+08         0.53071E+06         0.00000E+00
    0.53071E+06        -0.50190E+08         0.00000E+00
    0.00000E+00         0.00000E+00        -0.50116E+08
 
   -0.50367E+08         0.53259E+06         0.00000E+00
    0.53259E+06        -0.50196E+08         0.00000E+00
    0.00000E+00         0.00000E+00        -0.50113E+08
 
   -0.50342E+08         0.53397E+06         0.00000E+00
    0.53397E+06        -0.50203E+08         0.00000E+00
    0.00000E+00         0.00000E+00        -0.50109E+08
 
   -0.50318E+08         0.53491E+06         0.00000E+00
    0.53491E+06        -0.50210E+08         0.00000E+00
    0.00000E+00         0.00000E+00        -0.50106E+08
 
   -0.50295E+08         0.53543E+06         0.00000E+00
    0.53543E+06        -0.50216E+08         0.00000E+00
    0.00000E+00         0.00000E+00        -0.50102E+08
 
   -0.50273E+08         0.53557E+06         0.00000E+00
    0.53557E+06        -0.50222E+08         0.00000E+00
    0.00000E+00         0.00000E+00        -0.50099E+08
 
   -0.50251E+08         0.53535E+06         0.00000E+00
    0.53535E+06        -0.50229E+08         0.00000E+00
    0.00000E+00         0.00000E+00        -0.50096E+08
 
   -0.50231E+08         0.53483E+06         0.00000E+00
    0.53483E+06        -0.50235E+08         0.00000E+00
    0.00000E+00         0.00000E+00        -0.50093E+08
 
   -0.50211E+08         0.53403E+06         0.00000E+00
    0.53403E+06        -0.50241E+08         0.00000E+00
    0.00000E+00         0.00000E+00        -0.50090E+08
 
   -0.50192E+08         0.53299E+06         0.00000E+00
    0.53299E+06        -0.50246E+08         0.00000E+00
    0.00000E+00         0.00000E+00        -0.50088E+08
 
   -0.50174E+08         0.53176E+06         0.00000E+00
    0.53176E+06        -0.50252E+08         0.00000E+00
    0.00000E+00         0.00000E+00        -0.50085E+08
 
   -0.50158E+08         0.53038E+06         0.00000E+00
    0.53038E+06        -0.50258E+08         0.00000E+00
    0.00000E+00         0.00000E+00        -0.50083E+08
 
   -0.50142E+08         0.52889E+06         0.00000E+00
    0.52889E+06        -0.50263E+08         0.00000E+00
    0.00000E+00         0.00000E+00        -0.50081E+08
 
   -0.50127E+08         0.52734E+06         0.00000E+00
    0.52734E+06        -0.50268E+08         0.00000E+00
    0.00000E+00         0.00000E+00        -0.50079E+08
 
   -0.50113E+08         0.52578E+06         0.00000E+00
    0.52578E+06        -0.50273E+08         0.00000E+00
    0.00000E+00         0.00000E+00        -0.50077E+08
 
   -0.50100E+08         0.52427E+06         0.00000E+00
    0.52427E+06        -0.50278E+08         0.00000E+00
    0.00000E+00         0.00000E+00        -0.50076E+08
 
   -0.50088E+08         0.52285E+06         0.00000E+00
    0.52285E+06        -0.50283E+08         0.00000E+00
    0.00000E+00         0.00000E+00        -0.50074E+08
 
   -0.50078E+08         0.52159E+06         0.00000E+00
    0.52159E+06        -0.50287E+08         0.00000E+00
    0.00000E+00         0.00000E+00        -0.50073E+08
 
   -0.51167E+08         0.16298E+05         0.00000E+00
    0.16298E+05        -0.50000E+08         0.00000E+00
    0.00000E+00         0.00000E+00        -0.50233E+08
 
   -0.51152E+08         0.46521E+05         0.00000E+00
    0.46521E+05        -0.50001E+08         0.00000E+00
    0.00000E+00         0.00000E+00        -0.50230E+08
 
   -0.51135E+08         0.75702E+05         0.00000E+00
    0.75702E+05        -0.50002E+08         0.00000E+00
    0.00000E+00         0.00000E+00        -0.50227E+08
 
   -0.51117E+08         0.10382E+06         0.00000E+00
    0.10382E+06        -0.50005E+08         0.00000E+00
    0.00000E+00         0.00000E+00        -0.50224E+08
 
   -0.51098E+08         0.13087E+06         0.00000E+00
    0.13087E+06        -0.50008E+08         0.00000E+00
    0.00000E+00         0.00000E+00        -0.50221E+08
 
   -0.51077E+08         0.15684E+06         0.00000E+00
    0.15684E+06        -0.50011E+08         0.00000E+00
    0.00000E+00         0.00000E+00        -0.50218E+08
 
   -0.51055E+08         0.18173E+06         0.00000E+00
    0.18173E+06        -0.50015E+08         0.00000E+00
    0.00000E+00         0.00000E+00        -0.50214E+08
 
   -0.51033E+08         0.20553E+06         0.00000E+00
    0.20553E+06        -0.50020E+08         0.00000E+00
    0.00000E+00         0.00000E+00        -0.50211E+08
 
   -0.51009E+08         0.22825E+06         0.00000E+00
    0.22825E+06        -0.50025E+08         0.00000E+00
    0.00000E+00         0.00000E+00        -0.50207E+08
 
   -0.50985E+08         0.24990E+06         0.00000E+00
    0.24990E+06        -0.50030E+08         0.00000E+00
    0.00000E+00         0.00000E+00        -0.50203E+08
 
   -0.50960E+08         0.27049E+06         0.00000E+00
    0.27049E+06        -0.50036E+08         0.00000E+00
    0.00000E+00         0.00000E+00        -0.50199E+08
 
   -0.50935E+08         0.29002E+06         0.00000E+00
    0.29002E+06        -0.50042E+08         0.00000E+00
    0.00000E+00         0.00000E+00        -0.50195E+08
 
   -0.50909E+08         0.30851E+06         0.00000E+00
    0.30851E+06        -0.50048E+08         0.00000E+00
    0.00000E+00         0.00000E+00        -0.50191E+08
 
   -0.50882E+08         0.32598E+06         0.00000E+00
    0.32598E+06        -0.50055E+08         0.00000E+00
    0.00000E+00         0.00000E+00        -0.50187E+08
 
   -0.50855E+08         0.34245E+06         0.00000E+00
    0.34245E+06        -0.50062E+08         0.00000E+00
    0.00000E+00         0.00000E+00        -0.50183E+08
 
   -0.50828E+08         0.35794E+06         0.00000E+00
    0.35794E+06        -0.50069E+08         0.00000E+00
    0.00000E+00         0.00000E+00        -0.50179E+08
 
   -0.50801E+08         0.37247E+06         0.00000E+00
    0.37247E+06        -0.50076E+08         0.00000E+00
    0.00000E+00         0.00000E+00        -0.50175E+08
 
   -0.50773E+08         0.38606E+06         0.00000E+00
    0.38606E+06        -0.50083E+08         0.00000E+00
    0.00000E+00         0.00000E+00        -0.50171E+08
 
   -0.50746E+08         0.39874E+06         0.00000E+00
    0.39874E+06        -0.50091E+08         0.00000E+00
    0.00000E+00         0.00000E+00        -0.50167E+08
 
   -0.50718E+08         0.41054E+06         0.00000E+00
    0.41054E+06        -0.50098E+08         0.00000E+00
    0.00000E+00         0.00000E+00        -0.50163E+08
 
   -0.50691E+08         0.42147E+06         0.00000E+00
    0.42147E+06        -0.50106E+08         0.00000E+00
    0.00000E+00         0.00000E+00        -0.50159E+08
 
   -0.50663E+08         0.43157E+06         0.00000E+00
    0.43157E+06        -0.50113E+08         0.00000E+00
    0.00000E+00         0.00000E+00        -0.50155E+08
 
   -0.50636E+08         0.44086E+06         0.00000E+00
    0.44086E+06        -0.50121E+08         0.00000E+00
    0.00000E+00         0.00000E+00        -0.50151E+08
 
   -0.50609E+08         0.44938E+06         0.00000E+00
    0.44938E+06        -0.50129E+08         0.00000E+00
    0.00000E+00         0.00000E+00        -0.50147E+08
 
   -0.50582E+08         0.45714E+06         0.00000E+00
    0.45714E+06        -0.50136E+08         0.00000E+00
    0.00000E+00         0.00000E+00        -0.50144E+08
 
   -0.50555E+08         0.46419E+06         0.00000E+00
    0.46419E+06        -0.50144E+08         0.00000E+00
    0.00000E+00         0.00000E+00        -0.50140E+08
 
   -0.50529E+08         0.47054E+06         0.00000E+00
    0.47054E+06        -0.50152E+08         0.00000E+00
    0.00000E+00         0.00000E+00        -0.50136E+08
 
   -0.50503E+08         0.47623E+06         0.00000E+00
    0.47623E+06        -0.50159E+08         0.00000E+00
    0.00000E+00         0.00000E+00        -0.50132E+08
 
   -0.50478E+08         0.48128E+06         0.00000E+00
    0.48128E+06        -0.50167E+08         0.00000E+00
    0.00000E+00         0.00000E+00        -0.50129E+08
 
   -0.50452E+08         0.48573E+06         0.00000E+00
    0.48573E+06        -0.50174E+08         0.00000E+00
    0.00000E+00         0.00000E+00        -0.50125E+08
 
   -0.50428E+08         0.48961E+06         0.00000E+00
    0.48961E+06        -0.50182E+08         0.00000E+00
    0.00000E+00         0.00000E+00        -0.50122E+08
 
   -0.50404E+08         0.49294E+06         0.00000E+00
    0.49294E+06        -0.50189E+08         0.00000E+00
    0.00000E+00         0.00000E+00        -0.50119E+08
 
   -0.50380E+08         0.49576E+06         0.00000E+00
    0.49576E+06        -0.50196E+08         0.00000E+00
    0.00000E+00         0.00000E+00        -0.50115E+08
 
   -0.50357E+08         0.49810E+06         0.00000E+00
    0.49810E+06        -0.50203E+08         0.00000E+00
    0.00000E+00         0.00000E+00        -0.50112E+08
 
   -0.50335E+08         0.49999E+06         0.00000E+00
    0.49999E+06        -0.50210E+08         0.00000E+00
    0.00000E+00         0.00000E+00        -0.50109E+08
 
   -0.50313E+08         0.50146E+06         0.00000E+00
    0.50146E+06        -0.50217E+08         0.00000E+00
    0.00000E+00         0.00000E+00        -0.50106E+08
 
   -0.50292E+08         0.50254E+06         0.00000E+00
    0.50254E+06        -0.50224E+08         0.00000E+00
    0.00000E+00         0.00000E+00        -0.50103E+08
 
   -0.50271E+08         0.50328E+06         0.00000E+00
    0.50328E+06        -0.50231E+08         0.00000E+00
    0.00000E+00         0.00000E+00        -0.50100E+08
 
   -0.50251E+08         0.50369E+06         0.00000E+00
    0.50369E+06        -0.50237E+08         0.00000E+00
    0.00000E+00         0.00000E+00        -0.50098E+08
 
   -0.50232E+08         0.50382E+06         0.00000E+00
    0.50382E+06        -0.50244E+08         0.00000E+00
    0.00000E+00         0.00000E+00        -0.50095E+08
 
   -0.50214E+08         0.50371E+06         0.00000E+00
    0.50371E+06        -0.50250E+08         0.00000E+00
    0.00000E+00         0.00000E+00        -0.50093E+08
 
   -0.50196E+08         0.50338E+06         0.00000E+00
    0.50338E+06        -0.50256E+08         0.00000E+00
    0.00000E+00         0.00000E+00        -0.50090E+08
 
   -0.50179E+08         0.50289E+06         0.00000E+00
    0.50289E+06        -0.50262E+08         0.00000E+00
    0.00000E+00         0.00000E+00        -0.50088E+08
 
   -0.50163E+08         0.50227E+06         0.00000E+00
    0.50227E+06        -0.50268E+08         0.00000E+00
    0.00000E+00         0.00000E+00        -0.50086E+08
 
   -0.50147E+08         0.50155E+06         0.00000E+00
    0.50155E+06        -0.50274E+08         0.00000E+00
    0.00000E+00         0.00000E+00        -0.50084E+08
 
   -0.50133E+08         0.50079E+06         0.00000E+00
    0.50079E+06        -0.50279E+08         0.00000E+00
    0.00000E+00         0.00000E+00        -0.50082E+08
 
   -0.50119E+08         0.50003E+06         0.00000E+00
    0.50003E+06        -0.50285E+08         0.00000E+00
    0.00000E+00         0.00000E+00        -0.50081E+08
 
   -0.50105E+08         0.49930E+06         0.00000E+00
    0.49930E+06        -0.50290E+08         0.00000E+00
    0.00000E+00         0.00000E+00        -0.50079E+08
 
   -0.50093E+08         0.49867E+06         0.00000E+00
    0.49867E+06        -0.50295E+08         0.00000E+00
    0.00000E+00         0.00000E+00        -0.50078E+08
 
   -0.50081E+08         0.49817E+06         0.00000E+00
    0.49817E+06        -0.50300E+08         0.00000E+00
    0.00000E+00         0.00000E+00        -0.50076E+08
 
   -0.51023E+08         0.14125E+05         0.00000E+00
    0.14125E+05        -0.50000E+08         0.00000E+00
    0.00000E+00         0.00000E+00        -0.50205E+08
 
   -0.51012E+08         0.40614E+05         0.00000E+00
    0.40614E+05        -0.50001E+08         0.00000E+00
    0.00000E+00         0.00000E+00        -0.50203E+08
 
   -0.51000E+08         0.66313E+05         0.00000E+00
    0.66313E+05        -0.50002E+08         0.00000E+00
    0.00000E+00         0.00000E+00        -0.50200E+08
 
   -0.50987E+08         0.91199E+05         0.00000E+00
    0.91199E+05        -0.50004E+08         0.00000E+00
    0.00000E+00         0.00000E+00        -0.50198E+08
 
   -0.50972E+08         0.11525E+06         0.00000E+00
    0.11525E+06        -0.50007E+08         0.00000E+00
    0.00000E+00         0.00000E+00        -0.50196E+08
 
   -0.50957E+08         0.13846E+06         0.00000E+00
    0.13846E+06        -0.50010E+08         0.00000E+00
    0.00000E+00         0.00000E+00        -0.50193E+08
 
   -0.50940E+08         0.16080E+06         0.00000E+00
    0.16080E+06        -0.50014E+08         0.00000E+00
    0.00000E+00         0.00000E+00        -0.50191E+08
 
   -0.50922E+08         0.18228E+06         0.00000E+00
    0.18228E+06        -0.50018E+08         0.00000E+00
    0.00000E+00         0.00000E+00        -0.50188E+08
 
   -0.50903E+08         0.20288E+06         0.00000E+00
    0.20288E+06        -0.50023E+08         0.00000E+00
    0.00000E+00         0.00000E+00        -0.50185E+08
 
   -0.50884E+08         0.22261E+06         0.00000E+00
    0.22261E+06        -0.50028E+08         0.00000E+00
    0.00000E+00         0.00000E+00        -0.50182E+08
 
   -0.50864E+08         0.24146E+06         0.00000E+00
    0.24146E+06        -0.50034E+08         0.00000E+00
    0.00000E+00         0.00000E+00        -0.50180E+08
 
   -0.50843E+08         0.25944E+06         0.00000E+00
    0.25944E+06        -0.50040E+08         0.00000E+00
    0.00000E+00         0.00000E+00        -0.50177E+08
 
   -0.50822E+08         0.27655E+06         0.00000E+00
    0.27655E+06        -0.50046E+08         0.00000E+00
    0.00000E+00         0.00000E+00        -0.50174E+08
 
   -0.50800E+08         0.29280E+06         0.00000E+00
    0.29280E+06        -0.50052E+08         0.00000E+00
    0.00000E+00         0.00000E+00        -0.50170E+08
 
   -0.50778E+08         0.30820E+06         0.00000E+00
    0.30820E+06        -0.50059E+08         0.00000E+00
    0.00000E+00         0.00000E+00        -0.50167E+08
 
   -0.50755E+08         0.32276E+06         0.00000E+00
    0.32276E+06        -0.50066E+08         0.00000E+00
    0.00000E+00         0.00000E+00        -0.50164E+08
 
   -0.50732E+08         0.33650E+06         0.00000E+00
    0.33650E+06        -0.50073E+08         0.00000E+00
    0.00000E+00         0.00000E+00        -0.50161E+08
 
   -0.50709E+08         0.34942E+06         0.00000E+00
    0.34942E+06        -0.50080E+08         0.00000E+00
    0.00000E+00         0.00000E+00        -0.50158E+08
 
   -0.50686E+08         0.36155E+06         0.00000E+00
    0.36155E+06        -0.50087E+08         0.00000E+00
    0.00000E+00         0.00000E+00        -0.50155E+08
 
   -0.50662E+08         0.37290E+06         0.00000E+00
    0.37290E+06        -0.50095E+08         0.00000E+00
    0.00000E+00         0.00000E+00        -0.50151E+08
 
   -0.50639E+08         0.38350E+06         0.00000E+00
    0.38350E+06        -0.50102E+08         0.00000E+00
    0.00000E+00         0.00000E+00        -0.50148E+08
 
   -0.50615E+08         0.39335E+06         0.00000E+00
    0.39335E+06        -0.50110E+08         0.00000E+00
    0.00000E+00         0.00000E+00        -0.50145E+08
 
   -0.50592E+08         0.40249E+06         0.00000E+00
    0.40249E+06        -0.50117E+08         0.00000E+00
    0.00000E+00         0.00000E+00        -0.50142E+08
 
   -0.50568E+08         0.41093E+06         0.00000E+00
    0.41093E+06        -0.50125E+08         0.00000E+00
    0.00000E+00         0.00000E+00        -0.50139E+08
 
   -0.50545E+08         0.41870E+06         0.00000E+00
    0.41870E+06        -0.50133E+08         0.00000E+00
    0.00000E+00         0.00000E+00        -0.50135E+08
 
   -0.50521E+08         0.42582E+06         0.00000E+00
    0.42582E+06        -0.50140E+08         0.00000E+00
    0.00000E+00         0.00000E+00        -0.50132E+08
 
   -0.50498E+08         0.43231E+06         0.00000E+00
    0.43231E+06        -0.50148E+08         0.00000E+00
    0.00000E+00         0.00000E+00        -0.50129E+08
 
   -0.50476E+08         0.43820E+06         0.00000E+00
    0.43820E+06        -0.50156E+08         0.00000E+00
    0.00000E+00         0.00000E+00        -0.50126E+08
 
   -0.50453E+08         0.44351E+06         0.00000E+00
    0.44351E+06        -0.50163E+08         0.00000E+00
    0.00000E+00         0.00000E+00        -0.50123E+08
 
   -0.50431E+08         0.44827E+06         0.00000E+00
    0.44827E+06        -0.50171E+08         0.00000E+00
    0.00000E+00         0.00000E+00        -0.50120E+08
 
   -0.50409E+08         0.45251E+06         0.00000E+00
    0.45251E+06        -0.50178E+08         0.00000E+00
    0.00000E+00         0.00000E+00        -0.50117E+08
 
   -0.50387E+08         0.45624E+06         0.00000E+00
    0.45624E+06        -0.50186E+08         0.00000E+00
    0.00000E+00         0.00000E+00        -0.50115E+08
 
   -0.50366E+08         0.45951E+06         0.00000E+00
    0.45951E+06        -0.50193E+08         0.00000E+00
    0.00000E+00         0.00000E+00        -0.50112E+08
 
   -0.50345E+08         0.46233E+06         0.00000E+00
    0.46233E+06        -0.50200E+08         0.00000E+00
    0.00000E+00         0.00000E+00        -0.50109E+08
 
   -0.50325E+08         0.46474E+06         0.00000E+00
    0.46474E+06        -0.50207E+08         0.00000E+00
    0.00000E+00         0.00000E+00        -0.50106E+08
 
   -0.50305E+08         0.46676E+06         0.00000E+00
    0.46676E+06        -0.50214E+08         0.00000E+00
    0.00000E+00         0.00000E+00        -0.50104E+08
 
   -0.50286E+08         0.46843E+06         0.00000E+00
    0.46843E+06        -0.50221E+08         0.00000E+00
    0.00000E+00         0.00000E+00        -0.50101E+08
 
   -0.50267E+08         0.46977E+06         0.00000E+00
    0.46977E+06        -0.50228E+08         0.00000E+00
    0.00000E+00         0.00000E+00        -0.50099E+08
 
   -0.50248E+08         0.47082E+06         0.00000E+00
    0.47082E+06        -0.50235E+08         0.00000E+00
    0.00000E+00         0.00000E+00        -0.50097E+08
 
   -0.50230E+08         0.47161E+06         0.00000E+00
    0.47161E+06        -0.50241E+08         0.00000E+00
    0.00000E+00         0.00000E+00        -0.50094E+08
 
   -0.50213E+08         0.47216E+06         0.00000E+00
    0.47216E+06        -0.50248E+08         0.00000E+00
    0.00000E+00         0.00000E+00        -0.50092E+08
 
   -0.50196E+08         0.47252E+06         0.00000E+00
    0.47252E+06        -0.50254E+08         0.00000E+00
    0.00000E+00         0.00000E+00        -0.50090E+08
 
   -0.50180E+08         0.47272E+06         0.00000E+00
    0.47272E+06        -0.50260E+08         0.00000E+00
    0.00000E+00         0.00000E+00        -0.50088E+08
 
   -0.50164E+08         0.47279E+06         0.00000E+00
    0.47279E+06        -0.50266E+08         0.00000E+00
    0.00000E+00         0.00000E+00        -0.50086E+08
 
   -0.50149E+08         0.47277E+06         0.00000E+00
    0.47277E+06        -0.50272E+08         0.00000E+00
    0.00000E+00         0.00000E+00        -0.50084E+08
 
   -0.50135E+08         0.47269E+06         0.00000E+00
    0.47269E+06        -0.50278E+08         0.00000E+00
    0.00000E+00         0.00000E+00        -0.50083E+08
 
   -0.50121E+08         0.47259E+06         0.00000E+00
    0.47259E+06        -0.50284E+08         0.00000E+00
    0.00000E+00         0.00000E+00        -0.50081E+08
 
   -0.50107E+08         0.47251E+06         0.00000E+00
    0.47251E+06        -0.50289E+08         0.00000E+00
    0.00000E+00         0.00000E+00        -0.50079E+08
 
   -0.50094E+08         0.47249E+06         0.00000E+00
    0.47249E+06        -0.50295E+08         0.00000E+00
    0.00000E+00         0.00000E+00        -0.50078E+08
 
   -0.50082E+08         0.47256E+06         0.00000E+00
    0.47256E+06        -0.50300E+08         0.00000E+00
    0.00000E+00         0.00000E+00        -0.50076E+08
 
   -0.50898E+08         0.12186E+05         0.00000E+00
    0.12186E+05        -0.50000E+08         0.00000E+00
    0.00000E+00         0.00000E+00        -0.50179E+08
 
   -0.50890E+08         0.35275E+05         0.00000E+00
    0.35275E+05        -0.50001E+08         0.00000E+00
    0.00000E+00         0.00000E+00        -0.50178E+08
 
   -0.50882E+08         0.57776E+05         0.00000E+00
    0.57776E+05        -0.50002E+08         0.00000E+00
    0.00000E+00         0.00000E+00        -0.50177E+08
 
   -0.50872E+08         0.79662E+05         0.00000E+00
    0.79662E+05        -0.50004E+08         0.00000E+00
    0.00000E+00         0.00000E+00        -0.50175E+08
 
   -0.50861E+08         0.10091E+06         0.00000E+00
    0.10091E+06        -0.50006E+08         0.00000E+00
    0.00000E+00         0.00000E+00        -0.50173E+08
 
   -0.50849E+08         0.12150E+06         0.00000E+00
    0.12150E+06        -0.50009E+08         0.00000E+00
    0.00000E+00         0.00000E+00        -0.50172E+08
 
   -0.50836E+08         0.14142E+06         0.00000E+00
    0.14142E+06        -0.50013E+08         0.00000E+00
    0.00000E+00         0.00000E+00        -0.50170E+08
 
   -0.50822E+08         0.16065E+06         0.00000E+00
    0.16065E+06        -0.50017E+08         0.00000E+00
    0.00000E+00         0.00000E+00        -0.50168E+08
 
   -0.50808E+08         0.17918E+06         0.00000E+00
    0.17918E+06        -0.50021E+08         0.00000E+00
    0.00000E+00         0.00000E+00        -0.50166E+08
 
   -0.50792E+08         0.19701E+06         0.00000E+00
    0.19701E+06        -0.50026E+08         0.00000E+00
    0.00000E+00         0.00000E+00        -0.50164E+08
 
   -0.50776E+08         0.21413E+06         0.00000E+00
    0.21413E+06        -0.50031E+08         0.00000E+00
    0.00000E+00         0.00000E+00        -0.50161E+08
 
   -0.50759E+08         0.23053E+06         0.00000E+00
    0.23053E+06        -0.50036E+08         0.00000E+00
    0.00000E+00         0.00000E+00        -0.50159E+08
 
   -0.50742E+08         0.24621E+06         0.00000E+00
    0.24621E+06        -0.50042E+08         0.00000E+00
    0.00000E+00         0.00000E+00        -0.50157E+08
 
   -0.50724E+08         0.26118E+06         0.00000E+00
    0.26118E+06        -0.50048E+08         0.00000E+00
    0.00000E+00         0.00000E+00        -0.50154E+08
 
   -0.50706E+08         0.27544E+06         0.00000E+00
    0.27544E+06        -0.50054E+08         0.00000E+00
    0.00000E+00         0.00000E+00        -0.50152E+08
 
   -0.50687E+08         0.28900E+06         0.00000E+00
    0.28900E+06        -0.50061E+08         0.00000E+00
    0.00000E+00         0.00000E+00        -0.50149E+08
 
   -0.50668E+08         0.30185E+06         0.00000E+00
    0.30185E+06        -0.50067E+08         0.00000E+00
    0.00000E+00         0.00000E+00        -0.50147E+08
 
   -0.50648E+08         0.31402E+06         0.00000E+00
    0.31402E+06        -0.50074E+08         0.00000E+00
    0.00000E+00         0.00000E+00        -0.50144E+08
 
   -0.50628E+08         0.32550E+06         0.00000E+00
    0.32550E+06        -0.50081E+08         0.00000E+00
    0.00000E+00         0.00000E+00        -0.50142E+08
 
   -0.50609E+08         0.33632E+06         0.00000E+00
    0.33632E+06        -0.50088E+08         0.00000E+00
    0.00000E+00         0.00000E+00        -0.50139E+08
 
   -0.50588E+08         0.34647E+06         0.00000E+00
    0.34647E+06        -0.50095E+08         0.00000E+00
    0.00000E+00         0.00000E+00        -0.50137E+08
 
   -0.50568E+08         0.35599E+06         0.00000E+00
    0.35599E+06        -0.50103E+08         0.00000E+00
    0.00000E+00         0.00000E+00        -0.50134E+08
 
   -0.50548E+08         0.36488E+06         0.00000E+00
    0.36488E+06        -0.50110E+08         0.00000E+00
    0.00000E+00         0.00000E+00        -0.50132E+08
 
   -0.50528E+08         0.37316E+06         0.00000E+00
    0.37316E+06        -0.50117E+08         0.00000E+00
    0.00000E+00         0.00000E+00        -0.50129E+08
 
   -0.50507E+08         0.38084E+06         0.00000E+00
    0.38084E+06        -0.50125E+08         0.00000E+00
    0.00000E+00         0.00000E+00        -0.50126E+08
 
   -0.50487E+08         0.38795E+06         0.00000E+00
    0.38795E+06        -0.50132E+08         0.00000E+00
    0.00000E+00         0.00000E+00        -0.50124E+08
 
   -0.50467E+08         0.39450E+06         0.00000E+00
    0.39450E+06        -0.50140E+08         0.00000E+00
    0.00000E+00         0.00000E+00        -0.50121E+08
 
   -0.50447E+08         0.40052E+06         0.00000E+00
    0.40052E+06        -0.50147E+08         0.00000E+00
    0.00000E+00         0.00000E+00        -0.50119E+08
 
   -0.50427E+08         0.40602E+06         0.00000E+00
    0.40602E+06        -0.50155E+08         0.00000E+00
    0.00000E+00         0.00000E+00        -0.50116E+08
 
   -0.50407E+08         0.41102E+06         0.00000E+00
    0.41102E+06        -0.50162E+08         0.00000E+00
    0.00000E+00         0.00000E+00        -0.50114E+08
 
   -0.50388E+08         0.41555E+06         0.00000E+00
    0.41555E+06        -0.50169E+08         0.00000E+00
    0.00000E+00         0.00000E+00        -0.50111E+08
 
   -0.50369E+08         0.41963E+06         0.00000E+00
    0.41963E+06        -0.50177E+08         0.00000E+00
    0.00000E+00         0.00000E+00        -0.50109E+08
 
   -0.50350E+08         0.42328E+06         0.00000E+00
    0.42328E+06        -0.50184E+08         0.00000E+00
    0.00000E+00         0.00000E+00        -0.50107E+08
 
   -0.50331E+08         0.42653E+06         0.00000E+00
    0.42653E+06        -0.50191E+08         0.00000E+00
    0.00000E+00         0.00000E+00        -0.50104E+08
 
   -0.50312E+08         0.42940E+06         0.00000E+00
    0.42940E+06        -0.50198E+08         0.00000E+00
    0.00000E+00         0.00000E+00        -0.50102E+08
 
   -0.50294E+08         0.43192E+06         0.00000E+00
    0.43192E+06        -0.50205E+08         0.00000E+00
    0.00000E+00         0.00000E+00        -0.50100E+08
 
   -0.50277E+08         0.43411E+06         0.00000E+00
    0.43411E+06        -0.50212E+08         0.00000E+00
    0.00000E+00         0.00000E+00        -0.50098E+08
 
   -0.50259E+08         0.43600E+06         0.00000E+00
    0.43600E+06        -0.50219E+08         0.00000E+00
    0.00000E+00         0.00000E+00        -0.50096E+08
 
   -0.50242E+08         0.43761E+06         0.00000E+00
    0.43761E+06        -0.50225E+08         0.00000E+00
    0.00000E+00         0.00000E+00        -0.50093E+08
 
   -0.50225E+08         0.43898E+06         0.00000E+00
    0.43898E+06        -0.50232E+08         0.00000E+00
    0.00000E+00         0.00000E+00        -0.50091E+08
 
   -0.50209E+08         0.44013E+06         0.00000E+00
    0.44013E+06        -0.50238E+08         0.00000E+00
    0.00000E+00         0.00000E+00        -0.50089E+08
 
   -0.50193E+08         0.44108E+06         0.00000E+00
    0.44108E+06        -0.50245E+08         0.00000E+00
    0.00000E+00         0.00000E+00        -0.50088E+08
 
   -0.50178E+08         0.44188E+06         0.00000E+00
    0.44188E+06        -0.50251E+08         0.00000E+00
    0.00000E+00         0.00000E+00        -0.50086E+08
 
   -0.50163E+08         0.44254E+06         0.00000E+00
    0.44254E+06        -0.50257E+08         0.00000E+00
    0.00000E+00         0.00000E+00        -0.50084E+08
 
   -0.50148E+08         0.44309E+06         0.00000E+00
    0.44309E+06        -0.50263E+08         0.00000E+00
    0.00000E+00         0.00000E+00        -0.50082E+08
 
   -0.50133E+08         0.44357E+06         0.00000E+00
    0.44357E+06        -0.50269E+08         0.00000E+00
    0.00000E+00         0.00000E+00        -0.50081E+08
 
   -0.50120E+08         0.44401E+06         0.00000E+00
    0.44401E+06        -0.50275E+08         0.00000E+00
    0.00000E+00         0.00000E+00        -0.50079E+08
 
   -0.50106E+08         0.44443E+06         0.00000E+00
    0.44443E+06        -0.50281E+08         0.00000E+00
    0.00000E+00         0.00000E+00        -0.50077E+08
 
   -0.50093E+08         0.44487E+06         0.00000E+00
    0.44487E+06        -0.50286E+08         0.00000E+00
    0.00000E+00         0.00000E+00        -0.50076E+08
 
   -0.50080E+08         0.44535E+06         0.00000E+00
    0.44535E+06        -0.50292E+08         0.00000E+00
    0.00000E+00         0.00000E+00        -0.50074E+08
 
   -0.50789E+08         0.10485E+05         0.00000E+00
    0.10485E+05        -0.50000E+08         0.00000E+00
    0.00000E+00         0.00000E+00        -0.50158E+08
 
   -0.50784E+08         0.30541E+05         0.00000E+00
    0.30541E+05        -0.50000E+08         0.00000E+00
    0.00000E+00         0.00000E+00        -0.50157E+08
 
   -0.50778E+08         0.50167E+05         0.00000E+00
    0.50167E+05        -0.50002E+08         0.00000E+00
    0.00000E+00         0.00000E+00        -0.50156E+08
 
   -0.50771E+08         0.69337E+05         0.00000E+00
    0.69337E+05        -0.50003E+08         0.00000E+00
    0.00000E+00         0.00000E+00        -0.50155E+08
 
   -0.50763E+08         0.88025E+05         0.00000E+00
    0.88025E+05        -0.50006E+08         0.00000E+00
    0.00000E+00         0.00000E+00        -0.50154E+08
 
   -0.50754E+08         0.10621E+06         0.00000E+00
    0.10621E+06        -0.50008E+08         0.00000E+00
    0.00000E+00         0.00000E+00        -0.50152E+08
 
   -0.50744E+08         0.12388E+06         0.00000E+00
    0.12388E+06        -0.50011E+08         0.00000E+00
    0.00000E+00         0.00000E+00        -0.50151E+08
 
   -0.50733E+08         0.14100E+06         0.00000E+00
    0.14100E+06        -0.50015E+08         0.00000E+00
    0.00000E+00         0.00000E+00        -0.50150E+08
 
   -0.50721E+08         0.15758E+06         0.00000E+00
    0.15758E+06        -0.50019E+08         0.00000E+00
    0.00000E+00         0.00000E+00        -0.50148E+08
 
   -0.50709E+08         0.17359E+06         0.00000E+00
    0.17359E+06        -0.50023E+08         0.00000E+00
    0.00000E+00         0.00000E+00        -0.50146E+08
 
   -0.50696E+08         0.18904E+06         0.00000E+00
    0.18904E+06        -0.50028E+08         0.00000E+00
    0.00000E+00         0.00000E+00        -0.50145E+08
 
   -0.50683E+08         0.20390E+06         0.00000E+00
    0.20390E+06        -0.50033E+08         0.00000E+00
    0.00000E+00         0.00000E+00        -0.50143E+08
 
   -0.50669E+08         0.21818E+06         0.00000E+00
    0.21818E+06        -0.50038E+08         0.00000E+00
    0.00000E+00         0.00000E+00        -0.50141E+08
 
   -0.50654E+08         0.23188E+06         0.00000E+00
    0.23188E+06        -0.50043E+08         0.00000E+00
    0.00000E+00         0.00000E+00        -0.50139E+08
 
   -0.50639E+08         0.24498E+06         0.00000E+00
    0.24498E+06        -0.50049E+08         0.00000E+00
    0.00000E+00         0.00000E+00        -0.50138E+08
 
   -0.50623E+08         0.25751E+06         0.00000E+00
    0.25751E+06        -0.50055E+08         0.00000E+00
    0.00000E+00         0.00000E+00        -0.50136E+08
 
   -0.50607E+08         0.26944E+06         0.00000E+00
    0.26944E+06        -0.50061E+08         0.00000E+00
    0.00000E+00         0.00000E+00        -0.50134E+08
 
   -0.50591E+08         0.28080E+06         0.00000E+00
    0.28080E+06        -0.50067E+08         0.00000E+00
    0.00000E+00         0.00000E+00        -0.50132E+08
 
   -0.50574E+08         0.29158E+06         0.00000E+00
    0.29158E+06        -0.50074E+08         0.00000E+00
    0.00000E+00         0.00000E+00        -0.50130E+08
 
   -0.50557E+08         0.30179E+06         0.00000E+00
    0.30179E+06        -0.50081E+08         0.00000E+00
    0.00000E+00         0.00000E+00        -0.50128E+08
 
   -0.50540E+08         0.31145E+06         0.00000E+00
    0.31145E+06        -0.50087E+08         0.00000E+00
    0.00000E+00         0.00000E+00        -0.50126E+08
 
   -0.50523E+08         0.32055E+06         0.00000E+00
    0.32055E+06        -0.50094E+08         0.00000E+00
    0.00000E+00         0.00000E+00        -0.50123E+08
 
   -0.50506E+08         0.32911E+06         0.00000E+00
    0.32911E+06        -0.50101E+08         0.00000E+00
    0.00000E+00         0.00000E+00        -0.50121E+08
 
   -0.50488E+08         0.33714E+06         0.00000E+00
    0.33714E+06        -0.50108E+08         0.00000E+00
    0.00000E+00         0.00000E+00        -0.50119E+08
 
   -0.50471E+08         0.34466E+06         0.00000E+00
    0.34466E+06        -0.50115E+08         0.00000E+00
    0.00000E+00         0.00000E+00        -0.50117E+08
 
   -0.50453E+08         0.35167E+06         0.00000E+00
    0.35167E+06        -0.50122E+08         0.00000E+00
    0.00000E+00         0.00000E+00        -0.50115E+08
 
   -0.50436E+08         0.35820E+06         0.00000E+00
    0.35820E+06        -0.50129E+08         0.00000E+00
    0.00000E+00         0.00000E+00        -0.50113E+08
 
   -0.50418E+08         0.36425E+06         0.00000E+00
    0.36425E+06        -0.50136E+08         0.00000E+00
    0.00000E+00         0.00000E+00        -0.50111E+08
 
   -0.50400E+08         0.36985E+06         0.00000E+00
    0.36985E+06        -0.50143E+08         0.00000E+00
    0.00000E+00         0.00000E+00        -0.50109E+08
 
   -0.50383E+08         0.37500E+06         0.00000E+00
    0.37500E+06        -0.50150E+08         0.00000E+00
    0.00000E+00         0.00000E+00        -0.50107E+08
 
   -0.50366E+08         0.37974E+06         0.00000E+00
    0.37974E+06        -0.50157E+08         0.00000E+00
    0.00000E+00         0.00000E+00        -0.50105E+08
 
   -0.50349E+08         0.38407E+06         0.00000E+00
    0.38407E+06        -0.50164E+08         0.00000E+00
    0.00000E+00         0.00000E+00        -0.50103E+08
 
   -0.50331E+08         0.38802E+06         0.00000E+00
    0.38802E+06        -0.50171E+08         0.00000E+00
    0.00000E+00         0.00000E+00        -0.50101E+08
 
   -0.50315E+08         0.39161E+06         0.00000E+00
    0.39161E+06        -0.50178E+08         0.00000E+00
    0.00000E+00         0.00000E+00        -0.50099E+08
 
   -0.50298E+08         0.39485E+06         0.00000E+00
    0.39485E+06        -0.50185E+08         0.00000E+00
    0.00000E+00         0.00000E+00        -0.50097E+08
 
   -0.50281E+08         0.39776E+06         0.00000E+00
    0.39776E+06        -0.50192E+08         0.00000E+00
    0.00000E+00         0.00000E+00        -0.50095E+08
 
   -0.50265E+08         0.40038E+06         0.00000E+00
    0.40038E+06        -0.50198E+08         0.00000E+00
    0.00000E+00         0.00000E+00        -0.50093E+08
 
   -0.50249E+08         0.40271E+06         0.00000E+00
    0.40271E+06        -0.50205E+08         0.00000E+00
    0.00000E+00         0.00000E+00        -0.50091E+08
 
   -0.50233E+08         0.40479E+06         0.00000E+00
    0.40479E+06        -0.50211E+08         0.00000E+00
    0.00000E+00         0.00000E+00        -0.50089E+08
 
   -0.50218E+08         0.40663E+06         0.00000E+00
    0.40663E+06        -0.50218E+08         0.00000E+00
    0.00000E+00         0.00000E+00        -0.50087E+08
 
   -0.50203E+08         0.40825E+06         0.00000E+00
    0.40825E+06        -0.50224E+08         0.00000E+00
    0.00000E+00         0.00000E+00        -0.50085E+08
 
   -0.50187E+08         0.40969E+06         0.00000E+00
    0.40969E+06        -0.50231E+08         0.00000E+00
    0.00000E+00         0.00000E+00        -0.50084E+08
 
   -0.50173E+08         0.41096E+06         0.00000E+00
    0.41096E+06        -0.50237E+08         0.00000E+00
    0.00000E+00         0.00000E+00        -0.50082E+08
 
   -0.50158E+08         0.41209E+06         0.00000E+00
    0.41209E+06        -0.50243E+08         0.00000E+00
    0.00000E+00         0.00000E+00        -0.50080E+08
 
   -0.50144E+08         0.41310E+06         0.00000E+00
    0.41310E+06        -0.50249E+08         0.00000E+00
    0.00000E+00         0.00000E+00        -0.50079E+08
 
   -0.50130E+08         0.41401E+06         0.00000E+00
    0.41401E+06        -0.50255E+08         0.00000E+00
    0.00000E+00         0.00000E+00        -0.50077E+08
 
   -0.50116E+08         0.41485E+06         0.00000E+00
    0.41485E+06        -0.50261E+08         0.00000E+00
    0.00000E+00         0.00000E+00        -0.50075E+08
 
   -0.50103E+08         0.41564E+06         0.00000E+00
    0.41564E+06        -0.50267E+08         0.00000E+00
    0.00000E+00         0.00000E+00        -0.50074E+08
 
   -0.50090E+08         0.41641E+06         0.00000E+00
    0.41641E+06        -0.50272E+08         0.00000E+00
    0.00000E+00         0.00000E+00        -0.50072E+08
 
   -0.50077E+08         0.41717E+06         0.00000E+00
    0.41717E+06        -0.50278E+08         0.00000E+00
    0.00000E+00         0.00000E+00        -0.50071E+08
 
   -0.50694E+08         0.90132E+04         0.00000E+00
    0.90132E+04        -0.50000E+08         0.00000E+00
    0.00000E+00         0.00000E+00        -0.50139E+08
 
   -0.50691E+08         0.26406E+05         0.00000E+00
    0.26406E+05        -0.50000E+08         0.00000E+00
    0.00000E+00         0.00000E+00        -0.50138E+08
 
   -0.50687E+08         0.43491E+05         0.00000E+00
    0.43491E+05        -0.50001E+08         0.00000E+00
    0.00000E+00         0.00000E+00        -0.50138E+08
 
   -0.50682E+08         0.60241E+05         0.00000E+00
    0.60241E+05        -0.50003E+08         0.00000E+00
    0.00000E+00         0.00000E+00        -0.50137E+08
 
   -0.50676E+08         0.76634E+05         0.00000E+00
    0.76634E+05        -0.50005E+08         0.00000E+00
    0.00000E+00         0.00000E+00        -0.50136E+08
 
   -0.50669E+08         0.92648E+05         0.00000E+00
    0.92648E+05        -0.50007E+08         0.00000E+00
    0.00000E+00         0.00000E+00        -0.50135E+08
 
   -0.50662E+08         0.10826E+06         0.00000E+00
    0.10826E+06        -0.50010E+08         0.00000E+00
    0.00000E+00         0.00000E+00        -0.50134E+08
 
   -0.50653E+08         0.12346E+06         0.00000E+00
    0.12346E+06        -0.50013E+08         0.00000E+00
    0.00000E+00         0.00000E+00        -0.50133E+08
 
   -0.50644E+08         0.13823E+06         0.00000E+00
    0.13823E+06        -0.50017E+08         0.00000E+00
    0.00000E+00         0.00000E+00        -0.50132E+08
 
   -0.50635E+08         0.15256E+06         0.00000E+00
    0.15256E+06        -0.50020E+08         0.00000E+00
    0.00000E+00         0.00000E+00        -0.50131E+08
 
   -0.50624E+08         0.16643E+06         0.00000E+00
    0.16643E+06        -0.50024E+08         0.00000E+00
    0.00000E+00         0.00000E+00        -0.50130E+08
 
   -0.50613E+08         0.17984E+06         0.00000E+00
    0.17984E+06        -0.50029E+08         0.00000E+00
    0.00000E+00         0.00000E+00        -0.50128E+08
 
   -0.50602E+08         0.19278E+06         0.00000E+00
    0.19278E+06        -0.50034E+08         0.00000E+00
    0.00000E+00         0.00000E+00        -0.50127E+08
 
   -0.50590E+08         0.20524E+06         0.00000E+00
    0.20524E+06        -0.50039E+08         0.00000E+00
    0.00000E+00         0.00000E+00        -0.50126E+08
 
   -0.50577E+08         0.21722E+06         0.00000E+00
    0.21722E+06        -0.50044E+08         0.00000E+00
    0.00000E+00         0.00000E+00        -0.50124E+08
 
   -0.50564E+08         0.22872E+06         0.00000E+00
    0.22872E+06        -0.50049E+08         0.00000E+00
    0.00000E+00         0.00000E+00        -0.50123E+08
 
   -0.50551E+08         0.23974E+06         0.00000E+00
    0.23974E+06        -0.50055E+08         0.00000E+00
    0.00000E+00         0.00000E+00        -0.50121E+08
 
   -0.50537E+08         0.25027E+06         0.00000E+00
    0.25027E+06        -0.50060E+08         0.00000E+00
    0.00000E+00         0.00000E+00        -0.50120E+08
 
   -0.50524E+08         0.26032E+06         0.00000E+00
    0.26032E+06        -0.50066E+08         0.00000E+00
    0.00000E+00         0.00000E+00        -0.50118E+08
 
   -0.50509E+08         0.26990E+06         0.00000E+00
    0.26990E+06        -0.50072E+08         0.00000E+00
    0.00000E+00         0.00000E+00        -0.50116E+08
 
   -0.50495E+08         0.27900E+06         0.00000E+00
    0.27900E+06        -0.50078E+08         0.00000E+00
    0.00000E+00         0.00000E+00        -0.50115E+08
 
   -0.50480E+08         0.28763E+06         0.00000E+00
    0.28763E+06        -0.50085E+08         0.00000E+00
    0.00000E+00         0.00000E+00        -0.50113E+08
 
   -0.50465E+08         0.29580E+06         0.00000E+00
    0.29580E+06        -0.50091E+08         0.00000E+00
    0.00000E+00         0.00000E+00        -0.50111E+08
 
   -0.50450E+08         0.30352E+06         0.00000E+00
    0.30352E+06        -0.50098E+08         0.00000E+00
    0.00000E+00         0.00000E+00        -0.50110E+08
 
   -0.50435E+08         0.31079E+06         0.00000E+00
    0.31079E+06        -0.50104E+08         0.00000E+00
    0.00000E+00         0.00000E+00        -0.50108E+08
 
   -0.50420E+08         0.31763E+06         0.00000E+00
    0.31763E+06        -0.50111E+08         0.00000E+00
    0.00000E+00         0.00000E+00        -0.50106E+08
 
   -0.50404E+08         0.32405E+06         0.00000E+00
    0.32405E+06        -0.50117E+08         0.00000E+00
    0.00000E+00         0.00000E+00        -0.50104E+08
 
   -0.50389E+08         0.33005E+06         0.00000E+00
    0.33005E+06        -0.50124E+08         0.00000E+00
    0.00000E+00         0.00000E+00        -0.50103E+08
 
   -0.50373E+08         0.33566E+06         0.00000E+00
    0.33566E+06        -0.50130E+08         0.00000E+00
    0.00000E+00         0.00000E+00        -0.50101E+08
 
   -0.50358E+08         0.34088E+06         0.00000E+00
    0.34088E+06        -0.50137E+08         0.00000E+00
    0.00000E+00         0.00000E+00        -0.50099E+08
 
   -0.50343E+08         0.34572E+06         0.00000E+00
    0.34572E+06        -0.50144E+08         0.00000E+00
    0.00000E+00         0.00000E+00        -0.50097E+08
 
   -0.50327E+08         0.35020E+06         0.00000E+00
    0.35020E+06        -0.50150E+08         0.00000E+00
    0.00000E+00         0.00000E+00        -0.50096E+08
 
   -0.50312E+08         0.35435E+06         0.00000E+00
    0.35435E+06        -0.50157E+08         0.00000E+00
    0.00000E+00         0.00000E+00        -0.50094E+08
 
   -0.50297E+08         0.35816E+06         0.00000E+00
    0.35816E+06        -0.50163E+08         0.00000E+00
    0.00000E+00         0.00000E+00        -0.50092E+08
 
   -0.50282E+08         0.36166E+06         0.00000E+00
    0.36166E+06        -0.50170E+08         0.00000E+00
    0.00000E+00         0.00000E+00        -0.50090E+08
 
   -0.50267E+08         0.36487E+06         0.00000E+00
    0.36487E+06        -0.50176E+08         0.00000E+00
    0.00000E+00         0.00000E+00        -0.50089E+08
 
   -0.50252E+08         0.36779E+06         0.00000E+00
    0.36779E+06        -0.50183E+08         0.00000E+00
    0.00000E+00         0.00000E+00        -0.50087E+08
 
   -0.50237E+08         0.37046E+06         0.00000E+00
    0.37046E+06        -0.50189E+08         0.00000E+00
    0.00000E+00         0.00000E+00        -0.50085E+08
 
   -0.50223E+08         0.37288E+06         0.00000E+00
    0.37288E+06        -0.50195E+08         0.00000E+00
    0.00000E+00         0.00000E+00        -0.50084E+08
 
   -0.50208E+08         0.37508E+06         0.00000E+00
    0.37508E+06        -0.50201E+08         0.00000E+00
    0.00000E+00         0.00000E+00        -0.50082E+08
 
   -0.50194E+08         0.37707E+06         0.00000E+00
    0.37707E+06        -0.50208E+08         0.00000E+00
    0.00000E+00         0.00000E+00        -0.50080E+08
 
   -0.50180E+08         0.37887E+06         0.00000E+00
    0.37887E+06        -0.50214E+08         0.00000E+00
    0.00000E+00         0.00000E+00        -0.50079E+08
 
   -0.50166E+08         0.38050E+06         0.00000E+00
    0.38050E+06        -0.50220E+08         0.00000E+00
    0.00000E+00         0.00000E+00        -0.50077E+08
 
   -0.50152E+08         0.38198E+06         0.00000E+00
    0.38198E+06        -0.50226E+08         0.00000E+00
    0.00000E+00         0.00000E+00        -0.50076E+08
 
   -0.50138E+08         0.38332E+06         0.00000E+00
    0.38332E+06        -0.50232E+08         0.00000E+00
    0.00000E+00         0.00000E+00        -0.50074E+08
 
   -0.50125E+08         0.38455E+06         0.00000E+00
    0.38455E+06        -0.50238E+08         0.00000E+00
    0.00000E+00         0.00000E+00        -0.50072E+08
 
   -0.50111E+08         0.38568E+06         0.00000E+00
    0.38568E+06        -0.50243E+08         0.00000E+00
    0.00000E+00         0.00000E+00        -0.50071E+08
 
   -0.50098E+08         0.38673E+06         0.00000E+00
    0.38673E+06        -0.50249E+08         0.00000E+00
    0.00000E+00         0.00000E+00        -0.50069E+08
 
   -0.50085E+08         0.38772E+06         0.00000E+00
    0.38772E+06        -0.50255E+08         0.00000E+00
    0.00000E+00         0.00000E+00        -0.50068E+08
 
   -0.50072E+08         0.38867E+06         0.00000E+00
    0.38867E+06        -0.50261E+08         0.00000E+00
    0.00000E+00         0.00000E+00        -0.50067E+08
 
   -0.50613E+08         0.77531E+04         0.00000E+00
    0.77531E+04        -0.50000E+08         0.00000E+00
    0.00000E+00         0.00000E+00        -0.50123E+08
 
   -0.50611E+08         0.22834E+05         0.00000E+00
    0.22834E+05        -0.50000E+08         0.00000E+00
    0.00000E+00         0.00000E+00        -0.50122E+08
 
   -0.50608E+08         0.37699E+05         0.00000E+00
    0.37699E+05        -0.50001E+08         0.00000E+00
    0.00000E+00         0.00000E+00        -0.50122E+08
 
   -0.50604E+08         0.52325E+05         0.00000E+00
    0.52325E+05        -0.50002E+08         0.00000E+00
    0.00000E+00         0.00000E+00        -0.50121E+08
 
   -0.50600E+08         0.66688E+05         0.00000E+00
    0.66688E+05        -0.50004E+08         0.00000E+00
    0.00000E+00         0.00000E+00        -0.50121E+08
 
   -0.50595E+08         0.80769E+05         0.00000E+00
    0.80769E+05        -0.50006E+08         0.00000E+00
    0.00000E+00         0.00000E+00        -0.50120E+08
 
   -0.50589E+08         0.94549E+05         0.00000E+00
    0.94549E+05        -0.50009E+08         0.00000E+00
    0.00000E+00         0.00000E+00        -0.50120E+08
 
   -0.50583E+08         0.10801E+06         0.00000E+00
    0.10801E+06        -0.50011E+08         0.00000E+00
    0.00000E+00         0.00000E+00        -0.50119E+08
 
   -0.50576E+08         0.12114E+06         0.00000E+00
    0.12114E+06        -0.50014E+08         0.00000E+00
    0.00000E+00         0.00000E+00        -0.50118E+08
 
   -0.50568E+08         0.13392E+06         0.00000E+00
    0.13392E+06        -0.50018E+08         0.00000E+00
    0.00000E+00         0.00000E+00        -0.50117E+08
 
   -0.50560E+08         0.14635E+06         0.00000E+00
    0.14635E+06        -0.50021E+08         0.00000E+00
    0.00000E+00         0.00000E+00        -0.50116E+08
 
   -0.50551E+08         0.15841E+06         0.00000E+00
    0.15841E+06        -0.50025E+08         0.00000E+00
    0.00000E+00         0.00000E+00        -0.50115E+08
 
   -0.50541E+08         0.17009E+06         0.00000E+00
    0.17009E+06        -0.50029E+08         0.00000E+00
    0.00000E+00         0.00000E+00        -0.50114E+08
 
   -0.50532E+08         0.18138E+06         0.00000E+00
    0.18138E+06        -0.50034E+08         0.00000E+00
    0.00000E+00         0.00000E+00        -0.50113E+08
 
   -0.50521E+08         0.19229E+06         0.00000E+00
    0.19229E+06        -0.50038E+08         0.00000E+00
    0.00000E+00         0.00000E+00        -0.50112E+08
 
   -0.50511E+08         0.20280E+06         0.00000E+00
    0.20280E+06        -0.50043E+08         0.00000E+00
    0.00000E+00         0.00000E+00        -0.50111E+08
 
   -0.50499E+08         0.21292E+06         0.00000E+00
    0.21292E+06        -0.50048E+08         0.00000E+00
    0.00000E+00         0.00000E+00        -0.50110E+08
 
   -0.50488E+08         0.22264E+06         0.00000E+00
    0.22264E+06        -0.50053E+08         0.00000E+00
    0.00000E+00         0.00000E+00        -0.50108E+08
 
   -0.50476E+08         0.23196E+06         0.00000E+00
    0.23196E+06        -0.50059E+08         0.00000E+00
    0.00000E+00         0.00000E+00        -0.50107E+08
 
   -0.50464E+08         0.24087E+06         0.00000E+00
    0.24087E+06        -0.50064E+08         0.00000E+00
    0.00000E+00         0.00000E+00        -0.50106E+08
 
   -0.50452E+08         0.24940E+06         0.00000E+00
    0.24940E+06        -0.50070E+08         0.00000E+00
    0.00000E+00         0.00000E+00        -0.50104E+08
 
   -0.50439E+08         0.25752E+06         0.00000E+00
    0.25752E+06        -0.50075E+08         0.00000E+00
    0.00000E+00         0.00000E+00        -0.50103E+08
 
   -0.50426E+08         0.26526E+06         0.00000E+00
    0.26526E+06        -0.50081E+08         0.00000E+00
    0.00000E+00         0.00000E+00        -0.50102E+08
 
   -0.50413E+08         0.27261E+06         0.00000E+00
    0.27261E+06        -0.50087E+08         0.00000E+00
    0.00000E+00         0.00000E+00        -0.50100E+08
 
   -0.50400E+08         0.27959E+06         0.00000E+00
    0.27959E+06        -0.50093E+08         0.00000E+00
    0.00000E+00         0.00000E+00        -0.50099E+08
 
   -0.50387E+08         0.28619E+06         0.00000E+00
    0.28619E+06        -0.50099E+08         0.00000E+00
    0.00000E+00         0.00000E+00        -0.50097E+08
 
   -0.50374E+08         0.29242E+06         0.00000E+00
    0.29242E+06        -0.50105E+08         0.00000E+00
    0.00000E+00         0.00000E+00        -0.50096E+08
 
   -0.50360E+08         0.29830E+06         0.00000E+00
    0.29830E+06        -0.50111E+08         0.00000E+00
    0.00000E+00         0.00000E+00        -0.50094E+08
 
   -0.50347E+08         0.30382E+06         0.00000E+00
    0.30382E+06        -0.50117E+08         0.00000E+00
    0.00000E+00         0.00000E+00        -0.50093E+08
 
   -0.50333E+08         0.30901E+06         0.00000E+00
    0.30901E+06        -0.50123E+08         0.00000E+00
    0.00000E+00         0.00000E+00        -0.50091E+08
 
   -0.50319E+08         0.31387E+06         0.00000E+00
    0.31387E+06        -0.50130E+08         0.00000E+00
    0.00000E+00         0.00000E+00        -0.50090E+08
 
   -0.50306E+08         0.31841E+06         0.00000E+00
    0.31841E+06        -0.50136E+08         0.00000E+00
    0.00000E+00         0.00000E+00        -0.50088E+08
 
   -0.50292E+08         0.32265E+06         0.00000E+00
    0.32265E+06        -0.50142E+08         0.00000E+00
    0.00000E+00         0.00000E+00        -0.50087E+08
 
   -0.50278E+08         0.32659E+06         0.00000E+00
    0.32659E+06        -0.50148E+08         0.00000E+00
    0.00000E+00         0.00000E+00        -0.50085E+08
 
   -0.50265E+08         0.33025E+06         0.00000E+00
    0.33025E+06        -0.50154E+08         0.00000E+00
    0.00000E+00         0.00000E+00        -0.50084E+08
 
   -0.50251E+08         0.33364E+06         0.00000E+00
    0.33364E+06        -0.50160E+08         0.00000E+00
    0.00000E+00         0.00000E+00        -0.50082E+08
 
   -0.50237E+08         0.33677E+06         0.00000E+00
    0.33677E+06        -0.50166E+08         0.00000E+00
    0.00000E+00         0.00000E+00        -0.50081E+08
 
   -0.50224E+08         0.33966E+06         0.00000E+00
    0.33966E+06        -0.50172E+08         0.00000E+00
    0.00000E+00         0.00000E+00        -0.50079E+08
 
   -0.50210E+08         0.34231E+06         0.00000E+00
    0.34231E+06        -0.50178E+08         0.00000E+00
    0.00000E+00         0.00000E+00        -0.50078E+08
 
   -0.50197E+08         0.34476E+06         0.00000E+00
    0.34476E+06        -0.50184E+08         0.00000E+00
    0.00000E+00         0.00000E+00        -0.50076E+08
 
   -0.50184E+08         0.34700E+06         0.00000E+00
    0.34700E+06        -0.50190E+08         0.00000E+00
    0.00000E+00         0.00000E+00        -0.50075E+08
 
   -0.50170E+08         0.34905E+06         0.00000E+00
    0.34905E+06        -0.50196E+08         0.00000E+00
    0.00000E+00         0.00000E+00        -0.50073E+08
 
   -0.50157E+08         0.35093E+06         0.00000E+00
    0.35093E+06        -0.50202E+08         0.00000E+00
    0.00000E+00         0.00000E+00        -0.50072E+08
 
   -0.50144E+08         0.35265E+06         0.00000E+00
    0.35265E+06        -0.50207E+08         0.00000E+00
    0.00000E+00         0.00000E+00        -0.50070E+08
 
   -0.50131E+08         0.35422E+06         0.00000E+00
    0.35422E+06        -0.50213E+08         0.00000E+00
    0.00000E+00         0.00000E+00        -0.50069E+08
 
   -0.50118E+08         0.35566E+06         0.00000E+00
    0.35566E+06        -0.50219E+08         0.00000E+00
    0.00000E+00         0.00000E+00        -0.50067E+08
 
   -0.50106E+08         0.35699E+06         0.00000E+00
    0.35699E+06        -0.50225E+08         0.00000E+00
    0.00000E+00         0.00000E+00        -0.50066E+08
 
   -0.50093E+08         0.35821E+06         0.00000E+00
    0.35821E+06        -0.50230E+08         0.00000E+00
    0.00000E+00         0.00000E+00        -0.50065E+08
 
   -0.50080E+08         0.35933E+06         0.00000E+00
    0.35933E+06        -0.50236E+08         0.00000E+00
    0.00000E+00         0.00000E+00        -0.50063E+08
 
   -0.50067E+08         0.36038E+06         0.00000E+00
    0.36038E+06        -0.50241E+08         0.00000E+00
    0.00000E+00         0.00000E+00        -0.50062E+08
 
   -0.50542E+08         0.66827E+04         0.00000E+00
    0.66827E+04        -0.50000E+08         0.00000E+00
    0.00000E+00         0.00000E+00        -0.50108E+08
 
   -0.50541E+08         0.19775E+05         0.00000E+00
    0.19775E+05        -0.50000E+08         0.00000E+00
    0.00000E+00         0.00000E+00        -0.50108E+08
 
   -0.50539E+08         0.32720E+05         0.00000E+00
    0.32720E+05        -0.50001E+08         0.00000E+00
    0.00000E+00         0.00000E+00        -0.50108E+08
 
   -0.50537E+08         0.45496E+05         0.00000E+00
    0.45496E+05        -0.50002E+08         0.00000E+00
    0.00000E+00         0.00000E+00        -0.50108E+08
 
   -0.50533E+08         0.58083E+05         0.00000E+00
    0.58083E+05        -0.50004E+08         0.00000E+00
    0.00000E+00         0.00000E+00        -0.50107E+08
 
   -0.50530E+08         0.70463E+05         0.00000E+00
    0.70463E+05        -0.50005E+08         0.00000E+00
    0.00000E+00         0.00000E+00        -0.50107E+08
 
   -0.50525E+08         0.82617E+05         0.00000E+00
    0.82617E+05        -0.50007E+08         0.00000E+00
    0.00000E+00         0.00000E+00        -0.50107E+08
 
   -0.50520E+08         0.94531E+05         0.00000E+00
    0.94531E+05        -0.50010E+08         0.00000E+00
    0.00000E+00         0.00000E+00        -0.50106E+08
 
   -0.50515E+08         0.10619E+06         0.00000E+00
    0.10619E+06        -0.50012E+08         0.00000E+00
    0.00000E+00         0.00000E+00        -0.50105E+08
 
   -0.50508E+08         0.11758E+06         0.00000E+00
    0.11758E+06        -0.50015E+08         0.00000E+00
    0.00000E+00         0.00000E+00        -0.50105E+08
 
   -0.50502E+08         0.12869E+06         0.00000E+00
    0.12869E+06        -0.50019E+08         0.00000E+00
    0.00000E+00         0.00000E+00        -0.50104E+08
 
   -0.50494E+08         0.13951E+06         0.00000E+00
    0.13951E+06        -0.50022E+08         0.00000E+00
    0.00000E+00         0.00000E+00        -0.50103E+08
 
   -0.50487E+08         0.15003E+06         0.00000E+00
    0.15003E+06        -0.50026E+08         0.00000E+00
    0.00000E+00         0.00000E+00        -0.50102E+08
 
   -0.50479E+08         0.16024E+06         0.00000E+00
    0.16024E+06        -0.50029E+08         0.00000E+00
    0.00000E+00         0.00000E+00        -0.50102E+08
 
   -0.50470E+08         0.17014E+06         0.00000E+00
    0.17014E+06        -0.50034E+08         0.00000E+00
    0.00000E+00         0.00000E+00        -0.50101E+08
 
   -0.50461E+08         0.17972E+06         0.00000E+00
    0.17972E+06        -0.50038E+08         0.00000E+00
    0.00000E+00         0.00000E+00        -0.50100E+08
 
   -0.50452E+08         0.18897E+06         0.00000E+00
    0.18897E+06        -0.50042E+08         0.00000E+00
    0.00000E+00         0.00000E+00        -0.50099E+08
 
   -0.50442E+08         0.19790E+06         0.00000E+00
    0.19790E+06        -0.50047E+08         0.00000E+00
    0.00000E+00         0.00000E+00        -0.50098E+08
 
   -0.50432E+08         0.20650E+06         0.00000E+00
    0.20650E+06        -0.50052E+08         0.00000E+00
    0.00000E+00         0.00000E+00        -0.50097E+08
 
   -0.50422E+08         0.21476E+06         0.00000E+00
    0.21476E+06        -0.50056E+08         0.00000E+00
    0.00000E+00         0.00000E+00        -0.50096E+08
 
   -0.50412E+08         0.22270E+06         0.00000E+00
    0.22270E+06        -0.50061E+08         0.00000E+00
    0.00000E+00         0.00000E+00        -0.50095E+08
 
   -0.50401E+08         0.23030E+06         0.00000E+00
    0.23030E+06        -0.50067E+08         0.00000E+00
    0.00000E+00         0.00000E+00        -0.50093E+08
 
   -0.50390E+08         0.23758E+06         0.00000E+00
    0.23758E+06        -0.50072E+08         0.00000E+00
    0.00000E+00         0.00000E+00        -0.50092E+08
 
   -0.50379E+08         0.24453E+06         0.00000E+00
    0.24453E+06        -0.50077E+08         0.00000E+00
    0.00000E+00         0.00000E+00        -0.50091E+08
 
   -0.50367E+08         0.25115E+06         0.00000E+00
    0.25115E+06        -0.50082E+08         0.00000E+00
    0.00000E+00         0.00000E+00        -0.50090E+08
 
   -0.50356E+08         0.25746E+06         0.00000E+00
    0.25746E+06        -0.50088E+08         0.00000E+00
    0.00000E+00         0.00000E+00        -0.50089E+08
 
   -0.50344E+08         0.26345E+06         0.00000E+00
    0.26345E+06        -0.50093E+08         0.00000E+00
    0.00000E+00         0.00000E+00        -0.50087E+08
 
   -0.50332E+08         0.26913E+06         0.00000E+00
    0.26913E+06        -0.50099E+08         0.00000E+00
    0.00000E+00         0.00000E+00        -0.50086E+08
 
   -0.50320E+08         0.27451E+06         0.00000E+00
    0.27451E+06        -0.50105E+08         0.00000E+00
    0.00000E+00         0.00000E+00        -0.50085E+08
 
   -0.50308E+08         0.27959E+06         0.00000E+00
    0.27959E+06        -0.50110E+08         0.00000E+00
    0.00000E+00         0.00000E+00        -0.50084E+08
 
   -0.50296E+08         0.28439E+06         0.00000E+00
    0.28439E+06        -0.50116E+08         0.00000E+00
    0.00000E+00         0.00000E+00        -0.50082E+08
 
   -0.50284E+08         0.28890E+06         0.00000E+00
    0.28890E+06        -0.50122E+08         0.00000E+00
    0.00000E+00         0.00000E+00        -0.50081E+08
 
   -0.50271E+08         0.29314E+06         0.00000E+00
    0.29314E+06        -0.50127E+08         0.00000E+00
    0.00000E+00         0.00000E+00        -0.50080E+08
 
   -0.50259E+08         0.29712E+06         0.00000E+00
    0.29712E+06        -0.50133E+08         0.00000E+00
    0.00000E+00         0.00000E+00        -0.50078E+08
 
   -0.50247E+08         0.30084E+06         0.00000E+00
    0.30084E+06        -0.50139E+08         0.00000E+00
    0.00000E+00         0.00000E+00        -0.50077E+08
 
   -0.50234E+08         0.30431E+06         0.00000E+00
    0.30431E+06        -0.50144E+08         0.00000E+00
    0.00000E+00         0.00000E+00        -0.50076E+08
 
   -0.50222E+08         0.30755E+06         0.00000E+00
    0.30755E+06        -0.50150E+08         0.00000E+00
    0.00000E+00         0.00000E+00        -0.50074E+08
 
   -0.50210E+08         0.31056E+06         0.00000E+00
    0.31056E+06        -0.50156E+08         0.00000E+00
    0.00000E+00         0.00000E+00        -0.50073E+08
 
   -0.50197E+08         0.31336E+06         0.00000E+00
    0.31336E+06        -0.50161E+08         0.00000E+00
    0.00000E+00         0.00000E+00        -0.50072E+08
 
   -0.50185E+08         0.31595E+06         0.00000E+00
    0.31595E+06        -0.50167E+08         0.00000E+00
    0.00000E+00         0.00000E+00        -0.50070E+08
 
   -0.50173E+08         0.31834E+06         0.00000E+00
    0.31834E+06        -0.50172E+08         0.00000E+00
    0.00000E+00         0.00000E+00        -0.50069E+08
 
   -0.50160E+08         0.32055E+06         0.00000E+00
    0.32055E+06        -0.50178E+08         0.00000E+00
    0.00000E+00         0.00000E+00        -0.50068E+08
 
   -0.50148E+08         0.32259E+06         0.00000E+00
    0.32259E+06        -0.50183E+08         0.00000E+00
    0.00000E+00         0.00000E+00        -0.50066E+08
 
   -0.50136E+08         0.32445E+06         0.00000E+00
    0.32445E+06        -0.50189E+08         0.00000E+00
    0.00000E+00         0.00000E+00        -0.50065E+08
 
   -0.50123E+08         0.32617E+06         0.00000E+00
    0.32617E+06        -0.50194E+08         0.00000E+00
    0.00000E+00         0.00000E+00        -0.50064E+08
 
   -0.50111E+08         0.32774E+06         0.00000E+00
    0.32774E+06        -0.50200E+08         0.00000E+00
    0.00000E+00         0.00000E+00        -0.50062E+08
 
   -0.50099E+08         0.32918E+06         0.00000E+00
    0.32918E+06        -0.50205E+08         0.00000E+00
    0.00000E+00         0.00000E+00        -0.50061E+08
 
   -0.50087E+08         0.33049E+06         0.00000E+00
    0.33049E+06        -0.50211E+08         0.00000E+00
    0.00000E+00         0.00000E+00        -0.50059E+08
 
   -0.50074E+08         0.33169E+06         0.00000E+00
    0.33169E+06        -0.50216E+08         0.00000E+00
    0.00000E+00         0.00000E+00        -0.50058E+08
 
   -0.50062E+08         0.33278E+06         0.00000E+00
    0.33278E+06        -0.50222E+08         0.00000E+00
    0.00000E+00         0.00000E+00        -0.50057E+08
 
   -0.50481E+08         0.57784E+04         0.00000E+00
    0.57784E+04        -0.50000E+08         0.00000E+00
    0.00000E+00         0.00000E+00        -0.50096E+08
 
   -0.50480E+08         0.17170E+05         0.00000E+00
    0.17170E+05        -0.50000E+08         0.00000E+00
    0.00000E+00         0.00000E+00        -0.50096E+08
 
   -0.50479E+08         0.28464E+05         0.00000E+00
    0.28464E+05        -0.50001E+08         0.00000E+00
    0.00000E+00         0.00000E+00        -0.50096E+08
 
   -0.50477E+08         0.39643E+05         0.00000E+00
    0.39643E+05        -0.50002E+08         0.00000E+00
    0.00000E+00         0.00000E+00        -0.50096E+08
 
   -0.50475E+08         0.50687E+05         0.00000E+00
    0.50687E+05        -0.50003E+08         0.00000E+00
    0.00000E+00         0.00000E+00        -0.50096E+08
 
   -0.50472E+08         0.61580E+05         0.00000E+00
    0.61580E+05        -0.50005E+08         0.00000E+00
    0.00000E+00         0.00000E+00        -0.50095E+08
 
   -0.50469E+08         0.72307E+05         0.00000E+00
    0.72307E+05        -0.50006E+08         0.00000E+00
    0.00000E+00         0.00000E+00        -0.50095E+08
 
   -0.50465E+08         0.82853E+05         0.00000E+00
    0.82853E+05        -0.50008E+08         0.00000E+00
    0.00000E+00         0.00000E+00        -0.50095E+08
 
   -0.50460E+08         0.93204E+05         0.00000E+00
    0.93204E+05        -0.50011E+08         0.00000E+00
    0.00000E+00         0.00000E+00        -0.50094E+08
 
   -0.50455E+08         0.10335E+06         0.00000E+00
    0.10335E+06        -0.50013E+08         0.00000E+00
    0.00000E+00         0.00000E+00        -0.50094E+08
 
   -0.50450E+08         0.11328E+06         0.00000E+00
    0.11328E+06        -0.50016E+08         0.00000E+00
    0.00000E+00         0.00000E+00        -0.50093E+08
 
   -0.50444E+08         0.12297E+06         0.00000E+00
    0.12297E+06        -0.50019E+08         0.00000E+00
    0.00000E+00         0.00000E+00        -0.50093E+08
 
   -0.50438E+08         0.13244E+06         0.00000E+00
    0.13244E+06        -0.50022E+08         0.00000E+00
    0.00000E+00         0.00000E+00        -0.50092E+08
 
   -0.50431E+08         0.14165E+06         0.00000E+00
    0.14165E+06        -0.50026E+08         0.00000E+00
    0.00000E+00         0.00000E+00        -0.50091E+08
 
   -0.50424E+08         0.15061E+06         0.00000E+00
    0.15061E+06        -0.50029E+08         0.00000E+00
    0.00000E+00         0.00000E+00        -0.50091E+08
 
   -0.50416E+08         0.15932E+06         0.00000E+00
    0.15932E+06        -0.50033E+08         0.00000E+00
    0.00000E+00         0.00000E+00        -0.50090E+08
 
   -0.50408E+08         0.16776E+06         0.00000E+00
    0.16776E+06        -0.50037E+08         0.00000E+00
    0.00000E+00         0.00000E+00        -0.50089E+08
 
   -0.50400E+08         0.17593E+06         0.00000E+00
    0.17593E+06        -0.50041E+08         0.00000E+00
    0.00000E+00         0.00000E+00        -0.50088E+08
 
   -0.50392E+08         0.18383E+06         0.00000E+00
    0.18383E+06        -0.50045E+08         0.00000E+00
    0.00000E+00         0.00000E+00        -0.50087E+08
 
   -0.50383E+08         0.19146E+06         0.00000E+00
    0.19146E+06        -0.50049E+08         0.00000E+00
    0.00000E+00         0.00000E+00        -0.50086E+08
 
   -0.50374E+08         0.19881E+06         0.00000E+00
    0.19881E+06        -0.50054E+08         0.00000E+00
    0.00000E+00         0.00000E+00        -0.50086E+08
 
   -0.50365E+08         0.20589E+06         0.00000E+00
    0.20589E+06        -0.50058E+08         0.00000E+00
    0.00000E+00         0.00000E+00        -0.50085E+08
 
   -0.50355E+08         0.21269E+06         0.00000E+00
    0.21269E+06        -0.50063E+08         0.00000E+00
    0.00000E+00         0.00000E+00        -0.50084E+08
 
   -0.50346E+08         0.21921E+06         0.00000E+00
    0.21921E+06        -0.50068E+08         0.00000E+00
    0.00000E+00         0.00000E+00        -0.50083E+08
 
   -0.50336E+08         0.22546E+06         0.00000E+00
    0.22546E+06        -0.50073E+08         0.00000E+00
    0.00000E+00         0.00000E+00        -0.50082E+08
 
   -0.50326E+08         0.23143E+06         0.00000E+00
    0.23143E+06        -0.50078E+08         0.00000E+00
    0.00000E+00         0.00000E+00        -0.50081E+08
 
   -0.50315E+08         0.23714E+06         0.00000E+00
    0.23714E+06        -0.50083E+08         0.00000E+00
    0.00000E+00         0.00000E+00        -0.50080E+08
 
   -0.50305E+08         0.24258E+06         0.00000E+00
    0.24258E+06        -0.50088E+08         0.00000E+00
    0.00000E+00         0.00000E+00        -0.50078E+08
 
   -0.50294E+08         0.24775E+06         0.00000E+00
    0.24775E+06        -0.50093E+08         0.00000E+00
    0.00000E+00         0.00000E+00        -0.50077E+08
 
   -0.50284E+08         0.25267E+06         0.00000E+00
    0.25267E+06        -0.50098E+08         0.00000E+00
    0.00000E+00         0.00000E+00        -0.50076E+08
 
   -0.50273E+08         0.25733E+06         0.00000E+00
    0.25733E+06        -0.50103E+08         0.00000E+00
    0.00000E+00         0.00000E+00        -0.50075E+08
 
   -0.50262E+08         0.26175E+06         0.00000E+00
    0.26175E+06        -0.50108E+08         0.00000E+00
    0.00000E+00         0.00000E+00        -0.50074E+08
 
   -0.50251E+08         0.26592E+06         0.00000E+00
    0.26592E+06        -0.50113E+08         0.00000E+00
    0.00000E+00         0.00000E+00        -0.50073E+08
 
   -0.50240E+08         0.26985E+06         0.00000E+00
    0.26985E+06        -0.50119E+08         0.00000E+00
    0.00000E+00         0.00000E+00        -0.50072E+08
 
   -0.50229E+08         0.27356E+06         0.00000E+00
    0.27356E+06        -0.50124E+08         0.00000E+00
    0.00000E+00         0.00000E+00        -0.50070E+08
 
   -0.50217E+08         0.27704E+06         0.00000E+00
    0.27704E+06        -0.50129E+08         0.00000E+00
    0.00000E+00         0.00000E+00        -0.50069E+08
 
   -0.50206E+08         0.28030E+06         0.00000E+00
    0.28030E+06        -0.50134E+08         0.00000E+00
    0.00000E+00         0.00000E+00        -0.50068E+08
 
   -0.50195E+08         0.28335E+06         0.00000E+00
    0.28335E+06        -0.50140E+08         0.00000E+00
    0.00000E+00         0.00000E+00        -0.50067E+08
 
   -0.50184E+08         0.28620E+06         0.00000E+00
    0.28620E+06        -0.50145E+08         0.00000E+00
    0.00000E+00         0.00000E+00        -0.50066E+08
 
   -0.50172E+08         0.28885E+06         0.00000E+00
    0.28885E+06        -0.50150E+08         0.00000E+00
    0.00000E+00         0.00000E+00        -0.50064E+08
 
   -0.50161E+08         0.29132E+06         0.00000E+00
    0.29132E+06        -0.50155E+08         0.00000E+00
    0.00000E+00         0.00000E+00        -0.50063E+08
 
   -0.50149E+08         0.29360E+06         0.00000E+00
    0.29360E+06        -0.50160E+08         0.00000E+00
    0.00000E+00         0.00000E+00        -0.50062E+08
 
   -0.50138E+08         0.29571E+06         0.00000E+00
    0.29571E+06        -0.50166E+08         0.00000E+00
    0.00000E+00         0.00000E+00        -0.50061E+08
 
   -0.50126E+08         0.29765E+06         0.00000E+00
    0.29765E+06        -0.50171E+08         0.00000E+00
    0.00000E+00         0.00000E+00        -0.50059E+08
 
   -0.50115E+08         0.29944E+06         0.00000E+00
    0.29944E+06        -0.50176E+08         0.00000E+00
    0.00000E+00         0.00000E+00        -0.50058E+08
 
   -0.50103E+08         0.30107E+06         0.00000E+00
    0.30107E+06        -0.50181E+08         0.00000E+00
    0.00000E+00         0.00000E+00        -0.50057E+08
 
   -0.50092E+08         0.30256E+06         0.00000E+00
    0.30256E+06        -0.50187E+08         0.00000E+00
    0.00000E+00         0.00000E+00        -0.50056E+08
 
   -0.50080E+08         0.30391E+06         0.00000E+00
    0.30391E+06        -0.50192E+08         0.00000E+00
    0.00000E+00         0.00000E+00        -0.50054E+08
 
   -0.50069E+08         0.30513E+06         0.00000E+00
    0.30513E+06        -0.50197E+08         0.00000E+00
    0.00000E+00         0.00000E+00        -0.50053E+08
 
   -0.50057E+08         0.30622E+06         0.00000E+00
    0.30622E+06        -0.50202E+08         0.00000E+00
    0.00000E+00         0.00000E+00        -0.50052E+08
 
   -0.50427E+08         0.50168E+04         0.00000E+00
    0.50168E+04        -0.50000E+08         0.00000E+00
    0.00000E+00         0.00000E+00        -0.50085E+08
 
   -0.50427E+08         0.14960E+05         0.00000E+00
    0.14960E+05        -0.50000E+08         0.00000E+00
    0.00000E+00         0.00000E+00        -0.50085E+08
 
   -0.50426E+08         0.24842E+05         0.00000E+00
    0.24842E+05        -0.50001E+08         0.00000E+00
    0.00000E+00         0.00000E+00        -0.50085E+08
 
   -0.50425E+08         0.34646E+05         0.00000E+00
    0.34646E+05        -0.50002E+08         0.00000E+00
    0.00000E+00         0.00000E+00        -0.50085E+08
 
   -0.50423E+08         0.44357E+05         0.00000E+00
    0.44357E+05        -0.50003E+08         0.00000E+00
    0.00000E+00         0.00000E+00        -0.50085E+08
 
   -0.50421E+08         0.53959E+05         0.00000E+00
    0.53959E+05        -0.50004E+08         0.00000E+00
    0.00000E+00         0.00000E+00        -0.50085E+08
 
   -0.50419E+08         0.63439E+05         0.00000E+00
    0.63439E+05        -0.50005E+08         0.00000E+00
    0.00000E+00         0.00000E+00        -0.50085E+08
 
   -0.50415E+08         0.72784E+05         0.00000E+00
    0.72784E+05        -0.50007E+08         0.00000E+00
    0.00000E+00         0.00000E+00        -0.50085E+08
 
   -0.50412E+08         0.81982E+05         0.00000E+00
    0.81982E+05        -0.50009E+08         0.00000E+00
    0.00000E+00         0.00000E+00        -0.50084E+08
 
   -0.50408E+08         0.91020E+05         0.00000E+00
    0.91020E+05        -0.50011E+08         0.00000E+00
    0.00000E+00         0.00000E+00        -0.50084E+08
 
   -0.50403E+08         0.99890E+05         0.00000E+00
    0.99890E+05        -0.50014E+08         0.00000E+00
    0.00000E+00         0.00000E+00        -0.50083E+08
 
   -0.50398E+08         0.10858E+06         0.00000E+00
    0.10858E+06        -0.50016E+08         0.00000E+00
    0.00000E+00         0.00000E+00        -0.50083E+08
 
   -0.50393E+08         0.11708E+06         0.00000E+00
    0.11708E+06        -0.50019E+08         0.00000E+00
    0.00000E+00         0.00000E+00        -0.50082E+08
 
   -0.50388E+08         0.12539E+06         0.00000E+00
    0.12539E+06        -0.50022E+08         0.00000E+00
    0.00000E+00         0.00000E+00        -0.50082E+08
 
   -0.50382E+08         0.13350E+06         0.00000E+00
    0.13350E+06        -0.50025E+08         0.00000E+00
    0.00000E+00         0.00000E+00        -0.50081E+08
 
   -0.50375E+08         0.14139E+06         0.00000E+00
    0.14139E+06        -0.50028E+08         0.00000E+00
    0.00000E+00         0.00000E+00        -0.50081E+08
 
   -0.50369E+08         0.14907E+06         0.00000E+00
    0.14907E+06        -0.50032E+08         0.00000E+00
    0.00000E+00         0.00000E+00        -0.50080E+08
 
   -0.50362E+08         0.15654E+06         0.00000E+00
    0.15654E+06        -0.50035E+08         0.00000E+00
    0.00000E+00         0.00000E+00        -0.50079E+08
 
   -0.50355E+08         0.16378E+06         0.00000E+00
    0.16378E+06        -0.50039E+08         0.00000E+00
    0.00000E+00         0.00000E+00        -0.50079E+08
 
   -0.50347E+08         0.17079E+06         0.00000E+00
    0.17079E+06        -0.50043E+08         0.00000E+00
    0.00000E+00         0.00000E+00        -0.50078E+08
 
   -0.50339E+08         0.17757E+06         0.00000E+00
    0.17757E+06        -0.50047E+08         0.00000E+00
    0.00000E+00         0.00000E+00        -0.50077E+08
 
   -0.50331E+08         0.18412E+06         0.00000E+00
    0.18412E+06        -0.50051E+08         0.00000E+00
    0.00000E+00         0.00000E+00        -0.50076E+08
 
   -0.50323E+08         0.19044E+06         0.00000E+00
    0.19044E+06        -0.50055E+08         0.00000E+00
    0.00000E+00         0.00000E+00        -0.50076E+08
 
   -0.50315E+08         0.19653E+06         0.00000E+00
    0.19653E+06        -0.50059E+08         0.00000E+00
    0.00000E+00         0.00000E+00        -0.50075E+08
 
   -0.50306E+08         0.20238E+06         0.00000E+00
    0.20238E+06        -0.50064E+08         0.00000E+00
    0.00000E+00         0.00000E+00        -0.50074E+08
 
   -0.50297E+08         0.20801E+06         0.00000E+00
    0.20801E+06        -0.50068E+08         0.00000E+00
    0.00000E+00         0.00000E+00        -0.50073E+08
 
   -0.50288E+08         0.21339E+06         0.00000E+00
    0.21339E+06        -0.50073E+08         0.00000E+00
    0.00000E+00         0.00000E+00        -0.50072E+08
 
   -0.50279E+08         0.21855E+06         0.00000E+00
    0.21855E+06        -0.50077E+08         0.00000E+00
    0.00000E+00         0.00000E+00        -0.50071E+08
 
   -0.50270E+08         0.22348E+06         0.00000E+00
    0.22348E+06        -0.50082E+08         0.00000E+00
    0.00000E+00         0.00000E+00        -0.50070E+08
 
   -0.50260E+08         0.22819E+06         0.00000E+00
    0.22819E+06        -0.50086E+08         0.00000E+00
    0.00000E+00         0.00000E+00        -0.50069E+08
 
   -0.50251E+08         0.23267E+06         0.00000E+00
    0.23267E+06        -0.50091E+08         0.00000E+00
    0.00000E+00         0.00000E+00        -0.50068E+08
 
   -0.50241E+08         0.23693E+06         0.00000E+00
    0.23693E+06        -0.50096E+08         0.00000E+00
    0.00000E+00         0.00000E+00        -0.50067E+08
 
   -0.50231E+08         0.24097E+06         0.00000E+00
    0.24097E+06        -0.50101E+08         0.00000E+00
    0.00000E+00         0.00000E+00        -0.50066E+08
 
   -0.50221E+08         0.24481E+06         0.00000E+00
    0.24481E+06        -0.50105E+08         0.00000E+00
    0.00000E+00         0.00000E+00        -0.50065E+08
 
   -0.50211E+08         0.24843E+06         0.00000E+00
    0.24843E+06        -0.50110E+08         0.00000E+00
    0.00000E+00         0.00000E+00        -0.50064E+08
 
   -0.50201E+08         0.25185E+06         0.00000E+00
    0.25185E+06        -0.50115E+08         0.00000E+00
    0.00000E+00         0.00000E+00        -0.50063E+08
 
   -0.50191E+08         0.25507E+06         0.00000E+00
    0.25507E+06        -0.50120E+08         0.00000E+00
    0.00000E+00         0.00000E+00        -0.50062E+08
 
   -0.50180E+08         0.25809E+06         0.00000E+00
    0.25809E+06        -0.50125E+08         0.00000E+00
    0.00000E+00         0.00000E+00        -0.50061E+08
 
   -0.50170E+08         0.26093E+06         0.00000E+00
    0.26093E+06        -0.50129E+08         0.00000E+00
    0.00000E+00         0.00000E+00        -0.50060E+08
 
   -0.50159E+08         0.26358E+06         0.00000E+00
    0.26358E+06        -0.50134E+08         0.00000E+00
    0.00000E+00         0.00000E+00        -0.50059E+08
 
   -0.50149E+08         0.26605E+06         0.00000E+00
    0.26605E+06        -0.50139E+08         0.00000E+00
    0.00000E+00         0.00000E+00        -0.50058E+08
 
   -0.50138E+08         0.26834E+06         0.00000E+00
    0.26834E+06        -0.50144E+08         0.00000E+00
    0.00000E+00         0.00000E+00        -0.50056E+08
 
   -0.50128E+08         0.27046E+06         0.00000E+00
    0.27046E+06        -0.50149E+08         0.00000E+00
    0.00000E+00         0.00000E+00        -0.50055E+08
 
   -0.50117E+08         0.27242E+06         0.00000E+00
    0.27242E+06        -0.50154E+08         0.00000E+00
    0.00000E+00         0.00000E+00        -0.50054E+08
 
   -0.50106E+08         0.27422E+06         0.00000E+00
    0.27422E+06        -0.50159E+08         0.00000E+00
    0.00000E+00         0.00000E+00        -0.50053E+08
 
   -0.50096E+08         0.27586E+06         0.00000E+00
    0.27586E+06        -0.50164E+08         0.00000E+00
    0.00000E+00         0.00000E+00        -0.50052E+08
 
   -0.50085E+08         0.27735E+06         0.00000E+00
    0.27735E+06        -0.50168E+08         0.00000E+00
    0.00000E+00         0.00000E+00        -0.50051E+08
 
   -0.50074E+08         0.27870E+06         0.00000E+00
    0.27870E+06        -0.50173E+08         0.00000E+00
    0.00000E+00         0.00000E+00        -0.50049E+08
 
   -0.50063E+08         0.27990E+06         0.00000E+00
    0.27990E+06        -0.50178E+08         0.00000E+00
    0.00000E+00         0.00000E+00        -0.50048E+08
 
   -0.50052E+08         0.28096E+06         0.00000E+00
    0.28096E+06        -0.50183E+08         0.00000E+00
    0.00000E+00         0.00000E+00        -0.50047E+08
 
   -0.50381E+08         0.43764E+04         0.00000E+00
    0.43764E+04        -0.50000E+08         0.00000E+00
    0.00000E+00         0.00000E+00        -0.50076E+08
 
   -0.50381E+08         0.13089E+05         0.00000E+00
    0.13089E+05        -0.50000E+08         0.00000E+00
    0.00000E+00         0.00000E+00        -0.50076E+08
 
   -0.50380E+08         0.21765E+05         0.00000E+00
    0.21765E+05        -0.50001E+08         0.00000E+00
    0.00000E+00         0.00000E+00        -0.50076E+08
 
   -0.50379E+08         0.30391E+05         0.00000E+00
    0.30391E+05        -0.50001E+08         0.00000E+00
    0.00000E+00         0.00000E+00        -0.50076E+08
 
   -0.50378E+08         0.38953E+05         0.00000E+00
    0.38953E+05        -0.50002E+08         0.00000E+00
    0.00000E+00         0.00000E+00        -0.50076E+08
 
   -0.50376E+08         0.47437E+05         0.00000E+00
    0.47437E+05        -0.50003E+08         0.00000E+00
    0.00000E+00         0.00000E+00        -0.50076E+08
 
   -0.50374E+08         0.55833E+05         0.00000E+00
    0.55833E+05        -0.50005E+08         0.00000E+00
    0.00000E+00         0.00000E+00        -0.50076E+08
 
   -0.50372E+08         0.64128E+05         0.00000E+00
    0.64128E+05        -0.50006E+08         0.00000E+00
    0.00000E+00         0.00000E+00        -0.50076E+08
 
   -0.50369E+08         0.72311E+05         0.00000E+00
    0.72311E+05        -0.50008E+08         0.00000E+00
    0.00000E+00         0.00000E+00        -0.50075E+08
 
   -0.50365E+08         0.80372E+05         0.00000E+00
    0.80372E+05        -0.50010E+08         0.00000E+00
    0.00000E+00         0.00000E+00        -0.50075E+08
 
   -0.50362E+08         0.88303E+05         0.00000E+00
    0.88303E+05        -0.50012E+08         0.00000E+00
    0.00000E+00         0.00000E+00        -0.50075E+08
 
   -0.50358E+08         0.96093E+05         0.00000E+00
    0.96093E+05        -0.50014E+08         0.00000E+00
    0.00000E+00         0.00000E+00        -0.50074E+08
 
   -0.50353E+08         0.10373E+06         0.00000E+00
    0.10373E+06        -0.50016E+08         0.00000E+00
    0.00000E+00         0.00000E+00        -0.50074E+08
 
   -0.50349E+08         0.11122E+06         0.00000E+00
    0.11122E+06        -0.50019E+08         0.00000E+00
    0.00000E+00         0.00000E+00        -0.50074E+08
 
   -0.50344E+08         0.11854E+06         0.00000E+00
    0.11854E+06        -0.50022E+08         0.00000E+00
    0.00000E+00         0.00000E+00        -0.50073E+08
 
   -0.50338E+08         0.12570E+06         0.00000E+00
    0.12570E+06        -0.50025E+08         0.00000E+00
    0.00000E+00         0.00000E+00        -0.50073E+08
 
   -0.50333E+08         0.13268E+06         0.00000E+00
    0.13268E+06        -0.50028E+08         0.00000E+00
    0.00000E+00         0.00000E+00        -0.50072E+08
 
   -0.50327E+08         0.13948E+06         0.00000E+00
    0.13948E+06        -0.50031E+08         0.00000E+00
    0.00000E+00         0.00000E+00        -0.50071E+08
 
   -0.50321E+08         0.14610E+06         0.00000E+00
    0.14610E+06        -0.50034E+08         0.00000E+00
    0.00000E+00         0.00000E+00        -0.50071E+08
 
   -0.50314E+08         0.15253E+06         0.00000E+00
    0.15253E+06        -0.50037E+08         0.00000E+00
    0.00000E+00         0.00000E+00        -0.50070E+08
 
   -0.50307E+08         0.15876E+06         0.00000E+00
    0.15876E+06        -0.50041E+08         0.00000E+00
    0.00000E+00         0.00000E+00        -0.50070E+08
 
   -0.50300E+08         0.16481E+06         0.00000E+00
    0.16481E+06        -0.50044E+08         0.00000E+00
    0.00000E+00         0.00000E+00        -0.50069E+08
 
   -0.50293E+08         0.17066E+06         0.00000E+00
    0.17066E+06        -0.50048E+08         0.00000E+00
    0.00000E+00         0.00000E+00        -0.50068E+08
 
   -0.50286E+08         0.17631E+06         0.00000E+00
    0.17631E+06        -0.50052E+08         0.00000E+00
    0.00000E+00         0.00000E+00        -0.50068E+08
 
   -0.50278E+08         0.18176E+06         0.00000E+00
    0.18176E+06        -0.50056E+08         0.00000E+00
    0.00000E+00         0.00000E+00        -0.50067E+08
 
   -0.50271E+08         0.18702E+06         0.00000E+00
    0.18702E+06        -0.50060E+08         0.00000E+00
    0.00000E+00         0.00000E+00        -0.50066E+08
 
   -0.50263E+08         0.19207E+06         0.00000E+00
    0.19207E+06        -0.50064E+08         0.00000E+00
    0.00000E+00         0.00000E+00        -0.50065E+08
 
   -0.50254E+08         0.19693E+06         0.00000E+00
    0.19693E+06        -0.50068E+08         0.00000E+00
    0.00000E+00         0.00000E+00        -0.50064E+08
 
   -0.50246E+08         0.20158E+06         0.00000E+00
    0.20158E+06        -0.50072E+08         0.00000E+00
    0.00000E+00         0.00000E+00        -0.50064E+08
 
   -0.50238E+08         0.20604E+06         0.00000E+00
    0.20604E+06        -0.50076E+08         0.00000E+00
    0.00000E+00         0.00000E+00        -0.50063E+08
 
   -0.50229E+08         0.21030E+06         0.00000E+00
    0.21030E+06        -0.50080E+08         0.00000E+00
    0.00000E+00         0.00000E+00        -0.50062E+08
 
   -0.50220E+08         0.21437E+06         0.00000E+00
    0.21437E+06        -0.50085E+08         0.00000E+00
    0.00000E+00         0.00000E+00        -0.50061E+08
 
   -0.50212E+08         0.21825E+06         0.00000E+00
    0.21825E+06        -0.50089E+08         0.00000E+00
    0.00000E+00         0.00000E+00        -0.50060E+08
 
   -0.50203E+08         0.22193E+06         0.00000E+00
    0.22193E+06        -0.50093E+08         0.00000E+00
    0.00000E+00         0.00000E+00        -0.50059E+08
 
   -0.50194E+08         0.22543E+06         0.00000E+00
    0.22543E+06        -0.50098E+08         0.00000E+00
    0.00000E+00         0.00000E+00        -0.50058E+08
 
   -0.50184E+08         0.22873E+06         0.00000E+00
    0.22873E+06        -0.50102E+08         0.00000E+00
    0.00000E+00         0.00000E+00        -0.50057E+08
 
   -0.50175E+08         0.23186E+06         0.00000E+00
    0.23186E+06        -0.50106E+08         0.00000E+00
    0.00000E+00         0.00000E+00        -0.50056E+08
 
   -0.50166E+08         0.23481E+06         0.00000E+00
    0.23481E+06        -0.50111E+08         0.00000E+00
    0.00000E+00         0.00000E+00        -0.50055E+08
 
   -0.50156E+08         0.23757E+06         0.00000E+00
    0.23757E+06        -0.50115E+08         0.00000E+00
    0.00000E+00         0.00000E+00        -0.50054E+08
 
   -0.50147E+08         0.24017E+06         0.00000E+00
    0.24017E+06        -0.50120E+08         0.00000E+00
    0.00000E+00         0.00000E+00        -0.50053E+08
 
   -0.50137E+08         0.24259E+06         0.00000E+00
    0.24259E+06        -0.50124E+08         0.00000E+00
    0.00000E+00         0.00000E+00        -0.50052E+08
 
   -0.50127E+08         0.24485E+06         0.00000E+00
    0.24485E+06        -0.50129E+08         0.00000E+00
    0.00000E+00         0.00000E+00        -0.50051E+08
 
   -0.50118E+08         0.24694E+06         0.00000E+00
    0.24694E+06        -0.50133E+08         0.00000E+00
    0.00000E+00         0.00000E+00        -0.50050E+08
 
   -0.50108E+08         0.24886E+06         0.00000E+00
    0.24886E+06        -0.50138E+08         0.00000E+00
    0.00000E+00         0.00000E+00        -0.50049E+08
 
   -0.50098E+08         0.25063E+06         0.00000E+00
    0.25063E+06        -0.50142E+08         0.00000E+00
    0.00000E+00         0.00000E+00        -0.50048E+08
 
   -0.50088E+08         0.25225E+06         0.00000E+00
    0.25225E+06        -0.50147E+08         0.00000E+00
    0.00000E+00         0.00000E+00        -0.50047E+08
 
   -0.50078E+08         0.25371E+06         0.00000E+00
    0.25371E+06        -0.50152E+08         0.00000E+00
    0.00000E+00         0.00000E+00        -0.50046E+08
 
   -0.50068E+08         0.25502E+06         0.00000E+00
    0.25502E+06        -0.50156E+08         0.00000E+00
    0.00000E+00         0.00000E+00        -0.50045E+08
 
   -0.50057E+08         0.25618E+06         0.00000E+00
    0.25618E+06        -0.50161E+08         0.00000E+00
    0.00000E+00         0.00000E+00        -0.50044E+08
 
   -0.50047E+08         0.25719E+06         0.00000E+00
    0.25719E+06        -0.50165E+08         0.00000E+00
    0.00000E+00         0.00000E+00        -0.50042E+08
 
   -0.50340E+08         0.38377E+04         0.00000E+00
    0.38377E+04        -0.50000E+08         0.00000E+00
    0.00000E+00         0.00000E+00        -0.50068E+08
 
   -0.50340E+08         0.11505E+05         0.00000E+00
    0.11505E+05        -0.50000E+08         0.00000E+00
    0.00000E+00         0.00000E+00        -0.50068E+08
 
   -0.50340E+08         0.19153E+05         0.00000E+00
    0.19153E+05        -0.50001E+08         0.00000E+00
    0.00000E+00         0.00000E+00        -0.50068E+08
 
   -0.50339E+08         0.26770E+05         0.00000E+00
    0.26770E+05        -0.50001E+08         0.00000E+00
    0.00000E+00         0.00000E+00        -0.50068E+08
 
   -0.50338E+08         0.34343E+05         0.00000E+00
    0.34343E+05        -0.50002E+08         0.00000E+00
    0.00000E+00         0.00000E+00        -0.50068E+08
 
   -0.50337E+08         0.41862E+05         0.00000E+00
    0.41862E+05        -0.50003E+08         0.00000E+00
    0.00000E+00         0.00000E+00        -0.50068E+08
 
   -0.50335E+08         0.49315E+05         0.00000E+00
    0.49315E+05        -0.50004E+08         0.00000E+00
    0.00000E+00         0.00000E+00        -0.50068E+08
 
   -0.50333E+08         0.56695E+05         0.00000E+00
    0.56695E+05        -0.50005E+08         0.00000E+00
    0.00000E+00         0.00000E+00        -0.50068E+08
 
   -0.50330E+08         0.63989E+05         0.00000E+00
    0.63989E+05        -0.50007E+08         0.00000E+00
    0.00000E+00         0.00000E+00        -0.50067E+08
 
   -0.50328E+08         0.71190E+05         0.00000E+00
    0.71190E+05        -0.50008E+08         0.00000E+00
    0.00000E+00         0.00000E+00        -0.50067E+08
 
   -0.50325E+08         0.78289E+05         0.00000E+00
    0.78289E+05        -0.50010E+08         0.00000E+00
    0.00000E+00         0.00000E+00        -0.50067E+08
 
   -0.50321E+08         0.85278E+05         0.00000E+00
    0.85278E+05        -0.50012E+08         0.00000E+00
    0.00000E+00         0.00000E+00        -0.50067E+08
 
   -0.50317E+08         0.92149E+05         0.00000E+00
    0.92149E+05        -0.50014E+08         0.00000E+00
    0.00000E+00         0.00000E+00        -0.50066E+08
 
   -0.50313E+08         0.98896E+05         0.00000E+00
    0.98896E+05        -0.50016E+08         0.00000E+00
    0.00000E+00         0.00000E+00        -0.50066E+08
 
   -0.50309E+08         0.10551E+06         0.00000E+00
    0.10551E+06        -0.50019E+08         0.00000E+00
    0.00000E+00         0.00000E+00        -0.50066E+08
 
   -0.50305E+08         0.11199E+06         0.00000E+00
    0.11199E+06        -0.50021E+08         0.00000E+00
    0.00000E+00         0.00000E+00        -0.50065E+08
 
   -0.50300E+08         0.11833E+06         0.00000E+00
    0.11833E+06        -0.50024E+08         0.00000E+00
    0.00000E+00         0.00000E+00        -0.50065E+08
 
   -0.50295E+08         0.12452E+06         0.00000E+00
    0.12452E+06        -0.50027E+08         0.00000E+00
    0.00000E+00         0.00000E+00        -0.50064E+08
 
   -0.50289E+08         0.13055E+06         0.00000E+00
    0.13055E+06        -0.50029E+08         0.00000E+00
    0.00000E+00         0.00000E+00        -0.50064E+08
 
   -0.50284E+08         0.13643E+06         0.00000E+00
    0.13643E+06        -0.50032E+08         0.00000E+00
    0.00000E+00         0.00000E+00        -0.50063E+08
 
   -0.50278E+08         0.14215E+06         0.00000E+00
    0.14215E+06        -0.50035E+08         0.00000E+00
    0.00000E+00         0.00000E+00        -0.50063E+08
 
   -0.50272E+08         0.14771E+06         0.00000E+00
    0.14771E+06        -0.50039E+08         0.00000E+00
    0.00000E+00         0.00000E+00        -0.50062E+08
 
   -0.50266E+08         0.15311E+06         0.00000E+00
    0.15311E+06        -0.50042E+08         0.00000E+00
    0.00000E+00         0.00000E+00        -0.50062E+08
 
   -0.50259E+08         0.15833E+06         0.00000E+00
    0.15833E+06        -0.50045E+08         0.00000E+00
    0.00000E+00         0.00000E+00        -0.50061E+08
 
   -0.50252E+08         0.16339E+06         0.00000E+00
    0.16339E+06        -0.50049E+08         0.00000E+00
    0.00000E+00         0.00000E+00        -0.50060E+08
 
   -0.50246E+08         0.16827E+06         0.00000E+00
    0.16827E+06        -0.50052E+08         0.00000E+00
    0.00000E+00         0.00000E+00        -0.50060E+08
 
   -0.50239E+08         0.17299E+06         0.00000E+00
    0.17299E+06        -0.50056E+08         0.00000E+00
    0.00000E+00         0.00000E+00        -0.50059E+08
 
   -0.50231E+08         0.17753E+06         0.00000E+00
    0.17753E+06        -0.50059E+08         0.00000E+00
    0.00000E+00         0.00000E+00        -0.50058E+08
 
   -0.50224E+08         0.18190E+06         0.00000E+00
    0.18190E+06        -0.50063E+08         0.00000E+00
    0.00000E+00         0.00000E+00        -0.50057E+08
 
   -0.50217E+08         0.18609E+06         0.00000E+00
    0.18609E+06        -0.50067E+08         0.00000E+00
    0.00000E+00         0.00000E+00        -0.50057E+08
 
   -0.50209E+08         0.19011E+06         0.00000E+00
    0.19011E+06        -0.50071E+08         0.00000E+00
    0.00000E+00         0.00000E+00        -0.50056E+08
 
   -0.50201E+08         0.19396E+06         0.00000E+00
    0.19396E+06        -0.50075E+08         0.00000E+00
    0.00000E+00         0.00000E+00        -0.50055E+08
 
   -0.50193E+08         0.19763E+06         0.00000E+00
    0.19763E+06        -0.50078E+08         0.00000E+00
    0.00000E+00         0.00000E+00        -0.50054E+08
 
   -0.50185E+08         0.20114E+06         0.00000E+00
    0.20114E+06        -0.50082E+08         0.00000E+00
    0.00000E+00         0.00000E+00        -0.50053E+08
 
   -0.50177E+08         0.20447E+06         0.00000E+00
    0.20447E+06        -0.50086E+08         0.00000E+00
    0.00000E+00         0.00000E+00        -0.50053E+08
 
   -0.50169E+08         0.20763E+06         0.00000E+00
    0.20763E+06        -0.50090E+08         0.00000E+00
    0.00000E+00         0.00000E+00        -0.50052E+08
 
   -0.50160E+08         0.21063E+06         0.00000E+00
    0.21063E+06        -0.50094E+08         0.00000E+00
    0.00000E+00         0.00000E+00        -0.50051E+08
 
   -0.50152E+08         0.21346E+06         0.00000E+00
    0.21346E+06        -0.50098E+08         0.00000E+00
    0.00000E+00         0.00000E+00        -0.50050E+08
 
   -0.50143E+08         0.21612E+06         0.00000E+00
    0.21612E+06        -0.50103E+08         0.00000E+00
    0.00000E+00         0.00000E+00        -0.50049E+08
 
   -0.50134E+08         0.21862E+06         0.00000E+00
    0.21862E+06        -0.50107E+08         0.00000E+00
    0.00000E+00         0.00000E+00        -0.50048E+08
 
   -0.50126E+08         0.22096E+06         0.00000E+00
    0.22096E+06        -0.50111E+08         0.00000E+00
    0.00000E+00         0.00000E+00        -0.50047E+08
 
   -0.50117E+08         0.22314E+06         0.00000E+00
    0.22314E+06        -0.50115E+08         0.00000E+00
    0.00000E+00         0.00000E+00        -0.50046E+08
 
   -0.50108E+08         0.22516E+06         0.00000E+00
    0.22516E+06        -0.50119E+08         0.00000E+00
    0.00000E+00         0.00000E+00        -0.50045E+08
 
   -0.50099E+08         0.22703E+06         0.00000E+00
    0.22703E+06        -0.50123E+08         0.00000E+00
    0.00000E+00         0.00000E+00        -0.50044E+08
 
   -0.50089E+08         0.22874E+06         0.00000E+00
    0.22874E+06        -0.50128E+08         0.00000E+00
    0.00000E+00         0.00000E+00        -0.50043E+08
 
   -0.50080E+08         0.23029E+06         0.00000E+00
    0.23029E+06        -0.50132E+08         0.00000E+00
    0.00000E+00         0.00000E+00        -0.50042E+08
 
   -0.50071E+08         0.23170E+06         0.00000E+00
    0.23170E+06        -0.50136E+08         0.00000E+00
    0.00000E+00         0.00000E+00        -0.50041E+08
 
   -0.50062E+08         0.23295E+06         0.00000E+00
    0.23295E+06        -0.50140E+08         0.00000E+00
    0.00000E+00         0.00000E+00        -0.50040E+08
 
   -0.50052E+08         0.23405E+06         0.00000E+00
    0.23405E+06        -0.50144E+08         0.00000E+00
    0.00000E+00         0.00000E+00        -0.50039E+08
 
   -0.50043E+08         0.23501E+06         0.00000E+00
    0.23501E+06        -0.50149E+08         0.00000E+00
    0.00000E+00         0.00000E+00        -0.50038E+08
 
   -0.50304E+08         0.33837E+04         0.00000E+00
    0.33837E+04        -0.50000E+08         0.00000E+00
    0.00000E+00         0.00000E+00        -0.50061E+08
 
   -0.50304E+08         0.10163E+05         0.00000E+00
    0.10163E+05        -0.50000E+08         0.00000E+00
    0.00000E+00         0.00000E+00        -0.50061E+08
 
   -0.50304E+08         0.16933E+05         0.00000E+00
    0.16933E+05        -0.50000E+08         0.00000E+00
    0.00000E+00         0.00000E+00        -0.50061E+08
 
   -0.50303E+08         0.23685E+05         0.00000E+00
    0.23685E+05        -0.50001E+08         0.00000E+00
    0.00000E+00         0.00000E+00        -0.50061E+08
 
   -0.50302E+08         0.30408E+05         0.00000E+00
    0.30408E+05        -0.50002E+08         0.00000E+00
    0.00000E+00         0.00000E+00        -0.50061E+08
 
   -0.50301E+08         0.37092E+05         0.00000E+00
    0.37092E+05        -0.50002E+08         0.00000E+00
    0.00000E+00         0.00000E+00        -0.50061E+08
 
   -0.50300E+08         0.43730E+05         0.00000E+00
    0.43730E+05        -0.50003E+08         0.00000E+00
    0.00000E+00         0.00000E+00        -0.50061E+08
 
   -0.50298E+08         0.50311E+05         0.00000E+00
    0.50311E+05        -0.50004E+08         0.00000E+00
    0.00000E+00         0.00000E+00        -0.50061E+08
 
   -0.50296E+08         0.56829E+05         0.00000E+00
    0.56829E+05        -0.50006E+08         0.00000E+00
    0.00000E+00         0.00000E+00        -0.50060E+08
 
   -0.50294E+08         0.63274E+05         0.00000E+00
    0.63274E+05        -0.50007E+08         0.00000E+00
    0.00000E+00         0.00000E+00        -0.50060E+08
 
   -0.50291E+08         0.69639E+05         0.00000E+00
    0.69639E+05        -0.50009E+08         0.00000E+00
    0.00000E+00         0.00000E+00        -0.50060E+08
 
   -0.50288E+08         0.75917E+05         0.00000E+00
    0.75917E+05        -0.50010E+08         0.00000E+00
    0.00000E+00         0.00000E+00        -0.50060E+08
 
   -0.50285E+08         0.82101E+05         0.00000E+00
    0.82101E+05        -0.50012E+08         0.00000E+00
    0.00000E+00         0.00000E+00        -0.50059E+08
 
   -0.50282E+08         0.88185E+05         0.00000E+00
    0.88185E+05        -0.50014E+08         0.00000E+00
    0.00000E+00         0.00000E+00        -0.50059E+08
 
   -0.50278E+08         0.94162E+05         0.00000E+00
    0.94162E+05        -0.50016E+08         0.00000E+00
    0.00000E+00         0.00000E+00        -0.50059E+08
 
   -0.50274E+08         0.10003E+06         0.00000E+00
    0.10003E+06        -0.50018E+08         0.00000E+00
    0.00000E+00         0.00000E+00        -0.50058E+08
 
   -0.50270E+08         0.10578E+06         0.00000E+00
    0.10578E+06        -0.50021E+08         0.00000E+00
    0.00000E+00         0.00000E+00        -0.50058E+08
 
   -0.50265E+08         0.11140E+06         0.00000E+00
    0.11140E+06        -0.50023E+08         0.00000E+00
    0.00000E+00         0.00000E+00        -0.50058E+08
 
   -0.50261E+08         0.11691E+06         0.00000E+00
    0.11691E+06        -0.50026E+08         0.00000E+00
    0.00000E+00         0.00000E+00        -0.50057E+08
 
   -0.50256E+08         0.12228E+06         0.00000E+00
    0.12228E+06        -0.50028E+08         0.00000E+00
    0.00000E+00         0.00000E+00        -0.50057E+08
 
   -0.50251E+08         0.12751E+06         0.00000E+00
    0.12751E+06        -0.50031E+08         0.00000E+00
    0.00000E+00         0.00000E+00        -0.50056E+08
 
   -0.50246E+08         0.13261E+06         0.00000E+00
    0.13261E+06        -0.50034E+08         0.00000E+00
    0.00000E+00         0.00000E+00        -0.50056E+08
 
   -0.50240E+08         0.13757E+06         0.00000E+00
    0.13757E+06        -0.50036E+08         0.00000E+00
    0.00000E+00         0.00000E+00        -0.50055E+08
 
   -0.50234E+08         0.14239E+06         0.00000E+00
    0.14239E+06        -0.50039E+08         0.00000E+00
    0.00000E+00         0.00000E+00        -0.50055E+08
 
   -0.50229E+08         0.14706E+06         0.00000E+00
    0.14706E+06        -0.50043E+08         0.00000E+00
    0.00000E+00         0.00000E+00        -0.50054E+08
 
   -0.50223E+08         0.15158E+06         0.00000E+00
    0.15158E+06        -0.50046E+08         0.00000E+00
    0.00000E+00         0.00000E+00        -0.50054E+08
 
   -0.50216E+08         0.15595E+06         0.00000E+00
    0.15595E+06        -0.50049E+08         0.00000E+00
    0.00000E+00         0.00000E+00        -0.50053E+08
 
   -0.50210E+08         0.16018E+06         0.00000E+00
    0.16018E+06        -0.50052E+08         0.00000E+00
    0.00000E+00         0.00000E+00        -0.50052E+08
 
   -0.50203E+08         0.16425E+06         0.00000E+00
    0.16425E+06        -0.50055E+08         0.00000E+00
    0.00000E+00         0.00000E+00        -0.50052E+08
 
   -0.50197E+08         0.16817E+06         0.00000E+00
    0.16817E+06        -0.50059E+08         0.00000E+00
    0.00000E+00         0.00000E+00        -0.50051E+08
 
   -0.50190E+08         0.17193E+06         0.00000E+00
    0.17193E+06        -0.50062E+08         0.00000E+00
    0.00000E+00         0.00000E+00        -0.50050E+08
 
   -0.50183E+08         0.17555E+06         0.00000E+00
    0.17555E+06        -0.50066E+08         0.00000E+00
    0.00000E+00         0.00000E+00        -0.50050E+08
 
   -0.50176E+08         0.17900E+06         0.00000E+00
    0.17900E+06        -0.50069E+08         0.00000E+00
    0.00000E+00         0.00000E+00        -0.50049E+08
 
   -0.50168E+08         0.18231E+06         0.00000E+00
    0.18231E+06        -0.50073E+08         0.00000E+00
    0.00000E+00         0.00000E+00        -0.50048E+08
 
   -0.50161E+08         0.18546E+06         0.00000E+00
    0.18546E+06        -0.50076E+08         0.00000E+00
    0.00000E+00         0.00000E+00        -0.50047E+08
 
   -0.50154E+08         0.18845E+06         0.00000E+00
    0.18845E+06        -0.50080E+08         0.00000E+00
    0.00000E+00         0.00000E+00        -0.50047E+08
 
   -0.50146E+08         0.19129E+06         0.00000E+00
    0.19129E+06        -0.50084E+08         0.00000E+00
    0.00000E+00         0.00000E+00        -0.50046E+08
 
   -0.50138E+08         0.19398E+06         0.00000E+00
    0.19398E+06        -0.50087E+08         0.00000E+00
    0.00000E+00         0.00000E+00        -0.50045E+08
 
   -0.50130E+08         0.19651E+06         0.00000E+00
    0.19651E+06        -0.50091E+08         0.00000E+00
    0.00000E+00         0.00000E+00        -0.50044E+08
 
   -0.50123E+08         0.19890E+06         0.00000E+00
    0.19890E+06        -0.50095E+08         0.00000E+00
    0.00000E+00         0.00000E+00        -0.50043E+08
 
   -0.50115E+08         0.20113E+06         0.00000E+00
    0.20113E+06        -0.50099E+08         0.00000E+00
    0.00000E+00         0.00000E+00        -0.50043E+08
 
   -0.50106E+08         0.20321E+06         0.00000E+00
    0.20321E+06        -0.50102E+08         0.00000E+00
    0.00000E+00         0.00000E+00        -0.50042E+08
 
   -0.50098E+08         0.20513E+06         0.00000E+00
    0.20513E+06        -0.50106E+08         0.00000E+00
    0.00000E+00         0.00000E+00        -0.50041E+08
 
   -0.50090E+08         0.20691E+06         0.00000E+00
    0.20691E+06        -0.50110E+08         0.00000E+00
    0.00000E+00         0.00000E+00        -0.50040E+08
 
   -0.50082E+08         0.20854E+06         0.00000E+00
    0.20854E+06        -0.50114E+08         0.00000E+00
    0.00000E+00         0.00000E+00        -0.50039E+08
 
   -0.50073E+08         0.21002E+06         0.00000E+00
    0.21002E+06        -0.50118E+08         0.00000E+00
    0.00000E+00         0.00000E+00        -0.50038E+08
 
   -0.50064E+08         0.21136E+06         0.00000E+00
    0.21136E+06        -0.50122E+08         0.00000E+00
    0.00000E+00         0.00000E+00        -0.50037E+08
 
   -0.50056E+08         0.21254E+06         0.00000E+00
    0.21254E+06        -0.50126E+08         0.00000E+00
    0.00000E+00         0.00000E+00        -0.50036E+08
 
   -0.50047E+08         0.21358E+06         0.00000E+00
    0.21358E+06        -0.50130E+08         0.00000E+00
    0.00000E+00         0.00000E+00        -0.50035E+08
 
   -0.50038E+08         0.21446E+06         0.00000E+00
    0.21446E+06        -0.50133E+08         0.00000E+00
    0.00000E+00         0.00000E+00        -0.50034E+08
 
   -0.50272E+08         0.30000E+04         0.00000E+00
    0.30000E+04        -0.50000E+08         0.00000E+00
    0.00000E+00         0.00000E+00        -0.50054E+08
 
   -0.50272E+08         0.90222E+04         0.00000E+00
    0.90222E+04        -0.50000E+08         0.00000E+00
    0.00000E+00         0.00000E+00        -0.50054E+08
 
   -0.50272E+08         0.15042E+05         0.00000E+00
    0.15042E+05        -0.50000E+08         0.00000E+00
    0.00000E+00         0.00000E+00        -0.50054E+08
 
   -0.50271E+08         0.21052E+05         0.00000E+00
    0.21052E+05        -0.50001E+08         0.00000E+00
    0.00000E+00         0.00000E+00        -0.50054E+08
 
   -0.50271E+08         0.27043E+05         0.00000E+00
    0.27043E+05        -0.50001E+08         0.00000E+00
    0.00000E+00         0.00000E+00        -0.50054E+08
 
   -0.50270E+08         0.33007E+05         0.00000E+00
    0.33007E+05        -0.50002E+08         0.00000E+00
    0.00000E+00         0.00000E+00        -0.50054E+08
 
   -0.50269E+08         0.38936E+05         0.00000E+00
    0.38936E+05        -0.50003E+08         0.00000E+00
    0.00000E+00         0.00000E+00        -0.50054E+08
 
   -0.50267E+08         0.44824E+05         0.00000E+00
    0.44824E+05        -0.50004E+08         0.00000E+00
    0.00000E+00         0.00000E+00        -0.50054E+08
 
   -0.50265E+08         0.50661E+05         0.00000E+00
    0.50661E+05        -0.50005E+08         0.00000E+00
    0.00000E+00         0.00000E+00        -0.50054E+08
 
   -0.50263E+08         0.56443E+05         0.00000E+00
    0.56443E+05        -0.50006E+08         0.00000E+00
    0.00000E+00         0.00000E+00        -0.50054E+08
 
   -0.50261E+08         0.62161E+05         0.00000E+00
    0.62161E+05        -0.50007E+08         0.00000E+00
    0.00000E+00         0.00000E+00        -0.50054E+08
 
   -0.50259E+08         0.67809E+05         0.00000E+00
    0.67809E+05        -0.50009E+08         0.00000E+00
    0.00000E+00         0.00000E+00        -0.50054E+08
 
   -0.50256E+08         0.73382E+05         0.00000E+00
    0.73382E+05        -0.50010E+08         0.00000E+00
    0.00000E+00         0.00000E+00        -0.50053E+08
 
   -0.50253E+08         0.78874E+05         0.00000E+00
    0.78874E+05        -0.50012E+08         0.00000E+00
    0.00000E+00         0.00000E+00        -0.50053E+08
 
   -0.50250E+08         0.84279E+05         0.00000E+00
    0.84279E+05        -0.50014E+08         0.00000E+00
    0.00000E+00         0.00000E+00        -0.50053E+08
 
   -0.50246E+08         0.89592E+05         0.00000E+00
    0.89592E+05        -0.50016E+08         0.00000E+00
    0.00000E+00         0.00000E+00        -0.50052E+08
 
   -0.50243E+08         0.94808E+05         0.00000E+00
    0.94808E+05        -0.50018E+08         0.00000E+00
    0.00000E+00         0.00000E+00        -0.50052E+08
 
   -0.50239E+08         0.99923E+05         0.00000E+00
    0.99923E+05        -0.50020E+08         0.00000E+00
    0.00000E+00         0.00000E+00        -0.50052E+08
 
   -0.50235E+08         0.10493E+06         0.00000E+00
    0.10493E+06        -0.50022E+08         0.00000E+00
    0.00000E+00         0.00000E+00        -0.50051E+08
 
   -0.50231E+08         0.10983E+06         0.00000E+00
    0.10983E+06        -0.50024E+08         0.00000E+00
    0.00000E+00         0.00000E+00        -0.50051E+08
 
   -0.50226E+08         0.11462E+06         0.00000E+00
    0.11462E+06        -0.50027E+08         0.00000E+00
    0.00000E+00         0.00000E+00        -0.50051E+08
 
   -0.50222E+08         0.11929E+06         0.00000E+00
    0.11929E+06        -0.50029E+08         0.00000E+00
    0.00000E+00         0.00000E+00        -0.50050E+08
 
   -0.50217E+08         0.12383E+06         0.00000E+00
    0.12383E+06        -0.50032E+08         0.00000E+00
    0.00000E+00         0.00000E+00        -0.50050E+08
 
   -0.50212E+08         0.12826E+06         0.00000E+00
    0.12826E+06        -0.50034E+08         0.00000E+00
    0.00000E+00         0.00000E+00        -0.50049E+08
 
   -0.50206E+08         0.13256E+06         0.00000E+00
    0.13256E+06        -0.50037E+08         0.00000E+00
    0.00000E+00         0.00000E+00        -0.50049E+08
 
   -0.50201E+08         0.13674E+06         0.00000E+00
    0.13674E+06        -0.50040E+08         0.00000E+00
    0.00000E+00         0.00000E+00        -0.50048E+08
 
   -0.50196E+08         0.14078E+06         0.00000E+00
    0.14078E+06        -0.50043E+08         0.00000E+00
    0.00000E+00         0.00000E+00        -0.50048E+08
 
   -0.50190E+08         0.14469E+06         0.00000E+00
    0.14469E+06        -0.50046E+08         0.00000E+00
    0.00000E+00         0.00000E+00        -0.50047E+08
 
   -0.50184E+08         0.14847E+06         0.00000E+00
    0.14847E+06        -0.50049E+08         0.00000E+00
    0.00000E+00         0.00000E+00        -0.50047E+08
 
   -0.50178E+08         0.15211E+06         0.00000E+00
    0.15211E+06        -0.50052E+08         0.00000E+00
    0.00000E+00         0.00000E+00        -0.50046E+08
 
   -0.50172E+08         0.15562E+06         0.00000E+00
    0.15562E+06        -0.50055E+08         0.00000E+00
    0.00000E+00         0.00000E+00        -0.50045E+08
 
   -0.50166E+08         0.15899E+06         0.00000E+00
    0.15899E+06        -0.50058E+08         0.00000E+00
    0.00000E+00         0.00000E+00        -0.50045E+08
 
   -0.50159E+08         0.16222E+06         0.00000E+00
    0.16222E+06        -0.50061E+08         0.00000E+00
    0.00000E+00         0.00000E+00        -0.50044E+08
 
   -0.50153E+08         0.16531E+06         0.00000E+00
    0.16531E+06        -0.50064E+08         0.00000E+00
    0.00000E+00         0.00000E+00        -0.50043E+08
 
   -0.50146E+08         0.16827E+06         0.00000E+00
    0.16827E+06        -0.50067E+08         0.00000E+00
    0.00000E+00         0.00000E+00        -0.50043E+08
 
   -0.50139E+08         0.17108E+06         0.00000E+00
    0.17108E+06        -0.50071E+08         0.00000E+00
    0.00000E+00         0.00000E+00        -0.50042E+08
 
   -0.50133E+08         0.17375E+06         0.00000E+00
    0.17375E+06        -0.50074E+08         0.00000E+00
    0.00000E+00         0.00000E+00        -0.50041E+08
 
   -0.50126E+08         0.17628E+06         0.00000E+00
    0.17628E+06        -0.50077E+08         0.00000E+00
    0.00000E+00         0.00000E+00        -0.50041E+08
 
   -0.50119E+08         0.17867E+06         0.00000E+00
    0.17867E+06        -0.50081E+08         0.00000E+00
    0.00000E+00         0.00000E+00        -0.50040E+08
 
   -0.50111E+08         0.18092E+06         0.00000E+00
    0.18092E+06        -0.50084E+08         0.00000E+00
    0.00000E+00         0.00000E+00        -0.50039E+08
 
   -0.50104E+08         0.18302E+06         0.00000E+00
    0.18302E+06        -0.50088E+08         0.00000E+00
    0.00000E+00         0.00000E+00        -0.50038E+08
 
   -0.50097E+08         0.18499E+06         0.00000E+00
    0.18499E+06        -0.50091E+08         0.00000E+00
    0.00000E+00         0.00000E+00        -0.50038E+08
 
   -0.50089E+08         0.18681E+06         0.00000E+00
    0.18681E+06        -0.50095E+08         0.00000E+00
    0.00000E+00         0.00000E+00        -0.50037E+08
 
   -0.50082E+08         0.18849E+06         0.00000E+00
    0.18849E+06        -0.50098E+08         0.00000E+00
    0.00000E+00         0.00000E+00        -0.50036E+08
 
   -0.50074E+08         0.19002E+06         0.00000E+00
    0.19002E+06        -0.50102E+08         0.00000E+00
    0.00000E+00         0.00000E+00        -0.50035E+08
 
   -0.50066E+08         0.19142E+06         0.00000E+00
    0.19142E+06        -0.50105E+08         0.00000E+00
    0.00000E+00         0.00000E+00        -0.50034E+08
 
   -0.50058E+08         0.19267E+06         0.00000E+00
    0.19267E+06        -0.50109E+08         0.00000E+00
    0.00000E+00         0.00000E+00        -0.50033E+08
 
   -0.50050E+08         0.19377E+06         0.00000E+00
    0.19377E+06        -0.50112E+08         0.00000E+00
    0.00000E+00         0.00000E+00        -0.50033E+08
 
   -0.50042E+08         0.19474E+06         0.00000E+00
    0.19474E+06        -0.50116E+08         0.00000E+00
    0.00000E+00         0.00000E+00        -0.50032E+08
 
   -0.50034E+08         0.19556E+06         0.00000E+00
    0.19556E+06        -0.50119E+08         0.00000E+00
    0.00000E+00         0.00000E+00        -0.50031E+08
 
   -0.50243E+08         0.26744E+04         0.00000E+00
    0.26744E+04        -0.50000E+08         0.00000E+00
    0.00000E+00         0.00000E+00        -0.50049E+08
 
   -0.50243E+08         0.80499E+04         0.00000E+00
    0.80499E+04        -0.50000E+08         0.00000E+00
    0.00000E+00         0.00000E+00        -0.50049E+08
 
   -0.50243E+08         0.13427E+05         0.00000E+00
    0.13427E+05        -0.50000E+08         0.00000E+00
    0.00000E+00         0.00000E+00        -0.50049E+08
 
   -0.50243E+08         0.18799E+05         0.00000E+00
    0.18799E+05        -0.50001E+08         0.00000E+00
    0.00000E+00         0.00000E+00        -0.50049E+08
 
   -0.50242E+08         0.24159E+05         0.00000E+00
    0.24159E+05        -0.50001E+08         0.00000E+00
    0.00000E+00         0.00000E+00        -0.50049E+08
 
   -0.50242E+08         0.29500E+05         0.00000E+00
    0.29500E+05        -0.50002E+08         0.00000E+00
    0.00000E+00         0.00000E+00        -0.50049E+08
 
   -0.50241E+08         0.34814E+05         0.00000E+00
    0.34814E+05        -0.50002E+08         0.00000E+00
    0.00000E+00         0.00000E+00        -0.50049E+08
 
   -0.50239E+08         0.40097E+05         0.00000E+00
    0.40097E+05        -0.50003E+08         0.00000E+00
    0.00000E+00         0.00000E+00        -0.50049E+08
 
   -0.50238E+08         0.45340E+05         0.00000E+00
    0.45340E+05        -0.50004E+08         0.00000E+00
    0.00000E+00         0.00000E+00        -0.50048E+08
 
   -0.50236E+08         0.50539E+05         0.00000E+00
    0.50539E+05        -0.50005E+08         0.00000E+00
    0.00000E+00         0.00000E+00        -0.50048E+08
 
   -0.50234E+08         0.55688E+05         0.00000E+00
    0.55688E+05        -0.50006E+08         0.00000E+00
    0.00000E+00         0.00000E+00        -0.50048E+08
 
   -0.50232E+08         0.60780E+05         0.00000E+00
    0.60780E+05        -0.50008E+08         0.00000E+00
    0.00000E+00         0.00000E+00        -0.50048E+08
 
   -0.50230E+08         0.65810E+05         0.00000E+00
    0.65810E+05        -0.50009E+08         0.00000E+00
    0.00000E+00         0.00000E+00        -0.50048E+08
 
   -0.50227E+08         0.70774E+05         0.00000E+00
    0.70774E+05        -0.50010E+08         0.00000E+00
    0.00000E+00         0.00000E+00        -0.50048E+08
 
   -0.50224E+08         0.75666E+05         0.00000E+00
    0.75666E+05        -0.50012E+08         0.00000E+00
    0.00000E+00         0.00000E+00        -0.50047E+08
 
   -0.50221E+08         0.80481E+05         0.00000E+00
    0.80481E+05        -0.50014E+08         0.00000E+00
    0.00000E+00         0.00000E+00        -0.50047E+08
 
   -0.50218E+08         0.85216E+05         0.00000E+00
    0.85216E+05        -0.50015E+08         0.00000E+00
    0.00000E+00         0.00000E+00        -0.50047E+08
 
   -0.50215E+08         0.89865E+05         0.00000E+00
    0.89865E+05        -0.50017E+08         0.00000E+00
    0.00000E+00         0.00000E+00        -0.50046E+08
 
   -0.50211E+08         0.94425E+05         0.00000E+00
    0.94425E+05        -0.50019E+08         0.00000E+00
    0.00000E+00         0.00000E+00        -0.50046E+08
 
   -0.50207E+08         0.98892E+05         0.00000E+00
    0.98892E+05        -0.50021E+08         0.00000E+00
    0.00000E+00         0.00000E+00        -0.50046E+08
 
   -0.50204E+08         0.10326E+06         0.00000E+00
    0.10326E+06        -0.50023E+08         0.00000E+00
    0.00000E+00         0.00000E+00        -0.50045E+08
 
   -0.50199E+08         0.10753E+06         0.00000E+00
    0.10753E+06        -0.50025E+08         0.00000E+00
    0.00000E+00         0.00000E+00        -0.50045E+08
 
   -0.50195E+08         0.11170E+06         0.00000E+00
    0.11170E+06        -0.50028E+08         0.00000E+00
    0.00000E+00         0.00000E+00        -0.50045E+08
 
   -0.50191E+08         0.11576E+06         0.00000E+00
    0.11576E+06        -0.50030E+08         0.00000E+00
    0.00000E+00         0.00000E+00        -0.50044E+08
 
   -0.50186E+08         0.11971E+06         0.00000E+00
    0.11971E+06        -0.50032E+08         0.00000E+00
    0.00000E+00         0.00000E+00        -0.50044E+08
 
   -0.50181E+08         0.12355E+06         0.00000E+00
    0.12355E+06        -0.50035E+08         0.00000E+00
    0.00000E+00         0.00000E+00        -0.50043E+08
 
   -0.50177E+08         0.12728E+06         0.00000E+00
    0.12728E+06        -0.50037E+08         0.00000E+00
    0.00000E+00         0.00000E+00        -0.50043E+08
 
   -0.50171E+08         0.13089E+06         0.00000E+00
    0.13089E+06        -0.50040E+08         0.00000E+00
    0.00000E+00         0.00000E+00        -0.50042E+08
 
   -0.50166E+08         0.13438E+06         0.00000E+00
    0.13438E+06        -0.50043E+08         0.00000E+00
    0.00000E+00         0.00000E+00        -0.50042E+08
 
   -0.50161E+08         0.13776E+06         0.00000E+00
    0.13776E+06        -0.50045E+08         0.00000E+00
    0.00000E+00         0.00000E+00        -0.50041E+08
 
   -0.50155E+08         0.14101E+06         0.00000E+00
    0.14101E+06        -0.50048E+08         0.00000E+00
    0.00000E+00         0.00000E+00        -0.50041E+08
 
   -0.50150E+08         0.14414E+06         0.00000E+00
    0.14414E+06        -0.50051E+08         0.00000E+00
    0.00000E+00         0.00000E+00        -0.50040E+08
 
   -0.50144E+08         0.14714E+06         0.00000E+00
    0.14714E+06        -0.50054E+08         0.00000E+00
    0.00000E+00         0.00000E+00        -0.50040E+08
 
   -0.50138E+08         0.15002E+06         0.00000E+00
    0.15002E+06        -0.50057E+08         0.00000E+00
    0.00000E+00         0.00000E+00        -0.50039E+08
 
   -0.50132E+08         0.15277E+06         0.00000E+00
    0.15277E+06        -0.50059E+08         0.00000E+00
    0.00000E+00         0.00000E+00        -0.50038E+08
 
   -0.50126E+08         0.15540E+06         0.00000E+00
    0.15540E+06        -0.50062E+08         0.00000E+00
    0.00000E+00         0.00000E+00        -0.50038E+08
 
   -0.50120E+08         0.15789E+06         0.00000E+00
    0.15789E+06        -0.50065E+08         0.00000E+00
    0.00000E+00         0.00000E+00        -0.50037E+08
 
   -0.50114E+08         0.16026E+06         0.00000E+00
    0.16026E+06        -0.50068E+08         0.00000E+00
    0.00000E+00         0.00000E+00        -0.50036E+08
 
   -0.50107E+08         0.16249E+06         0.00000E+00
    0.16249E+06        -0.50072E+08         0.00000E+00
    0.00000E+00         0.00000E+00        -0.50036E+08
 
   -0.50101E+08         0.16460E+06         0.00000E+00
    0.16460E+06        -0.50075E+08         0.00000E+00
    0.00000E+00         0.00000E+00        -0.50035E+08
 
   -0.50094E+08         0.16657E+06         0.00000E+00
    0.16657E+06        -0.50078E+08         0.00000E+00
    0.00000E+00         0.00000E+00        -0.50034E+08
 
   -0.50088E+08         0.16841E+06         0.00000E+00
    0.16841E+06        -0.50081E+08         0.00000E+00
    0.00000E+00         0.00000E+00        -0.50034E+08
 
   -0.50081E+08         0.17011E+06         0.00000E+00
    0.17011E+06        -0.50084E+08         0.00000E+00
    0.00000E+00         0.00000E+00        -0.50033E+08
 
   -0.50074E+08         0.17168E+06         0.00000E+00
    0.17168E+06        -0.50087E+08         0.00000E+00
    0.00000E+00         0.00000E+00        -0.50032E+08
 
   -0.50067E+08         0.17312E+06         0.00000E+00
    0.17312E+06        -0.50090E+08         0.00000E+00
    0.00000E+00         0.00000E+00        -0.50031E+08
 
   -0.50060E+08         0.17442E+06         0.00000E+00
    0.17442E+06        -0.50094E+08         0.00000E+00
    0.00000E+00         0.00000E+00        -0.50031E+08
 
   -0.50053E+08         0.17559E+06         0.00000E+00
    0.17559E+06        -0.50097E+08         0.00000E+00
    0.00000E+00         0.00000E+00        -0.50030E+08
 
   -0.50045E+08         0.17662E+06         0.00000E+00
    0.17662E+06        -0.50100E+08         0.00000E+00
    0.00000E+00         0.00000E+00        -0.50029E+08
 
   -0.50038E+08         0.17751E+06         0.00000E+00
    0.17751E+06        -0.50103E+08         0.00000E+00
    0.00000E+00         0.00000E+00        -0.50028E+08
 
   -0.50031E+08         0.17826E+06         0.00000E+00
    0.17826E+06        -0.50107E+08         0.00000E+00
    0.00000E+00         0.00000E+00        -0.50028E+08
 
   -0.50218E+08         0.23969E+04         0.00000E+00
    0.23969E+04        -0.50000E+08         0.00000E+00
    0.00000E+00         0.00000E+00        -0.50044E+08
 
   -0.50218E+08         0.72179E+04         0.00000E+00
    0.72179E+04        -0.50000E+08         0.00000E+00
    0.00000E+00         0.00000E+00        -0.50044E+08
 
   -0.50218E+08         0.12043E+05         0.00000E+00
    0.12043E+05        -0.50000E+08         0.00000E+00
    0.00000E+00         0.00000E+00        -0.50044E+08
 
   -0.50217E+08         0.16865E+05         0.00000E+00
    0.16865E+05        -0.50001E+08         0.00000E+00
    0.00000E+00         0.00000E+00        -0.50044E+08
 
   -0.50217E+08         0.21679E+05         0.00000E+00
    0.21679E+05        -0.50001E+08         0.00000E+00
    0.00000E+00         0.00000E+00        -0.50044E+08
 
   -0.50216E+08         0.26480E+05         0.00000E+00
    0.26480E+05        -0.50002E+08         0.00000E+00
    0.00000E+00         0.00000E+00        -0.50044E+08
 
   -0.50215E+08         0.31260E+05         0.00000E+00
    0.31260E+05        -0.50002E+08         0.00000E+00
    0.00000E+00         0.00000E+00        -0.50043E+08
 
   -0.50214E+08         0.36015E+05         0.00000E+00
    0.36015E+05        -0.50003E+08         0.00000E+00
    0.00000E+00         0.00000E+00        -0.50043E+08
 
   -0.50213E+08         0.40739E+05         0.00000E+00
    0.40739E+05        -0.50004E+08         0.00000E+00
    0.00000E+00         0.00000E+00        -0.50043E+08
 
   -0.50211E+08         0.45427E+05         0.00000E+00
    0.45427E+05        -0.50005E+08         0.00000E+00
    0.00000E+00         0.00000E+00        -0.50043E+08
 
   -0.50210E+08         0.50074E+05         0.00000E+00
    0.50074E+05        -0.50006E+08         0.00000E+00
    0.00000E+00         0.00000E+00        -0.50043E+08
 
   -0.50208E+08         0.54674E+05         0.00000E+00
    0.54674E+05        -0.50007E+08         0.00000E+00
    0.00000E+00         0.00000E+00        -0.50043E+08
 
   -0.50206E+08         0.59224E+05         0.00000E+00
    0.59224E+05        -0.50008E+08         0.00000E+00
    0.00000E+00         0.00000E+00        -0.50043E+08
 
   -0.50204E+08         0.63718E+05         0.00000E+00
    0.63718E+05        -0.50009E+08         0.00000E+00
    0.00000E+00         0.00000E+00        -0.50043E+08
 
   -0.50201E+08         0.68152E+05         0.00000E+00
    0.68152E+05        -0.50010E+08         0.00000E+00
    0.00000E+00         0.00000E+00        -0.50042E+08
 
   -0.50199E+08         0.72521E+05         0.00000E+00
    0.72521E+05        -0.50012E+08         0.00000E+00
    0.00000E+00         0.00000E+00        -0.50042E+08
 
   -0.50196E+08         0.76822E+05         0.00000E+00
    0.76822E+05        -0.50013E+08         0.00000E+00
    0.00000E+00         0.00000E+00        -0.50042E+08
 
   -0.50193E+08         0.81050E+05         0.00000E+00
    0.81050E+05        -0.50015E+08         0.00000E+00
    0.00000E+00         0.00000E+00        -0.50042E+08
 
   -0.50190E+08         0.85203E+05         0.00000E+00
    0.85203E+05        -0.50017E+08         0.00000E+00
    0.00000E+00         0.00000E+00        -0.50041E+08
 
   -0.50186E+08         0.89275E+05         0.00000E+00
    0.89275E+05        -0.50018E+08         0.00000E+00
    0.00000E+00         0.00000E+00        -0.50041E+08
 
   -0.50183E+08         0.93264E+05         0.00000E+00
    0.93264E+05        -0.50020E+08         0.00000E+00
    0.00000E+00         0.00000E+00        -0.50041E+08
 
   -0.50179E+08         0.97167E+05         0.00000E+00
    0.97167E+05        -0.50022E+08         0.00000E+00
    0.00000E+00         0.00000E+00        -0.50040E+08
 
   -0.50176E+08         0.10098E+06         0.00000E+00
    0.10098E+06        -0.50024E+08         0.00000E+00
    0.00000E+00         0.00000E+00        -0.50040E+08
 
   -0.50172E+08         0.10470E+06         0.00000E+00
    0.10470E+06        -0.50026E+08         0.00000E+00
    0.00000E+00         0.00000E+00        -0.50040E+08
 
   -0.50168E+08         0.10833E+06         0.00000E+00
    0.10833E+06        -0.50028E+08         0.00000E+00
    0.00000E+00         0.00000E+00        -0.50039E+08
 
   -0.50163E+08         0.11185E+06         0.00000E+00
    0.11185E+06        -0.50031E+08         0.00000E+00
    0.00000E+00         0.00000E+00        -0.50039E+08
 
   -0.50159E+08         0.11528E+06         0.00000E+00
    0.11528E+06        -0.50033E+08         0.00000E+00
    0.00000E+00         0.00000E+00        -0.50038E+08
 
   -0.50154E+08         0.11861E+06         0.00000E+00
    0.11861E+06        -0.50035E+08         0.00000E+00
    0.00000E+00         0.00000E+00        -0.50038E+08
 
   -0.50150E+08         0.12183E+06         0.00000E+00
    0.12183E+06        -0.50037E+08         0.00000E+00
    0.00000E+00         0.00000E+00        -0.50037E+08
 
   -0.50145E+08         0.12494E+06         0.00000E+00
    0.12494E+06        -0.50040E+08         0.00000E+00
    0.00000E+00         0.00000E+00        -0.50037E+08
 
   -0.50140E+08         0.12794E+06         0.00000E+00
    0.12794E+06        -0.50042E+08         0.00000E+00
    0.00000E+00         0.00000E+00        -0.50036E+08
 
   -0.50135E+08         0.13084E+06         0.00000E+00
    0.13084E+06        -0.50045E+08         0.00000E+00
    0.00000E+00         0.00000E+00        -0.50036E+08
 
   -0.50130E+08         0.13362E+06         0.00000E+00
    0.13362E+06        -0.50047E+08         0.00000E+00
    0.00000E+00         0.00000E+00        -0.50035E+08
 
   -0.50125E+08         0.13629E+06         0.00000E+00
    0.13629E+06        -0.50050E+08         0.00000E+00
    0.00000E+00         0.00000E+00        -0.50035E+08
 
   -0.50119E+08         0.13884E+06         0.00000E+00
    0.13884E+06        -0.50052E+08         0.00000E+00
    0.00000E+00         0.00000E+00        -0.50034E+08
 
   -0.50114E+08         0.14128E+06         0.00000E+00
    0.14128E+06        -0.50055E+08         0.00000E+00
    0.00000E+00         0.00000E+00        -0.50034E+08
 
   -0.50108E+08         0.14360E+06         0.00000E+00
    0.14360E+06        -0.50058E+08         0.00000E+00
    0.00000E+00         0.00000E+00        -0.50033E+08
 
   -0.50103E+08         0.14580E+06         0.00000E+00
    0.14580E+06        -0.50061E+08         0.00000E+00
    0.00000E+00         0.00000E+00        -0.50033E+08
 
   -0.50097E+08         0.14788E+06         0.00000E+00
    0.14788E+06        -0.50063E+08         0.00000E+00
    0.00000E+00         0.00000E+00        -0.50032E+08
 
   -0.50091E+08         0.14984E+06         0.00000E+00
    0.14984E+06        -0.50066E+08         0.00000E+00
    0.00000E+00         0.00000E+00        -0.50031E+08
 
   -0.50085E+08         0.15167E+06         0.00000E+00
    0.15167E+06        -0.50069E+08         0.00000E+00
    0.00000E+00         0.00000E+00        -0.50031E+08
 
   -0.50079E+08         0.15338E+06         0.00000E+00
    0.15338E+06        -0.50072E+08         0.00000E+00
    0.00000E+00         0.00000E+00        -0.50030E+08
 
   -0.50073E+08         0.15497E+06         0.00000E+00
    0.15497E+06        -0.50075E+08         0.00000E+00
    0.00000E+00         0.00000E+00        -0.50029E+08
 
   -0.50067E+08         0.15643E+06         0.00000E+00
    0.15643E+06        -0.50078E+08         0.00000E+00
    0.00000E+00         0.00000E+00        -0.50029E+08
 
   -0.50060E+08         0.15777E+06         0.00000E+00
    0.15777E+06        -0.50080E+08         0.00000E+00
    0.00000E+00         0.00000E+00        -0.50028E+08
 
   -0.50054E+08         0.15898E+06         0.00000E+00
    0.15898E+06        -0.50083E+08         0.00000E+00
    0.00000E+00         0.00000E+00        -0.50027E+08
 
   -0.50047E+08         0.16006E+06         0.00000E+00
    0.16006E+06        -0.50086E+08         0.00000E+00
    0.00000E+00         0.00000E+00        -0.50027E+08
 
   -0.50041E+08         0.16101E+06         0.00000E+00
    0.16101E+06        -0.50089E+08         0.00000E+00
    0.00000E+00         0.00000E+00        -0.50026E+08
 
   -0.50034E+08         0.16183E+06         0.00000E+00
    0.16183E+06        -0.50092E+08         0.00000E+00
    0.00000E+00         0.00000E+00        -0.50025E+08
 
   -0.50028E+08         0.16251E+06         0.00000E+00
    0.16251E+06        -0.50095E+08         0.00000E+00
    0.00000E+00         0.00000E+00        -0.50025E+08
 
   -0.50195E+08         0.21591E+04         0.00000E+00
    0.21591E+04        -0.50000E+08         0.00000E+00
    0.00000E+00         0.00000E+00        -0.50039E+08
 
   -0.50195E+08         0.65031E+04         0.00000E+00
    0.65031E+04        -0.50000E+08         0.00000E+00
    0.00000E+00         0.00000E+00        -0.50039E+08
 
   -0.50195E+08         0.10851E+05         0.00000E+00
    0.10851E+05        -0.50000E+08         0.00000E+00
    0.00000E+00         0.00000E+00        -0.50039E+08
 
   -0.50195E+08         0.15199E+05         0.00000E+00
    0.15199E+05        -0.50001E+08         0.00000E+00
    0.00000E+00         0.00000E+00        -0.50039E+08
 
   -0.50194E+08         0.19541E+05         0.00000E+00
    0.19541E+05        -0.50001E+08         0.00000E+00
    0.00000E+00         0.00000E+00        -0.50039E+08
 
   -0.50194E+08         0.23871E+05         0.00000E+00
    0.23871E+05        -0.50001E+08         0.00000E+00
    0.00000E+00         0.00000E+00        -0.50039E+08
 
   -0.50193E+08         0.28187E+05         0.00000E+00
    0.28187E+05        -0.50002E+08         0.00000E+00
    0.00000E+00         0.00000E+00        -0.50039E+08
 
   -0.50192E+08         0.32481E+05         0.00000E+00
    0.32481E+05        -0.50002E+08         0.00000E+00
    0.00000E+00         0.00000E+00        -0.50039E+08
 
   -0.50191E+08         0.36751E+05         0.00000E+00
    0.36751E+05        -0.50003E+08         0.00000E+00
    0.00000E+00         0.00000E+00        -0.50039E+08
 
   -0.50189E+08         0.40990E+05         0.00000E+00
    0.40990E+05        -0.50004E+08         0.00000E+00
    0.00000E+00         0.00000E+00        -0.50039E+08
 
   -0.50188E+08         0.45195E+05         0.00000E+00
    0.45195E+05        -0.50005E+08         0.00000E+00
    0.00000E+00         0.00000E+00        -0.50039E+08
 
   -0.50186E+08         0.49362E+05         0.00000E+00
    0.49362E+05        -0.50006E+08         0.00000E+00
    0.00000E+00         0.00000E+00        -0.50038E+08
 
   -0.50184E+08         0.53486E+05         0.00000E+00
    0.53486E+05        -0.50007E+08         0.00000E+00
    0.00000E+00         0.00000E+00        -0.50038E+08
 
   -0.50182E+08         0.57562E+05         0.00000E+00
    0.57562E+05        -0.50008E+08         0.00000E+00
    0.00000E+00         0.00000E+00        -0.50038E+08
 
   -0.50180E+08         0.61588E+05         0.00000E+00
    0.61588E+05        -0.50009E+08         0.00000E+00
    0.00000E+00         0.00000E+00        -0.50038E+08
 
   -0.50178E+08         0.65558E+05         0.00000E+00
    0.65558E+05        -0.50010E+08         0.00000E+00
    0.00000E+00         0.00000E+00        -0.50038E+08
 
   -0.50175E+08         0.69470E+05         0.00000E+00
    0.69470E+05        -0.50012E+08         0.00000E+00
    0.00000E+00         0.00000E+00        -0.50037E+08
 
   -0.50173E+08         0.73319E+05         0.00000E+00
    0.73319E+05        -0.50013E+08         0.00000E+00
    0.00000E+00         0.00000E+00        -0.50037E+08
 
   -0.50170E+08         0.77103E+05         0.00000E+00
    0.77103E+05        -0.50015E+08         0.00000E+00
    0.00000E+00         0.00000E+00        -0.50037E+08
 
   -0.50167E+08         0.80818E+05         0.00000E+00
    0.80818E+05        -0.50016E+08         0.00000E+00
    0.00000E+00         0.00000E+00        -0.50037E+08
 
   -0.50164E+08         0.84460E+05         0.00000E+00
    0.84460E+05        -0.50018E+08         0.00000E+00
    0.00000E+00         0.00000E+00        -0.50036E+08
 
   -0.50161E+08         0.88027E+05         0.00000E+00
    0.88027E+05        -0.50019E+08         0.00000E+00
    0.00000E+00         0.00000E+00        -0.50036E+08
 
   -0.50157E+08         0.91515E+05         0.00000E+00
    0.91515E+05        -0.50021E+08         0.00000E+00
    0.00000E+00         0.00000E+00        -0.50036E+08
 
   -0.50154E+08         0.94922E+05         0.00000E+00
    0.94922E+05        -0.50023E+08         0.00000E+00
    0.00000E+00         0.00000E+00        -0.50035E+08
 
   -0.50150E+08         0.98245E+05         0.00000E+00
    0.98245E+05        -0.50025E+08         0.00000E+00
    0.00000E+00         0.00000E+00        -0.50035E+08
 
   -0.50147E+08         0.10148E+06         0.00000E+00
    0.10148E+06        -0.50027E+08         0.00000E+00
    0.00000E+00         0.00000E+00        -0.50035E+08
 
   -0.50143E+08         0.10463E+06         0.00000E+00
    0.10463E+06        -0.50029E+08         0.00000E+00
    0.00000E+00         0.00000E+00        -0.50034E+08
 
   -0.50139E+08         0.10769E+06         0.00000E+00
    0.10769E+06        -0.50031E+08         0.00000E+00
    0.00000E+00         0.00000E+00        -0.50034E+08
 
   -0.50135E+08         0.11065E+06         0.00000E+00
    0.11065E+06        -0.50033E+08         0.00000E+00
    0.00000E+00         0.00000E+00        -0.50033E+08
 
   -0.50130E+08         0.11352E+06         0.00000E+00
    0.11352E+06        -0.50035E+08         0.00000E+00
    0.00000E+00         0.00000E+00        -0.50033E+08
 
   -0.50126E+08         0.11629E+06         0.00000E+00
    0.11629E+06        -0.50037E+08         0.00000E+00
    0.00000E+00         0.00000E+00        -0.50033E+08
 
   -0.50121E+08         0.11896E+06         0.00000E+00
    0.11896E+06        -0.50039E+08         0.00000E+00
    0.00000E+00         0.00000E+00        -0.50032E+08
 
   -0.50117E+08         0.12153E+06         0.00000E+00
    0.12153E+06        -0.50042E+08         0.00000E+00
    0.00000E+00         0.00000E+00        -0.50032E+08
 
   -0.50112E+08         0.12399E+06         0.00000E+00
    0.12399E+06        -0.50044E+08         0.00000E+00
    0.00000E+00         0.00000E+00        -0.50031E+08
 
   -0.50107E+08         0.12635E+06         0.00000E+00
    0.12635E+06        -0.50046E+08         0.00000E+00
    0.00000E+00         0.00000E+00        -0.50031E+08
 
   -0.50102E+08         0.12861E+06         0.00000E+00
    0.12861E+06        -0.50049E+08         0.00000E+00
    0.00000E+00         0.00000E+00        -0.50030E+08
 
   -0.50097E+08         0.13075E+06         0.00000E+00
    0.13075E+06        -0.50051E+08         0.00000E+00
    0.00000E+00         0.00000E+00        -0.50030E+08
 
   -0.50092E+08         0.13279E+06         0.00000E+00
    0.13279E+06        -0.50054E+08         0.00000E+00
    0.00000E+00         0.00000E+00        -0.50029E+08
 
   -0.50087E+08         0.13472E+06         0.00000E+00
    0.13472E+06        -0.50056E+08         0.00000E+00
    0.00000E+00         0.00000E+00        -0.50029E+08
 
   -0.50082E+08         0.13653E+06         0.00000E+00
    0.13653E+06        -0.50059E+08         0.00000E+00
    0.00000E+00         0.00000E+00        -0.50028E+08
 
   -0.50076E+08         0.13824E+06         0.00000E+00
    0.13824E+06        -0.50061E+08         0.00000E+00
    0.00000E+00         0.00000E+00        -0.50028E+08
 
   -0.50071E+08         0.13982E+06         0.00000E+00
    0.13982E+06        -0.50064E+08         0.00000E+00
    0.00000E+00         0.00000E+00        -0.50027E+08
 
   -0.50065E+08         0.14129E+06         0.00000E+00
    0.14129E+06        -0.50066E+08         0.00000E+00
    0.00000E+00         0.00000E+00        -0.50026E+08
 
   -0.50060E+08         0.14265E+06         0.00000E+00
    0.14265E+06        -0.50069E+08         0.00000E+00
    0.00000E+00         0.00000E+00        -0.50026E+08
 
   -0.50054E+08         0.14388E+06         0.00000E+00
    0.14388E+06        -0.50071E+08         0.00000E+00
    0.00000E+00         0.00000E+00        -0.50025E+08
 
   -0.50048E+08         0.14500E+06         0.00000E+00
    0.14500E+06        -0.50074E+08         0.00000E+00
    0.00000E+00         0.00000E+00        -0.50025E+08
 
   -0.50043E+08         0.14599E+06         0.00000E+00
    0.14599E+06        -0.50077E+08         0.00000E+00
    0.00000E+00         0.00000E+00        -0.50024E+08
 
   -0.50037E+08         0.14687E+06         0.00000E+00
    0.14687E+06        -0.50079E+08         0.00000E+00
    0.00000E+00         0.00000E+00        -0.50023E+08
 
   -0.50031E+08         0.14762E+06         0.00000E+00
    0.14762E+06        -0.50082E+08         0.00000E+00
    0.00000E+00         0.00000E+00        -0.50023E+08
 
   -0.50025E+08         0.14825E+06         0.00000E+00
    0.14825E+06        -0.50085E+08         0.00000E+00
    0.00000E+00         0.00000E+00        -0.50022E+08
 
   -0.50174E+08         0.19545E+04         0.00000E+00
    0.19545E+04        -0.50000E+08         0.00000E+00
    0.00000E+00         0.00000E+00        -0.50035E+08
 
   -0.50174E+08         0.58864E+04         0.00000E+00
    0.58864E+04        -0.50000E+08         0.00000E+00
    0.00000E+00         0.00000E+00        -0.50035E+08
 
   -0.50174E+08         0.98224E+04         0.00000E+00
    0.98224E+04        -0.50000E+08         0.00000E+00
    0.00000E+00         0.00000E+00        -0.50035E+08
 
   -0.50174E+08         0.13758E+05         0.00000E+00
    0.13758E+05        -0.50000E+08         0.00000E+00
    0.00000E+00         0.00000E+00        -0.50035E+08
 
   -0.50173E+08         0.17690E+05         0.00000E+00
    0.17690E+05        -0.50001E+08         0.00000E+00
    0.00000E+00         0.00000E+00        -0.50035E+08
 
   -0.50173E+08         0.21612E+05         0.00000E+00
    0.21612E+05        -0.50001E+08         0.00000E+00
    0.00000E+00         0.00000E+00        -0.50035E+08
 
   -0.50172E+08         0.25522E+05         0.00000E+00
    0.25522E+05        -0.50002E+08         0.00000E+00
    0.00000E+00         0.00000E+00        -0.50035E+08
 
   -0.50171E+08         0.29414E+05         0.00000E+00
    0.29414E+05        -0.50002E+08         0.00000E+00
    0.00000E+00         0.00000E+00        -0.50035E+08
 
   -0.50170E+08         0.33285E+05         0.00000E+00
    0.33285E+05        -0.50003E+08         0.00000E+00
    0.00000E+00         0.00000E+00        -0.50035E+08
 
   -0.50169E+08         0.37131E+05         0.00000E+00
    0.37131E+05        -0.50003E+08         0.00000E+00
    0.00000E+00         0.00000E+00        -0.50035E+08
 
   -0.50168E+08         0.40948E+05         0.00000E+00
    0.40948E+05        -0.50004E+08         0.00000E+00
    0.00000E+00         0.00000E+00        -0.50034E+08
 
   -0.50166E+08         0.44731E+05         0.00000E+00
    0.44731E+05        -0.50005E+08         0.00000E+00
    0.00000E+00         0.00000E+00        -0.50034E+08
 
   -0.50165E+08         0.48478E+05         0.00000E+00
    0.48478E+05        -0.50006E+08         0.00000E+00
    0.00000E+00         0.00000E+00        -0.50034E+08
 
   -0.50163E+08         0.52185E+05         0.00000E+00
    0.52185E+05        -0.50007E+08         0.00000E+00
    0.00000E+00         0.00000E+00        -0.50034E+08
 
   -0.50161E+08         0.55847E+05         0.00000E+00
    0.55847E+05        -0.50008E+08         0.00000E+00
    0.00000E+00         0.00000E+00        -0.50034E+08
 
   -0.50159E+08         0.59462E+05         0.00000E+00
    0.59462E+05        -0.50009E+08         0.00000E+00
    0.00000E+00         0.00000E+00        -0.50034E+08
 
   -0.50157E+08         0.63025E+05         0.00000E+00
    0.63025E+05        -0.50010E+08         0.00000E+00
    0.00000E+00         0.00000E+00        -0.50033E+08
 
   -0.50155E+08         0.66535E+05         0.00000E+00
    0.66535E+05        -0.50011E+08         0.00000E+00
    0.00000E+00         0.00000E+00        -0.50033E+08
 
   -0.50152E+08         0.69987E+05         0.00000E+00
    0.69987E+05        -0.50013E+08         0.00000E+00
    0.00000E+00         0.00000E+00        -0.50033E+08
 
   -0.50150E+08         0.73378E+05         0.00000E+00
    0.73378E+05        -0.50014E+08         0.00000E+00
    0.00000E+00         0.00000E+00        -0.50033E+08
 
   -0.50147E+08         0.76706E+05         0.00000E+00
    0.76706E+05        -0.50016E+08         0.00000E+00
    0.00000E+00         0.00000E+00        -0.50032E+08
 
   -0.50144E+08         0.79968E+05         0.00000E+00
    0.79968E+05        -0.50017E+08         0.00000E+00
    0.00000E+00         0.00000E+00        -0.50032E+08
 
   -0.50141E+08         0.83160E+05         0.00000E+00
    0.83160E+05        -0.50019E+08         0.00000E+00
    0.00000E+00         0.00000E+00        -0.50032E+08
 
   -0.50138E+08         0.86280E+05         0.00000E+00
    0.86280E+05        -0.50020E+08         0.00000E+00
    0.00000E+00         0.00000E+00        -0.50032E+08
 
   -0.50135E+08         0.89326E+05         0.00000E+00
    0.89326E+05        -0.50022E+08         0.00000E+00
    0.00000E+00         0.00000E+00        -0.50031E+08
 
   -0.50131E+08         0.92295E+05         0.00000E+00
    0.92295E+05        -0.50023E+08         0.00000E+00
    0.00000E+00         0.00000E+00        -0.50031E+08
 
   -0.50128E+08         0.95184E+05         0.00000E+00
    0.95184E+05        -0.50025E+08         0.00000E+00
    0.00000E+00         0.00000E+00        -0.50031E+08
 
   -0.50124E+08         0.97992E+05         0.00000E+00
    0.97992E+05        -0.50027E+08         0.00000E+00
    0.00000E+00         0.00000E+00        -0.50030E+08
 
   -0.50121E+08         0.10072E+06         0.00000E+00
    0.10072E+06        -0.50029E+08         0.00000E+00
    0.00000E+00         0.00000E+00        -0.50030E+08
 
   -0.50117E+08         0.10335E+06         0.00000E+00
    0.10335E+06        -0.50031E+08         0.00000E+00
    0.00000E+00         0.00000E+00        -0.50030E+08
 
   -0.50113E+08         0.10590E+06         0.00000E+00
    0.10590E+06        -0.50033E+08         0.00000E+00
    0.00000E+00         0.00000E+00        -0.50029E+08
 
   -0.50109E+08         0.10836E+06         0.00000E+00
    0.10836E+06        -0.50035E+08         0.00000E+00
    0.00000E+00         0.00000E+00        -0.50029E+08
 
   -0.50105E+08         0.11073E+06         0.00000E+00
    0.11073E+06        -0.50037E+08         0.00000E+00
    0.00000E+00         0.00000E+00        -0.50028E+08
 
   -0.50101E+08         0.11300E+06         0.00000E+00
    0.11300E+06        -0.50039E+08         0.00000E+00
    0.00000E+00         0.00000E+00        -0.50028E+08
 
   -0.50096E+08         0.11518E+06         0.00000E+00
    0.11518E+06        -0.50041E+08         0.00000E+00
    0.00000E+00         0.00000E+00        -0.50027E+08
 
   -0.50092E+08         0.11726E+06         0.00000E+00
    0.11726E+06        -0.50043E+08         0.00000E+00
    0.00000E+00         0.00000E+00        -0.50027E+08
 
   -0.50087E+08         0.11925E+06         0.00000E+00
    0.11925E+06        -0.50045E+08         0.00000E+00
    0.00000E+00         0.00000E+00        -0.50027E+08
 
   -0.50083E+08         0.12113E+06         0.00000E+00
    0.12113E+06        -0.50047E+08         0.00000E+00
    0.00000E+00         0.00000E+00        -0.50026E+08
 
   -0.50078E+08         0.12291E+06         0.00000E+00
    0.12291E+06        -0.50050E+08         0.00000E+00
    0.00000E+00         0.00000E+00        -0.50026E+08
 
   -0.50073E+08         0.12459E+06         0.00000E+00
    0.12459E+06        -0.50052E+08         0.00000E+00
    0.00000E+00         0.00000E+00        -0.50025E+08
 
   -0.50069E+08         0.12616E+06         0.00000E+00
    0.12616E+06        -0.50054E+08         0.00000E+00
    0.00000E+00         0.00000E+00        -0.50025E+08
 
   -0.50064E+08         0.12762E+06         0.00000E+00
    0.12762E+06        -0.50056E+08         0.00000E+00
    0.00000E+00         0.00000E+00        -0.50024E+08
 
   -0.50059E+08         0.12898E+06         0.00000E+00
    0.12898E+06        -0.50059E+08         0.00000E+00
    0.00000E+00         0.00000E+00        -0.50023E+08
 
   -0.50054E+08         0.13023E+06         0.00000E+00
    0.13023E+06        -0.50061E+08         0.00000E+00
    0.00000E+00         0.00000E+00        -0.50023E+08
 
   -0.50049E+08         0.13137E+06         0.00000E+00
    0.13137E+06        -0.50063E+08         0.00000E+00
    0.00000E+00         0.00000E+00        -0.50022E+08
 
   -0.50043E+08         0.13240E+06         0.00000E+00
    0.13240E+06        -0.50066E+08         0.00000E+00
    0.00000E+00         0.00000E+00        -0.50022E+08
 
   -0.50038E+08         0.13332E+06         0.00000E+00
    0.13332E+06        -0.50068E+08         0.00000E+00
    0.00000E+00         0.00000E+00        -0.50021E+08
 
   -0.50033E+08         0.13412E+06         0.00000E+00
    0.13412E+06        -0.50071E+08         0.00000E+00
    0.00000E+00         0.00000E+00        -0.50021E+08
 
   -0.50027E+08         0.13480E+06         0.00000E+00
    0.13480E+06        -0.50073E+08         0.00000E+00
    0.00000E+00         0.00000E+00        -0.50020E+08
 
   -0.50022E+08         0.13538E+06         0.00000E+00
    0.13538E+06        -0.50075E+08         0.00000E+00
    0.00000E+00         0.00000E+00        -0.50019E+08
 
   -0.50155E+08         0.17777E+04         0.00000E+00
    0.17777E+04        -0.50000E+08         0.00000E+00
    0.00000E+00         0.00000E+00        -0.50031E+08
 
   -0.50155E+08         0.53525E+04         0.00000E+00
    0.53525E+04        -0.50000E+08         0.00000E+00
    0.00000E+00         0.00000E+00        -0.50031E+08
 
   -0.50155E+08         0.89309E+04         0.00000E+00
    0.89309E+04        -0.50000E+08         0.00000E+00
    0.00000E+00         0.00000E+00        -0.50031E+08
 
   -0.50155E+08         0.12509E+05         0.00000E+00
    0.12509E+05        -0.50000E+08         0.00000E+00
    0.00000E+00         0.00000E+00        -0.50031E+08
 
   -0.50155E+08         0.16083E+05         0.00000E+00
    0.16083E+05        -0.50001E+08         0.00000E+00
    0.00000E+00         0.00000E+00        -0.50031E+08
 
   -0.50154E+08         0.19650E+05         0.00000E+00
    0.19650E+05        -0.50001E+08         0.00000E+00
    0.00000E+00         0.00000E+00        -0.50031E+08
 
   -0.50154E+08         0.23205E+05         0.00000E+00
    0.23205E+05        -0.50001E+08         0.00000E+00
    0.00000E+00         0.00000E+00        -0.50031E+08
 
   -0.50153E+08         0.26746E+05         0.00000E+00
    0.26746E+05        -0.50002E+08         0.00000E+00
    0.00000E+00         0.00000E+00        -0.50031E+08
 
   -0.50152E+08         0.30268E+05         0.00000E+00
    0.30268E+05        -0.50002E+08         0.00000E+00
    0.00000E+00         0.00000E+00        -0.50031E+08
 
   -0.50151E+08         0.33769E+05         0.00000E+00
    0.33769E+05        -0.50003E+08         0.00000E+00
    0.00000E+00         0.00000E+00        -0.50031E+08
 
   -0.50150E+08         0.37243E+05         0.00000E+00
    0.37243E+05        -0.50004E+08         0.00000E+00
    0.00000E+00         0.00000E+00        -0.50031E+08
 
   -0.50148E+08         0.40690E+05         0.00000E+00
    0.40690E+05        -0.50004E+08         0.00000E+00
    0.00000E+00         0.00000E+00        -0.50031E+08
 
   -0.50147E+08         0.44104E+05         0.00000E+00
    0.44104E+05        -0.50005E+08         0.00000E+00
    0.00000E+00         0.00000E+00        -0.50030E+08
 
   -0.50145E+08         0.47482E+05         0.00000E+00
    0.47482E+05        -0.50006E+08         0.00000E+00
    0.00000E+00         0.00000E+00        -0.50030E+08
 
   -0.50144E+08         0.50822E+05         0.00000E+00
    0.50822E+05        -0.50007E+08         0.00000E+00
    0.00000E+00         0.00000E+00        -0.50030E+08
 
   -0.50142E+08         0.54120E+05         0.00000E+00
    0.54120E+05        -0.50008E+08         0.00000E+00
    0.00000E+00         0.00000E+00        -0.50030E+08
 
   -0.50140E+08         0.57374E+05         0.00000E+00
    0.57374E+05        -0.50009E+08         0.00000E+00
    0.00000E+00         0.00000E+00        -0.50030E+08
 
   -0.50138E+08         0.60579E+05         0.00000E+00
    0.60579E+05        -0.50010E+08         0.00000E+00
    0.00000E+00         0.00000E+00        -0.50030E+08
 
   -0.50136E+08         0.63734E+05         0.00000E+00
    0.63734E+05        -0.50011E+08         0.00000E+00
    0.00000E+00         0.00000E+00        -0.50029E+08
 
   -0.50133E+08         0.66835E+05         0.00000E+00
    0.66835E+05        -0.50012E+08         0.00000E+00
    0.00000E+00         0.00000E+00        -0.50029E+08
 
   -0.50131E+08         0.69880E+05         0.00000E+00
    0.69880E+05        -0.50014E+08         0.00000E+00
    0.00000E+00         0.00000E+00        -0.50029E+08
 
   -0.50129E+08         0.72866E+05         0.00000E+00
    0.72866E+05        -0.50015E+08         0.00000E+00
    0.00000E+00         0.00000E+00        -0.50029E+08
 
   -0.50126E+08         0.75790E+05         0.00000E+00
    0.75790E+05        -0.50016E+08         0.00000E+00
    0.00000E+00         0.00000E+00        -0.50028E+08
 
   -0.50123E+08         0.78649E+05         0.00000E+00
    0.78649E+05        -0.50018E+08         0.00000E+00
    0.00000E+00         0.00000E+00        -0.50028E+08
 
   -0.50120E+08         0.81442E+05         0.00000E+00
    0.81442E+05        -0.50019E+08         0.00000E+00
    0.00000E+00         0.00000E+00        -0.50028E+08
 
   -0.50117E+08         0.84166E+05         0.00000E+00
    0.84166E+05        -0.50021E+08         0.00000E+00
    0.00000E+00         0.00000E+00        -0.50028E+08
 
   -0.50114E+08         0.86819E+05         0.00000E+00
    0.86819E+05        -0.50022E+08         0.00000E+00
    0.00000E+00         0.00000E+00        -0.50027E+08
 
   -0.50111E+08         0.89398E+05         0.00000E+00
    0.89398E+05        -0.50024E+08         0.00000E+00
    0.00000E+00         0.00000E+00        -0.50027E+08
 
   -0.50108E+08         0.91901E+05         0.00000E+00
    0.91901E+05        -0.50025E+08         0.00000E+00
    0.00000E+00         0.00000E+00        -0.50027E+08
 
   -0.50104E+08         0.94327E+05         0.00000E+00
    0.94327E+05        -0.50027E+08         0.00000E+00
    0.00000E+00         0.00000E+00        -0.50026E+08
 
   -0.50101E+08         0.96672E+05         0.00000E+00
    0.96672E+05        -0.50029E+08         0.00000E+00
    0.00000E+00         0.00000E+00        -0.50026E+08
 
   -0.50097E+08         0.98936E+05         0.00000E+00
    0.98936E+05        -0.50031E+08         0.00000E+00
    0.00000E+00         0.00000E+00        -0.50026E+08
 
   -0.50094E+08         0.10112E+06         0.00000E+00
    0.10112E+06        -0.50032E+08         0.00000E+00
    0.00000E+00         0.00000E+00        -0.50025E+08
 
   -0.50090E+08         0.10321E+06         0.00000E+00
    0.10321E+06        -0.50034E+08         0.00000E+00
    0.00000E+00         0.00000E+00        -0.50025E+08
 
   -0.50086E+08         0.10522E+06         0.00000E+00
    0.10522E+06        -0.50036E+08         0.00000E+00
    0.00000E+00         0.00000E+00        -0.50024E+08
 
   -0.50082E+08         0.10714E+06         0.00000E+00
    0.10714E+06        -0.50038E+08         0.00000E+00
    0.00000E+00         0.00000E+00        -0.50024E+08
 
   -0.50078E+08         0.10896E+06         0.00000E+00
    0.10896E+06        -0.50040E+08         0.00000E+00
    0.00000E+00         0.00000E+00        -0.50024E+08
 
   -0.50074E+08         0.11070E+06         0.00000E+00
    0.11070E+06        -0.50042E+08         0.00000E+00
    0.00000E+00         0.00000E+00        -0.50023E+08
 
   -0.50070E+08         0.11234E+06         0.00000E+00
    0.11234E+06        -0.50044E+08         0.00000E+00
    0.00000E+00         0.00000E+00        -0.50023E+08
 
   -0.50066E+08         0.11389E+06         0.00000E+00
    0.11389E+06        -0.50046E+08         0.00000E+00
    0.00000E+00         0.00000E+00        -0.50022E+08
 
   -0.50061E+08         0.11534E+06         0.00000E+00
    0.11534E+06        -0.50048E+08         0.00000E+00
    0.00000E+00         0.00000E+00        -0.50022E+08
 
   -0.50057E+08         0.11669E+06         0.00000E+00
    0.11669E+06        -0.50050E+08         0.00000E+00
    0.00000E+00         0.00000E+00        -0.50021E+08
 
   -0.50052E+08         0.11794E+06         0.00000E+00
    0.11794E+06        -0.50052E+08         0.00000E+00
    0.00000E+00         0.00000E+00        -0.50021E+08
 
   -0.50048E+08         0.11910E+06         0.00000E+00
    0.11910E+06        -0.50054E+08         0.00000E+00
    0.00000E+00         0.00000E+00        -0.50020E+08
 
   -0.50043E+08         0.12014E+06         0.00000E+00
    0.12014E+06        -0.50056E+08         0.00000E+00
    0.00000E+00         0.00000E+00        -0.50020E+08
 
   -0.50039E+08         0.12109E+06         0.00000E+00
    0.12109E+06        -0.50058E+08         0.00000E+00
    0.00000E+00         0.00000E+00        -0.50019E+08
 
   -0.50034E+08         0.12193E+06         0.00000E+00
    0.12193E+06        -0.50060E+08         0.00000E+00
    0.00000E+00         0.00000E+00        -0.50019E+08
 
   -0.50029E+08         0.12267E+06         0.00000E+00
    0.12267E+06        -0.50063E+08         0.00000E+00
    0.00000E+00         0.00000E+00        -0.50018E+08
 
   -0.50024E+08         0.12329E+06         0.00000E+00
    0.12329E+06        -0.50065E+08         0.00000E+00
    0.00000E+00         0.00000E+00        -0.50018E+08
 
   -0.50019E+08         0.12381E+06         0.00000E+00
    0.12381E+06        -0.50067E+08         0.00000E+00
    0.00000E+00         0.00000E+00        -0.50017E+08
 
   -0.50138E+08         0.16244E+04         0.00000E+00
    0.16244E+04        -0.50000E+08         0.00000E+00
    0.00000E+00         0.00000E+00        -0.50028E+08
 
   -0.50138E+08         0.48891E+04         0.00000E+00
    0.48891E+04        -0.50000E+08         0.00000E+00
    0.00000E+00         0.00000E+00        -0.50028E+08
 
   -0.50138E+08         0.81565E+04         0.00000E+00
    0.81565E+04        -0.50000E+08         0.00000E+00
    0.00000E+00         0.00000E+00        -0.50028E+08
 
   -0.50138E+08         0.11423E+05         0.00000E+00
    0.11423E+05        -0.50000E+08         0.00000E+00
    0.00000E+00         0.00000E+00        -0.50028E+08
 
   -0.50138E+08         0.14687E+05         0.00000E+00
    0.14687E+05        -0.50001E+08         0.00000E+00
    0.00000E+00         0.00000E+00        -0.50028E+08
 
   -0.50137E+08         0.17943E+05         0.00000E+00
    0.17943E+05        -0.50001E+08         0.00000E+00
    0.00000E+00         0.00000E+00        -0.50028E+08
 
   -0.50137E+08         0.21189E+05         0.00000E+00
    0.21189E+05        -0.50001E+08         0.00000E+00
    0.00000E+00         0.00000E+00        -0.50028E+08
 
   -0.50136E+08         0.24422E+05         0.00000E+00
    0.24422E+05        -0.50002E+08         0.00000E+00
    0.00000E+00         0.00000E+00        -0.50028E+08
 
   -0.50135E+08         0.27638E+05         0.00000E+00
    0.27638E+05        -0.50002E+08         0.00000E+00
    0.00000E+00         0.00000E+00        -0.50027E+08
 
   -0.50134E+08         0.30835E+05         0.00000E+00
    0.30835E+05        -0.50003E+08         0.00000E+00
    0.00000E+00         0.00000E+00        -0.50027E+08
 
   -0.50133E+08         0.34010E+05         0.00000E+00
    0.34010E+05        -0.50003E+08         0.00000E+00
    0.00000E+00         0.00000E+00        -0.50027E+08
 
   -0.50132E+08         0.37159E+05         0.00000E+00
    0.37159E+05        -0.50004E+08         0.00000E+00
    0.00000E+00         0.00000E+00        -0.50027E+08
 
   -0.50131E+08         0.40279E+05         0.00000E+00
    0.40279E+05        -0.50004E+08         0.00000E+00
    0.00000E+00         0.00000E+00        -0.50027E+08
 
   -0.50129E+08         0.43368E+05         0.00000E+00
    0.43368E+05        -0.50005E+08         0.00000E+00
    0.00000E+00         0.00000E+00        -0.50027E+08
 
   -0.50128E+08         0.46423E+05         0.00000E+00
    0.46423E+05        -0.50006E+08         0.00000E+00
    0.00000E+00         0.00000E+00        -0.50027E+08
 
   -0.50126E+08         0.49440E+05         0.00000E+00
    0.49440E+05        -0.50007E+08         0.00000E+00
    0.00000E+00         0.00000E+00        -0.50027E+08
 
   -0.50125E+08         0.52418E+05         0.00000E+00
    0.52418E+05        -0.50008E+08         0.00000E+00
    0.00000E+00         0.00000E+00        -0.50026E+08
 
   -0.50123E+08         0.55353E+05         0.00000E+00
    0.55353E+05        -0.50009E+08         0.00000E+00
    0.00000E+00         0.00000E+00        -0.50026E+08
 
   -0.50121E+08         0.58242E+05         0.00000E+00
    0.58242E+05        -0.50010E+08         0.00000E+00
    0.00000E+00         0.00000E+00        -0.50026E+08
 
   -0.50119E+08         0.61083E+05         0.00000E+00
    0.61083E+05        -0.50011E+08         0.00000E+00
    0.00000E+00         0.00000E+00        -0.50026E+08
 
   -0.50117E+08         0.63874E+05         0.00000E+00
    0.63874E+05        -0.50012E+08         0.00000E+00
    0.00000E+00         0.00000E+00        -0.50026E+08
 
   -0.50114E+08         0.66612E+05         0.00000E+00
    0.66612E+05        -0.50013E+08         0.00000E+00
    0.00000E+00         0.00000E+00        -0.50025E+08
 
   -0.50112E+08         0.69295E+05         0.00000E+00
    0.69295E+05        -0.50014E+08         0.00000E+00
    0.00000E+00         0.00000E+00        -0.50025E+08
 
   -0.50110E+08         0.71919E+05         0.00000E+00
    0.71919E+05        -0.50015E+08         0.00000E+00
    0.00000E+00         0.00000E+00        -0.50025E+08
 
   -0.50107E+08         0.74484E+05         0.00000E+00
    0.74484E+05        -0.50017E+08         0.00000E+00
    0.00000E+00         0.00000E+00        -0.50025E+08
 
   -0.50104E+08         0.76986E+05         0.00000E+00
    0.76986E+05        -0.50018E+08         0.00000E+00
    0.00000E+00         0.00000E+00        -0.50024E+08
 
   -0.50102E+08         0.79423E+05         0.00000E+00
    0.79423E+05        -0.50019E+08         0.00000E+00
    0.00000E+00         0.00000E+00        -0.50024E+08
 
   -0.50099E+08         0.81794E+05         0.00000E+00
    0.81794E+05        -0.50021E+08         0.00000E+00
    0.00000E+00         0.00000E+00        -0.50024E+08
 
   -0.50096E+08         0.84096E+05         0.00000E+00
    0.84096E+05        -0.50022E+08         0.00000E+00
    0.00000E+00         0.00000E+00        -0.50024E+08
 
   -0.50093E+08         0.86328E+05         0.00000E+00
    0.86328E+05        -0.50024E+08         0.00000E+00
    0.00000E+00         0.00000E+00        -0.50023E+08
 
   -0.50090E+08         0.88486E+05         0.00000E+00
    0.88486E+05        -0.50025E+08         0.00000E+00
    0.00000E+00         0.00000E+00        -0.50023E+08
 
   -0.50087E+08         0.90570E+05         0.00000E+00
    0.90570E+05        -0.50027E+08         0.00000E+00
    0.00000E+00         0.00000E+00        -0.50023E+08
 
   -0.50083E+08         0.92578E+05         0.00000E+00
    0.92578E+05        -0.50028E+08         0.00000E+00
    0.00000E+00         0.00000E+00        -0.50022E+08
 
   -0.50080E+08         0.94507E+05         0.00000E+00
    0.94507E+05        -0.50030E+08         0.00000E+00
    0.00000E+00         0.00000E+00        -0.50022E+08
 
   -0.50077E+08         0.96357E+05         0.00000E+00
    0.96357E+05        -0.50032E+08         0.00000E+00
    0.00000E+00         0.00000E+00        -0.50022E+08
 
   -0.50073E+08         0.98125E+05         0.00000E+00
    0.98125E+05        -0.50033E+08         0.00000E+00
    0.00000E+00         0.00000E+00        -0.50021E+08
 
   -0.50070E+08         0.99810E+05         0.00000E+00
    0.99810E+05        -0.50035E+08         0.00000E+00
    0.00000E+00         0.00000E+00        -0.50021E+08
 
   -0.50066E+08         0.10141E+06         0.00000E+00
    0.10141E+06        -0.50037E+08         0.00000E+00
    0.00000E+00         0.00000E+00        -0.50021E+08
 
   -0.50062E+08         0.10292E+06         0.00000E+00
    0.10292E+06        -0.50039E+08         0.00000E+00
    0.00000E+00         0.00000E+00        -0.50020E+08
 
   -0.50058E+08         0.10435E+06         0.00000E+00
    0.10435E+06        -0.50040E+08         0.00000E+00
    0.00000E+00         0.00000E+00        -0.50020E+08
 
   -0.50055E+08         0.10569E+06         0.00000E+00
    0.10569E+06        -0.50042E+08         0.00000E+00
    0.00000E+00         0.00000E+00        -0.50019E+08
 
   -0.50051E+08         0.10693E+06         0.00000E+00
    0.10693E+06        -0.50044E+08         0.00000E+00
    0.00000E+00         0.00000E+00        -0.50019E+08
 
   -0.50047E+08         0.10809E+06         0.00000E+00
    0.10809E+06        -0.50046E+08         0.00000E+00
    0.00000E+00         0.00000E+00        -0.50019E+08
 
   -0.50043E+08         0.10915E+06         0.00000E+00
    0.10915E+06        -0.50048E+08         0.00000E+00
    0.00000E+00         0.00000E+00        -0.50018E+08
 
   -0.50039E+08         0.11011E+06         0.00000E+00
    0.11011E+06        -0.50050E+08         0.00000E+00
    0.00000E+00         0.00000E+00        -0.50018E+08
 
   -0.50034E+08         0.11098E+06         0.00000E+00
    0.11098E+06        -0.50052E+08         0.00000E+00
    0.00000E+00         0.00000E+00        -0.50017E+08
 
   -0.50030E+08         0.11175E+06         0.00000E+00
    0.11175E+06        -0.50053E+08         0.00000E+00
    0.00000E+00         0.00000E+00        -0.50017E+08
 
   -0.50026E+08         0.11243E+06         0.00000E+00
    0.11243E+06        -0.50055E+08         0.00000E+00
    0.00000E+00         0.00000E+00        -0.50016E+08
 
   -0.50022E+08         0.11300E+06         0.00000E+00
    0.11300E+06        -0.50057E+08         0.00000E+00
    0.00000E+00         0.00000E+00        -0.50016E+08
 
   -0.50017E+08         0.11348E+06         0.00000E+00
    0.11348E+06        -0.50059E+08         0.00000E+00
    0.00000E+00         0.00000E+00        -0.50015E+08
 
   -0.50123E+08         0.14912E+04         0.00000E+00
    0.14912E+04        -0.50000E+08         0.00000E+00
    0.00000E+00         0.00000E+00        -0.50025E+08
 
   -0.50123E+08         0.44862E+04         0.00000E+00
    0.44862E+04        -0.50000E+08         0.00000E+00
    0.00000E+00         0.00000E+00        -0.50025E+08
 
   -0.50123E+08         0.74829E+04         0.00000E+00
    0.74829E+04        -0.50000E+08         0.00000E+00
    0.00000E+00         0.00000E+00        -0.50025E+08
 
   -0.50122E+08         0.10479E+05         0.00000E+00
    0.10479E+05        -0.50000E+08         0.00000E+00
    0.00000E+00         0.00000E+00        -0.50025E+08
 
   -0.50122E+08         0.13471E+05         0.00000E+00
    0.13471E+05        -0.50000E+08         0.00000E+00
    0.00000E+00         0.00000E+00        -0.50025E+08
 
   -0.50122E+08         0.16456E+05         0.00000E+00
    0.16456E+05        -0.50001E+08         0.00000E+00
    0.00000E+00         0.00000E+00        -0.50024E+08
 
   -0.50121E+08         0.19432E+05         0.00000E+00
    0.19432E+05        -0.50001E+08         0.00000E+00
    0.00000E+00         0.00000E+00        -0.50024E+08
 
   -0.50121E+08         0.22396E+05         0.00000E+00
    0.22396E+05        -0.50001E+08         0.00000E+00
    0.00000E+00         0.00000E+00        -0.50024E+08
 
   -0.50120E+08         0.25345E+05         0.00000E+00
    0.25345E+05        -0.50002E+08         0.00000E+00
    0.00000E+00         0.00000E+00        -0.50024E+08
 
   -0.50119E+08         0.28276E+05         0.00000E+00
    0.28276E+05        -0.50002E+08         0.00000E+00
    0.00000E+00         0.00000E+00        -0.50024E+08
 
   -0.50118E+08         0.31187E+05         0.00000E+00
    0.31187E+05        -0.50003E+08         0.00000E+00
    0.00000E+00         0.00000E+00        -0.50024E+08
 
   -0.50117E+08         0.34075E+05         0.00000E+00
    0.34075E+05        -0.50003E+08         0.00000E+00
    0.00000E+00         0.00000E+00        -0.50024E+08
 
   -0.50116E+08         0.36937E+05         0.00000E+00
    0.36937E+05        -0.50004E+08         0.00000E+00
    0.00000E+00         0.00000E+00        -0.50024E+08
 
   -0.50115E+08         0.39771E+05         0.00000E+00
    0.39771E+05        -0.50005E+08         0.00000E+00
    0.00000E+00         0.00000E+00        -0.50024E+08
 
   -0.50113E+08         0.42574E+05         0.00000E+00
    0.42574E+05        -0.50005E+08         0.00000E+00
    0.00000E+00         0.00000E+00        -0.50024E+08
 
   -0.50112E+08         0.45343E+05         0.00000E+00
    0.45343E+05        -0.50006E+08         0.00000E+00
    0.00000E+00         0.00000E+00        -0.50024E+08
 
   -0.50110E+08         0.48076E+05         0.00000E+00
    0.48076E+05        -0.50007E+08         0.00000E+00
    0.00000E+00         0.00000E+00        -0.50023E+08
 
   -0.50109E+08         0.50770E+05         0.00000E+00
    0.50770E+05        -0.50008E+08         0.00000E+00
    0.00000E+00         0.00000E+00        -0.50023E+08
 
   -0.50107E+08         0.53424E+05         0.00000E+00
    0.53424E+05        -0.50008E+08         0.00000E+00
    0.00000E+00         0.00000E+00        -0.50023E+08
 
   -0.50105E+08         0.56034E+05         0.00000E+00
    0.56034E+05        -0.50009E+08         0.00000E+00
    0.00000E+00         0.00000E+00        -0.50023E+08
 
   -0.50103E+08         0.58599E+05         0.00000E+00
    0.58599E+05        -0.50010E+08         0.00000E+00
    0.00000E+00         0.00000E+00        -0.50023E+08
 
   -0.50101E+08         0.61115E+05         0.00000E+00
    0.61115E+05        -0.50011E+08         0.00000E+00
    0.00000E+00         0.00000E+00        -0.50023E+08
 
   -0.50099E+08         0.63582E+05         0.00000E+00
    0.63582E+05        -0.50012E+08         0.00000E+00
    0.00000E+00         0.00000E+00        -0.50022E+08
 
   -0.50097E+08         0.65995E+05         0.00000E+00
    0.65995E+05        -0.50014E+08         0.00000E+00
    0.00000E+00         0.00000E+00        -0.50022E+08
 
   -0.50095E+08         0.68355E+05         0.00000E+00
    0.68355E+05        -0.50015E+08         0.00000E+00
    0.00000E+00         0.00000E+00        -0.50022E+08
 
   -0.50093E+08         0.70657E+05         0.00000E+00
    0.70657E+05        -0.50016E+08         0.00000E+00
    0.00000E+00         0.00000E+00        -0.50022E+08
 
   -0.50090E+08         0.72901E+05         0.00000E+00
    0.72901E+05        -0.50017E+08         0.00000E+00
    0.00000E+00         0.00000E+00        -0.50021E+08
 
   -0.50088E+08         0.75084E+05         0.00000E+00
    0.75084E+05        -0.50018E+08         0.00000E+00
    0.00000E+00         0.00000E+00        -0.50021E+08
 
   -0.50085E+08         0.77204E+05         0.00000E+00
    0.77204E+05        -0.50020E+08         0.00000E+00
    0.00000E+00         0.00000E+00        -0.50021E+08
 
   -0.50082E+08         0.79259E+05         0.00000E+00
    0.79259E+05        -0.50021E+08         0.00000E+00
    0.00000E+00         0.00000E+00        -0.50021E+08
 
   -0.50080E+08         0.81248E+05         0.00000E+00
    0.81248E+05        -0.50022E+08         0.00000E+00
    0.00000E+00         0.00000E+00        -0.50020E+08
 
   -0.50077E+08         0.83169E+05         0.00000E+00
    0.83169E+05        -0.50024E+08         0.00000E+00
    0.00000E+00         0.00000E+00        -0.50020E+08
 
   -0.50074E+08         0.85020E+05         0.00000E+00
    0.85020E+05        -0.50025E+08         0.00000E+00
    0.00000E+00         0.00000E+00        -0.50020E+08
 
   -0.50071E+08         0.86799E+05         0.00000E+00
    0.86799E+05        -0.50026E+08         0.00000E+00
    0.00000E+00         0.00000E+00        -0.50019E+08
 
   -0.50068E+08         0.88504E+05         0.00000E+00
    0.88504E+05        -0.50028E+08         0.00000E+00
    0.00000E+00         0.00000E+00        -0.50019E+08
 
   -0.50065E+08         0.90135E+05         0.00000E+00
    0.90135E+05        -0.50029E+08         0.00000E+00
    0.00000E+00         0.00000E+00        -0.50019E+08
 
   -0.50062E+08         0.91688E+05         0.00000E+00
    0.91688E+05        -0.50031E+08         0.00000E+00
    0.00000E+00         0.00000E+00        -0.50019E+08
 
   -0.50058E+08         0.93164E+05         0.00000E+00
    0.93164E+05        -0.50032E+08         0.00000E+00
    0.00000E+00         0.00000E+00        -0.50018E+08
 
   -0.50055E+08         0.94560E+05         0.00000E+00
    0.94560E+05        -0.50034E+08         0.00000E+00
    0.00000E+00         0.00000E+00        -0.50018E+08
 
   -0.50052E+08         0.95875E+05         0.00000E+00
    0.95875E+05        -0.50036E+08         0.00000E+00
    0.00000E+00         0.00000E+00        -0.50017E+08
 
   -0.50048E+08         0.97107E+05         0.00000E+00
    0.97107E+05        -0.50037E+08         0.00000E+00
    0.00000E+00         0.00000E+00        -0.50017E+08
 
   -0.50045E+08         0.98256E+05         0.00000E+00
    0.98256E+05        -0.50039E+08         0.00000E+00
    0.00000E+00         0.00000E+00        -0.50017E+08
 
   -0.50041E+08         0.99319E+05         0.00000E+00
    0.99319E+05        -0.50040E+08         0.00000E+00
    0.00000E+00         0.00000E+00        -0.50016E+08
 
   -0.50038E+08         0.10030E+06         0.00000E+00
    0.10030E+06        -0.50042E+08         0.00000E+00
    0.00000E+00         0.00000E+00        -0.50016E+08
 
   -0.50034E+08         0.10119E+06         0.00000E+00
    0.10119E+06        -0.50044E+08         0.00000E+00
    0.00000E+00         0.00000E+00        -0.50016E+08
 
   -0.50030E+08         0.10199E+06         0.00000E+00
    0.10199E+06        -0.50045E+08         0.00000E+00
    0.00000E+00         0.00000E+00        -0.50015E+08
 
   -0.50027E+08         0.10270E+06         0.00000E+00
    0.10270E+06        -0.50047E+08         0.00000E+00
    0.00000E+00         0.00000E+00        -0.50015E+08
 
   -0.50023E+08         0.10331E+06         0.00000E+00
    0.10331E+06        -0.50049E+08         0.00000E+00
    0.00000E+00         0.00000E+00        -0.50014E+08
 
   -0.50019E+08         0.10384E+06         0.00000E+00
    0.10384E+06        -0.50051E+08         0.00000E+00
    0.00000E+00         0.00000E+00        -0.50014E+08
 
   -0.50015E+08         0.10427E+06         0.00000E+00
    0.10427E+06        -0.50052E+08         0.00000E+00
    0.00000E+00         0.00000E+00        -0.50014E+08
 
   -0.50108E+08         0.13754E+04         0.00000E+00
    0.13754E+04        -0.50000E+08         0.00000E+00
    0.00000E+00         0.00000E+00        -0.50022E+08
 
   -0.50108E+08         0.41357E+04         0.00000E+00
    0.41357E+04        -0.50000E+08         0.00000E+00
    0.00000E+00         0.00000E+00        -0.50022E+08
 
   -0.50108E+08         0.68971E+04         0.00000E+00
    0.68971E+04        -0.50000E+08         0.00000E+00
    0.00000E+00         0.00000E+00        -0.50022E+08
 
   -0.50108E+08         0.96569E+04         0.00000E+00
    0.96569E+04        -0.50000E+08         0.00000E+00
    0.00000E+00         0.00000E+00        -0.50022E+08
 
   -0.50108E+08         0.12413E+05         0.00000E+00
    0.12413E+05        -0.50000E+08         0.00000E+00
    0.00000E+00         0.00000E+00        -0.50022E+08
 
   -0.50107E+08         0.15162E+05         0.00000E+00
    0.15162E+05        -0.50001E+08         0.00000E+00
    0.00000E+00         0.00000E+00        -0.50022E+08
 
   -0.50107E+08         0.17903E+05         0.00000E+00
    0.17903E+05        -0.50001E+08         0.00000E+00
    0.00000E+00         0.00000E+00        -0.50022E+08
 
   -0.50106E+08         0.20632E+05         0.00000E+00
    0.20632E+05        -0.50001E+08         0.00000E+00
    0.00000E+00         0.00000E+00        -0.50022E+08
 
   -0.50106E+08         0.23347E+05         0.00000E+00
    0.23347E+05        -0.50002E+08         0.00000E+00
    0.00000E+00         0.00000E+00        -0.50021E+08
 
   -0.50105E+08         0.26046E+05         0.00000E+00
    0.26046E+05        -0.50002E+08         0.00000E+00
    0.00000E+00         0.00000E+00        -0.50021E+08
 
   -0.50104E+08         0.28726E+05         0.00000E+00
    0.28726E+05        -0.50002E+08         0.00000E+00
    0.00000E+00         0.00000E+00        -0.50021E+08
 
   -0.50103E+08         0.31385E+05         0.00000E+00
    0.31385E+05        -0.50003E+08         0.00000E+00
    0.00000E+00         0.00000E+00        -0.50021E+08
 
   -0.50102E+08         0.34020E+05         0.00000E+00
    0.34020E+05        -0.50003E+08         0.00000E+00
    0.00000E+00         0.00000E+00        -0.50021E+08
 
   -0.50101E+08         0.36630E+05         0.00000E+00
    0.36630E+05        -0.50004E+08         0.00000E+00
    0.00000E+00         0.00000E+00        -0.50021E+08
 
   -0.50100E+08         0.39211E+05         0.00000E+00
    0.39211E+05        -0.50005E+08         0.00000E+00
    0.00000E+00         0.00000E+00        -0.50021E+08
 
   -0.50099E+08         0.41762E+05         0.00000E+00
    0.41762E+05        -0.50005E+08         0.00000E+00
    0.00000E+00         0.00000E+00        -0.50021E+08
 
   -0.50097E+08         0.44280E+05         0.00000E+00
    0.44280E+05        -0.50006E+08         0.00000E+00
    0.00000E+00         0.00000E+00        -0.50021E+08
 
   -0.50096E+08         0.46762E+05         0.00000E+00
    0.46762E+05        -0.50007E+08         0.00000E+00
    0.00000E+00         0.00000E+00        -0.50021E+08
 
   -0.50094E+08         0.49207E+05         0.00000E+00
    0.49207E+05        -0.50007E+08         0.00000E+00
    0.00000E+00         0.00000E+00        -0.50020E+08
 
   -0.50093E+08         0.51613E+05         0.00000E+00
    0.51613E+05        -0.50008E+08         0.00000E+00
    0.00000E+00         0.00000E+00        -0.50020E+08
 
   -0.50091E+08         0.53977E+05         0.00000E+00
    0.53977E+05        -0.50009E+08         0.00000E+00
    0.00000E+00         0.00000E+00        -0.50020E+08
 
   -0.50089E+08         0.56297E+05         0.00000E+00
    0.56297E+05        -0.50010E+08         0.00000E+00
    0.00000E+00         0.00000E+00        -0.50020E+08
 
   -0.50088E+08         0.58571E+05         0.00000E+00
    0.58571E+05        -0.50011E+08         0.00000E+00
    0.00000E+00         0.00000E+00        -0.50020E+08
 
   -0.50086E+08         0.60797E+05         0.00000E+00
    0.60797E+05        -0.50012E+08         0.00000E+00
    0.00000E+00         0.00000E+00        -0.50019E+08
 
   -0.50084E+08         0.62973E+05         0.00000E+00
    0.62973E+05        -0.50013E+08         0.00000E+00
    0.00000E+00         0.00000E+00        -0.50019E+08
 
   -0.50082E+08         0.65097E+05         0.00000E+00
    0.65097E+05        -0.50014E+08         0.00000E+00
    0.00000E+00         0.00000E+00        -0.50019E+08
 
   -0.50079E+08         0.67168E+05         0.00000E+00
    0.67168E+05        -0.50015E+08         0.00000E+00
    0.00000E+00         0.00000E+00        -0.50019E+08
 
   -0.50077E+08         0.69182E+05         0.00000E+00
    0.69182E+05        -0.50016E+08         0.00000E+00
    0.00000E+00         0.00000E+00        -0.50019E+08
 
   -0.50075E+08         0.71140E+05         0.00000E+00
    0.71140E+05        -0.50017E+08         0.00000E+00
    0.00000E+00         0.00000E+00        -0.50018E+08
 
   -0.50073E+08         0.73037E+05         0.00000E+00
    0.73037E+05        -0.50018E+08         0.00000E+00
    0.00000E+00         0.00000E+00        -0.50018E+08
 
   -0.50070E+08         0.74874E+05         0.00000E+00
    0.74874E+05        -0.50019E+08         0.00000E+00
    0.00000E+00         0.00000E+00        -0.50018E+08
 
   -0.50068E+08         0.76648E+05         0.00000E+00
    0.76648E+05        -0.50021E+08         0.00000E+00
    0.00000E+00         0.00000E+00        -0.50018E+08
 
   -0.50065E+08         0.78357E+05         0.00000E+00
    0.78357E+05        -0.50022E+08         0.00000E+00
    0.00000E+00         0.00000E+00        -0.50017E+08
 
   -0.50063E+08         0.80000E+05         0.00000E+00
    0.80000E+05        -0.50023E+08         0.00000E+00
    0.00000E+00         0.00000E+00        -0.50017E+08
 
   -0.50060E+08         0.81575E+05         0.00000E+00
    0.81575E+05        -0.50024E+08         0.00000E+00
    0.00000E+00         0.00000E+00        -0.50017E+08
 
   -0.50057E+08         0.83081E+05         0.00000E+00
    0.83081E+05        -0.50026E+08         0.00000E+00
    0.00000E+00         0.00000E+00        -0.50017E+08
 
   -0.50054E+08         0.84517E+05         0.00000E+00
    0.84517E+05        -0.50027E+08         0.00000E+00
    0.00000E+00         0.00000E+00        -0.50016E+08
 
   -0.50052E+08         0.85880E+05         0.00000E+00
    0.85880E+05        -0.50028E+08         0.00000E+00
    0.00000E+00         0.00000E+00        -0.50016E+08
 
   -0.50049E+08         0.87169E+05         0.00000E+00
    0.87169E+05        -0.50030E+08         0.00000E+00
    0.00000E+00         0.00000E+00        -0.50016E+08
 
   -0.50046E+08         0.88384E+05         0.00000E+00
    0.88384E+05        -0.50031E+08         0.00000E+00
    0.00000E+00         0.00000E+00        -0.50015E+08
 
   -0.50043E+08         0.89522E+05         0.00000E+00
    0.89522E+05        -0.50033E+08         0.00000E+00
    0.00000E+00         0.00000E+00        -0.50015E+08
 
   -0.50040E+08         0.90583E+05         0.00000E+00
    0.90583E+05        -0.50034E+08         0.00000E+00
    0.00000E+00         0.00000E+00        -0.50015E+08
 
   -0.50036E+08         0.91564E+05         0.00000E+00
    0.91564E+05        -0.50035E+08         0.00000E+00
    0.00000E+00         0.00000E+00        -0.50014E+08
 
   -0.50033E+08         0.92465E+05         0.00000E+00
    0.92465E+05        -0.50037E+08         0.00000E+00
    0.00000E+00         0.00000E+00        -0.50014E+08
 
   -0.50030E+08         0.93285E+05         0.00000E+00
    0.93285E+05        -0.50038E+08         0.00000E+00
    0.00000E+00         0.00000E+00        -0.50014E+08
 
   -0.50027E+08         0.94023E+05         0.00000E+00
    0.94023E+05        -0.50040E+08         0.00000E+00
    0.00000E+00         0.00000E+00        -0.50013E+08
 
   -0.50024E+08         0.94677E+05         0.00000E+00
    0.94677E+05        -0.50041E+08         0.00000E+00
    0.00000E+00         0.00000E+00        -0.50013E+08
 
   -0.50020E+08         0.95246E+05         0.00000E+00
    0.95246E+05        -0.50043E+08         0.00000E+00
    0.00000E+00         0.00000E+00        -0.50013E+08
 
   -0.50017E+08         0.95729E+05         0.00000E+00
    0.95729E+05        -0.50044E+08         0.00000E+00
    0.00000E+00         0.00000E+00        -0.50012E+08
 
   -0.50013E+08         0.96126E+05         0.00000E+00
    0.96126E+05        -0.50046E+08         0.00000E+00
    0.00000E+00         0.00000E+00        -0.50012E+08
 
   -0.50095E+08         0.12748E+04         0.00000E+00
    0.12748E+04        -0.50000E+08         0.00000E+00
    0.00000E+00         0.00000E+00        -0.50019E+08
 
   -0.50095E+08         0.38315E+04         0.00000E+00
    0.38315E+04        -0.50000E+08         0.00000E+00
    0.00000E+00         0.00000E+00        -0.50019E+08
 
   -0.50095E+08         0.63884E+04         0.00000E+00
    0.63884E+04        -0.50000E+08         0.00000E+00
    0.00000E+00         0.00000E+00        -0.50019E+08
 
   -0.50095E+08         0.89433E+04         0.00000E+00
    0.89433E+04        -0.50000E+08         0.00000E+00
    0.00000E+00         0.00000E+00        -0.50019E+08
 
   -0.50095E+08         0.11494E+05         0.00000E+00
    0.11494E+05        -0.50000E+08         0.00000E+00
    0.00000E+00         0.00000E+00        -0.50019E+08
 
   -0.50094E+08         0.14038E+05         0.00000E+00
    0.14038E+05        -0.50001E+08         0.00000E+00
    0.00000E+00         0.00000E+00        -0.50019E+08
 
   -0.50094E+08         0.16574E+05         0.00000E+00
    0.16574E+05        -0.50001E+08         0.00000E+00
    0.00000E+00         0.00000E+00        -0.50019E+08
 
   -0.50093E+08         0.19099E+05         0.00000E+00
    0.19099E+05        -0.50001E+08         0.00000E+00
    0.00000E+00         0.00000E+00        -0.50019E+08
 
   -0.50093E+08         0.21610E+05         0.00000E+00
    0.21610E+05        -0.50001E+08         0.00000E+00
    0.00000E+00         0.00000E+00        -0.50019E+08
 
   -0.50092E+08         0.24107E+05         0.00000E+00
    0.24107E+05        -0.50002E+08         0.00000E+00
    0.00000E+00         0.00000E+00        -0.50019E+08
 
   -0.50091E+08         0.26586E+05         0.00000E+00
    0.26586E+05        -0.50002E+08         0.00000E+00
    0.00000E+00         0.00000E+00        -0.50019E+08
 
   -0.50090E+08         0.29045E+05         0.00000E+00
    0.29045E+05        -0.50002E+08         0.00000E+00
    0.00000E+00         0.00000E+00        -0.50019E+08
 
   -0.50090E+08         0.31483E+05         0.00000E+00
    0.31483E+05        -0.50003E+08         0.00000E+00
    0.00000E+00         0.00000E+00        -0.50019E+08
 
   -0.50089E+08         0.33896E+05         0.00000E+00
    0.33896E+05        -0.50003E+08         0.00000E+00
    0.00000E+00         0.00000E+00        -0.50018E+08
 
   -0.50088E+08         0.36284E+05         0.00000E+00
    0.36284E+05        -0.50004E+08         0.00000E+00
    0.00000E+00         0.00000E+00        -0.50018E+08
 
   -0.50087E+08         0.38643E+05         0.00000E+00
    0.38643E+05        -0.50005E+08         0.00000E+00
    0.00000E+00         0.00000E+00        -0.50018E+08
 
   -0.50085E+08         0.40972E+05         0.00000E+00
    0.40972E+05        -0.50005E+08         0.00000E+00
    0.00000E+00         0.00000E+00        -0.50018E+08
 
   -0.50084E+08         0.43268E+05         0.00000E+00
    0.43268E+05        -0.50006E+08         0.00000E+00
    0.00000E+00         0.00000E+00        -0.50018E+08
 
   -0.50083E+08         0.45530E+05         0.00000E+00
    0.45530E+05        -0.50006E+08         0.00000E+00
    0.00000E+00         0.00000E+00        -0.50018E+08
 
   -0.50081E+08         0.47756E+05         0.00000E+00
    0.47756E+05        -0.50007E+08         0.00000E+00
    0.00000E+00         0.00000E+00        -0.50018E+08
 
   -0.50080E+08         0.49943E+05         0.00000E+00
    0.49943E+05        -0.50008E+08         0.00000E+00
    0.00000E+00         0.00000E+00        -0.50018E+08
 
   -0.50078E+08         0.52090E+05         0.00000E+00
    0.52090E+05        -0.50009E+08         0.00000E+00
    0.00000E+00         0.00000E+00        -0.50017E+08
 
   -0.50077E+08         0.54194E+05         0.00000E+00
    0.54194E+05        -0.50009E+08         0.00000E+00
    0.00000E+00         0.00000E+00        -0.50017E+08
 
   -0.50075E+08         0.56255E+05         0.00000E+00
    0.56255E+05        -0.50010E+08         0.00000E+00
    0.00000E+00         0.00000E+00        -0.50017E+08
 
   -0.50073E+08         0.58269E+05         0.00000E+00
    0.58269E+05        -0.50011E+08         0.00000E+00
    0.00000E+00         0.00000E+00        -0.50017E+08
 
   -0.50072E+08         0.60235E+05         0.00000E+00
    0.60235E+05        -0.50012E+08         0.00000E+00
    0.00000E+00         0.00000E+00        -0.50017E+08
 
   -0.50070E+08         0.62152E+05         0.00000E+00
    0.62152E+05        -0.50013E+08         0.00000E+00
    0.00000E+00         0.00000E+00        -0.50017E+08
 
   -0.50068E+08         0.64017E+05         0.00000E+00
    0.64017E+05        -0.50014E+08         0.00000E+00
    0.00000E+00         0.00000E+00        -0.50016E+08
 
   -0.50066E+08         0.65830E+05         0.00000E+00
    0.65830E+05        -0.50015E+08         0.00000E+00
    0.00000E+00         0.00000E+00        -0.50016E+08
 
   -0.50064E+08         0.67587E+05         0.00000E+00
    0.67587E+05        -0.50016E+08         0.00000E+00
    0.00000E+00         0.00000E+00        -0.50016E+08
 
   -0.50062E+08         0.69288E+05         0.00000E+00
    0.69288E+05        -0.50017E+08         0.00000E+00
    0.00000E+00         0.00000E+00        -0.50016E+08
 
   -0.50059E+08         0.70931E+05         0.00000E+00
    0.70931E+05        -0.50018E+08         0.00000E+00
    0.00000E+00         0.00000E+00        -0.50015E+08
 
   -0.50057E+08         0.72514E+05         0.00000E+00
    0.72514E+05        -0.50019E+08         0.00000E+00
    0.00000E+00         0.00000E+00        -0.50015E+08
 
   -0.50055E+08         0.74036E+05         0.00000E+00
    0.74036E+05        -0.50020E+08         0.00000E+00
    0.00000E+00         0.00000E+00        -0.50015E+08
 
   -0.50053E+08         0.75495E+05         0.00000E+00
    0.75495E+05        -0.50021E+08         0.00000E+00
    0.00000E+00         0.00000E+00        -0.50015E+08
 
   -0.50050E+08         0.76890E+05         0.00000E+00
    0.76890E+05        -0.50022E+08         0.00000E+00
    0.00000E+00         0.00000E+00        -0.50015E+08
 
   -0.50048E+08         0.78219E+05         0.00000E+00
    0.78219E+05        -0.50024E+08         0.00000E+00
    0.00000E+00         0.00000E+00        -0.50014E+08
 
   -0.50045E+08         0.79482E+05         0.00000E+00
    0.79482E+05        -0.50025E+08         0.00000E+00
    0.00000E+00         0.00000E+00        -0.50014E+08
 
   -0.50043E+08         0.80676E+05         0.00000E+00
    0.80676E+05        -0.50026E+08         0.00000E+00
    0.00000E+00         0.00000E+00        -0.50014E+08
 
   -0.50040E+08         0.81801E+05         0.00000E+00
    0.81801E+05        -0.50027E+08         0.00000E+00
    0.00000E+00         0.00000E+00        -0.50013E+08
 
   -0.50037E+08         0.82854E+05         0.00000E+00
    0.82854E+05        -0.50028E+08         0.00000E+00
    0.00000E+00         0.00000E+00        -0.50013E+08
 
   -0.50035E+08         0.83836E+05         0.00000E+00
    0.83836E+05        -0.50030E+08         0.00000E+00
    0.00000E+00         0.00000E+00        -0.50013E+08
 
   -0.50032E+08         0.84744E+05         0.00000E+00
    0.84744E+05        -0.50031E+08         0.00000E+00
    0.00000E+00         0.00000E+00        -0.50013E+08
 
   -0.50029E+08         0.85578E+05         0.00000E+00
    0.85578E+05        -0.50032E+08         0.00000E+00
    0.00000E+00         0.00000E+00        -0.50012E+08
 
   -0.50026E+08         0.86337E+05         0.00000E+00
    0.86337E+05        -0.50034E+08         0.00000E+00
    0.00000E+00         0.00000E+00        -0.50012E+08
 
   -0.50023E+08         0.87018E+05         0.00000E+00
    0.87018E+05        -0.50035E+08         0.00000E+00
    0.00000E+00         0.00000E+00        -0.50012E+08
 
   -0.50021E+08         0.87622E+05         0.00000E+00
    0.87622E+05        -0.50036E+08         0.00000E+00
    0.00000E+00         0.00000E+00        -0.50011E+08
 
   -0.50018E+08         0.88147E+05         0.00000E+00
    0.88147E+05        -0.50037E+08         0.00000E+00
    0.00000E+00         0.00000E+00        -0.50011E+08
 
   -0.50015E+08         0.88593E+05         0.00000E+00
    0.88593E+05        -0.50039E+08         0.00000E+00
    0.00000E+00         0.00000E+00        -0.50011E+08
 
   -0.50012E+08         0.88958E+05         0.00000E+00
    0.88958E+05        -0.50040E+08         0.00000E+00
    0.00000E+00         0.00000E+00        -0.50010E+08
 
   -0.50083E+08         0.11878E+04         0.00000E+00
    0.11878E+04        -0.50000E+08         0.00000E+00
    0.00000E+00         0.00000E+00        -0.50017E+08
 
   -0.50083E+08         0.35684E+04         0.00000E+00
    0.35684E+04        -0.50000E+08         0.00000E+00
    0.00000E+00         0.00000E+00        -0.50017E+08
 
   -0.50083E+08         0.59486E+04         0.00000E+00
    0.59486E+04        -0.50000E+08         0.00000E+00
    0.00000E+00         0.00000E+00        -0.50017E+08
 
   -0.50082E+08         0.83263E+04         0.00000E+00
    0.83263E+04        -0.50000E+08         0.00000E+00
    0.00000E+00         0.00000E+00        -0.50017E+08
 
   -0.50082E+08         0.10700E+05         0.00000E+00
    0.10700E+05        -0.50000E+08         0.00000E+00
    0.00000E+00         0.00000E+00        -0.50017E+08
 
   -0.50082E+08         0.13066E+05         0.00000E+00
    0.13066E+05        -0.50000E+08         0.00000E+00
    0.00000E+00         0.00000E+00        -0.50016E+08
 
   -0.50082E+08         0.15425E+05         0.00000E+00
    0.15425E+05        -0.50001E+08         0.00000E+00
    0.00000E+00         0.00000E+00        -0.50016E+08
 
   -0.50081E+08         0.17773E+05         0.00000E+00
    0.17773E+05        -0.50001E+08         0.00000E+00
    0.00000E+00         0.00000E+00        -0.50016E+08
 
   -0.50081E+08         0.20108E+05         0.00000E+00
    0.20108E+05        -0.50001E+08         0.00000E+00
    0.00000E+00         0.00000E+00        -0.50016E+08
 
   -0.50080E+08         0.22429E+05         0.00000E+00
    0.22429E+05        -0.50001E+08         0.00000E+00
    0.00000E+00         0.00000E+00        -0.50016E+08
 
   -0.50079E+08         0.24734E+05         0.00000E+00
    0.24734E+05        -0.50002E+08         0.00000E+00
    0.00000E+00         0.00000E+00        -0.50016E+08
 
   -0.50079E+08         0.27020E+05         0.00000E+00
    0.27020E+05        -0.50002E+08         0.00000E+00
    0.00000E+00         0.00000E+00        -0.50016E+08
 
   -0.50078E+08         0.29286E+05         0.00000E+00
    0.29286E+05        -0.50003E+08         0.00000E+00
    0.00000E+00         0.00000E+00        -0.50016E+08
 
   -0.50077E+08         0.31529E+05         0.00000E+00
    0.31529E+05        -0.50003E+08         0.00000E+00
    0.00000E+00         0.00000E+00        -0.50016E+08
 
   -0.50076E+08         0.33748E+05         0.00000E+00
    0.33748E+05        -0.50003E+08         0.00000E+00
    0.00000E+00         0.00000E+00        -0.50016E+08
 
   -0.50075E+08         0.35940E+05         0.00000E+00
    0.35940E+05        -0.50004E+08         0.00000E+00
    0.00000E+00         0.00000E+00        -0.50016E+08
 
   -0.50074E+08         0.38105E+05         0.00000E+00
    0.38105E+05        -0.50004E+08         0.00000E+00
    0.00000E+00         0.00000E+00        -0.50016E+08
 
   -0.50073E+08         0.40239E+05         0.00000E+00
    0.40239E+05        -0.50005E+08         0.00000E+00
    0.00000E+00         0.00000E+00        -0.50016E+08
 
   -0.50072E+08         0.42342E+05         0.00000E+00
    0.42342E+05        -0.50006E+08         0.00000E+00
    0.00000E+00         0.00000E+00        -0.50015E+08
 
   -0.50071E+08         0.44410E+05         0.00000E+00
    0.44410E+05        -0.50006E+08         0.00000E+00
    0.00000E+00         0.00000E+00        -0.50015E+08
 
   -0.50069E+08         0.46443E+05         0.00000E+00
    0.46443E+05        -0.50007E+08         0.00000E+00
    0.00000E+00         0.00000E+00        -0.50015E+08
 
   -0.50068E+08         0.48438E+05         0.00000E+00
    0.48438E+05        -0.50007E+08         0.00000E+00
    0.00000E+00         0.00000E+00        -0.50015E+08
 
   -0.50067E+08         0.50394E+05         0.00000E+00
    0.50394E+05        -0.50008E+08         0.00000E+00
    0.00000E+00         0.00000E+00        -0.50015E+08
 
   -0.50065E+08         0.52310E+05         0.00000E+00
    0.52310E+05        -0.50009E+08         0.00000E+00
    0.00000E+00         0.00000E+00        -0.50015E+08
 
   -0.50064E+08         0.54182E+05         0.00000E+00
    0.54182E+05        -0.50010E+08         0.00000E+00
    0.00000E+00         0.00000E+00        -0.50015E+08
 
   -0.50062E+08         0.56010E+05         0.00000E+00
    0.56010E+05        -0.50010E+08         0.00000E+00
    0.00000E+00         0.00000E+00        -0.50015E+08
 
   -0.50061E+08         0.57792E+05         0.00000E+00
    0.57792E+05        -0.50011E+08         0.00000E+00
    0.00000E+00         0.00000E+00        -0.50014E+08
 
   -0.50059E+08         0.59526E+05         0.00000E+00
    0.59526E+05        -0.50012E+08         0.00000E+00
    0.00000E+00         0.00000E+00        -0.50014E+08
 
   -0.50057E+08         0.61210E+05         0.00000E+00
    0.61210E+05        -0.50013E+08         0.00000E+00
    0.00000E+00         0.00000E+00        -0.50014E+08
 
   -0.50055E+08         0.62844E+05         0.00000E+00
    0.62844E+05        -0.50014E+08         0.00000E+00
    0.00000E+00         0.00000E+00        -0.50014E+08
 
   -0.50053E+08         0.64425E+05         0.00000E+00
    0.64425E+05        -0.50015E+08         0.00000E+00
    0.00000E+00         0.00000E+00        -0.50014E+08
 
   -0.50052E+08         0.65953E+05         0.00000E+00
    0.65953E+05        -0.50016E+08         0.00000E+00
    0.00000E+00         0.00000E+00        -0.50013E+08
 
   -0.50050E+08         0.67425E+05         0.00000E+00
    0.67425E+05        -0.50016E+08         0.00000E+00
    0.00000E+00         0.00000E+00        -0.50013E+08
 
   -0.50048E+08         0.68840E+05         0.00000E+00
    0.68840E+05        -0.50017E+08         0.00000E+00
    0.00000E+00         0.00000E+00        -0.50013E+08
 
   -0.50046E+08         0.70196E+05         0.00000E+00
    0.70196E+05        -0.50018E+08         0.00000E+00
    0.00000E+00         0.00000E+00        -0.50013E+08
 
   -0.50044E+08         0.71493E+05         0.00000E+00
    0.71493E+05        -0.50019E+08         0.00000E+00
    0.00000E+00         0.00000E+00        -0.50013E+08
 
   -0.50041E+08         0.72729E+05         0.00000E+00
    0.72729E+05        -0.50020E+08         0.00000E+00
    0.00000E+00         0.00000E+00        -0.50012E+08
 
   -0.50039E+08         0.73903E+05         0.00000E+00
    0.73903E+05        -0.50021E+08         0.00000E+00
    0.00000E+00         0.00000E+00        -0.50012E+08
 
   -0.50037E+08         0.75013E+05         0.00000E+00
    0.75013E+05        -0.50022E+08         0.00000E+00
    0.00000E+00         0.00000E+00        -0.50012E+08
 
   -0.50035E+08         0.76058E+05         0.00000E+00
    0.76058E+05        -0.50024E+08         0.00000E+00
    0.00000E+00         0.00000E+00        -0.50012E+08
 
   -0.50032E+08         0.77037E+05         0.00000E+00
    0.77037E+05        -0.50025E+08         0.00000E+00
    0.00000E+00         0.00000E+00        -0.50011E+08
 
   -0.50030E+08         0.77949E+05         0.00000E+00
    0.77949E+05        -0.50026E+08         0.00000E+00
    0.00000E+00         0.00000E+00        -0.50011E+08
 
   -0.50028E+08         0.78792E+05         0.00000E+00
    0.78792E+05        -0.50027E+08         0.00000E+00
    0.00000E+00         0.00000E+00        -0.50011E+08
 
   -0.50025E+08         0.79567E+05         0.00000E+00
    0.79567E+05        -0.50028E+08         0.00000E+00
    0.00000E+00         0.00000E+00        -0.50011E+08
 
   -0.50023E+08         0.80270E+05         0.00000E+00
    0.80270E+05        -0.50029E+08         0.00000E+00
    0.00000E+00         0.00000E+00        -0.50010E+08
 
   -0.50020E+08         0.80903E+05         0.00000E+00
    0.80903E+05        -0.50030E+08         0.00000E+00
    0.00000E+00         0.00000E+00        -0.50010E+08
 
   -0.50018E+08         0.81463E+05         0.00000E+00
    0.81463E+05        -0.50031E+08         0.00000E+00
    0.00000E+00         0.00000E+00        -0.50010E+08
 
   -0.50015E+08         0.81949E+05         0.00000E+00
    0.81949E+05        -0.50032E+08         0.00000E+00
    0.00000E+00         0.00000E+00        -0.50010E+08
 
   -0.50013E+08         0.82362E+05         0.00000E+00
    0.82362E+05        -0.50034E+08         0.00000E+00
    0.00000E+00         0.00000E+00        -0.50009E+08
 
   -0.50010E+08         0.82699E+05         0.00000E+00
    0.82699E+05        -0.50035E+08         0.00000E+00
    0.00000E+00         0.00000E+00        -0.50009E+08
 
   -0.50071E+08         0.11131E+04         0.00000E+00
    0.11131E+04        -0.50000E+08         0.00000E+00
    0.00000E+00         0.00000E+00        -0.50014E+08
 
   -0.50071E+08         0.33425E+04         0.00000E+00
    0.33425E+04        -0.50000E+08         0.00000E+00
    0.00000E+00         0.00000E+00        -0.50014E+08
 
   -0.50071E+08         0.55708E+04         0.00000E+00
    0.55708E+04        -0.50000E+08         0.00000E+00
    0.00000E+00         0.00000E+00        -0.50014E+08
 
   -0.50071E+08         0.77964E+04         0.00000E+00
    0.77964E+04        -0.50000E+08         0.00000E+00
    0.00000E+00         0.00000E+00        -0.50014E+08
 
   -0.50071E+08         0.10017E+05         0.00000E+00
    0.10017E+05        -0.50000E+08         0.00000E+00
    0.00000E+00         0.00000E+00        -0.50014E+08
 
   -0.50070E+08         0.12232E+05         0.00000E+00
    0.12232E+05        -0.50000E+08         0.00000E+00
    0.00000E+00         0.00000E+00        -0.50014E+08
 
   -0.50070E+08         0.14438E+05         0.00000E+00
    0.14438E+05        -0.50001E+08         0.00000E+00
    0.00000E+00         0.00000E+00        -0.50014E+08
 
   -0.50070E+08         0.16634E+05         0.00000E+00
    0.16634E+05        -0.50001E+08         0.00000E+00
    0.00000E+00         0.00000E+00        -0.50014E+08
 
   -0.50069E+08         0.18818E+05         0.00000E+00
    0.18818E+05        -0.50001E+08         0.00000E+00
    0.00000E+00         0.00000E+00        -0.50014E+08
 
   -0.50069E+08         0.20988E+05         0.00000E+00
    0.20988E+05        -0.50001E+08         0.00000E+00
    0.00000E+00         0.00000E+00        -0.50014E+08
 
   -0.50068E+08         0.23143E+05         0.00000E+00
    0.23143E+05        -0.50002E+08         0.00000E+00
    0.00000E+00         0.00000E+00        -0.50014E+08
 
   -0.50068E+08         0.25280E+05         0.00000E+00
    0.25280E+05        -0.50002E+08         0.00000E+00
    0.00000E+00         0.00000E+00        -0.50014E+08
 
   -0.50067E+08         0.27398E+05         0.00000E+00
    0.27398E+05        -0.50002E+08         0.00000E+00
    0.00000E+00         0.00000E+00        -0.50014E+08
 
   -0.50066E+08         0.29494E+05         0.00000E+00
    0.29494E+05        -0.50003E+08         0.00000E+00
    0.00000E+00         0.00000E+00        -0.50014E+08
 
   -0.50066E+08         0.31568E+05         0.00000E+00
    0.31568E+05        -0.50003E+08         0.00000E+00
    0.00000E+00         0.00000E+00        -0.50014E+08
 
   -0.50065E+08         0.33617E+05         0.00000E+00
    0.33617E+05        -0.50003E+08         0.00000E+00
    0.00000E+00         0.00000E+00        -0.50014E+08
 
   -0.50064E+08         0.35640E+05         0.00000E+00
    0.35640E+05        -0.50004E+08         0.00000E+00
    0.00000E+00         0.00000E+00        -0.50014E+08
 
   -0.50063E+08         0.37634E+05         0.00000E+00
    0.37634E+05        -0.50004E+08         0.00000E+00
    0.00000E+00         0.00000E+00        -0.50013E+08
 
   -0.50062E+08         0.39599E+05         0.00000E+00
    0.39599E+05        -0.50005E+08         0.00000E+00
    0.00000E+00         0.00000E+00        -0.50013E+08
 
   -0.50061E+08         0.41531E+05         0.00000E+00
    0.41531E+05        -0.50005E+08         0.00000E+00
    0.00000E+00         0.00000E+00        -0.50013E+08
 
   -0.50060E+08         0.43431E+05         0.00000E+00
    0.43431E+05        -0.50006E+08         0.00000E+00
    0.00000E+00         0.00000E+00        -0.50013E+08
 
   -0.50059E+08         0.45295E+05         0.00000E+00
    0.45295E+05        -0.50006E+08         0.00000E+00
    0.00000E+00         0.00000E+00        -0.50013E+08
 
   -0.50057E+08         0.47123E+05         0.00000E+00
    0.47123E+05        -0.50007E+08         0.00000E+00
    0.00000E+00         0.00000E+00        -0.50013E+08
 
   -0.50056E+08         0.48912E+05         0.00000E+00
    0.48912E+05        -0.50008E+08         0.00000E+00
    0.00000E+00         0.00000E+00        -0.50013E+08
 
   -0.50055E+08         0.50661E+05         0.00000E+00
    0.50661E+05        -0.50008E+08         0.00000E+00
    0.00000E+00         0.00000E+00        -0.50013E+08
 
   -0.50053E+08         0.52369E+05         0.00000E+00
    0.52369E+05        -0.50009E+08         0.00000E+00
    0.00000E+00         0.00000E+00        -0.50012E+08
 
   -0.50052E+08         0.54034E+05         0.00000E+00
    0.54034E+05        -0.50010E+08         0.00000E+00
    0.00000E+00         0.00000E+00        -0.50012E+08
 
   -0.50051E+08         0.55654E+05         0.00000E+00
    0.55654E+05        -0.50010E+08         0.00000E+00
    0.00000E+00         0.00000E+00        -0.50012E+08
 
   -0.50049E+08         0.57228E+05         0.00000E+00
    0.57228E+05        -0.50011E+08         0.00000E+00
    0.00000E+00         0.00000E+00        -0.50012E+08
 
   -0.50048E+08         0.58754E+05         0.00000E+00
    0.58754E+05        -0.50012E+08         0.00000E+00
    0.00000E+00         0.00000E+00        -0.50012E+08
 
   -0.50046E+08         0.60231E+05         0.00000E+00
    0.60231E+05        -0.50013E+08         0.00000E+00
    0.00000E+00         0.00000E+00        -0.50012E+08
 
   -0.50044E+08         0.61658E+05         0.00000E+00
    0.61658E+05        -0.50013E+08         0.00000E+00
    0.00000E+00         0.00000E+00        -0.50012E+08
 
   -0.50043E+08         0.63033E+05         0.00000E+00
    0.63033E+05        -0.50014E+08         0.00000E+00
    0.00000E+00         0.00000E+00        -0.50011E+08
 
   -0.50041E+08         0.64354E+05         0.00000E+00
    0.64354E+05        -0.50015E+08         0.00000E+00
    0.00000E+00         0.00000E+00        -0.50011E+08
 
   -0.50039E+08         0.65621E+05         0.00000E+00
    0.65621E+05        -0.50016E+08         0.00000E+00
    0.00000E+00         0.00000E+00        -0.50011E+08
 
   -0.50037E+08         0.66833E+05         0.00000E+00
    0.66833E+05        -0.50017E+08         0.00000E+00
    0.00000E+00         0.00000E+00        -0.50011E+08
 
   -0.50036E+08         0.67987E+05         0.00000E+00
    0.67987E+05        -0.50017E+08         0.00000E+00
    0.00000E+00         0.00000E+00        -0.50011E+08
 
   -0.50034E+08         0.69083E+05         0.00000E+00
    0.69083E+05        -0.50018E+08         0.00000E+00
    0.00000E+00         0.00000E+00        -0.50010E+08
 
   -0.50032E+08         0.70119E+05         0.00000E+00
    0.70119E+05        -0.50019E+08         0.00000E+00
    0.00000E+00         0.00000E+00        -0.50010E+08
 
   -0.50030E+08         0.71095E+05         0.00000E+00
    0.71095E+05        -0.50020E+08         0.00000E+00
    0.00000E+00         0.00000E+00        -0.50010E+08
 
   -0.50028E+08         0.72009E+05         0.00000E+00
    0.72009E+05        -0.50021E+08         0.00000E+00
    0.00000E+00         0.00000E+00        -0.50010E+08
 
   -0.50026E+08         0.72860E+05         0.00000E+00
    0.72860E+05        -0.50022E+08         0.00000E+00
    0.00000E+00         0.00000E+00        -0.50010E+08
 
   -0.50024E+08         0.73647E+05         0.00000E+00
    0.73647E+05        -0.50023E+08         0.00000E+00
    0.00000E+00         0.00000E+00        -0.50009E+08
 
   -0.50022E+08         0.74370E+05         0.00000E+00
    0.74370E+05        -0.50024E+08         0.00000E+00
    0.00000E+00         0.00000E+00        -0.50009E+08
 
   -0.50020E+08         0.75026E+05         0.00000E+00
    0.75026E+05        -0.50025E+08         0.00000E+00
    0.00000E+00         0.00000E+00        -0.50009E+08
 
   -0.50018E+08         0.75616E+05         0.00000E+00
    0.75616E+05        -0.50026E+08         0.00000E+00
    0.00000E+00         0.00000E+00        -0.50009E+08
 
   -0.50015E+08         0.76138E+05         0.00000E+00
    0.76138E+05        -0.50027E+08         0.00000E+00
    0.00000E+00         0.00000E+00        -0.50008E+08
 
   -0.50013E+08         0.76591E+05         0.00000E+00
    0.76591E+05        -0.50028E+08         0.00000E+00
    0.00000E+00         0.00000E+00        -0.50008E+08
 
   -0.50011E+08         0.76975E+05         0.00000E+00
    0.76975E+05        -0.50029E+08         0.00000E+00
    0.00000E+00         0.00000E+00        -0.50008E+08
 
   -0.50009E+08         0.77288E+05         0.00000E+00
    0.77288E+05        -0.50030E+08         0.00000E+00
    0.00000E+00         0.00000E+00        -0.50008E+08
 
   -0.50060E+08         0.10496E+04         0.00000E+00
    0.10496E+04        -0.50000E+08         0.00000E+00
    0.00000E+00         0.00000E+00        -0.50012E+08
 
   -0.50060E+08         0.31504E+04         0.00000E+00
    0.31504E+04        -0.50000E+08         0.00000E+00
    0.00000E+00         0.00000E+00        -0.50012E+08
 
   -0.50060E+08         0.52499E+04         0.00000E+00
    0.52499E+04        -0.50000E+08         0.00000E+00
    0.00000E+00         0.00000E+00        -0.50012E+08
 
   -0.50060E+08         0.73463E+04         0.00000E+00
    0.73463E+04        -0.50000E+08         0.00000E+00
    0.00000E+00         0.00000E+00        -0.50012E+08
 
   -0.50060E+08         0.94378E+04         0.00000E+00
    0.94378E+04        -0.50000E+08         0.00000E+00
    0.00000E+00         0.00000E+00        -0.50012E+08
 
   -0.50060E+08         0.11523E+05         0.00000E+00
    0.11523E+05        -0.50000E+08         0.00000E+00
    0.00000E+00         0.00000E+00        -0.50012E+08
 
   -0.50059E+08         0.13600E+05         0.00000E+00
    0.13600E+05        -0.50000E+08         0.00000E+00
    0.00000E+00         0.00000E+00        -0.50012E+08
 
   -0.50059E+08         0.15667E+05         0.00000E+00
    0.15667E+05        -0.50001E+08         0.00000E+00
    0.00000E+00         0.00000E+00        -0.50012E+08
 
   -0.50059E+08         0.17722E+05         0.00000E+00
    0.17722E+05        -0.50001E+08         0.00000E+00
    0.00000E+00         0.00000E+00        -0.50012E+08
 
   -0.50058E+08         0.19764E+05         0.00000E+00
    0.19764E+05        -0.50001E+08         0.00000E+00
    0.00000E+00         0.00000E+00        -0.50012E+08
 
   -0.50058E+08         0.21791E+05         0.00000E+00
    0.21791E+05        -0.50001E+08         0.00000E+00
    0.00000E+00         0.00000E+00        -0.50012E+08
 
   -0.50057E+08         0.23802E+05         0.00000E+00
    0.23802E+05        -0.50002E+08         0.00000E+00
    0.00000E+00         0.00000E+00        -0.50012E+08
 
   -0.50057E+08         0.25794E+05         0.00000E+00
    0.25794E+05        -0.50002E+08         0.00000E+00
    0.00000E+00         0.00000E+00        -0.50012E+08
 
   -0.50056E+08         0.27765E+05         0.00000E+00
    0.27765E+05        -0.50002E+08         0.00000E+00
    0.00000E+00         0.00000E+00        -0.50012E+08
 
   -0.50056E+08         0.29716E+05         0.00000E+00
    0.29716E+05        -0.50002E+08         0.00000E+00
    0.00000E+00         0.00000E+00        -0.50012E+08
 
   -0.50055E+08         0.31642E+05         0.00000E+00
    0.31642E+05        -0.50003E+08         0.00000E+00
    0.00000E+00         0.00000E+00        -0.50012E+08
 
   -0.50054E+08         0.33544E+05         0.00000E+00
    0.33544E+05        -0.50003E+08         0.00000E+00
    0.00000E+00         0.00000E+00        -0.50011E+08
 
   -0.50053E+08         0.35419E+05         0.00000E+00
    0.35419E+05        -0.50004E+08         0.00000E+00
    0.00000E+00         0.00000E+00        -0.50011E+08
 
   -0.50052E+08         0.37266E+05         0.00000E+00
    0.37266E+05        -0.50004E+08         0.00000E+00
    0.00000E+00         0.00000E+00        -0.50011E+08
 
   -0.50052E+08         0.39083E+05         0.00000E+00
    0.39083E+05        -0.50004E+08         0.00000E+00
    0.00000E+00         0.00000E+00        -0.50011E+08
 
   -0.50051E+08         0.40868E+05         0.00000E+00
    0.40868E+05        -0.50005E+08         0.00000E+00
    0.00000E+00         0.00000E+00        -0.50011E+08
 
   -0.50050E+08         0.42621E+05         0.00000E+00
    0.42621E+05        -0.50005E+08         0.00000E+00
    0.00000E+00         0.00000E+00        -0.50011E+08
 
   -0.50049E+08         0.44338E+05         0.00000E+00
    0.44338E+05        -0.50006E+08         0.00000E+00
    0.00000E+00         0.00000E+00        -0.50011E+08
 
   -0.50048E+08         0.46020E+05         0.00000E+00
    0.46020E+05        -0.50006E+08         0.00000E+00
    0.00000E+00         0.00000E+00        -0.50011E+08
 
   -0.50046E+08         0.47664E+05         0.00000E+00
    0.47664E+05        -0.50007E+08         0.00000E+00
    0.00000E+00         0.00000E+00        -0.50011E+08
 
   -0.50045E+08         0.49269E+05         0.00000E+00
    0.49269E+05        -0.50008E+08         0.00000E+00
    0.00000E+00         0.00000E+00        -0.50011E+08
 
   -0.50044E+08         0.50833E+05         0.00000E+00
    0.50833E+05        -0.50008E+08         0.00000E+00
    0.00000E+00         0.00000E+00        -0.50010E+08
 
   -0.50043E+08         0.52356E+05         0.00000E+00
    0.52356E+05        -0.50009E+08         0.00000E+00
    0.00000E+00         0.00000E+00        -0.50010E+08
 
   -0.50042E+08         0.53834E+05         0.00000E+00
    0.53834E+05        -0.50009E+08         0.00000E+00
    0.00000E+00         0.00000E+00        -0.50010E+08
 
   -0.50040E+08         0.55269E+05         0.00000E+00
    0.55269E+05        -0.50010E+08         0.00000E+00
    0.00000E+00         0.00000E+00        -0.50010E+08
 
   -0.50039E+08         0.56656E+05         0.00000E+00
    0.56656E+05        -0.50011E+08         0.00000E+00
    0.00000E+00         0.00000E+00        -0.50010E+08
 
   -0.50038E+08         0.57997E+05         0.00000E+00
    0.57997E+05        -0.50011E+08         0.00000E+00
    0.00000E+00         0.00000E+00        -0.50010E+08
 
   -0.50036E+08         0.59289E+05         0.00000E+00
    0.59289E+05        -0.50012E+08         0.00000E+00
    0.00000E+00         0.00000E+00        -0.50010E+08
 
   -0.50035E+08         0.60530E+05         0.00000E+00
    0.60530E+05        -0.50013E+08         0.00000E+00
    0.00000E+00         0.00000E+00        -0.50009E+08
 
   -0.50033E+08         0.61720E+05         0.00000E+00
    0.61720E+05        -0.50013E+08         0.00000E+00
    0.00000E+00         0.00000E+00        -0.50009E+08
 
   -0.50032E+08         0.62858E+05         0.00000E+00
    0.62858E+05        -0.50014E+08         0.00000E+00
    0.00000E+00         0.00000E+00        -0.50009E+08
 
   -0.50030E+08         0.63942E+05         0.00000E+00
    0.63942E+05        -0.50015E+08         0.00000E+00
    0.00000E+00         0.00000E+00        -0.50009E+08
 
   -0.50029E+08         0.64971E+05         0.00000E+00
    0.64971E+05        -0.50016E+08         0.00000E+00
    0.00000E+00         0.00000E+00        -0.50009E+08
 
   -0.50027E+08         0.65944E+05         0.00000E+00
    0.65944E+05        -0.50016E+08         0.00000E+00
    0.00000E+00         0.00000E+00        -0.50009E+08
 
   -0.50025E+08         0.66861E+05         0.00000E+00
    0.66861E+05        -0.50017E+08         0.00000E+00
    0.00000E+00         0.00000E+00        -0.50008E+08
 
   -0.50024E+08         0.67719E+05         0.00000E+00
    0.67719E+05        -0.50018E+08         0.00000E+00
    0.00000E+00         0.00000E+00        -0.50008E+08
 
   -0.50022E+08         0.68517E+05         0.00000E+00
    0.68517E+05        -0.50019E+08         0.00000E+00
    0.00000E+00         0.00000E+00        -0.50008E+08
 
   -0.50020E+08         0.69256E+05         0.00000E+00
    0.69256E+05        -0.50019E+08         0.00000E+00
    0.00000E+00         0.00000E+00        -0.50008E+08
 
   -0.50018E+08         0.69934E+05         0.00000E+00
    0.69934E+05        -0.50020E+08         0.00000E+00
    0.00000E+00         0.00000E+00        -0.50008E+08
 
   -0.50017E+08         0.70550E+05         0.00000E+00
    0.70550E+05        -0.50021E+08         0.00000E+00
    0.00000E+00         0.00000E+00        -0.50008E+08
 
   -0.50015E+08         0.71103E+05         0.00000E+00
    0.71103E+05        -0.50022E+08         0.00000E+00
    0.00000E+00         0.00000E+00        -0.50007E+08
 
   -0.50013E+08         0.71592E+05         0.00000E+00
    0.71592E+05        -0.50023E+08         0.00000E+00
    0.00000E+00         0.00000E+00        -0.50007E+08
 
   -0.50011E+08         0.72017E+05         0.00000E+00
    0.72017E+05        -0.50024E+08         0.00000E+00
    0.00000E+00         0.00000E+00        -0.50007E+08
 
   -0.50009E+08         0.72376E+05         0.00000E+00
    0.72376E+05        -0.50024E+08         0.00000E+00
    0.00000E+00         0.00000E+00        -0.50007E+08
 
   -0.50007E+08         0.72670E+05         0.00000E+00
    0.72670E+05        -0.50025E+08         0.00000E+00
    0.00000E+00         0.00000E+00        -0.50007E+08
 
   -0.50050E+08         0.99642E+03         0.00000E+00
    0.99642E+03        -0.50000E+08         0.00000E+00
    0.00000E+00         0.00000E+00        -0.50010E+08
 
   -0.50050E+08         0.29899E+04         0.00000E+00
    0.29899E+04        -0.50000E+08         0.00000E+00
    0.00000E+00         0.00000E+00        -0.50010E+08
 
   -0.50050E+08         0.49815E+04         0.00000E+00
    0.49815E+04        -0.50000E+08         0.00000E+00
    0.00000E+00         0.00000E+00        -0.50010E+08
 
   -0.50050E+08         0.69699E+04         0.00000E+00
    0.69699E+04        -0.50000E+08         0.00000E+00
    0.00000E+00         0.00000E+00        -0.50010E+08
 
   -0.50050E+08         0.89533E+04         0.00000E+00
    0.89533E+04        -0.50000E+08         0.00000E+00
    0.00000E+00         0.00000E+00        -0.50010E+08
 
   -0.50050E+08         0.10930E+05         0.00000E+00
    0.10930E+05        -0.50000E+08         0.00000E+00
    0.00000E+00         0.00000E+00        -0.50010E+08
 
   -0.50049E+08         0.12899E+05         0.00000E+00
    0.12899E+05        -0.50000E+08         0.00000E+00
    0.00000E+00         0.00000E+00        -0.50010E+08
 
   -0.50049E+08         0.14858E+05         0.00000E+00
    0.14858E+05        -0.50001E+08         0.00000E+00
    0.00000E+00         0.00000E+00        -0.50010E+08
 
   -0.50049E+08         0.16806E+05         0.00000E+00
    0.16806E+05        -0.50001E+08         0.00000E+00
    0.00000E+00         0.00000E+00        -0.50010E+08
 
   -0.50048E+08         0.18741E+05         0.00000E+00
    0.18741E+05        -0.50001E+08         0.00000E+00
    0.00000E+00         0.00000E+00        -0.50010E+08
 
   -0.50048E+08         0.20661E+05         0.00000E+00
    0.20661E+05        -0.50001E+08         0.00000E+00
    0.00000E+00         0.00000E+00        -0.50010E+08
 
   -0.50048E+08         0.22566E+05         0.00000E+00
    0.22566E+05        -0.50001E+08         0.00000E+00
    0.00000E+00         0.00000E+00        -0.50010E+08
 
   -0.50047E+08         0.24452E+05         0.00000E+00
    0.24452E+05        -0.50002E+08         0.00000E+00
    0.00000E+00         0.00000E+00        -0.50010E+08
 
   -0.50047E+08         0.26320E+05         0.00000E+00
    0.26320E+05        -0.50002E+08         0.00000E+00
    0.00000E+00         0.00000E+00        -0.50010E+08
 
   -0.50046E+08         0.28167E+05         0.00000E+00
    0.28167E+05        -0.50002E+08         0.00000E+00
    0.00000E+00         0.00000E+00        -0.50010E+08
 
   -0.50045E+08         0.29991E+05         0.00000E+00
    0.29991E+05        -0.50002E+08         0.00000E+00
    0.00000E+00         0.00000E+00        -0.50010E+08
 
   -0.50045E+08         0.31791E+05         0.00000E+00
    0.31791E+05        -0.50003E+08         0.00000E+00
    0.00000E+00         0.00000E+00        -0.50010E+08
 
   -0.50044E+08         0.33567E+05         0.00000E+00
    0.33567E+05        -0.50003E+08         0.00000E+00
    0.00000E+00         0.00000E+00        -0.50009E+08
 
   -0.50044E+08         0.35315E+05         0.00000E+00
    0.35315E+05        -0.50003E+08         0.00000E+00
    0.00000E+00         0.00000E+00        -0.50009E+08
 
   -0.50043E+08         0.37034E+05         0.00000E+00
    0.37034E+05        -0.50004E+08         0.00000E+00
    0.00000E+00         0.00000E+00        -0.50009E+08
 
   -0.50042E+08         0.38724E+05         0.00000E+00
    0.38724E+05        -0.50004E+08         0.00000E+00
    0.00000E+00         0.00000E+00        -0.50009E+08
 
   -0.50041E+08         0.40383E+05         0.00000E+00
    0.40383E+05        -0.50004E+08         0.00000E+00
    0.00000E+00         0.00000E+00        -0.50009E+08
 
   -0.50040E+08         0.42008E+05         0.00000E+00
    0.42008E+05        -0.50005E+08         0.00000E+00
    0.00000E+00         0.00000E+00        -0.50009E+08
 
   -0.50039E+08         0.43599E+05         0.00000E+00
    0.43599E+05        -0.50005E+08         0.00000E+00
    0.00000E+00         0.00000E+00        -0.50009E+08
 
   -0.50039E+08         0.45155E+05         0.00000E+00
    0.45155E+05        -0.50006E+08         0.00000E+00
    0.00000E+00         0.00000E+00        -0.50009E+08
 
   -0.50038E+08         0.46673E+05         0.00000E+00
    0.46673E+05        -0.50006E+08         0.00000E+00
    0.00000E+00         0.00000E+00        -0.50009E+08
 
   -0.50037E+08         0.48153E+05         0.00000E+00
    0.48153E+05        -0.50007E+08         0.00000E+00
    0.00000E+00         0.00000E+00        -0.50009E+08
 
   -0.50036E+08         0.49593E+05         0.00000E+00
    0.49593E+05        -0.50007E+08         0.00000E+00
    0.00000E+00         0.00000E+00        -0.50009E+08
 
   -0.50035E+08         0.50992E+05         0.00000E+00
    0.50992E+05        -0.50008E+08         0.00000E+00
    0.00000E+00         0.00000E+00        -0.50008E+08
 
   -0.50033E+08         0.52349E+05         0.00000E+00
    0.52349E+05        -0.50008E+08         0.00000E+00
    0.00000E+00         0.00000E+00        -0.50008E+08
 
   -0.50032E+08         0.53662E+05         0.00000E+00
    0.53662E+05        -0.50009E+08         0.00000E+00
    0.00000E+00         0.00000E+00        -0.50008E+08
 
   -0.50031E+08         0.54929E+05         0.00000E+00
    0.54929E+05        -0.50009E+08         0.00000E+00
    0.00000E+00         0.00000E+00        -0.50008E+08
 
   -0.50030E+08         0.56151E+05         0.00000E+00
    0.56151E+05        -0.50010E+08         0.00000E+00
    0.00000E+00         0.00000E+00        -0.50008E+08
 
   -0.50029E+08         0.57325E+05         0.00000E+00
    0.57325E+05        -0.50010E+08         0.00000E+00
    0.00000E+00         0.00000E+00        -0.50008E+08
 
   -0.50028E+08         0.58450E+05         0.00000E+00
    0.58450E+05        -0.50011E+08         0.00000E+00
    0.00000E+00         0.00000E+00        -0.50008E+08
 
   -0.50026E+08         0.59526E+05         0.00000E+00
    0.59526E+05        -0.50012E+08         0.00000E+00
    0.00000E+00         0.00000E+00        -0.50008E+08
 
   -0.50025E+08         0.60551E+05         0.00000E+00
    0.60551E+05        -0.50012E+08         0.00000E+00
    0.00000E+00         0.00000E+00        -0.50007E+08
 
   -0.50024E+08         0.61524E+05         0.00000E+00
    0.61524E+05        -0.50013E+08         0.00000E+00
    0.00000E+00         0.00000E+00        -0.50007E+08
 
   -0.50022E+08         0.62443E+05         0.00000E+00
    0.62443E+05        -0.50013E+08         0.00000E+00
    0.00000E+00         0.00000E+00        -0.50007E+08
 
   -0.50021E+08         0.63309E+05         0.00000E+00
    0.63309E+05        -0.50014E+08         0.00000E+00
    0.00000E+00         0.00000E+00        -0.50007E+08
 
   -0.50020E+08         0.64120E+05         0.00000E+00
    0.64120E+05        -0.50015E+08         0.00000E+00
    0.00000E+00         0.00000E+00        -0.50007E+08
 
   -0.50018E+08         0.64875E+05         0.00000E+00
    0.64875E+05        -0.50015E+08         0.00000E+00
    0.00000E+00         0.00000E+00        -0.50007E+08
 
   -0.50017E+08         0.65573E+05         0.00000E+00
    0.65573E+05        -0.50016E+08         0.00000E+00
    0.00000E+00         0.00000E+00        -0.50007E+08
 
   -0.50015E+08         0.66213E+05         0.00000E+00
    0.66213E+05        -0.50017E+08         0.00000E+00
    0.00000E+00         0.00000E+00        -0.50006E+08
 
   -0.50014E+08         0.66794E+05         0.00000E+00
    0.66794E+05        -0.50017E+08         0.00000E+00
    0.00000E+00         0.00000E+00        -0.50006E+08
 
   -0.50012E+08         0.67317E+05         0.00000E+00
    0.67317E+05        -0.50018E+08         0.00000E+00
    0.00000E+00         0.00000E+00        -0.50006E+08
 
   -0.50011E+08         0.67778E+05         0.00000E+00
    0.67778E+05        -0.50019E+08         0.00000E+00
    0.00000E+00         0.00000E+00        -0.50006E+08
 
   -0.50009E+08         0.68179E+05         0.00000E+00
    0.68179E+05        -0.50020E+08         0.00000E+00
    0.00000E+00         0.00000E+00        -0.50006E+08
 
   -0.50008E+08         0.68518E+05         0.00000E+00
    0.68518E+05        -0.50020E+08         0.00000E+00
    0.00000E+00         0.00000E+00        -0.50006E+08
 
   -0.50006E+08         0.68795E+05         0.00000E+00
    0.68795E+05        -0.50021E+08         0.00000E+00
    0.00000E+00         0.00000E+00        -0.50005E+08
 
   -0.50040E+08         0.95300E+03         0.00000E+00
    0.95300E+03        -0.50000E+08         0.00000E+00
    0.00000E+00         0.00000E+00        -0.50008E+08
 
   -0.50040E+08         0.28588E+04         0.00000E+00
    0.28588E+04        -0.50000E+08         0.00000E+00
    0.00000E+00         0.00000E+00        -0.50008E+08
 
   -0.50040E+08         0.47625E+04         0.00000E+00
    0.47625E+04        -0.50000E+08         0.00000E+00
    0.00000E+00         0.00000E+00        -0.50008E+08
 
   -0.50040E+08         0.66627E+04         0.00000E+00
    0.66627E+04        -0.50000E+08         0.00000E+00
    0.00000E+00         0.00000E+00        -0.50008E+08
 
   -0.50040E+08         0.85579E+04         0.00000E+00
    0.85579E+04        -0.50000E+08         0.00000E+00
    0.00000E+00         0.00000E+00        -0.50008E+08
 
   -0.50040E+08         0.10447E+05         0.00000E+00
    0.10447E+05        -0.50000E+08         0.00000E+00
    0.00000E+00         0.00000E+00        -0.50008E+08
 
   -0.50040E+08         0.12327E+05         0.00000E+00
    0.12327E+05        -0.50000E+08         0.00000E+00
    0.00000E+00         0.00000E+00        -0.50008E+08
 
   -0.50040E+08         0.14198E+05         0.00000E+00
    0.14198E+05        -0.50000E+08         0.00000E+00
    0.00000E+00         0.00000E+00        -0.50008E+08
 
   -0.50039E+08         0.16058E+05         0.00000E+00
    0.16058E+05        -0.50001E+08         0.00000E+00
    0.00000E+00         0.00000E+00        -0.50008E+08
 
   -0.50039E+08         0.17906E+05         0.00000E+00
    0.17906E+05        -0.50001E+08         0.00000E+00
    0.00000E+00         0.00000E+00        -0.50008E+08
 
   -0.50039E+08         0.19739E+05         0.00000E+00
    0.19739E+05        -0.50001E+08         0.00000E+00
    0.00000E+00         0.00000E+00        -0.50008E+08
 
   -0.50038E+08         0.21557E+05         0.00000E+00
    0.21557E+05        -0.50001E+08         0.00000E+00
    0.00000E+00         0.00000E+00        -0.50008E+08
 
   -0.50038E+08         0.23358E+05         0.00000E+00
    0.23358E+05        -0.50001E+08         0.00000E+00
    0.00000E+00         0.00000E+00        -0.50008E+08
 
   -0.50038E+08         0.25140E+05         0.00000E+00
    0.25140E+05        -0.50001E+08         0.00000E+00
    0.00000E+00         0.00000E+00        -0.50008E+08
 
   -0.50037E+08         0.26902E+05         0.00000E+00
    0.26902E+05        -0.50002E+08         0.00000E+00
    0.00000E+00         0.00000E+00        -0.50008E+08
 
   -0.50037E+08         0.28643E+05         0.00000E+00
    0.28643E+05        -0.50002E+08         0.00000E+00
    0.00000E+00         0.00000E+00        -0.50008E+08
 
   -0.50036E+08         0.30361E+05         0.00000E+00
    0.30361E+05        -0.50002E+08         0.00000E+00
    0.00000E+00         0.00000E+00        -0.50008E+08
 
   -0.50036E+08         0.32054E+05         0.00000E+00
    0.32054E+05        -0.50002E+08         0.00000E+00
    0.00000E+00         0.00000E+00        -0.50008E+08
 
   -0.50035E+08         0.33721E+05         0.00000E+00
    0.33721E+05        -0.50003E+08         0.00000E+00
    0.00000E+00         0.00000E+00        -0.50008E+08
 
   -0.50034E+08         0.35362E+05         0.00000E+00
    0.35362E+05        -0.50003E+08         0.00000E+00
    0.00000E+00         0.00000E+00        -0.50007E+08
 
   -0.50034E+08         0.36973E+05         0.00000E+00
    0.36973E+05        -0.50003E+08         0.00000E+00
    0.00000E+00         0.00000E+00        -0.50007E+08
 
   -0.50033E+08         0.38555E+05         0.00000E+00
    0.38555E+05        -0.50004E+08         0.00000E+00
    0.00000E+00         0.00000E+00        -0.50007E+08
 
   -0.50032E+08         0.40105E+05         0.00000E+00
    0.40105E+05        -0.50004E+08         0.00000E+00
    0.00000E+00         0.00000E+00        -0.50007E+08
 
   -0.50032E+08         0.41622E+05         0.00000E+00
    0.41622E+05        -0.50004E+08         0.00000E+00
    0.00000E+00         0.00000E+00        -0.50007E+08
 
   -0.50031E+08         0.43105E+05         0.00000E+00
    0.43105E+05        -0.50005E+08         0.00000E+00
    0.00000E+00         0.00000E+00        -0.50007E+08
 
   -0.50030E+08         0.44552E+05         0.00000E+00
    0.44552E+05        -0.50005E+08         0.00000E+00
    0.00000E+00         0.00000E+00        -0.50007E+08
 
   -0.50029E+08         0.45963E+05         0.00000E+00
    0.45963E+05        -0.50005E+08         0.00000E+00
    0.00000E+00         0.00000E+00        -0.50007E+08
 
   -0.50029E+08         0.47336E+05         0.00000E+00
    0.47336E+05        -0.50006E+08         0.00000E+00
    0.00000E+00         0.00000E+00        -0.50007E+08
 
   -0.50028E+08         0.48669E+05         0.00000E+00
    0.48669E+05        -0.50006E+08         0.00000E+00
    0.00000E+00         0.00000E+00        -0.50007E+08
 
   -0.50027E+08         0.49962E+05         0.00000E+00
    0.49962E+05        -0.50007E+08         0.00000E+00
    0.00000E+00         0.00000E+00        -0.50007E+08
 
   -0.50026E+08         0.51213E+05         0.00000E+00
    0.51213E+05        -0.50007E+08         0.00000E+00
    0.00000E+00         0.00000E+00        -0.50007E+08
 
   -0.50025E+08         0.52421E+05         0.00000E+00
    0.52421E+05        -0.50007E+08         0.00000E+00
    0.00000E+00         0.00000E+00        -0.50007E+08
 
   -0.50024E+08         0.53585E+05         0.00000E+00
    0.53585E+05        -0.50008E+08         0.00000E+00
    0.00000E+00         0.00000E+00        -0.50006E+08
 
   -0.50023E+08         0.54703E+05         0.00000E+00
    0.54703E+05        -0.50008E+08         0.00000E+00
    0.00000E+00         0.00000E+00        -0.50006E+08
 
   -0.50022E+08         0.55775E+05         0.00000E+00
    0.55775E+05        -0.50009E+08         0.00000E+00
    0.00000E+00         0.00000E+00        -0.50006E+08
 
   -0.50021E+08         0.56800E+05         0.00000E+00
    0.56800E+05        -0.50009E+08         0.00000E+00
    0.00000E+00         0.00000E+00        -0.50006E+08
 
   -0.50020E+08         0.57776E+05         0.00000E+00
    0.57776E+05        -0.50010E+08         0.00000E+00
    0.00000E+00         0.00000E+00        -0.50006E+08
 
   -0.50019E+08         0.58703E+05         0.00000E+00
    0.58703E+05        -0.50010E+08         0.00000E+00
    0.00000E+00         0.00000E+00        -0.50006E+08
 
   -0.50018E+08         0.59579E+05         0.00000E+00
    0.59579E+05        -0.50011E+08         0.00000E+00
    0.00000E+00         0.00000E+00        -0.50006E+08
 
   -0.50017E+08         0.60403E+05         0.00000E+00
    0.60403E+05        -0.50011E+08         0.00000E+00
    0.00000E+00         0.00000E+00        -0.50006E+08
 
   -0.50016E+08         0.61175E+05         0.00000E+00
    0.61175E+05        -0.50012E+08         0.00000E+00
    0.00000E+00         0.00000E+00        -0.50006E+08
 
   -0.50015E+08         0.61894E+05         0.00000E+00
    0.61894E+05        -0.50012E+08         0.00000E+00
    0.00000E+00         0.00000E+00        -0.50005E+08
 
   -0.50013E+08         0.62558E+05         0.00000E+00
    0.62558E+05        -0.50013E+08         0.00000E+00
    0.00000E+00         0.00000E+00        -0.50005E+08
 
   -0.50012E+08         0.63168E+05         0.00000E+00
    0.63168E+05        -0.50013E+08         0.00000E+00
    0.00000E+00         0.00000E+00        -0.50005E+08
 
   -0.50011E+08         0.63721E+05         0.00000E+00
    0.63721E+05        -0.50014E+08         0.00000E+00
    0.00000E+00         0.00000E+00        -0.50005E+08
 
   -0.50010E+08         0.64218E+05         0.00000E+00
    0.64218E+05        -0.50015E+08         0.00000E+00
    0.00000E+00         0.00000E+00        -0.50005E+08
 
   -0.50009E+08         0.64657E+05         0.00000E+00
    0.64657E+05        -0.50015E+08         0.00000E+00
    0.00000E+00         0.00000E+00        -0.50005E+08
 
   -0.50007E+08         0.65038E+05         0.00000E+00
    0.65038E+05        -0.50016E+08         0.00000E+00
    0.00000E+00         0.00000E+00        -0.50005E+08
 
   -0.50006E+08         0.65361E+05         0.00000E+00
    0.65361E+05        -0.50016E+08         0.00000E+00
    0.00000E+00         0.00000E+00        -0.50004E+08
 
   -0.50005E+08         0.65624E+05         0.00000E+00
    0.65624E+05        -0.50017E+08         0.00000E+00
    0.00000E+00         0.00000E+00        -0.50004E+08
 
   -0.50031E+08         0.91883E+03         0.00000E+00
    0.91883E+03        -0.50000E+08         0.00000E+00
    0.00000E+00         0.00000E+00        -0.50006E+08
 
   -0.50031E+08         0.27556E+04         0.00000E+00
    0.27556E+04        -0.50000E+08         0.00000E+00
    0.00000E+00         0.00000E+00        -0.50006E+08
 
   -0.50031E+08         0.45901E+04         0.00000E+00
    0.45901E+04        -0.50000E+08         0.00000E+00
    0.00000E+00         0.00000E+00        -0.50006E+08
 
   -0.50031E+08         0.64210E+04         0.00000E+00
    0.64210E+04        -0.50000E+08         0.00000E+00
    0.00000E+00         0.00000E+00        -0.50006E+08
 
   -0.50031E+08         0.82468E+04         0.00000E+00
    0.82468E+04        -0.50000E+08         0.00000E+00
    0.00000E+00         0.00000E+00        -0.50006E+08
 
   -0.50031E+08         0.10066E+05         0.00000E+00
    0.10066E+05        -0.50000E+08         0.00000E+00
    0.00000E+00         0.00000E+00        -0.50006E+08
 
   -0.50031E+08         0.11877E+05         0.00000E+00
    0.11877E+05        -0.50000E+08         0.00000E+00
    0.00000E+00         0.00000E+00        -0.50006E+08
 
   -0.50030E+08         0.13679E+05         0.00000E+00
    0.13679E+05        -0.50000E+08         0.00000E+00
    0.00000E+00         0.00000E+00        -0.50006E+08
 
   -0.50030E+08         0.15470E+05         0.00000E+00
    0.15470E+05        -0.50000E+08         0.00000E+00
    0.00000E+00         0.00000E+00        -0.50006E+08
 
   -0.50030E+08         0.17249E+05         0.00000E+00
    0.17249E+05        -0.50001E+08         0.00000E+00
    0.00000E+00         0.00000E+00        -0.50006E+08
 
   -0.50030E+08         0.19014E+05         0.00000E+00
    0.19014E+05        -0.50001E+08         0.00000E+00
    0.00000E+00         0.00000E+00        -0.50006E+08
 
   -0.50029E+08         0.20763E+05         0.00000E+00
    0.20763E+05        -0.50001E+08         0.00000E+00
    0.00000E+00         0.00000E+00        -0.50006E+08
 
   -0.50029E+08         0.22496E+05         0.00000E+00
    0.22496E+05        -0.50001E+08         0.00000E+00
    0.00000E+00         0.00000E+00        -0.50006E+08
 
   -0.50029E+08         0.24211E+05         0.00000E+00
    0.24211E+05        -0.50001E+08         0.00000E+00
    0.00000E+00         0.00000E+00        -0.50006E+08
 
   -0.50029E+08         0.25907E+05         0.00000E+00
    0.25907E+05        -0.50001E+08         0.00000E+00
    0.00000E+00         0.00000E+00        -0.50006E+08
 
   -0.50028E+08         0.27582E+05         0.00000E+00
    0.27582E+05        -0.50001E+08         0.00000E+00
    0.00000E+00         0.00000E+00        -0.50006E+08
 
   -0.50028E+08         0.29234E+05         0.00000E+00
    0.29234E+05        -0.50002E+08         0.00000E+00
    0.00000E+00         0.00000E+00        -0.50006E+08
 
   -0.50027E+08         0.30863E+05         0.00000E+00
    0.30863E+05        -0.50002E+08         0.00000E+00
    0.00000E+00         0.00000E+00        -0.50006E+08
 
   -0.50027E+08         0.32467E+05         0.00000E+00
    0.32467E+05        -0.50002E+08         0.00000E+00
    0.00000E+00         0.00000E+00        -0.50006E+08
 
   -0.50026E+08         0.34045E+05         0.00000E+00
    0.34045E+05        -0.50002E+08         0.00000E+00
    0.00000E+00         0.00000E+00        -0.50006E+08
 
   -0.50026E+08         0.35595E+05         0.00000E+00
    0.35595E+05        -0.50002E+08         0.00000E+00
    0.00000E+00         0.00000E+00        -0.50006E+08
 
   -0.50025E+08         0.37115E+05         0.00000E+00
    0.37115E+05        -0.50003E+08         0.00000E+00
    0.00000E+00         0.00000E+00        -0.50006E+08
 
   -0.50025E+08         0.38606E+05         0.00000E+00
    0.38606E+05        -0.50003E+08         0.00000E+00
    0.00000E+00         0.00000E+00        -0.50006E+08
 
   -0.50024E+08         0.40064E+05         0.00000E+00
    0.40064E+05        -0.50003E+08         0.00000E+00
    0.00000E+00         0.00000E+00        -0.50006E+08
 
   -0.50024E+08         0.41490E+05         0.00000E+00
    0.41490E+05        -0.50004E+08         0.00000E+00
    0.00000E+00         0.00000E+00        -0.50005E+08
 
   -0.50023E+08         0.42882E+05         0.00000E+00
    0.42882E+05        -0.50004E+08         0.00000E+00
    0.00000E+00         0.00000E+00        -0.50005E+08
 
   -0.50023E+08         0.44238E+05         0.00000E+00
    0.44238E+05        -0.50004E+08         0.00000E+00
    0.00000E+00         0.00000E+00        -0.50005E+08
 
   -0.50022E+08         0.45557E+05         0.00000E+00
    0.45557E+05        -0.50004E+08         0.00000E+00
    0.00000E+00         0.00000E+00        -0.50005E+08
 
   -0.50021E+08         0.46839E+05         0.00000E+00
    0.46839E+05        -0.50005E+08         0.00000E+00
    0.00000E+00         0.00000E+00        -0.50005E+08
 
   -0.50021E+08         0.48081E+05         0.00000E+00
    0.48081E+05        -0.50005E+08         0.00000E+00
    0.00000E+00         0.00000E+00        -0.50005E+08
 
   -0.50020E+08         0.49283E+05         0.00000E+00
    0.49283E+05        -0.50005E+08         0.00000E+00
    0.00000E+00         0.00000E+00        -0.50005E+08
 
   -0.50019E+08         0.50444E+05         0.00000E+00
    0.50444E+05        -0.50006E+08         0.00000E+00
    0.00000E+00         0.00000E+00        -0.50005E+08
 
   -0.50019E+08         0.51562E+05         0.00000E+00
    0.51562E+05        -0.50006E+08         0.00000E+00
    0.00000E+00         0.00000E+00        -0.50005E+08
 
   -0.50018E+08         0.52637E+05         0.00000E+00
    0.52637E+05        -0.50006E+08         0.00000E+00
    0.00000E+00         0.00000E+00        -0.50005E+08
 
   -0.50017E+08         0.53667E+05         0.00000E+00
    0.53667E+05        -0.50007E+08         0.00000E+00
    0.00000E+00         0.00000E+00        -0.50005E+08
 
   -0.50016E+08         0.54651E+05         0.00000E+00
    0.54651E+05        -0.50007E+08         0.00000E+00
    0.00000E+00         0.00000E+00        -0.50005E+08
 
   -0.50015E+08         0.55589E+05         0.00000E+00
    0.55589E+05        -0.50008E+08         0.00000E+00
    0.00000E+00         0.00000E+00        -0.50005E+08
 
   -0.50015E+08         0.56478E+05         0.00000E+00
    0.56478E+05        -0.50008E+08         0.00000E+00
    0.00000E+00         0.00000E+00        -0.50005E+08
 
   -0.50014E+08         0.57320E+05         0.00000E+00
    0.57320E+05        -0.50008E+08         0.00000E+00
    0.00000E+00         0.00000E+00        -0.50004E+08
 
   -0.50013E+08         0.58111E+05         0.00000E+00
    0.58111E+05        -0.50009E+08         0.00000E+00
    0.00000E+00         0.00000E+00        -0.50004E+08
 
   -0.50012E+08         0.58853E+05         0.00000E+00
    0.58853E+05        -0.50009E+08         0.00000E+00
    0.00000E+00         0.00000E+00        -0.50004E+08
 
   -0.50011E+08         0.59543E+05         0.00000E+00
    0.59543E+05        -0.50010E+08         0.00000E+00
    0.00000E+00         0.00000E+00        -0.50004E+08
 
   -0.50010E+08         0.60181E+05         0.00000E+00
    0.60181E+05        -0.50010E+08         0.00000E+00
    0.00000E+00         0.00000E+00        -0.50004E+08
 
   -0.50009E+08         0.60765E+05         0.00000E+00
    0.60765E+05        -0.50010E+08         0.00000E+00
    0.00000E+00         0.00000E+00        -0.50004E+08
 
   -0.50009E+08         0.61297E+05         0.00000E+00
    0.61297E+05        -0.50011E+08         0.00000E+00
    0.00000E+00         0.00000E+00        -0.50004E+08
 
   -0.50008E+08         0.61773E+05         0.00000E+00
    0.61773E+05        -0.50011E+08         0.00000E+00
    0.00000E+00         0.00000E+00        -0.50004E+08
 
   -0.50007E+08         0.62195E+05         0.00000E+00
    0.62195E+05        -0.50012E+08         0.00000E+00
    0.00000E+00         0.00000E+00        -0.50004E+08
 
   -0.50006E+08         0.62561E+05         0.00000E+00
    0.62561E+05        -0.50012E+08         0.00000E+00
    0.00000E+00         0.00000E+00        -0.50004E+08
 
   -0.50005E+08         0.62870E+05         0.00000E+00
    0.62870E+05        -0.50012E+08         0.00000E+00
    0.00000E+00         0.00000E+00        -0.50003E+08
 
   -0.50004E+08         0.63123E+05         0.00000E+00
    0.63123E+05        -0.50013E+08         0.00000E+00
    0.00000E+00         0.00000E+00        -0.50003E+08
 
   -0.50022E+08         0.89356E+03         0.00000E+00
    0.89356E+03        -0.50000E+08         0.00000E+00
    0.00000E+00         0.00000E+00        -0.50004E+08
 
   -0.50022E+08         0.26793E+04         0.00000E+00
    0.26793E+04        -0.50000E+08         0.00000E+00
    0.00000E+00         0.00000E+00        -0.50004E+08
 
   -0.50022E+08         0.44626E+04         0.00000E+00
    0.44626E+04        -0.50000E+08         0.00000E+00
    0.00000E+00         0.00000E+00        -0.50004E+08
 
   -0.50022E+08         0.62422E+04         0.00000E+00
    0.62422E+04        -0.50000E+08         0.00000E+00
    0.00000E+00         0.00000E+00        -0.50004E+08
 
   -0.50022E+08         0.80166E+04         0.00000E+00
    0.80166E+04        -0.50000E+08         0.00000E+00
    0.00000E+00         0.00000E+00        -0.50004E+08
 
   -0.50022E+08         0.97845E+04         0.00000E+00
    0.97845E+04        -0.50000E+08         0.00000E+00
    0.00000E+00         0.00000E+00        -0.50004E+08
 
   -0.50022E+08         0.11544E+05         0.00000E+00
    0.11544E+05        -0.50000E+08         0.00000E+00
    0.00000E+00         0.00000E+00        -0.50004E+08
 
   -0.50022E+08         0.13295E+05         0.00000E+00
    0.13295E+05        -0.50000E+08         0.00000E+00
    0.00000E+00         0.00000E+00        -0.50004E+08
 
   -0.50021E+08         0.15035E+05         0.00000E+00
    0.15035E+05        -0.50000E+08         0.00000E+00
    0.00000E+00         0.00000E+00        -0.50004E+08
 
   -0.50021E+08         0.16762E+05         0.00000E+00
    0.16762E+05        -0.50000E+08         0.00000E+00
    0.00000E+00         0.00000E+00        -0.50004E+08
 
   -0.50021E+08         0.18476E+05         0.00000E+00
    0.18476E+05        -0.50000E+08         0.00000E+00
    0.00000E+00         0.00000E+00        -0.50004E+08
 
   -0.50021E+08         0.20176E+05         0.00000E+00
    0.20176E+05        -0.50001E+08         0.00000E+00
    0.00000E+00         0.00000E+00        -0.50004E+08
 
   -0.50021E+08         0.21859E+05         0.00000E+00
    0.21859E+05        -0.50001E+08         0.00000E+00
    0.00000E+00         0.00000E+00        -0.50004E+08
 
   -0.50020E+08         0.23524E+05         0.00000E+00
    0.23524E+05        -0.50001E+08         0.00000E+00
    0.00000E+00         0.00000E+00        -0.50004E+08
 
   -0.50020E+08         0.25170E+05         0.00000E+00
    0.25170E+05        -0.50001E+08         0.00000E+00
    0.00000E+00         0.00000E+00        -0.50004E+08
 
   -0.50020E+08         0.26796E+05         0.00000E+00
    0.26796E+05        -0.50001E+08         0.00000E+00
    0.00000E+00         0.00000E+00        -0.50004E+08
 
   -0.50020E+08         0.28400E+05         0.00000E+00
    0.28400E+05        -0.50001E+08         0.00000E+00
    0.00000E+00         0.00000E+00        -0.50004E+08
 
   -0.50019E+08         0.29981E+05         0.00000E+00
    0.29981E+05        -0.50001E+08         0.00000E+00
    0.00000E+00         0.00000E+00        -0.50004E+08
 
   -0.50019E+08         0.31538E+05         0.00000E+00
    0.31538E+05        -0.50001E+08         0.00000E+00
    0.00000E+00         0.00000E+00        -0.50004E+08
 
   -0.50019E+08         0.33069E+05         0.00000E+00
    0.33069E+05        -0.50002E+08         0.00000E+00
    0.00000E+00         0.00000E+00        -0.50004E+08
 
   -0.50018E+08         0.34573E+05         0.00000E+00
    0.34573E+05        -0.50002E+08         0.00000E+00
    0.00000E+00         0.00000E+00        -0.50004E+08
 
   -0.50018E+08         0.36048E+05         0.00000E+00
    0.36048E+05        -0.50002E+08         0.00000E+00
    0.00000E+00         0.00000E+00        -0.50004E+08
 
   -0.50018E+08         0.37494E+05         0.00000E+00
    0.37494E+05        -0.50002E+08         0.00000E+00
    0.00000E+00         0.00000E+00        -0.50004E+08
 
   -0.50017E+08         0.38910E+05         0.00000E+00
    0.38910E+05        -0.50002E+08         0.00000E+00
    0.00000E+00         0.00000E+00        -0.50004E+08
 
   -0.50017E+08         0.40293E+05         0.00000E+00
    0.40293E+05        -0.50003E+08         0.00000E+00
    0.00000E+00         0.00000E+00        -0.50004E+08
 
   -0.50017E+08         0.41642E+05         0.00000E+00
    0.41642E+05        -0.50003E+08         0.00000E+00
    0.00000E+00         0.00000E+00        -0.50004E+08
 
   -0.50016E+08         0.42958E+05         0.00000E+00
    0.42958E+05        -0.50003E+08         0.00000E+00
    0.00000E+00         0.00000E+00        -0.50004E+08
 
   -0.50016E+08         0.44237E+05         0.00000E+00
    0.44237E+05        -0.50003E+08         0.00000E+00
    0.00000E+00         0.00000E+00        -0.50004E+08
 
   -0.50015E+08         0.45480E+05         0.00000E+00
    0.45480E+05        -0.50003E+08         0.00000E+00
    0.00000E+00         0.00000E+00        -0.50004E+08
 
   -0.50015E+08         0.46685E+05         0.00000E+00
    0.46685E+05        -0.50004E+08         0.00000E+00
    0.00000E+00         0.00000E+00        -0.50004E+08
 
   -0.50014E+08         0.47851E+05         0.00000E+00
    0.47851E+05        -0.50004E+08         0.00000E+00
    0.00000E+00         0.00000E+00        -0.50004E+08
 
   -0.50014E+08         0.48976E+05         0.00000E+00
    0.48976E+05        -0.50004E+08         0.00000E+00
    0.00000E+00         0.00000E+00        -0.50004E+08
 
   -0.50013E+08         0.50061E+05         0.00000E+00
    0.50061E+05        -0.50004E+08         0.00000E+00
    0.00000E+00         0.00000E+00        -0.50003E+08
 
   -0.50013E+08         0.51102E+05         0.00000E+00
    0.51102E+05        -0.50005E+08         0.00000E+00
    0.00000E+00         0.00000E+00        -0.50003E+08
 
   -0.50012E+08         0.52101E+05         0.00000E+00
    0.52101E+05        -0.50005E+08         0.00000E+00
    0.00000E+00         0.00000E+00        -0.50003E+08
 
   -0.50012E+08         0.53055E+05         0.00000E+00
    0.53055E+05        -0.50005E+08         0.00000E+00
    0.00000E+00         0.00000E+00        -0.50003E+08
 
   -0.50011E+08         0.53964E+05         0.00000E+00
    0.53964E+05        -0.50005E+08         0.00000E+00
    0.00000E+00         0.00000E+00        -0.50003E+08
 
   -0.50010E+08         0.54827E+05         0.00000E+00
    0.54827E+05        -0.50006E+08         0.00000E+00
    0.00000E+00         0.00000E+00        -0.50003E+08
 
   -0.50010E+08         0.55642E+05         0.00000E+00
    0.55642E+05        -0.50006E+08         0.00000E+00
    0.00000E+00         0.00000E+00        -0.50003E+08
 
   -0.50009E+08         0.56409E+05         0.00000E+00
    0.56409E+05        -0.50006E+08         0.00000E+00
    0.00000E+00         0.00000E+00        -0.50003E+08
 
   -0.50009E+08         0.57128E+05         0.00000E+00
    0.57128E+05        -0.50006E+08         0.00000E+00
    0.00000E+00         0.00000E+00        -0.50003E+08
 
   -0.50008E+08         0.57796E+05         0.00000E+00
    0.57796E+05        -0.50007E+08         0.00000E+00
    0.00000E+00         0.00000E+00        -0.50003E+08
 
   -0.50007E+08         0.58414E+05         0.00000E+00
    0.58414E+05        -0.50007E+08         0.00000E+00
    0.00000E+00         0.00000E+00        -0.50003E+08
 
   -0.50007E+08         0.58981E+05         0.00000E+00
    0.58981E+05        -0.50007E+08         0.00000E+00
    0.00000E+00         0.00000E+00        -0.50003E+08
 
   -0.50006E+08         0.59495E+05         0.00000E+00
    0.59495E+05        -0.50008E+08         0.00000E+00
    0.00000E+00         0.00000E+00        -0.50003E+08
 
   -0.50005E+08         0.59957E+05         0.00000E+00
    0.59957E+05        -0.50008E+08         0.00000E+00
    0.00000E+00         0.00000E+00        -0.50003E+08
 
   -0.50005E+08         0.60366E+05         0.00000E+00
    0.60366E+05        -0.50008E+08         0.00000E+00
    0.00000E+00         0.00000E+00        -0.50003E+08
 
   -0.50004E+08         0.60720E+05         0.00000E+00
    0.60720E+05        -0.50009E+08         0.00000E+00
    0.00000E+00         0.00000E+00        -0.50003E+08
 
   -0.50003E+08         0.61020E+05         0.00000E+00
    0.61020E+05        -0.50009E+08         0.00000E+00
    0.00000E+00         0.00000E+00        -0.50002E+08
 
   -0.50003E+08         0.61264E+05         0.00000E+00
    0.61264E+05        -0.50009E+08         0.00000E+00
    0.00000E+00         0.00000E+00        -0.50002E+08
 
   -0.50013E+08         0.87691E+03         0.00000E+00
    0.87691E+03        -0.50000E+08         0.00000E+00
    0.00000E+00         0.00000E+00        -0.50003E+08
 
   -0.50013E+08         0.26290E+04         0.00000E+00
    0.26290E+04        -0.50000E+08         0.00000E+00
    0.00000E+00         0.00000E+00        -0.50003E+08
 
   -0.50013E+08         0.43786E+04         0.00000E+00
    0.43786E+04        -0.50000E+08         0.00000E+00
    0.00000E+00         0.00000E+00        -0.50003E+08
 
   -0.50013E+08         0.61243E+04         0.00000E+00
    0.61243E+04        -0.50000E+08         0.00000E+00
    0.00000E+00         0.00000E+00        -0.50003E+08
 
   -0.50013E+08         0.78648E+04         0.00000E+00
    0.78648E+04        -0.50000E+08         0.00000E+00
    0.00000E+00         0.00000E+00        -0.50003E+08
 
   -0.50013E+08         0.95987E+04         0.00000E+00
    0.95987E+04        -0.50000E+08         0.00000E+00
    0.00000E+00         0.00000E+00        -0.50003E+08
 
   -0.50013E+08         0.11325E+05         0.00000E+00
    0.11325E+05        -0.50000E+08         0.00000E+00
    0.00000E+00         0.00000E+00        -0.50003E+08
 
   -0.50013E+08         0.13041E+05         0.00000E+00
    0.13041E+05        -0.50000E+08         0.00000E+00
    0.00000E+00         0.00000E+00        -0.50003E+08
 
   -0.50013E+08         0.14747E+05         0.00000E+00
    0.14747E+05        -0.50000E+08         0.00000E+00
    0.00000E+00         0.00000E+00        -0.50003E+08
 
   -0.50013E+08         0.16441E+05         0.00000E+00
    0.16441E+05        -0.50000E+08         0.00000E+00
    0.00000E+00         0.00000E+00        -0.50003E+08
 
   -0.50013E+08         0.18122E+05         0.00000E+00
    0.18122E+05        -0.50000E+08         0.00000E+00
    0.00000E+00         0.00000E+00        -0.50003E+08
 
   -0.50013E+08         0.19788E+05         0.00000E+00
    0.19788E+05        -0.50000E+08         0.00000E+00
    0.00000E+00         0.00000E+00        -0.50003E+08
 
   -0.50012E+08         0.21437E+05         0.00000E+00
    0.21437E+05        -0.50000E+08         0.00000E+00
    0.00000E+00         0.00000E+00        -0.50003E+08
 
   -0.50012E+08         0.23069E+05         0.00000E+00
    0.23069E+05        -0.50000E+08         0.00000E+00
    0.00000E+00         0.00000E+00        -0.50003E+08
 
   -0.50012E+08         0.24683E+05         0.00000E+00
    0.24683E+05        -0.50001E+08         0.00000E+00
    0.00000E+00         0.00000E+00        -0.50003E+08
 
   -0.50012E+08         0.26276E+05         0.00000E+00
    0.26276E+05        -0.50001E+08         0.00000E+00
    0.00000E+00         0.00000E+00        -0.50003E+08
 
   -0.50012E+08         0.27848E+05         0.00000E+00
    0.27848E+05        -0.50001E+08         0.00000E+00
    0.00000E+00         0.00000E+00        -0.50003E+08
 
   -0.50012E+08         0.29397E+05         0.00000E+00
    0.29397E+05        -0.50001E+08         0.00000E+00
    0.00000E+00         0.00000E+00        -0.50002E+08
 
   -0.50011E+08         0.30923E+05         0.00000E+00
    0.30923E+05        -0.50001E+08         0.00000E+00
    0.00000E+00         0.00000E+00        -0.50002E+08
 
   -0.50011E+08         0.32423E+05         0.00000E+00
    0.32423E+05        -0.50001E+08         0.00000E+00
    0.00000E+00         0.00000E+00        -0.50002E+08
 
   -0.50011E+08         0.33896E+05         0.00000E+00
    0.33896E+05        -0.50001E+08         0.00000E+00
    0.00000E+00         0.00000E+00        -0.50002E+08
 
   -0.50011E+08         0.35342E+05         0.00000E+00
    0.35342E+05        -0.50001E+08         0.00000E+00
    0.00000E+00         0.00000E+00        -0.50002E+08
 
   -0.50011E+08         0.36758E+05         0.00000E+00
    0.36758E+05        -0.50001E+08         0.00000E+00
    0.00000E+00         0.00000E+00        -0.50002E+08
 
   -0.50010E+08         0.38144E+05         0.00000E+00
    0.38144E+05        -0.50001E+08         0.00000E+00
    0.00000E+00         0.00000E+00        -0.50002E+08
 
   -0.50010E+08         0.39499E+05         0.00000E+00
    0.39499E+05        -0.50001E+08         0.00000E+00
    0.00000E+00         0.00000E+00        -0.50002E+08
 
   -0.50010E+08         0.40821E+05         0.00000E+00
    0.40821E+05        -0.50002E+08         0.00000E+00
    0.00000E+00         0.00000E+00        -0.50002E+08
 
   -0.50010E+08         0.42109E+05         0.00000E+00
    0.42109E+05        -0.50002E+08         0.00000E+00
    0.00000E+00         0.00000E+00        -0.50002E+08
 
   -0.50009E+08         0.43362E+05         0.00000E+00
    0.43362E+05        -0.50002E+08         0.00000E+00
    0.00000E+00         0.00000E+00        -0.50002E+08
 
   -0.50009E+08         0.44579E+05         0.00000E+00
    0.44579E+05        -0.50002E+08         0.00000E+00
    0.00000E+00         0.00000E+00        -0.50002E+08
 
   -0.50009E+08         0.45759E+05         0.00000E+00
    0.45759E+05        -0.50002E+08         0.00000E+00
    0.00000E+00         0.00000E+00        -0.50002E+08
 
   -0.50009E+08         0.46900E+05         0.00000E+00
    0.46900E+05        -0.50002E+08         0.00000E+00
    0.00000E+00         0.00000E+00        -0.50002E+08
 
   -0.50008E+08         0.48002E+05         0.00000E+00
    0.48002E+05        -0.50002E+08         0.00000E+00
    0.00000E+00         0.00000E+00        -0.50002E+08
 
   -0.50008E+08         0.49064E+05         0.00000E+00
    0.49064E+05        -0.50003E+08         0.00000E+00
    0.00000E+00         0.00000E+00        -0.50002E+08
 
   -0.50008E+08         0.50084E+05         0.00000E+00
    0.50084E+05        -0.50003E+08         0.00000E+00
    0.00000E+00         0.00000E+00        -0.50002E+08
 
   -0.50007E+08         0.51061E+05         0.00000E+00
    0.51061E+05        -0.50003E+08         0.00000E+00
    0.00000E+00         0.00000E+00        -0.50002E+08
 
   -0.50007E+08         0.51995E+05         0.00000E+00
    0.51995E+05        -0.50003E+08         0.00000E+00
    0.00000E+00         0.00000E+00        -0.50002E+08
 
   -0.50007E+08         0.52885E+05         0.00000E+00
    0.52885E+05        -0.50003E+08         0.00000E+00
    0.00000E+00         0.00000E+00        -0.50002E+08
 
   -0.50006E+08         0.53729E+05         0.00000E+00
    0.53729E+05        -0.50003E+08         0.00000E+00
    0.00000E+00         0.00000E+00        -0.50002E+08
 
   -0.50006E+08         0.54527E+05         0.00000E+00
    0.54527E+05        -0.50004E+08         0.00000E+00
    0.00000E+00         0.00000E+00        -0.50002E+08
 
   -0.50006E+08         0.55278E+05         0.00000E+00
    0.55278E+05        -0.50004E+08         0.00000E+00
    0.00000E+00         0.00000E+00        -0.50002E+08
 
   -0.50005E+08         0.55981E+05         0.00000E+00
    0.55981E+05        -0.50004E+08         0.00000E+00
    0.00000E+00         0.00000E+00        -0.50002E+08
 
   -0.50005E+08         0.56635E+05         0.00000E+00
    0.56635E+05        -0.50004E+08         0.00000E+00
    0.00000E+00         0.00000E+00        -0.50002E+08
 
   -0.50004E+08         0.57240E+05         0.00000E+00
    0.57240E+05        -0.50004E+08         0.00000E+00
    0.00000E+00         0.00000E+00        -0.50002E+08
 
   -0.50004E+08         0.57794E+05         0.00000E+00
    0.57794E+05        -0.50004E+08         0.00000E+00
    0.00000E+00         0.00000E+00        -0.50002E+08
 
   -0.50004E+08         0.58298E+05         0.00000E+00
    0.58298E+05        -0.50005E+08         0.00000E+00
    0.00000E+00         0.00000E+00        -0.50002E+08
 
   -0.50003E+08         0.58750E+05         0.00000E+00
    0.58750E+05        -0.50005E+08         0.00000E+00
    0.00000E+00         0.00000E+00        -0.50002E+08
 
   -0.50003E+08         0.59149E+05         0.00000E+00
    0.59149E+05        -0.50005E+08         0.00000E+00
    0.00000E+00         0.00000E+00        -0.50002E+08
 
   -0.50002E+08         0.59496E+05         0.00000E+00
    0.59496E+05        -0.50005E+08         0.00000E+00
    0.00000E+00         0.00000E+00        -0.50002E+08
 
   -0.50002E+08         0.59789E+05         0.00000E+00
    0.59789E+05        -0.50005E+08         0.00000E+00
    0.00000E+00         0.00000E+00        -0.50001E+08
 
   -0.50002E+08         0.60028E+05         0.00000E+00
    0.60028E+05        -0.50005E+08         0.00000E+00
    0.00000E+00         0.00000E+00        -0.50001E+08
 
   -0.50005E+08         0.86873E+03         0.00000E+00
    0.86873E+03        -0.50000E+08         0.00000E+00
    0.00000E+00         0.00000E+00        -0.50001E+08
 
   -0.50005E+08         0.26042E+04         0.00000E+00
    0.26042E+04        -0.50000E+08         0.00000E+00
    0.00000E+00         0.00000E+00        -0.50001E+08
 
   -0.50005E+08         0.43371E+04         0.00000E+00
    0.43371E+04        -0.50000E+08         0.00000E+00
    0.00000E+00         0.00000E+00        -0.50001E+08
 
   -0.50005E+08         0.60661E+04         0.00000E+00
    0.60661E+04        -0.50000E+08         0.00000E+00
    0.00000E+00         0.00000E+00        -0.50001E+08
 
   -0.50004E+08         0.77897E+04         0.00000E+00
    0.77897E+04        -0.50000E+08         0.00000E+00
    0.00000E+00         0.00000E+00        -0.50001E+08
 
   -0.50004E+08         0.95068E+04         0.00000E+00
    0.95068E+04        -0.50000E+08         0.00000E+00
    0.00000E+00         0.00000E+00        -0.50001E+08
 
   -0.50004E+08         0.11216E+05         0.00000E+00
    0.11216E+05        -0.50000E+08         0.00000E+00
    0.00000E+00         0.00000E+00        -0.50001E+08
 
   -0.50004E+08         0.12916E+05         0.00000E+00
    0.12916E+05        -0.50000E+08         0.00000E+00
    0.00000E+00         0.00000E+00        -0.50001E+08
 
   -0.50004E+08         0.14605E+05         0.00000E+00
    0.14605E+05        -0.50000E+08         0.00000E+00
    0.00000E+00         0.00000E+00        -0.50001E+08
 
   -0.50004E+08         0.16282E+05         0.00000E+00
    0.16282E+05        -0.50000E+08         0.00000E+00
    0.00000E+00         0.00000E+00        -0.50001E+08
 
   -0.50004E+08         0.17945E+05         0.00000E+00
    0.17945E+05        -0.50000E+08         0.00000E+00
    0.00000E+00         0.00000E+00        -0.50001E+08
 
   -0.50004E+08         0.19594E+05         0.00000E+00
    0.19594E+05        -0.50000E+08         0.00000E+00
    0.00000E+00         0.00000E+00        -0.50001E+08
 
   -0.50004E+08         0.21227E+05         0.00000E+00
    0.21227E+05        -0.50000E+08         0.00000E+00
    0.00000E+00         0.00000E+00        -0.50001E+08
 
   -0.50004E+08         0.22843E+05         0.00000E+00
    0.22843E+05        -0.50000E+08         0.00000E+00
    0.00000E+00         0.00000E+00        -0.50001E+08
 
   -0.50004E+08         0.24440E+05         0.00000E+00
    0.24440E+05        -0.50000E+08         0.00000E+00
    0.00000E+00         0.00000E+00        -0.50001E+08
 
   -0.50004E+08         0.26017E+05         0.00000E+00
    0.26017E+05        -0.50000E+08         0.00000E+00
    0.00000E+00         0.00000E+00        -0.50001E+08
 
   -0.50004E+08         0.27573E+05         0.00000E+00
    0.27573E+05        -0.50000E+08         0.00000E+00
    0.00000E+00         0.00000E+00        -0.50001E+08
 
   -0.50004E+08         0.29106E+05         0.00000E+00
    0.29106E+05        -0.50000E+08         0.00000E+00
    0.00000E+00         0.00000E+00        -0.50001E+08
 
   -0.50004E+08         0.30615E+05         0.00000E+00
    0.30615E+05        -0.50000E+08         0.00000E+00
    0.00000E+00         0.00000E+00        -0.50001E+08
 
   -0.50004E+08         0.32099E+05         0.00000E+00
    0.32099E+05        -0.50000E+08         0.00000E+00
    0.00000E+00         0.00000E+00        -0.50001E+08
 
   -0.50004E+08         0.33557E+05         0.00000E+00
    0.33557E+05        -0.50000E+08         0.00000E+00
    0.00000E+00         0.00000E+00        -0.50001E+08
 
   -0.50004E+08         0.34987E+05         0.00000E+00
    0.34987E+05        -0.50000E+08         0.00000E+00
    0.00000E+00         0.00000E+00        -0.50001E+08
 
   -0.50004E+08         0.36389E+05         0.00000E+00
    0.36389E+05        -0.50000E+08         0.00000E+00
    0.00000E+00         0.00000E+00        -0.50001E+08
 
   -0.50004E+08         0.37760E+05         0.00000E+00
    0.37760E+05        -0.50000E+08         0.00000E+00
    0.00000E+00         0.00000E+00        -0.50001E+08
 
   -0.50004E+08         0.39100E+05         0.00000E+00
    0.39100E+05        -0.50001E+08         0.00000E+00
    0.00000E+00         0.00000E+00        -0.50001E+08
 
   -0.50003E+08         0.40408E+05         0.00000E+00
    0.40408E+05        -0.50001E+08         0.00000E+00
    0.00000E+00         0.00000E+00        -0.50001E+08
 
   -0.50003E+08         0.41682E+05         0.00000E+00
    0.41682E+05        -0.50001E+08         0.00000E+00
    0.00000E+00         0.00000E+00        -0.50001E+08
 
   -0.50003E+08         0.42922E+05         0.00000E+00
    0.42922E+05        -0.50001E+08         0.00000E+00
    0.00000E+00         0.00000E+00        -0.50001E+08
 
   -0.50003E+08         0.44126E+05         0.00000E+00
    0.44126E+05        -0.50001E+08         0.00000E+00
    0.00000E+00         0.00000E+00        -0.50001E+08
 
   -0.50003E+08         0.45293E+05         0.00000E+00
    0.45293E+05        -0.50001E+08         0.00000E+00
    0.00000E+00         0.00000E+00        -0.50001E+08
 
   -0.50003E+08         0.46421E+05         0.00000E+00
    0.46421E+05        -0.50001E+08         0.00000E+00
    0.00000E+00         0.00000E+00        -0.50001E+08
 
   -0.50003E+08         0.47511E+05         0.00000E+00
    0.47511E+05        -0.50001E+08         0.00000E+00
    0.00000E+00         0.00000E+00        -0.50001E+08
 
   -0.50003E+08         0.48561E+05         0.00000E+00
    0.48561E+05        -0.50001E+08         0.00000E+00
    0.00000E+00         0.00000E+00        -0.50001E+08
 
   -0.50003E+08         0.49570E+05         0.00000E+00
    0.49570E+05        -0.50001E+08         0.00000E+00
    0.00000E+00         0.00000E+00        -0.50001E+08
 
   -0.50003E+08         0.50536E+05         0.00000E+00
    0.50536E+05        -0.50001E+08         0.00000E+00
    0.00000E+00         0.00000E+00        -0.50001E+08
 
   -0.50002E+08         0.51460E+05         0.00000E+00
    0.51460E+05        -0.50001E+08         0.00000E+00
    0.00000E+00         0.00000E+00        -0.50001E+08
 
   -0.50002E+08         0.52339E+05         0.00000E+00
    0.52339E+05        -0.50001E+08         0.00000E+00
    0.00000E+00         0.00000E+00        -0.50001E+08
 
   -0.50002E+08         0.53174E+05         0.00000E+00
    0.53174E+05        -0.50001E+08         0.00000E+00
    0.00000E+00         0.00000E+00        -0.50001E+08
 
   -0.50002E+08         0.53963E+05         0.00000E+00
    0.53963E+05        -0.50001E+08         0.00000E+00
    0.00000E+00         0.00000E+00        -0.50001E+08
 
   -0.50002E+08         0.54705E+05         0.00000E+00
    0.54705E+05        -0.50001E+08         0.00000E+00
    0.00000E+00         0.00000E+00        -0.50001E+08
 
   -0.50002E+08         0.55400E+05         0.00000E+00
    0.55400E+05        -0.50001E+08         0.00000E+00
    0.00000E+00         0.00000E+00        -0.50001E+08
 
   -0.50002E+08         0.56047E+05         0.00000E+00
    0.56047E+05        -0.50001E+08         0.00000E+00
    0.00000E+00         0.00000E+00        -0.50001E+08
 
   -0.50002E+08         0.56645E+05         0.00000E+00
    0.56645E+05        -0.50001E+08         0.00000E+00
    0.00000E+00         0.00000E+00        -0.50001E+08
 
   -0.50001E+08         0.57193E+05         0.00000E+00
    0.57193E+05        -0.50002E+08         0.00000E+00
    0.00000E+00         0.00000E+00        -0.50001E+08
 
   -0.50001E+08         0.57691E+05         0.00000E+00
    0.57691E+05        -0.50002E+08         0.00000E+00
    0.00000E+00         0.00000E+00        -0.50001E+08
 
   -0.50001E+08         0.58137E+05         0.00000E+00
    0.58137E+05        -0.50002E+08         0.00000E+00
    0.00000E+00         0.00000E+00        -0.50001E+08
 
   -0.50001E+08         0.58532E+05         0.00000E+00
    0.58532E+05        -0.50002E+08         0.00000E+00
    0.00000E+00         0.00000E+00        -0.50001E+08
 
   -0.50001E+08         0.58875E+05         0.00000E+00
    0.58875E+05        -0.50002E+08         0.00000E+00
    0.00000E+00         0.00000E+00        -0.50001E+08
 
   -0.50001E+08         0.59165E+05         0.00000E+00
    0.59165E+05        -0.50002E+08         0.00000E+00
    0.00000E+00         0.00000E+00        -0.50001E+08
 
   -0.50001E+08         0.59401E+05         0.00000E+00
    0.59401E+05        -0.50002E+08         0.00000E+00
    0.00000E+00         0.00000E+00        -0.50000E+08
 
   -0.49996E+08         0.86894E+03         0.00000E+00
    0.86894E+03        -0.50000E+08         0.00000E+00
    0.00000E+00         0.00000E+00        -0.49999E+08
 
   -0.49996E+08         0.26047E+04         0.00000E+00
    0.26047E+04        -0.50000E+08         0.00000E+00
    0.00000E+00         0.00000E+00        -0.49999E+08
 
   -0.49996E+08         0.43378E+04         0.00000E+00
    0.43378E+04        -0.50000E+08         0.00000E+00
    0.00000E+00         0.00000E+00        -0.49999E+08
 
   -0.49996E+08         0.60669E+04         0.00000E+00
    0.60669E+04        -0.50000E+08         0.00000E+00
    0.00000E+00         0.00000E+00        -0.49999E+08
 
   -0.49996E+08         0.77906E+04         0.00000E+00
    0.77906E+04        -0.50000E+08         0.00000E+00
    0.00000E+00         0.00000E+00        -0.49999E+08
 
   -0.49996E+08         0.95077E+04         0.00000E+00
    0.95077E+04        -0.50000E+08         0.00000E+00
    0.00000E+00         0.00000E+00        -0.49999E+08
 
   -0.49996E+08         0.11217E+05         0.00000E+00
    0.11217E+05        -0.50000E+08         0.00000E+00
    0.00000E+00         0.00000E+00        -0.49999E+08
 
   -0.49996E+08         0.12916E+05         0.00000E+00
    0.12916E+05        -0.50000E+08         0.00000E+00
    0.00000E+00         0.00000E+00        -0.49999E+08
 
   -0.49996E+08         0.14605E+05         0.00000E+00
    0.14605E+05        -0.50000E+08         0.00000E+00
    0.00000E+00         0.00000E+00        -0.49999E+08
 
   -0.49996E+08         0.16282E+05         0.00000E+00
    0.16282E+05        -0.50000E+08         0.00000E+00
    0.00000E+00         0.00000E+00        -0.49999E+08
 
   -0.49996E+08         0.17945E+05         0.00000E+00
    0.17945E+05        -0.50000E+08         0.00000E+00
    0.00000E+00         0.00000E+00        -0.49999E+08
 
   -0.49996E+08         0.19594E+05         0.00000E+00
    0.19594E+05        -0.50000E+08         0.00000E+00
    0.00000E+00         0.00000E+00        -0.49999E+08
 
   -0.49996E+08         0.21227E+05         0.00000E+00
    0.21227E+05        -0.50000E+08         0.00000E+00
    0.00000E+00         0.00000E+00        -0.49999E+08
 
   -0.49996E+08         0.22842E+05         0.00000E+00
    0.22842E+05        -0.50000E+08         0.00000E+00
    0.00000E+00         0.00000E+00        -0.49999E+08
 
   -0.49996E+08         0.24438E+05         0.00000E+00
    0.24438E+05        -0.50000E+08         0.00000E+00
    0.00000E+00         0.00000E+00        -0.49999E+08
 
   -0.49996E+08         0.26015E+05         0.00000E+00
    0.26015E+05        -0.50000E+08         0.00000E+00
    0.00000E+00         0.00000E+00        -0.49999E+08
 
   -0.49996E+08         0.27570E+05         0.00000E+00
    0.27570E+05        -0.50000E+08         0.00000E+00
    0.00000E+00         0.00000E+00        -0.49999E+08
 
   -0.49996E+08         0.29102E+05         0.00000E+00
    0.29102E+05        -0.50000E+08         0.00000E+00
    0.00000E+00         0.00000E+00        -0.49999E+08
 
   -0.49996E+08         0.30611E+05         0.00000E+00
    0.30611E+05        -0.50000E+08         0.00000E+00
    0.00000E+00         0.00000E+00        -0.49999E+08
 
   -0.49997E+08         0.32095E+05         0.00000E+00
    0.32095E+05        -0.50000E+08         0.00000E+00
    0.00000E+00         0.00000E+00        -0.49999E+08
 
   -0.49997E+08         0.33552E+05         0.00000E+00
    0.33552E+05        -0.50000E+08         0.00000E+00
    0.00000E+00         0.00000E+00        -0.49999E+08
 
   -0.49997E+08         0.34981E+05         0.00000E+00
    0.34981E+05        -0.50000E+08         0.00000E+00
    0.00000E+00         0.00000E+00        -0.49999E+08
 
   -0.49997E+08         0.36382E+05         0.00000E+00
    0.36382E+05        -0.50000E+08         0.00000E+00
    0.00000E+00         0.00000E+00        -0.49999E+08
 
   -0.49997E+08         0.37753E+05         0.00000E+00
    0.37753E+05        -0.50000E+08         0.00000E+00
    0.00000E+00         0.00000E+00        -0.49999E+08
 
   -0.49997E+08         0.39092E+05         0.00000E+00
    0.39092E+05        -0.50000E+08         0.00000E+00
    0.00000E+00         0.00000E+00        -0.49999E+08
 
   -0.49997E+08         0.40399E+05         0.00000E+00
    0.40399E+05        -0.49999E+08         0.00000E+00
    0.00000E+00         0.00000E+00        -0.49999E+08
 
   -0.49997E+08         0.41672E+05         0.00000E+00
    0.41672E+05        -0.49999E+08         0.00000E+00
    0.00000E+00         0.00000E+00        -0.49999E+08
 
   -0.49997E+08         0.42911E+05         0.00000E+00
    0.42911E+05        -0.49999E+08         0.00000E+00
    0.00000E+00         0.00000E+00        -0.49999E+08
 
   -0.49997E+08         0.44114E+05         0.00000E+00
    0.44114E+05        -0.49999E+08         0.00000E+00
    0.00000E+00         0.00000E+00        -0.49999E+08
 
   -0.49997E+08         0.45280E+05         0.00000E+00
    0.45280E+05        -0.49999E+08         0.00000E+00
    0.00000E+00         0.00000E+00        -0.49999E+08
 
   -0.49997E+08         0.46408E+05         0.00000E+00
    0.46408E+05        -0.49999E+08         0.00000E+00
    0.00000E+00         0.00000E+00        -0.49999E+08
 
   -0.49998E+08         0.47497E+05         0.00000E+00
    0.47497E+05        -0.49999E+08         0.00000E+00
    0.00000E+00         0.00000E+00        -0.49999E+08
 
   -0.49998E+08         0.48546E+05         0.00000E+00
    0.48546E+05        -0.49999E+08         0.00000E+00
    0.00000E+00         0.00000E+00        -0.49999E+08
 
   -0.49998E+08         0.49554E+05         0.00000E+00
    0.49554E+05        -0.49999E+08         0.00000E+00
    0.00000E+00         0.00000E+00        -0.49999E+08
 
   -0.49998E+08         0.50520E+05         0.00000E+00
    0.50520E+05        -0.49999E+08         0.00000E+00
    0.00000E+00         0.00000E+00        -0.49999E+08
 
   -0.49998E+08         0.51442E+05         0.00000E+00
    0.51442E+05        -0.49999E+08         0.00000E+00
    0.00000E+00         0.00000E+00        -0.49999E+08
 
   -0.49998E+08         0.52321E+05         0.00000E+00
    0.52321E+05        -0.49999E+08         0.00000E+00
    0.00000E+00         0.00000E+00        -0.49999E+08
 
   -0.49998E+08         0.53155E+05         0.00000E+00
    0.53155E+05        -0.49999E+08         0.00000E+00
    0.00000E+00         0.00000E+00        -0.49999E+08
 
   -0.49998E+08         0.53943E+05         0.00000E+00
    0.53943E+05        -0.49999E+08         0.00000E+00
    0.00000E+00         0.00000E+00        -0.49999E+08
 
   -0.49998E+08         0.54685E+05         0.00000E+00
    0.54685E+05        -0.49999E+08         0.00000E+00
    0.00000E+00         0.00000E+00        -0.49999E+08
 
   -0.49998E+08         0.55379E+05         0.00000E+00
    0.55379E+05        -0.49999E+08         0.00000E+00
    0.00000E+00         0.00000E+00        -0.49999E+08
 
   -0.49999E+08         0.56026E+05         0.00000E+00
    0.56026E+05        -0.49999E+08         0.00000E+00
    0.00000E+00         0.00000E+00        -0.49999E+08
 
   -0.49999E+08         0.56623E+05         0.00000E+00
    0.56623E+05        -0.49999E+08         0.00000E+00
    0.00000E+00         0.00000E+00        -0.49999E+08
 
   -0.49999E+08         0.57170E+05         0.00000E+00
    0.57170E+05        -0.49999E+08         0.00000E+00
    0.00000E+00         0.00000E+00        -0.49999E+08
 
   -0.49999E+08         0.57667E+05         0.00000E+00
    0.57667E+05        -0.49999E+08         0.00000E+00
    0.00000E+00         0.00000E+00        -0.49999E+08
 
   -0.49999E+08         0.58114E+05         0.00000E+00
    0.58114E+05        -0.49999E+08         0.00000E+00
    0.00000E+00         0.00000E+00        -0.50000E+08
 
   -0.49999E+08         0.58508E+05         0.00000E+00
    0.58508E+05        -0.49998E+08         0.00000E+00
    0.00000E+00         0.00000E+00        -0.50000E+08
 
   -0.49999E+08         0.58850E+05         0.00000E+00
    0.58850E+05        -0.49998E+08         0.00000E+00
    0.00000E+00         0.00000E+00        -0.50000E+08
 
   -0.49999E+08         0.59140E+05         0.00000E+00
    0.59140E+05        -0.49998E+08         0.00000E+00
    0.00000E+00         0.00000E+00        -0.50000E+08
 
   -0.50000E+08         0.59376E+05         0.00000E+00
    0.59376E+05        -0.49998E+08         0.00000E+00
    0.00000E+00         0.00000E+00        -0.50000E+08
 
   -0.49987E+08         0.87755E+03         0.00000E+00
    0.87755E+03        -0.50000E+08         0.00000E+00
    0.00000E+00         0.00000E+00        -0.49997E+08
 
   -0.49987E+08         0.26304E+04         0.00000E+00
    0.26304E+04        -0.50000E+08         0.00000E+00
    0.00000E+00         0.00000E+00        -0.49997E+08
 
   -0.49987E+08         0.43806E+04         0.00000E+00
    0.43806E+04        -0.50000E+08         0.00000E+00
    0.00000E+00         0.00000E+00        -0.49997E+08
 
   -0.49987E+08         0.61268E+04         0.00000E+00
    0.61268E+04        -0.50000E+08         0.00000E+00
    0.00000E+00         0.00000E+00        -0.49997E+08
 
   -0.49987E+08         0.78675E+04         0.00000E+00
    0.78675E+04        -0.50000E+08         0.00000E+00
    0.00000E+00         0.00000E+00        -0.49997E+08
 
   -0.49987E+08         0.96014E+04         0.00000E+00
    0.96014E+04        -0.50000E+08         0.00000E+00
    0.00000E+00         0.00000E+00        -0.49997E+08
 
   -0.49987E+08         0.11327E+05         0.00000E+00
    0.11327E+05        -0.50000E+08         0.00000E+00
    0.00000E+00         0.00000E+00        -0.49997E+08
 
   -0.49987E+08         0.13043E+05         0.00000E+00
    0.13043E+05        -0.50000E+08         0.00000E+00
    0.00000E+00         0.00000E+00        -0.49997E+08
 
   -0.49988E+08         0.14749E+05         0.00000E+00
    0.14749E+05        -0.50000E+08         0.00000E+00
    0.00000E+00         0.00000E+00        -0.49997E+08
 
   -0.49988E+08         0.16442E+05         0.00000E+00
    0.16442E+05        -0.50000E+08         0.00000E+00
    0.00000E+00         0.00000E+00        -0.49997E+08
 
   -0.49988E+08         0.18122E+05         0.00000E+00
    0.18122E+05        -0.50000E+08         0.00000E+00
    0.00000E+00         0.00000E+00        -0.49997E+08
 
   -0.49988E+08         0.19787E+05         0.00000E+00
    0.19787E+05        -0.50000E+08         0.00000E+00
    0.00000E+00         0.00000E+00        -0.49998E+08
 
   -0.49988E+08         0.21435E+05         0.00000E+00
    0.21435E+05        -0.50000E+08         0.00000E+00
    0.00000E+00         0.00000E+00        -0.49998E+08
 
   -0.49988E+08         0.23066E+05         0.00000E+00
    0.23066E+05        -0.50000E+08         0.00000E+00
    0.00000E+00         0.00000E+00        -0.49998E+08
 
   -0.49988E+08         0.24678E+05         0.00000E+00
    0.24678E+05        -0.49999E+08         0.00000E+00
    0.00000E+00         0.00000E+00        -0.49998E+08
 
   -0.49988E+08         0.26270E+05         0.00000E+00
    0.26270E+05        -0.49999E+08         0.00000E+00
    0.00000E+00         0.00000E+00        -0.49998E+08
 
   -0.49989E+08         0.27840E+05         0.00000E+00
    0.27840E+05        -0.49999E+08         0.00000E+00
    0.00000E+00         0.00000E+00        -0.49998E+08
 
   -0.49989E+08         0.29387E+05         0.00000E+00
    0.29387E+05        -0.49999E+08         0.00000E+00
    0.00000E+00         0.00000E+00        -0.49998E+08
 
   -0.49989E+08         0.30911E+05         0.00000E+00
    0.30911E+05        -0.49999E+08         0.00000E+00
    0.00000E+00         0.00000E+00        -0.49998E+08
 
   -0.49989E+08         0.32409E+05         0.00000E+00
    0.32409E+05        -0.49999E+08         0.00000E+00
    0.00000E+00         0.00000E+00        -0.49998E+08
 
   -0.49989E+08         0.33880E+05         0.00000E+00
    0.33880E+05        -0.49999E+08         0.00000E+00
    0.00000E+00         0.00000E+00        -0.49998E+08
 
   -0.49990E+08         0.35323E+05         0.00000E+00
    0.35323E+05        -0.49999E+08         0.00000E+00
    0.00000E+00         0.00000E+00        -0.49998E+08
 
   -0.49990E+08         0.36737E+05         0.00000E+00
    0.36737E+05        -0.49999E+08         0.00000E+00
    0.00000E+00         0.00000E+00        -0.49998E+08
 
   -0.49990E+08         0.38121E+05         0.00000E+00
    0.38121E+05        -0.49999E+08         0.00000E+00
    0.00000E+00         0.00000E+00        -0.49998E+08
 
   -0.49990E+08         0.39474E+05         0.00000E+00
    0.39474E+05        -0.49999E+08         0.00000E+00
    0.00000E+00         0.00000E+00        -0.49998E+08
 
   -0.49991E+08         0.40793E+05         0.00000E+00
    0.40793E+05        -0.49998E+08         0.00000E+00
    0.00000E+00         0.00000E+00        -0.49998E+08
 
   -0.49991E+08         0.42079E+05         0.00000E+00
    0.42079E+05        -0.49998E+08         0.00000E+00
    0.00000E+00         0.00000E+00        -0.49998E+08
 
   -0.49991E+08         0.43330E+05         0.00000E+00
    0.43330E+05        -0.49998E+08         0.00000E+00
    0.00000E+00         0.00000E+00        -0.49998E+08
 
   -0.49991E+08         0.44544E+05         0.00000E+00
    0.44544E+05        -0.49998E+08         0.00000E+00
    0.00000E+00         0.00000E+00        -0.49998E+08
 
   -0.49992E+08         0.45721E+05         0.00000E+00
    0.45721E+05        -0.49998E+08         0.00000E+00
    0.00000E+00         0.00000E+00        -0.49998E+08
 
   -0.49992E+08         0.46860E+05         0.00000E+00
    0.46860E+05        -0.49998E+08         0.00000E+00
    0.00000E+00         0.00000E+00        -0.49998E+08
 
   -0.49992E+08         0.47960E+05         0.00000E+00
    0.47960E+05        -0.49998E+08         0.00000E+00
    0.00000E+00         0.00000E+00        -0.49998E+08
 
   -0.49992E+08         0.49019E+05         0.00000E+00
    0.49019E+05        -0.49997E+08         0.00000E+00
    0.00000E+00         0.00000E+00        -0.49998E+08
 
   -0.49993E+08         0.50036E+05         0.00000E+00
    0.50036E+05        -0.49997E+08         0.00000E+00
    0.00000E+00         0.00000E+00        -0.49998E+08
 
   -0.49993E+08         0.51011E+05         0.00000E+00
    0.51011E+05        -0.49997E+08         0.00000E+00
    0.00000E+00         0.00000E+00        -0.49998E+08
 
   -0.49993E+08         0.51943E+05         0.00000E+00
    0.51943E+05        -0.49997E+08         0.00000E+00
    0.00000E+00         0.00000E+00        -0.49998E+08
 
   -0.49994E+08         0.52830E+05         0.00000E+00
    0.52830E+05        -0.49997E+08         0.00000E+00
    0.00000E+00         0.00000E+00        -0.49998E+08
 
   -0.49994E+08         0.53672E+05         0.00000E+00
    0.53672E+05        -0.49997E+08         0.00000E+00
    0.00000E+00         0.00000E+00        -0.49998E+08
 
   -0.49994E+08         0.54468E+05         0.00000E+00
    0.54468E+05        -0.49997E+08         0.00000E+00
    0.00000E+00         0.00000E+00        -0.49998E+08
 
   -0.49995E+08         0.55216E+05         0.00000E+00
    0.55216E+05        -0.49996E+08         0.00000E+00
    0.00000E+00         0.00000E+00        -0.49998E+08
 
   -0.49995E+08         0.55917E+05         0.00000E+00
    0.55917E+05        -0.49996E+08         0.00000E+00
    0.00000E+00         0.00000E+00        -0.49998E+08
 
   -0.49995E+08         0.56570E+05         0.00000E+00
    0.56570E+05        -0.49996E+08         0.00000E+00
    0.00000E+00         0.00000E+00        -0.49998E+08
 
   -0.49996E+08         0.57173E+05         0.00000E+00
    0.57173E+05        -0.49996E+08         0.00000E+00
    0.00000E+00         0.00000E+00        -0.49998E+08
 
   -0.49996E+08         0.57725E+05         0.00000E+00
    0.57725E+05        -0.49996E+08         0.00000E+00
    0.00000E+00         0.00000E+00        -0.49998E+08
 
   -0.49997E+08         0.58227E+05         0.00000E+00
    0.58227E+05        -0.49996E+08         0.00000E+00
    0.00000E+00         0.00000E+00        -0.49998E+08
 
   -0.49997E+08         0.58678E+05         0.00000E+00
    0.58678E+05        -0.49995E+08         0.00000E+00
    0.00000E+00         0.00000E+00        -0.49998E+08
 
   -0.49997E+08         0.59076E+05         0.00000E+00
    0.59076E+05        -0.49995E+08         0.00000E+00
    0.00000E+00         0.00000E+00        -0.49999E+08
 
   -0.49998E+08         0.59421E+05         0.00000E+00
    0.59421E+05        -0.49995E+08         0.00000E+00
    0.00000E+00         0.00000E+00        -0.49999E+08
 
   -0.49998E+08         0.59713E+05         0.00000E+00
    0.59713E+05        -0.49995E+08         0.00000E+00
    0.00000E+00         0.00000E+00        -0.49999E+08
 
   -0.49998E+08         0.59952E+05         0.00000E+00
    0.59952E+05        -0.49995E+08         0.00000E+00
    0.00000E+00         0.00000E+00        -0.49999E+08
 
   -0.49978E+08         0.89464E+03         0.00000E+00
    0.89464E+03        -0.50000E+08         0.00000E+00
    0.00000E+00         0.00000E+00        -0.49996E+08
 
   -0.49978E+08         0.26817E+04         0.00000E+00
    0.26817E+04        -0.50000E+08         0.00000E+00
    0.00000E+00         0.00000E+00        -0.49996E+08
 
   -0.49978E+08         0.44660E+04         0.00000E+00
    0.44660E+04        -0.50000E+08         0.00000E+00
    0.00000E+00         0.00000E+00        -0.49996E+08
 
   -0.49978E+08         0.62462E+04         0.00000E+00
    0.62462E+04        -0.50000E+08         0.00000E+00
    0.00000E+00         0.00000E+00        -0.49996E+08
 
   -0.49978E+08         0.80210E+04         0.00000E+00
    0.80210E+04        -0.50000E+08         0.00000E+00
    0.00000E+00         0.00000E+00        -0.49996E+08
 
   -0.49979E+08         0.97888E+04         0.00000E+00
    0.97888E+04        -0.50000E+08         0.00000E+00
    0.00000E+00         0.00000E+00        -0.49996E+08
 
   -0.49979E+08         0.11548E+05         0.00000E+00
    0.11548E+05        -0.50000E+08         0.00000E+00
    0.00000E+00         0.00000E+00        -0.49996E+08
 
   -0.49979E+08         0.13298E+05         0.00000E+00
    0.13298E+05        -0.50000E+08         0.00000E+00
    0.00000E+00         0.00000E+00        -0.49996E+08
 
   -0.49979E+08         0.15037E+05         0.00000E+00
    0.15037E+05        -0.50000E+08         0.00000E+00
    0.00000E+00         0.00000E+00        -0.49996E+08
 
   -0.49979E+08         0.16763E+05         0.00000E+00
    0.16763E+05        -0.50000E+08         0.00000E+00
    0.00000E+00         0.00000E+00        -0.49996E+08
 
   -0.49979E+08         0.18476E+05         0.00000E+00
    0.18476E+05        -0.50000E+08         0.00000E+00
    0.00000E+00         0.00000E+00        -0.49996E+08
 
   -0.49980E+08         0.20173E+05         0.00000E+00
    0.20173E+05        -0.49999E+08         0.00000E+00
    0.00000E+00         0.00000E+00        -0.49996E+08
 
   -0.49980E+08         0.21854E+05         0.00000E+00
    0.21854E+05        -0.49999E+08         0.00000E+00
    0.00000E+00         0.00000E+00        -0.49996E+08
 
   -0.49980E+08         0.23517E+05         0.00000E+00
    0.23517E+05        -0.49999E+08         0.00000E+00
    0.00000E+00         0.00000E+00        -0.49996E+08
 
   -0.49980E+08         0.25161E+05         0.00000E+00
    0.25161E+05        -0.49999E+08         0.00000E+00
    0.00000E+00         0.00000E+00        -0.49996E+08
 
   -0.49980E+08         0.26784E+05         0.00000E+00
    0.26784E+05        -0.49999E+08         0.00000E+00
    0.00000E+00         0.00000E+00        -0.49996E+08
 
   -0.49981E+08         0.28385E+05         0.00000E+00
    0.28385E+05        -0.49999E+08         0.00000E+00
    0.00000E+00         0.00000E+00        -0.49996E+08
 
   -0.49981E+08         0.29963E+05         0.00000E+00
    0.29963E+05        -0.49999E+08         0.00000E+00
    0.00000E+00         0.00000E+00        -0.49996E+08
 
   -0.49981E+08         0.31516E+05         0.00000E+00
    0.31516E+05        -0.49999E+08         0.00000E+00
    0.00000E+00         0.00000E+00        -0.49996E+08
 
   -0.49982E+08         0.33044E+05         0.00000E+00
    0.33044E+05        -0.49998E+08         0.00000E+00
    0.00000E+00         0.00000E+00        -0.49996E+08
 
   -0.49982E+08         0.34544E+05         0.00000E+00
    0.34544E+05        -0.49998E+08         0.00000E+00
    0.00000E+00         0.00000E+00        -0.49996E+08
 
   -0.49982E+08         0.36016E+05         0.00000E+00
    0.36016E+05        -0.49998E+08         0.00000E+00
    0.00000E+00         0.00000E+00        -0.49996E+08
 
   -0.49983E+08         0.37458E+05         0.00000E+00
    0.37458E+05        -0.49998E+08         0.00000E+00
    0.00000E+00         0.00000E+00        -0.49996E+08
 
   -0.49983E+08         0.38870E+05         0.00000E+00
    0.38870E+05        -0.49998E+08         0.00000E+00
    0.00000E+00         0.00000E+00        -0.49996E+08
 
   -0.49984E+08         0.40249E+05         0.00000E+00
    0.40249E+05        -0.49998E+08         0.00000E+00
    0.00000E+00         0.00000E+00        -0.49996E+08
 
   -0.49984E+08         0.41594E+05         0.00000E+00
    0.41594E+05        -0.49997E+08         0.00000E+00
    0.00000E+00         0.00000E+00        -0.49996E+08
 
   -0.49984E+08         0.42906E+05         0.00000E+00
    0.42906E+05        -0.49997E+08         0.00000E+00
    0.00000E+00         0.00000E+00        -0.49996E+08
 
   -0.49985E+08         0.44181E+05         0.00000E+00
    0.44181E+05        -0.49997E+08         0.00000E+00
    0.00000E+00         0.00000E+00        -0.49996E+08
 
   -0.49985E+08         0.45420E+05         0.00000E+00
    0.45420E+05        -0.49997E+08         0.00000E+00
    0.00000E+00         0.00000E+00        -0.49996E+08
 
   -0.49986E+08         0.46620E+05         0.00000E+00
    0.46620E+05        -0.49996E+08         0.00000E+00
    0.00000E+00         0.00000E+00        -0.49996E+08
 
   -0.49986E+08         0.47782E+05         0.00000E+00
    0.47782E+05        -0.49996E+08         0.00000E+00
    0.00000E+00         0.00000E+00        -0.49996E+08
 
   -0.49987E+08         0.48903E+05         0.00000E+00
    0.48903E+05        -0.49996E+08         0.00000E+00
    0.00000E+00         0.00000E+00        -0.49997E+08
 
   -0.49987E+08         0.49983E+05         0.00000E+00
    0.49983E+05        -0.49996E+08         0.00000E+00
    0.00000E+00         0.00000E+00        -0.49997E+08
 
   -0.49988E+08         0.51021E+05         0.00000E+00
    0.51021E+05        -0.49996E+08         0.00000E+00
    0.00000E+00         0.00000E+00        -0.49997E+08
 
   -0.49988E+08         0.52015E+05         0.00000E+00
    0.52015E+05        -0.49995E+08         0.00000E+00
    0.00000E+00         0.00000E+00        -0.49997E+08
 
   -0.49989E+08         0.52966E+05         0.00000E+00
    0.52966E+05        -0.49995E+08         0.00000E+00
    0.00000E+00         0.00000E+00        -0.49997E+08
 
   -0.49989E+08         0.53870E+05         0.00000E+00
    0.53870E+05        -0.49995E+08         0.00000E+00
    0.00000E+00         0.00000E+00        -0.49997E+08
 
   -0.49990E+08         0.54729E+05         0.00000E+00
    0.54729E+05        -0.49994E+08         0.00000E+00
    0.00000E+00         0.00000E+00        -0.49997E+08
 
   -0.49990E+08         0.55541E+05         0.00000E+00
    0.55541E+05        -0.49994E+08         0.00000E+00
    0.00000E+00         0.00000E+00        -0.49997E+08
 
   -0.49991E+08         0.56305E+05         0.00000E+00
    0.56305E+05        -0.49994E+08         0.00000E+00
    0.00000E+00         0.00000E+00        -0.49997E+08
 
   -0.49992E+08         0.57020E+05         0.00000E+00
    0.57020E+05        -0.49994E+08         0.00000E+00
    0.00000E+00         0.00000E+00        -0.49997E+08
 
   -0.49992E+08         0.57685E+05         0.00000E+00
    0.57685E+05        -0.49993E+08         0.00000E+00
    0.00000E+00         0.00000E+00        -0.49997E+08
 
   -0.49993E+08         0.58300E+05         0.00000E+00
    0.58300E+05        -0.49993E+08         0.00000E+00
    0.00000E+00         0.00000E+00        -0.49997E+08
 
   -0.49994E+08         0.58864E+05         0.00000E+00
    0.58864E+05        -0.49993E+08         0.00000E+00
    0.00000E+00         0.00000E+00        -0.49997E+08
 
   -0.49994E+08         0.59375E+05         0.00000E+00
    0.59375E+05        -0.49993E+08         0.00000E+00
    0.00000E+00         0.00000E+00        -0.49997E+08
 
   -0.49995E+08         0.59835E+05         0.00000E+00
    0.59835E+05        -0.49992E+08         0.00000E+00
    0.00000E+00         0.00000E+00        -0.49997E+08
 
   -0.49995E+08         0.60241E+05         0.00000E+00
    0.60241E+05        -0.49992E+08         0.00000E+00
    0.00000E+00         0.00000E+00        -0.49997E+08
 
   -0.49996E+08         0.60593E+05         0.00000E+00
    0.60593E+05        -0.49992E+08         0.00000E+00
    0.00000E+00         0.00000E+00        -0.49998E+08
 
   -0.49997E+08         0.60891E+05         0.00000E+00
    0.60891E+05        -0.49991E+08         0.00000E+00
    0.00000E+00         0.00000E+00        -0.49998E+08
 
   -0.49997E+08         0.61134E+05         0.00000E+00
    0.61134E+05        -0.49991E+08         0.00000E+00
    0.00000E+00         0.00000E+00        -0.49998E+08
 
   -0.49969E+08         0.92036E+03         0.00000E+00
    0.92036E+03        -0.50000E+08         0.00000E+00
    0.00000E+00         0.00000E+00        -0.49994E+08
 
   -0.49969E+08         0.27589E+04         0.00000E+00
    0.27589E+04        -0.50000E+08         0.00000E+00
    0.00000E+00         0.00000E+00        -0.49994E+08
 
   -0.49969E+08         0.45948E+04         0.00000E+00
    0.45948E+04        -0.50000E+08         0.00000E+00
    0.00000E+00         0.00000E+00        -0.49994E+08
 
   -0.49969E+08         0.64265E+04         0.00000E+00
    0.64265E+04        -0.50000E+08         0.00000E+00
    0.00000E+00         0.00000E+00        -0.49994E+08
 
   -0.49970E+08         0.82526E+04         0.00000E+00
    0.82526E+04        -0.50000E+08         0.00000E+00
    0.00000E+00         0.00000E+00        -0.49994E+08
 
   -0.49970E+08         0.10072E+05         0.00000E+00
    0.10072E+05        -0.50000E+08         0.00000E+00
    0.00000E+00         0.00000E+00        -0.49994E+08
 
   -0.49970E+08         0.11882E+05         0.00000E+00
    0.11882E+05        -0.50000E+08         0.00000E+00
    0.00000E+00         0.00000E+00        -0.49994E+08
 
   -0.49970E+08         0.13683E+05         0.00000E+00
    0.13683E+05        -0.50000E+08         0.00000E+00
    0.00000E+00         0.00000E+00        -0.49994E+08
 
   -0.49970E+08         0.15472E+05         0.00000E+00
    0.15472E+05        -0.50000E+08         0.00000E+00
    0.00000E+00         0.00000E+00        -0.49994E+08
 
   -0.49970E+08         0.17249E+05         0.00000E+00
    0.17249E+05        -0.49999E+08         0.00000E+00
    0.00000E+00         0.00000E+00        -0.49994E+08
 
   -0.49971E+08         0.19012E+05         0.00000E+00
    0.19012E+05        -0.49999E+08         0.00000E+00
    0.00000E+00         0.00000E+00        -0.49994E+08
 
   -0.49971E+08         0.20759E+05         0.00000E+00
    0.20759E+05        -0.49999E+08         0.00000E+00
    0.00000E+00         0.00000E+00        -0.49994E+08
 
   -0.49971E+08         0.22489E+05         0.00000E+00
    0.22489E+05        -0.49999E+08         0.00000E+00
    0.00000E+00         0.00000E+00        -0.49994E+08
 
   -0.49972E+08         0.24200E+05         0.00000E+00
    0.24200E+05        -0.49999E+08         0.00000E+00
    0.00000E+00         0.00000E+00        -0.49994E+08
 
   -0.49972E+08         0.25892E+05         0.00000E+00
    0.25892E+05        -0.49999E+08         0.00000E+00
    0.00000E+00         0.00000E+00        -0.49994E+08
 
   -0.49972E+08         0.27563E+05         0.00000E+00
    0.27563E+05        -0.49999E+08         0.00000E+00
    0.00000E+00         0.00000E+00        -0.49994E+08
 
   -0.49973E+08         0.29211E+05         0.00000E+00
    0.29211E+05        -0.49998E+08         0.00000E+00
    0.00000E+00         0.00000E+00        -0.49994E+08
 
   -0.49973E+08         0.30835E+05         0.00000E+00
    0.30835E+05        -0.49998E+08         0.00000E+00
    0.00000E+00         0.00000E+00        -0.49994E+08
 
   -0.49974E+08         0.32435E+05         0.00000E+00
    0.32435E+05        -0.49998E+08         0.00000E+00
    0.00000E+00         0.00000E+00        -0.49994E+08
 
   -0.49974E+08         0.34007E+05         0.00000E+00
    0.34007E+05        -0.49998E+08         0.00000E+00
    0.00000E+00         0.00000E+00        -0.49994E+08
 
   -0.49974E+08         0.35552E+05         0.00000E+00
    0.35552E+05        -0.49998E+08         0.00000E+00
    0.00000E+00         0.00000E+00        -0.49994E+08
 
   -0.49975E+08         0.37067E+05         0.00000E+00
    0.37067E+05        -0.49997E+08         0.00000E+00
    0.00000E+00         0.00000E+00        -0.49994E+08
 
   -0.49975E+08         0.38552E+05         0.00000E+00
    0.38552E+05        -0.49997E+08         0.00000E+00
    0.00000E+00         0.00000E+00        -0.49995E+08
 
   -0.49976E+08         0.40005E+05         0.00000E+00
    0.40005E+05        -0.49997E+08         0.00000E+00
    0.00000E+00         0.00000E+00        -0.49995E+08
 
   -0.49977E+08         0.41425E+05         0.00000E+00
    0.41425E+05        -0.49996E+08         0.00000E+00
    0.00000E+00         0.00000E+00        -0.49995E+08
 
   -0.49977E+08         0.42811E+05         0.00000E+00
    0.42811E+05        -0.49996E+08         0.00000E+00
    0.00000E+00         0.00000E+00        -0.49995E+08
 
   -0.49978E+08         0.44161E+05         0.00000E+00
    0.44161E+05        -0.49996E+08         0.00000E+00
    0.00000E+00         0.00000E+00        -0.49995E+08
 
   -0.49978E+08         0.45474E+05         0.00000E+00
    0.45474E+05        -0.49996E+08         0.00000E+00
    0.00000E+00         0.00000E+00        -0.49995E+08
 
   -0.49979E+08         0.46750E+05         0.00000E+00
    0.46750E+05        -0.49995E+08         0.00000E+00
    0.00000E+00         0.00000E+00        -0.49995E+08
 
   -0.49980E+08         0.47986E+05         0.00000E+00
    0.47986E+05        -0.49995E+08         0.00000E+00
    0.00000E+00         0.00000E+00        -0.49995E+08
 
   -0.49980E+08         0.49182E+05         0.00000E+00
    0.49182E+05        -0.49995E+08         0.00000E+00
    0.00000E+00         0.00000E+00        -0.49995E+08
 
   -0.49981E+08         0.50337E+05         0.00000E+00
    0.50337E+05        -0.49994E+08         0.00000E+00
    0.00000E+00         0.00000E+00        -0.49995E+08
 
   -0.49982E+08         0.51450E+05         0.00000E+00
    0.51450E+05        -0.49994E+08         0.00000E+00
    0.00000E+00         0.00000E+00        -0.49995E+08
 
   -0.49983E+08         0.52518E+05         0.00000E+00
    0.52518E+05        -0.49994E+08         0.00000E+00
    0.00000E+00         0.00000E+00        -0.49995E+08
 
   -0.49983E+08         0.53543E+05         0.00000E+00
    0.53543E+05        -0.49993E+08         0.00000E+00
    0.00000E+00         0.00000E+00        -0.49995E+08
 
   -0.49984E+08         0.54521E+05         0.00000E+00
    0.54521E+05        -0.49993E+08         0.00000E+00
    0.00000E+00         0.00000E+00        -0.49995E+08
 
   -0.49985E+08         0.55453E+05         0.00000E+00
    0.55453E+05        -0.49993E+08         0.00000E+00
    0.00000E+00         0.00000E+00        -0.49995E+08
 
   -0.49986E+08         0.56338E+05         0.00000E+00
    0.56338E+05        -0.49992E+08         0.00000E+00
    0.00000E+00         0.00000E+00        -0.49996E+08
 
   -0.49986E+08         0.57174E+05         0.00000E+00
    0.57174E+05        -0.49992E+08         0.00000E+00
    0.00000E+00         0.00000E+00        -0.49996E+08
 
   -0.49987E+08         0.57961E+05         0.00000E+00
    0.57961E+05        -0.49991E+08         0.00000E+00
    0.00000E+00         0.00000E+00        -0.49996E+08
 
   -0.49988E+08         0.58697E+05         0.00000E+00
    0.58697E+05        -0.49991E+08         0.00000E+00
    0.00000E+00         0.00000E+00        -0.49996E+08
 
   -0.49989E+08         0.59383E+05         0.00000E+00
    0.59383E+05        -0.49991E+08         0.00000E+00
    0.00000E+00         0.00000E+00        -0.49996E+08
 
   -0.49990E+08         0.60016E+05         0.00000E+00
    0.60016E+05        -0.49990E+08         0.00000E+00
    0.00000E+00         0.00000E+00        -0.49996E+08
 
   -0.49991E+08         0.60597E+05         0.00000E+00
    0.60597E+05        -0.49990E+08         0.00000E+00
    0.00000E+00         0.00000E+00        -0.49996E+08
 
   -0.49992E+08         0.61124E+05         0.00000E+00
    0.61124E+05        -0.49989E+08         0.00000E+00
    0.00000E+00         0.00000E+00        -0.49996E+08
 
   -0.49993E+08         0.61597E+05         0.00000E+00
    0.61597E+05        -0.49989E+08         0.00000E+00
    0.00000E+00         0.00000E+00        -0.49996E+08
 
   -0.49993E+08         0.62016E+05         0.00000E+00
    0.62016E+05        -0.49989E+08         0.00000E+00
    0.00000E+00         0.00000E+00        -0.49996E+08
 
   -0.49994E+08         0.62379E+05         0.00000E+00
    0.62379E+05        -0.49988E+08         0.00000E+00
    0.00000E+00         0.00000E+00        -0.49997E+08
 
   -0.49995E+08         0.62686E+05         0.00000E+00
    0.62686E+05        -0.49988E+08         0.00000E+00
    0.00000E+00         0.00000E+00        -0.49997E+08
 
   -0.49996E+08         0.62936E+05         0.00000E+00
    0.62936E+05        -0.49987E+08         0.00000E+00
    0.00000E+00         0.00000E+00        -0.49997E+08
 
   -0.49960E+08         0.95495E+03         0.00000E+00
    0.95495E+03        -0.50000E+08         0.00000E+00
    0.00000E+00         0.00000E+00        -0.49992E+08
 
   -0.49960E+08         0.28629E+04         0.00000E+00
    0.28629E+04        -0.50000E+08         0.00000E+00
    0.00000E+00         0.00000E+00        -0.49992E+08
 
   -0.49960E+08         0.47681E+04         0.00000E+00
    0.47681E+04        -0.50000E+08         0.00000E+00
    0.00000E+00         0.00000E+00        -0.49992E+08
 
   -0.49960E+08         0.66691E+04         0.00000E+00
    0.66691E+04        -0.50000E+08         0.00000E+00
    0.00000E+00         0.00000E+00        -0.49992E+08
 
   -0.49960E+08         0.85645E+04         0.00000E+00
    0.85645E+04        -0.50000E+08         0.00000E+00
    0.00000E+00         0.00000E+00        -0.49992E+08
 
   -0.49960E+08         0.10453E+05         0.00000E+00
    0.10453E+05        -0.50000E+08         0.00000E+00
    0.00000E+00         0.00000E+00        -0.49992E+08
 
   -0.49961E+08         0.12332E+05         0.00000E+00
    0.12332E+05        -0.50000E+08         0.00000E+00
    0.00000E+00         0.00000E+00        -0.49992E+08
 
   -0.49961E+08         0.14201E+05         0.00000E+00
    0.14201E+05        -0.50000E+08         0.00000E+00
    0.00000E+00         0.00000E+00        -0.49992E+08
 
   -0.49961E+08         0.16059E+05         0.00000E+00
    0.16059E+05        -0.49999E+08         0.00000E+00
    0.00000E+00         0.00000E+00        -0.49992E+08
 
   -0.49961E+08         0.17904E+05         0.00000E+00
    0.17904E+05        -0.49999E+08         0.00000E+00
    0.00000E+00         0.00000E+00        -0.49992E+08
 
   -0.49962E+08         0.19734E+05         0.00000E+00
    0.19734E+05        -0.49999E+08         0.00000E+00
    0.00000E+00         0.00000E+00        -0.49992E+08
 
   -0.49962E+08         0.21548E+05         0.00000E+00
    0.21548E+05        -0.49999E+08         0.00000E+00
    0.00000E+00         0.00000E+00        -0.49992E+08
 
   -0.49962E+08         0.23344E+05         0.00000E+00
    0.23344E+05        -0.49999E+08         0.00000E+00
    0.00000E+00         0.00000E+00        -0.49992E+08
 
   -0.49963E+08         0.25122E+05         0.00000E+00
    0.25122E+05        -0.49999E+08         0.00000E+00
    0.00000E+00         0.00000E+00        -0.49992E+08
 
   -0.49963E+08         0.26879E+05         0.00000E+00
    0.26879E+05        -0.49998E+08         0.00000E+00
    0.00000E+00         0.00000E+00        -0.49992E+08
 
   -0.49964E+08         0.28614E+05         0.00000E+00
    0.28614E+05        -0.49998E+08         0.00000E+00
    0.00000E+00         0.00000E+00        -0.49992E+08
 
   -0.49964E+08         0.30326E+05         0.00000E+00
    0.30326E+05        -0.49998E+08         0.00000E+00
    0.00000E+00         0.00000E+00        -0.49992E+08
 
   -0.49965E+08         0.32013E+05         0.00000E+00
    0.32013E+05        -0.49998E+08         0.00000E+00
    0.00000E+00         0.00000E+00        -0.49993E+08
 
   -0.49965E+08         0.33674E+05         0.00000E+00
    0.33674E+05        -0.49997E+08         0.00000E+00
    0.00000E+00         0.00000E+00        -0.49993E+08
 
   -0.49966E+08         0.35308E+05         0.00000E+00
    0.35308E+05        -0.49997E+08         0.00000E+00
    0.00000E+00         0.00000E+00        -0.49993E+08
 
   -0.49967E+08         0.36912E+05         0.00000E+00
    0.36912E+05        -0.49997E+08         0.00000E+00
    0.00000E+00         0.00000E+00        -0.49993E+08
 
   -0.49967E+08         0.38487E+05         0.00000E+00
    0.38487E+05        -0.49996E+08         0.00000E+00
    0.00000E+00         0.00000E+00        -0.49993E+08
 
   -0.49968E+08         0.40030E+05         0.00000E+00
    0.40030E+05        -0.49996E+08         0.00000E+00
    0.00000E+00         0.00000E+00        -0.49993E+08
 
   -0.49969E+08         0.41539E+05         0.00000E+00
    0.41539E+05        -0.49996E+08         0.00000E+00
    0.00000E+00         0.00000E+00        -0.49993E+08
 
   -0.49969E+08         0.43015E+05         0.00000E+00
    0.43015E+05        -0.49995E+08         0.00000E+00
    0.00000E+00         0.00000E+00        -0.49993E+08
 
   -0.49970E+08         0.44455E+05         0.00000E+00
    0.44455E+05        -0.49995E+08         0.00000E+00
    0.00000E+00         0.00000E+00        -0.49993E+08
 
   -0.49971E+08         0.45858E+05         0.00000E+00
    0.45858E+05        -0.49995E+08         0.00000E+00
    0.00000E+00         0.00000E+00        -0.49993E+08
 
   -0.49972E+08         0.47223E+05         0.00000E+00
    0.47223E+05        -0.49994E+08         0.00000E+00
    0.00000E+00         0.00000E+00        -0.49993E+08
 
   -0.49973E+08         0.48548E+05         0.00000E+00
    0.48548E+05        -0.49994E+08         0.00000E+00
    0.00000E+00         0.00000E+00        -0.49993E+08
 
   -0.49974E+08         0.49833E+05         0.00000E+00
    0.49833E+05        -0.49993E+08         0.00000E+00
    0.00000E+00         0.00000E+00        -0.49993E+08
 
   -0.49974E+08         0.51077E+05         0.00000E+00
    0.51077E+05        -0.49993E+08         0.00000E+00
    0.00000E+00         0.00000E+00        -0.49993E+08
 
   -0.49975E+08         0.52277E+05         0.00000E+00
    0.52277E+05        -0.49993E+08         0.00000E+00
    0.00000E+00         0.00000E+00        -0.49994E+08
 
   -0.49976E+08         0.53433E+05         0.00000E+00
    0.53433E+05        -0.49992E+08         0.00000E+00
    0.00000E+00         0.00000E+00        -0.49994E+08
 
   -0.49977E+08         0.54544E+05         0.00000E+00
    0.54544E+05        -0.49992E+08         0.00000E+00
    0.00000E+00         0.00000E+00        -0.49994E+08
 
   -0.49978E+08         0.55609E+05         0.00000E+00
    0.55609E+05        -0.49991E+08         0.00000E+00
    0.00000E+00         0.00000E+00        -0.49994E+08
 
   -0.49979E+08         0.56626E+05         0.00000E+00
    0.56626E+05        -0.49991E+08         0.00000E+00
    0.00000E+00         0.00000E+00        -0.49994E+08
 
   -0.49980E+08         0.57595E+05         0.00000E+00
    0.57595E+05        -0.49990E+08         0.00000E+00
    0.00000E+00         0.00000E+00        -0.49994E+08
 
   -0.49981E+08         0.58515E+05         0.00000E+00
    0.58515E+05        -0.49990E+08         0.00000E+00
    0.00000E+00         0.00000E+00        -0.49994E+08
 
   -0.49982E+08         0.59384E+05         0.00000E+00
    0.59384E+05        -0.49989E+08         0.00000E+00
    0.00000E+00         0.00000E+00        -0.49994E+08
 
   -0.49983E+08         0.60202E+05         0.00000E+00
    0.60202E+05        -0.49989E+08         0.00000E+00
    0.00000E+00         0.00000E+00        -0.49994E+08
 
   -0.49985E+08         0.60968E+05         0.00000E+00
    0.60968E+05        -0.49988E+08         0.00000E+00
    0.00000E+00         0.00000E+00        -0.49995E+08
 
   -0.49986E+08         0.61681E+05         0.00000E+00
    0.61681E+05        -0.49988E+08         0.00000E+00
    0.00000E+00         0.00000E+00        -0.49995E+08
 
   -0.49987E+08         0.62339E+05         0.00000E+00
    0.62339E+05        -0.49987E+08         0.00000E+00
    0.00000E+00         0.00000E+00        -0.49995E+08
 
   -0.49988E+08         0.62943E+05         0.00000E+00
    0.62943E+05        -0.49987E+08         0.00000E+00
    0.00000E+00         0.00000E+00        -0.49995E+08
 
   -0.49989E+08         0.63492E+05         0.00000E+00
    0.63492E+05        -0.49986E+08         0.00000E+00
    0.00000E+00         0.00000E+00        -0.49995E+08
 
   -0.49990E+08         0.63984E+05         0.00000E+00
    0.63984E+05        -0.49986E+08         0.00000E+00
    0.00000E+00         0.00000E+00        -0.49995E+08
 
   -0.49992E+08         0.64419E+05         0.00000E+00
    0.64419E+05        -0.49985E+08         0.00000E+00
    0.00000E+00         0.00000E+00        -0.49995E+08
 
   -0.49993E+08         0.64796E+05         0.00000E+00
    0.64796E+05        -0.49985E+08         0.00000E+00
    0.00000E+00         0.00000E+00        -0.49995E+08
 
   -0.49994E+08         0.65116E+05         0.00000E+00
    0.65116E+05        -0.49984E+08         0.00000E+00
    0.00000E+00         0.00000E+00        -0.49996E+08
 
   -0.49995E+08         0.65376E+05         0.00000E+00
    0.65376E+05        -0.49983E+08         0.00000E+00
    0.00000E+00         0.00000E+00        -0.49996E+08
 
   -0.49950E+08         0.99873E+03         0.00000E+00
    0.99873E+03        -0.50000E+08         0.00000E+00
    0.00000E+00         0.00000E+00        -0.49990E+08
 
   -0.49950E+08         0.29946E+04         0.00000E+00
    0.29946E+04        -0.50000E+08         0.00000E+00
    0.00000E+00         0.00000E+00        -0.49990E+08
 
   -0.49950E+08         0.49877E+04         0.00000E+00
    0.49877E+04        -0.50000E+08         0.00000E+00
    0.00000E+00         0.00000E+00        -0.49990E+08
 
   -0.49950E+08         0.69766E+04         0.00000E+00
    0.69766E+04        -0.50000E+08         0.00000E+00
    0.00000E+00         0.00000E+00        -0.49990E+08
 
   -0.49951E+08         0.89597E+04         0.00000E+00
    0.89597E+04        -0.50000E+08         0.00000E+00
    0.00000E+00         0.00000E+00        -0.49990E+08
 
   -0.49951E+08         0.10935E+05         0.00000E+00
    0.10935E+05        -0.50000E+08         0.00000E+00
    0.00000E+00         0.00000E+00        -0.49990E+08
 
   -0.49951E+08         0.12902E+05         0.00000E+00
    0.12902E+05        -0.50000E+08         0.00000E+00
    0.00000E+00         0.00000E+00        -0.49990E+08
 
   -0.49951E+08         0.14859E+05         0.00000E+00
    0.14859E+05        -0.49999E+08         0.00000E+00
    0.00000E+00         0.00000E+00        -0.49990E+08
 
   -0.49952E+08         0.16803E+05         0.00000E+00
    0.16803E+05        -0.49999E+08         0.00000E+00
    0.00000E+00         0.00000E+00        -0.49990E+08
 
   -0.49952E+08         0.18734E+05         0.00000E+00
    0.18734E+05        -0.49999E+08         0.00000E+00
    0.00000E+00         0.00000E+00        -0.49990E+08
 
   -0.49952E+08         0.20650E+05         0.00000E+00
    0.20650E+05        -0.49999E+08         0.00000E+00
    0.00000E+00         0.00000E+00        -0.49990E+08
 
   -0.49953E+08         0.22549E+05         0.00000E+00
    0.22549E+05        -0.49999E+08         0.00000E+00
    0.00000E+00         0.00000E+00        -0.49990E+08
 
   -0.49953E+08         0.24430E+05         0.00000E+00
    0.24430E+05        -0.49998E+08         0.00000E+00
    0.00000E+00         0.00000E+00        -0.49990E+08
 
   -0.49954E+08         0.26291E+05         0.00000E+00
    0.26291E+05        -0.49998E+08         0.00000E+00
    0.00000E+00         0.00000E+00        -0.49990E+08
 
   -0.49954E+08         0.28131E+05         0.00000E+00
    0.28131E+05        -0.49998E+08         0.00000E+00
    0.00000E+00         0.00000E+00        -0.49990E+08
 
   -0.49955E+08         0.29948E+05         0.00000E+00
    0.29948E+05        -0.49998E+08         0.00000E+00
    0.00000E+00         0.00000E+00        -0.49991E+08
 
   -0.49956E+08         0.31741E+05         0.00000E+00
    0.31741E+05        -0.49997E+08         0.00000E+00
    0.00000E+00         0.00000E+00        -0.49991E+08
 
   -0.49956E+08         0.33508E+05         0.00000E+00
    0.33508E+05        -0.49997E+08         0.00000E+00
    0.00000E+00         0.00000E+00        -0.49991E+08
 
   -0.49957E+08         0.35248E+05         0.00000E+00
    0.35248E+05        -0.49997E+08         0.00000E+00
    0.00000E+00         0.00000E+00        -0.49991E+08
 
   -0.49958E+08         0.36959E+05         0.00000E+00
    0.36959E+05        -0.49996E+08         0.00000E+00
    0.00000E+00         0.00000E+00        -0.49991E+08
 
   -0.49959E+08         0.38640E+05         0.00000E+00
    0.38640E+05        -0.49996E+08         0.00000E+00
    0.00000E+00         0.00000E+00        -0.49991E+08
 
   -0.49959E+08         0.40290E+05         0.00000E+00
    0.40290E+05        -0.49996E+08         0.00000E+00
    0.00000E+00         0.00000E+00        -0.49991E+08
 
   -0.49960E+08         0.41906E+05         0.00000E+00
    0.41906E+05        -0.49995E+08         0.00000E+00
    0.00000E+00         0.00000E+00        -0.49991E+08
 
   -0.49961E+08         0.43488E+05         0.00000E+00
    0.43488E+05        -0.49995E+08         0.00000E+00
    0.00000E+00         0.00000E+00        -0.49991E+08
 
   -0.49962E+08         0.45034E+05         0.00000E+00
    0.45034E+05        -0.49994E+08         0.00000E+00
    0.00000E+00         0.00000E+00        -0.49991E+08
 
   -0.49963E+08         0.46543E+05         0.00000E+00
    0.46543E+05        -0.49994E+08         0.00000E+00
    0.00000E+00         0.00000E+00        -0.49991E+08
 
   -0.49964E+08         0.48014E+05         0.00000E+00
    0.48014E+05        -0.49993E+08         0.00000E+00
    0.00000E+00         0.00000E+00        -0.49991E+08
 
   -0.49965E+08         0.49444E+05         0.00000E+00
    0.49444E+05        -0.49993E+08         0.00000E+00
    0.00000E+00         0.00000E+00        -0.49992E+08
 
   -0.49966E+08         0.50834E+05         0.00000E+00
    0.50834E+05        -0.49992E+08         0.00000E+00
    0.00000E+00         0.00000E+00        -0.49992E+08
 
   -0.49967E+08         0.52181E+05         0.00000E+00
    0.52181E+05        -0.49992E+08         0.00000E+00
    0.00000E+00         0.00000E+00        -0.49992E+08
 
   -0.49968E+08         0.53484E+05         0.00000E+00
    0.53484E+05        -0.49991E+08         0.00000E+00
    0.00000E+00         0.00000E+00        -0.49992E+08
 
   -0.49969E+08         0.54742E+05         0.00000E+00
    0.54742E+05        -0.49991E+08         0.00000E+00
    0.00000E+00         0.00000E+00        -0.49992E+08
 
   -0.49970E+08         0.55954E+05         0.00000E+00
    0.55954E+05        -0.49990E+08         0.00000E+00
    0.00000E+00         0.00000E+00        -0.49992E+08
 
   -0.49972E+08         0.57119E+05         0.00000E+00
    0.57119E+05        -0.49990E+08         0.00000E+00
    0.00000E+00         0.00000E+00        -0.49992E+08
 
   -0.49973E+08         0.58235E+05         0.00000E+00
    0.58235E+05        -0.49989E+08         0.00000E+00
    0.00000E+00         0.00000E+00        -0.49992E+08
 
   -0.49974E+08         0.59302E+05         0.00000E+00
    0.59302E+05        -0.49989E+08         0.00000E+00
    0.00000E+00         0.00000E+00        -0.49993E+08
 
   -0.49975E+08         0.60318E+05         0.00000E+00
    0.60318E+05        -0.49988E+08         0.00000E+00
    0.00000E+00         0.00000E+00        -0.49993E+08
 
   -0.49977E+08         0.61283E+05         0.00000E+00
    0.61283E+05        -0.49987E+08         0.00000E+00
    0.00000E+00         0.00000E+00        -0.49993E+08
 
   -0.49978E+08         0.62194E+05         0.00000E+00
    0.62194E+05        -0.49987E+08         0.00000E+00
    0.00000E+00         0.00000E+00        -0.49993E+08
 
   -0.49979E+08         0.63052E+05         0.00000E+00
    0.63052E+05        -0.49986E+08         0.00000E+00
    0.00000E+00         0.00000E+00        -0.49993E+08
 
   -0.49981E+08         0.63855E+05         0.00000E+00
    0.63855E+05        -0.49985E+08         0.00000E+00
    0.00000E+00         0.00000E+00        -0.49993E+08
 
   -0.49982E+08         0.64603E+05         0.00000E+00
    0.64603E+05        -0.49985E+08         0.00000E+00
    0.00000E+00         0.00000E+00        -0.49993E+08
 
   -0.49984E+08         0.65294E+05         0.00000E+00
    0.65294E+05        -0.49984E+08         0.00000E+00
    0.00000E+00         0.00000E+00        -0.49994E+08
 
   -0.49985E+08         0.65927E+05         0.00000E+00
    0.65927E+05        -0.49983E+08         0.00000E+00
    0.00000E+00         0.00000E+00        -0.49994E+08
 
   -0.49986E+08         0.66502E+05         0.00000E+00
    0.66502E+05        -0.49983E+08         0.00000E+00
    0.00000E+00         0.00000E+00        -0.49994E+08
 
   -0.49988E+08         0.67019E+05         0.00000E+00
    0.67019E+05        -0.49982E+08         0.00000E+00
    0.00000E+00         0.00000E+00        -0.49994E+08
 
   -0.49989E+08         0.67475E+05         0.00000E+00
    0.67475E+05        -0.49981E+08         0.00000E+00
    0.00000E+00         0.00000E+00        -0.49994E+08
 
   -0.49991E+08         0.67871E+05         0.00000E+00
    0.67871E+05        -0.49981E+08         0.00000E+00
    0.00000E+00         0.00000E+00        -0.49994E+08
 
   -0.49992E+08         0.68206E+05         0.00000E+00
    0.68206E+05        -0.49980E+08         0.00000E+00
    0.00000E+00         0.00000E+00        -0.49995E+08
 
   -0.49994E+08         0.68479E+05         0.00000E+00
    0.68479E+05        -0.49979E+08         0.00000E+00
    0.00000E+00         0.00000E+00        -0.49995E+08
 
   -0.49940E+08         0.10521E+04         0.00000E+00
    0.10521E+04        -0.50000E+08         0.00000E+00
    0.00000E+00         0.00000E+00        -0.49988E+08
 
   -0.49940E+08         0.31552E+04         0.00000E+00
    0.31552E+04        -0.50000E+08         0.00000E+00
    0.00000E+00         0.00000E+00        -0.49988E+08
 
   -0.49940E+08         0.52556E+04         0.00000E+00
    0.52556E+04        -0.50000E+08         0.00000E+00
    0.00000E+00         0.00000E+00        -0.49988E+08
 
   -0.49940E+08         0.73519E+04         0.00000E+00
    0.73519E+04        -0.50000E+08         0.00000E+00
    0.00000E+00         0.00000E+00        -0.49988E+08
 
   -0.49940E+08         0.94422E+04         0.00000E+00
    0.94422E+04        -0.50000E+08         0.00000E+00
    0.00000E+00         0.00000E+00        -0.49988E+08
 
   -0.49941E+08         0.11525E+05         0.00000E+00
    0.11525E+05        -0.50000E+08         0.00000E+00
    0.00000E+00         0.00000E+00        -0.49988E+08
 
   -0.49941E+08         0.13599E+05         0.00000E+00
    0.13599E+05        -0.50000E+08         0.00000E+00
    0.00000E+00         0.00000E+00        -0.49988E+08
 
   -0.49941E+08         0.15662E+05         0.00000E+00
    0.15662E+05        -0.49999E+08         0.00000E+00
    0.00000E+00         0.00000E+00        -0.49988E+08
 
   -0.49942E+08         0.17712E+05         0.00000E+00
    0.17712E+05        -0.49999E+08         0.00000E+00
    0.00000E+00         0.00000E+00        -0.49988E+08
 
   -0.49942E+08         0.19748E+05         0.00000E+00
    0.19748E+05        -0.49999E+08         0.00000E+00
    0.00000E+00         0.00000E+00        -0.49988E+08
 
   -0.49943E+08         0.21769E+05         0.00000E+00
    0.21769E+05        -0.49999E+08         0.00000E+00
    0.00000E+00         0.00000E+00        -0.49988E+08
 
   -0.49943E+08         0.23772E+05         0.00000E+00
    0.23772E+05        -0.49998E+08         0.00000E+00
    0.00000E+00         0.00000E+00        -0.49988E+08
 
   -0.49944E+08         0.25756E+05         0.00000E+00
    0.25756E+05        -0.49998E+08         0.00000E+00
    0.00000E+00         0.00000E+00        -0.49988E+08
 
   -0.49944E+08         0.27720E+05         0.00000E+00
    0.27720E+05        -0.49998E+08         0.00000E+00
    0.00000E+00         0.00000E+00        -0.49988E+08
 
   -0.49945E+08         0.29661E+05         0.00000E+00
    0.29661E+05        -0.49998E+08         0.00000E+00
    0.00000E+00         0.00000E+00        -0.49989E+08
 
   -0.49946E+08         0.31579E+05         0.00000E+00
    0.31579E+05        -0.49997E+08         0.00000E+00
    0.00000E+00         0.00000E+00        -0.49989E+08
 
   -0.49947E+08         0.33471E+05         0.00000E+00
    0.33471E+05        -0.49997E+08         0.00000E+00
    0.00000E+00         0.00000E+00        -0.49989E+08
 
   -0.49947E+08         0.35336E+05         0.00000E+00
    0.35336E+05        -0.49996E+08         0.00000E+00
    0.00000E+00         0.00000E+00        -0.49989E+08
 
   -0.49948E+08         0.37173E+05         0.00000E+00
    0.37173E+05        -0.49996E+08         0.00000E+00
    0.00000E+00         0.00000E+00        -0.49989E+08
 
   -0.49949E+08         0.38979E+05         0.00000E+00
    0.38979E+05        -0.49996E+08         0.00000E+00
    0.00000E+00         0.00000E+00        -0.49989E+08
 
   -0.49950E+08         0.40753E+05         0.00000E+00
    0.40753E+05        -0.49995E+08         0.00000E+00
    0.00000E+00         0.00000E+00        -0.49989E+08
 
   -0.49951E+08         0.42495E+05         0.00000E+00
    0.42495E+05        -0.49995E+08         0.00000E+00
    0.00000E+00         0.00000E+00        -0.49989E+08
 
   -0.49952E+08         0.44201E+05         0.00000E+00
    0.44201E+05        -0.49994E+08         0.00000E+00
    0.00000E+00         0.00000E+00        -0.49989E+08
 
   -0.49953E+08         0.45872E+05         0.00000E+00
    0.45872E+05        -0.49994E+08         0.00000E+00
    0.00000E+00         0.00000E+00        -0.49989E+08
 
   -0.49954E+08         0.47504E+05         0.00000E+00
    0.47504E+05        -0.49993E+08         0.00000E+00
    0.00000E+00         0.00000E+00        -0.49989E+08
 
   -0.49955E+08         0.49098E+05         0.00000E+00
    0.49098E+05        -0.49993E+08         0.00000E+00
    0.00000E+00         0.00000E+00        -0.49990E+08
 
   -0.49956E+08         0.50651E+05         0.00000E+00
    0.50651E+05        -0.49992E+08         0.00000E+00
    0.00000E+00         0.00000E+00        -0.49990E+08
 
   -0.49958E+08         0.52162E+05         0.00000E+00
    0.52162E+05        -0.49991E+08         0.00000E+00
    0.00000E+00         0.00000E+00        -0.49990E+08
 
   -0.49959E+08         0.53630E+05         0.00000E+00
    0.53630E+05        -0.49991E+08         0.00000E+00
    0.00000E+00         0.00000E+00        -0.49990E+08
 
   -0.49960E+08         0.55052E+05         0.00000E+00
    0.55052E+05        -0.49990E+08         0.00000E+00
    0.00000E+00         0.00000E+00        -0.49990E+08
 
   -0.49962E+08         0.56429E+05         0.00000E+00
    0.56429E+05        -0.49990E+08         0.00000E+00
    0.00000E+00         0.00000E+00        -0.49990E+08
 
   -0.49963E+08         0.57758E+05         0.00000E+00
    0.57758E+05        -0.49989E+08         0.00000E+00
    0.00000E+00         0.00000E+00        -0.49990E+08
 
   -0.49964E+08         0.59039E+05         0.00000E+00
    0.59039E+05        -0.49988E+08         0.00000E+00
    0.00000E+00         0.00000E+00        -0.49991E+08
 
   -0.49966E+08         0.60270E+05         0.00000E+00
    0.60270E+05        -0.49988E+08         0.00000E+00
    0.00000E+00         0.00000E+00        -0.49991E+08
 
   -0.49967E+08         0.61450E+05         0.00000E+00
    0.61450E+05        -0.49987E+08         0.00000E+00
    0.00000E+00         0.00000E+00        -0.49991E+08
 
   -0.49969E+08         0.62577E+05         0.00000E+00
    0.62577E+05        -0.49986E+08         0.00000E+00
    0.00000E+00         0.00000E+00        -0.49991E+08
 
   -0.49970E+08         0.63651E+05         0.00000E+00
    0.63651E+05        -0.49985E+08         0.00000E+00
    0.00000E+00         0.00000E+00        -0.49991E+08
 
   -0.49972E+08         0.64670E+05         0.00000E+00
    0.64670E+05        -0.49985E+08         0.00000E+00
    0.00000E+00         0.00000E+00        -0.49991E+08
 
   -0.49973E+08         0.65634E+05         0.00000E+00
    0.65634E+05        -0.49984E+08         0.00000E+00
    0.00000E+00         0.00000E+00        -0.49991E+08
 
   -0.49975E+08         0.66541E+05         0.00000E+00
    0.66541E+05        -0.49983E+08         0.00000E+00
    0.00000E+00         0.00000E+00        -0.49992E+08
 
   -0.49977E+08         0.67390E+05         0.00000E+00
    0.67390E+05        -0.49982E+08         0.00000E+00
    0.00000E+00         0.00000E+00        -0.49992E+08
 
   -0.49978E+08         0.68180E+05         0.00000E+00
    0.68180E+05        -0.49982E+08         0.00000E+00
    0.00000E+00         0.00000E+00        -0.49992E+08
 
   -0.49980E+08         0.68910E+05         0.00000E+00
    0.68910E+05        -0.49981E+08         0.00000E+00
    0.00000E+00         0.00000E+00        -0.49992E+08
 
   -0.49982E+08         0.69580E+05         0.00000E+00
    0.69580E+05        -0.49980E+08         0.00000E+00
    0.00000E+00         0.00000E+00        -0.49992E+08
 
   -0.49984E+08         0.70188E+05         0.00000E+00
    0.70188E+05        -0.49979E+08         0.00000E+00
    0.00000E+00         0.00000E+00        -0.49993E+08
 
   -0.49985E+08         0.70734E+05         0.00000E+00
    0.70734E+05        -0.49978E+08         0.00000E+00
    0.00000E+00         0.00000E+00        -0.49993E+08
 
   -0.49987E+08         0.71217E+05         0.00000E+00
    0.71217E+05        -0.49978E+08         0.00000E+00
    0.00000E+00         0.00000E+00        -0.49993E+08
 
   -0.49989E+08         0.71636E+05         0.00000E+00
    0.71636E+05        -0.49977E+08         0.00000E+00
    0.00000E+00         0.00000E+00        -0.49993E+08
 
   -0.49991E+08         0.71990E+05         0.00000E+00
    0.71990E+05        -0.49976E+08         0.00000E+00
    0.00000E+00         0.00000E+00        -0.49993E+08
 
   -0.49993E+08         0.72279E+05         0.00000E+00
    0.72279E+05        -0.49975E+08         0.00000E+00
    0.00000E+00         0.00000E+00        -0.49994E+08
 
   -0.49929E+08         0.11156E+04         0.00000E+00
    0.11156E+04        -0.50000E+08         0.00000E+00
    0.00000E+00         0.00000E+00        -0.49986E+08
 
   -0.49929E+08         0.33463E+04         0.00000E+00
    0.33463E+04        -0.50000E+08         0.00000E+00
    0.00000E+00         0.00000E+00        -0.49986E+08
 
   -0.49929E+08         0.55746E+04         0.00000E+00
    0.55746E+04        -0.50000E+08         0.00000E+00
    0.00000E+00         0.00000E+00        -0.49986E+08
 
   -0.49929E+08         0.77987E+04         0.00000E+00
    0.77987E+04        -0.50000E+08         0.00000E+00
    0.00000E+00         0.00000E+00        -0.49986E+08
 
   -0.49930E+08         0.10017E+05         0.00000E+00
    0.10017E+05        -0.50000E+08         0.00000E+00
    0.00000E+00         0.00000E+00        -0.49986E+08
 
   -0.49930E+08         0.12227E+05         0.00000E+00
    0.12227E+05        -0.50000E+08         0.00000E+00
    0.00000E+00         0.00000E+00        -0.49986E+08
 
   -0.49930E+08         0.14428E+05         0.00000E+00
    0.14428E+05        -0.49999E+08         0.00000E+00
    0.00000E+00         0.00000E+00        -0.49986E+08
 
   -0.49931E+08         0.16618E+05         0.00000E+00
    0.16618E+05        -0.49999E+08         0.00000E+00
    0.00000E+00         0.00000E+00        -0.49986E+08
 
   -0.49931E+08         0.18795E+05         0.00000E+00
    0.18795E+05        -0.49999E+08         0.00000E+00
    0.00000E+00         0.00000E+00        -0.49986E+08
 
   -0.49932E+08         0.20957E+05         0.00000E+00
    0.20957E+05        -0.49999E+08         0.00000E+00
    0.00000E+00         0.00000E+00        -0.49986E+08
 
   -0.49932E+08         0.23103E+05         0.00000E+00
    0.23103E+05        -0.49998E+08         0.00000E+00
    0.00000E+00         0.00000E+00        -0.49986E+08
 
   -0.49933E+08         0.25230E+05         0.00000E+00
    0.25230E+05        -0.49998E+08         0.00000E+00
    0.00000E+00         0.00000E+00        -0.49986E+08
 
   -0.49934E+08         0.27338E+05         0.00000E+00
    0.27338E+05        -0.49998E+08         0.00000E+00
    0.00000E+00         0.00000E+00        -0.49986E+08
 
   -0.49934E+08         0.29424E+05         0.00000E+00
    0.29424E+05        -0.49998E+08         0.00000E+00
    0.00000E+00         0.00000E+00        -0.49986E+08
 
   -0.49935E+08         0.31486E+05         0.00000E+00
    0.31486E+05        -0.49997E+08         0.00000E+00
    0.00000E+00         0.00000E+00        -0.49986E+08
 
   -0.49936E+08         0.33524E+05         0.00000E+00
    0.33524E+05        -0.49997E+08         0.00000E+00
    0.00000E+00         0.00000E+00        -0.49987E+08
 
   -0.49937E+08         0.35534E+05         0.00000E+00
    0.35534E+05        -0.49996E+08         0.00000E+00
    0.00000E+00         0.00000E+00        -0.49987E+08
 
   -0.49938E+08         0.37516E+05         0.00000E+00
    0.37516E+05        -0.49996E+08         0.00000E+00
    0.00000E+00         0.00000E+00        -0.49987E+08
 
   -0.49939E+08         0.39468E+05         0.00000E+00
    0.39468E+05        -0.49995E+08         0.00000E+00
    0.00000E+00         0.00000E+00        -0.49987E+08
 
   -0.49940E+08         0.41388E+05         0.00000E+00
    0.41388E+05        -0.49995E+08         0.00000E+00
    0.00000E+00         0.00000E+00        -0.49987E+08
 
   -0.49941E+08         0.43274E+05         0.00000E+00
    0.43274E+05        -0.49994E+08         0.00000E+00
    0.00000E+00         0.00000E+00        -0.49987E+08
 
   -0.49942E+08         0.45125E+05         0.00000E+00
    0.45125E+05        -0.49994E+08         0.00000E+00
    0.00000E+00         0.00000E+00        -0.49987E+08
 
   -0.49943E+08         0.46939E+05         0.00000E+00
    0.46939E+05        -0.49993E+08         0.00000E+00
    0.00000E+00         0.00000E+00        -0.49987E+08
 
   -0.49945E+08         0.48716E+05         0.00000E+00
    0.48716E+05        -0.49993E+08         0.00000E+00
    0.00000E+00         0.00000E+00        -0.49987E+08
 
   -0.49946E+08         0.50452E+05         0.00000E+00
    0.50452E+05        -0.49992E+08         0.00000E+00
    0.00000E+00         0.00000E+00        -0.49988E+08
 
   -0.49947E+08         0.52146E+05         0.00000E+00
    0.52146E+05        -0.49991E+08         0.00000E+00
    0.00000E+00         0.00000E+00        -0.49988E+08
 
   -0.49949E+08         0.53798E+05         0.00000E+00
    0.53798E+05        -0.49991E+08         0.00000E+00
    0.00000E+00         0.00000E+00        -0.49988E+08
 
   -0.49950E+08         0.55405E+05         0.00000E+00
    0.55405E+05        -0.49990E+08         0.00000E+00
    0.00000E+00         0.00000E+00        -0.49988E+08
 
   -0.49952E+08         0.56966E+05         0.00000E+00
    0.56966E+05        -0.49989E+08         0.00000E+00
    0.00000E+00         0.00000E+00        -0.49988E+08
 
   -0.49953E+08         0.58479E+05         0.00000E+00
    0.58479E+05        -0.49988E+08         0.00000E+00
    0.00000E+00         0.00000E+00        -0.49988E+08
 
   -0.49955E+08         0.59944E+05         0.00000E+00
    0.59944E+05        -0.49988E+08         0.00000E+00
    0.00000E+00         0.00000E+00        -0.49988E+08
 
   -0.49956E+08         0.61358E+05         0.00000E+00
    0.61358E+05        -0.49987E+08         0.00000E+00
    0.00000E+00         0.00000E+00        -0.49989E+08
 
   -0.49958E+08         0.62721E+05         0.00000E+00
    0.62721E+05        -0.49986E+08         0.00000E+00
    0.00000E+00         0.00000E+00        -0.49989E+08
 
   -0.49960E+08         0.64030E+05         0.00000E+00
    0.64030E+05        -0.49985E+08         0.00000E+00
    0.00000E+00         0.00000E+00        -0.49989E+08
 
   -0.49961E+08         0.65286E+05         0.00000E+00
    0.65286E+05        -0.49984E+08         0.00000E+00
    0.00000E+00         0.00000E+00        -0.49989E+08
 
   -0.49963E+08         0.66485E+05         0.00000E+00
    0.66485E+05        -0.49984E+08         0.00000E+00
    0.00000E+00         0.00000E+00        -0.49989E+08
 
   -0.49965E+08         0.67628E+05         0.00000E+00
    0.67628E+05        -0.49983E+08         0.00000E+00
    0.00000E+00         0.00000E+00        -0.49990E+08
 
   -0.49967E+08         0.68713E+05         0.00000E+00
    0.68713E+05        -0.49982E+08         0.00000E+00
    0.00000E+00         0.00000E+00        -0.49990E+08
 
   -0.49969E+08         0.69739E+05         0.00000E+00
    0.69739E+05        -0.49981E+08         0.00000E+00
    0.00000E+00         0.00000E+00        -0.49990E+08
 
   -0.49971E+08         0.70704E+05         0.00000E+00
    0.70704E+05        -0.49980E+08         0.00000E+00
    0.00000E+00         0.00000E+00        -0.49990E+08
 
   -0.49973E+08         0.71608E+05         0.00000E+00
    0.71608E+05        -0.49979E+08         0.00000E+00
    0.00000E+00         0.00000E+00        -0.49990E+08
 
   -0.49975E+08         0.72449E+05         0.00000E+00
    0.72449E+05        -0.49978E+08         0.00000E+00
    0.00000E+00         0.00000E+00        -0.49991E+08
 
   -0.49977E+08         0.73227E+05         0.00000E+00
    0.73227E+05        -0.49977E+08         0.00000E+00
    0.00000E+00         0.00000E+00        -0.49991E+08
 
   -0.49979E+08         0.73940E+05         0.00000E+00
    0.73940E+05        -0.49976E+08         0.00000E+00
    0.00000E+00         0.00000E+00        -0.49991E+08
 
   -0.49981E+08         0.74588E+05         0.00000E+00
    0.74588E+05        -0.49975E+08         0.00000E+00
    0.00000E+00         0.00000E+00        -0.49991E+08
 
   -0.49983E+08         0.75170E+05         0.00000E+00
    0.75170E+05        -0.49975E+08         0.00000E+00
    0.00000E+00         0.00000E+00        -0.49991E+08
 
   -0.49985E+08         0.75684E+05         0.00000E+00
    0.75684E+05        -0.49974E+08         0.00000E+00
    0.00000E+00         0.00000E+00        -0.49992E+08
 
   -0.49987E+08         0.76130E+05         0.00000E+00
    0.76130E+05        -0.49973E+08         0.00000E+00
    0.00000E+00         0.00000E+00        -0.49992E+08
 
   -0.49989E+08         0.76507E+05         0.00000E+00
    0.76507E+05        -0.49972E+08         0.00000E+00
    0.00000E+00         0.00000E+00        -0.49992E+08
 
   -0.49991E+08         0.76815E+05         0.00000E+00
    0.76815E+05        -0.49971E+08         0.00000E+00
    0.00000E+00         0.00000E+00        -0.49992E+08
 
   -0.49918E+08         0.11899E+04         0.00000E+00
    0.11899E+04        -0.50000E+08         0.00000E+00
    0.00000E+00         0.00000E+00        -0.49984E+08
 
   -0.49918E+08         0.35700E+04         0.00000E+00
    0.35700E+04        -0.50000E+08         0.00000E+00
    0.00000E+00         0.00000E+00        -0.49984E+08
 
   -0.49918E+08         0.59479E+04         0.00000E+00
    0.59479E+04        -0.50000E+08         0.00000E+00
    0.00000E+00         0.00000E+00        -0.49984E+08
 
   -0.49918E+08         0.83217E+04         0.00000E+00
    0.83217E+04        -0.50000E+08         0.00000E+00
    0.00000E+00         0.00000E+00        -0.49984E+08
 
   -0.49918E+08         0.10690E+05         0.00000E+00
    0.10690E+05        -0.50000E+08         0.00000E+00
    0.00000E+00         0.00000E+00        -0.49984E+08
 
   -0.49919E+08         0.13050E+05         0.00000E+00
    0.13050E+05        -0.50000E+08         0.00000E+00
    0.00000E+00         0.00000E+00        -0.49984E+08
 
   -0.49919E+08         0.15400E+05         0.00000E+00
    0.15400E+05        -0.49999E+08         0.00000E+00
    0.00000E+00         0.00000E+00        -0.49984E+08
 
   -0.49919E+08         0.17738E+05         0.00000E+00
    0.17738E+05        -0.49999E+08         0.00000E+00
    0.00000E+00         0.00000E+00        -0.49984E+08
 
   -0.49920E+08         0.20064E+05         0.00000E+00
    0.20064E+05        -0.49999E+08         0.00000E+00
    0.00000E+00         0.00000E+00        -0.49984E+08
 
   -0.49921E+08         0.22373E+05         0.00000E+00
    0.22373E+05        -0.49999E+08         0.00000E+00
    0.00000E+00         0.00000E+00        -0.49984E+08
 
   -0.49921E+08         0.24666E+05         0.00000E+00
    0.24666E+05        -0.49998E+08         0.00000E+00
    0.00000E+00         0.00000E+00        -0.49984E+08
 
   -0.49922E+08         0.26939E+05         0.00000E+00
    0.26939E+05        -0.49998E+08         0.00000E+00
    0.00000E+00         0.00000E+00        -0.49984E+08
 
   -0.49923E+08         0.29191E+05         0.00000E+00
    0.29191E+05        -0.49998E+08         0.00000E+00
    0.00000E+00         0.00000E+00        -0.49984E+08
 
   -0.49924E+08         0.31421E+05         0.00000E+00
    0.31421E+05        -0.49997E+08         0.00000E+00
    0.00000E+00         0.00000E+00        -0.49984E+08
 
   -0.49924E+08         0.33625E+05         0.00000E+00
    0.33625E+05        -0.49997E+08         0.00000E+00
    0.00000E+00         0.00000E+00        -0.49984E+08
 
   -0.49925E+08         0.35803E+05         0.00000E+00
    0.35803E+05        -0.49996E+08         0.00000E+00
    0.00000E+00         0.00000E+00        -0.49984E+08
 
   -0.49927E+08         0.37952E+05         0.00000E+00
    0.37952E+05        -0.49996E+08         0.00000E+00
    0.00000E+00         0.00000E+00        -0.49984E+08
 
   -0.49928E+08         0.40071E+05         0.00000E+00
    0.40071E+05        -0.49995E+08         0.00000E+00
    0.00000E+00         0.00000E+00        -0.49985E+08
 
   -0.49929E+08         0.42158E+05         0.00000E+00
    0.42158E+05        -0.49995E+08         0.00000E+00
    0.00000E+00         0.00000E+00        -0.49985E+08
 
   -0.49930E+08         0.44212E+05         0.00000E+00
    0.44212E+05        -0.49994E+08         0.00000E+00
    0.00000E+00         0.00000E+00        -0.49985E+08
 
   -0.49931E+08         0.46229E+05         0.00000E+00
    0.46229E+05        -0.49993E+08         0.00000E+00
    0.00000E+00         0.00000E+00        -0.49985E+08
 
   -0.49933E+08         0.48209E+05         0.00000E+00
    0.48209E+05        -0.49993E+08         0.00000E+00
    0.00000E+00         0.00000E+00        -0.49985E+08
 
   -0.49934E+08         0.50150E+05         0.00000E+00
    0.50150E+05        -0.49992E+08         0.00000E+00
    0.00000E+00         0.00000E+00        -0.49985E+08
 
   -0.49935E+08         0.52050E+05         0.00000E+00
    0.52050E+05        -0.49991E+08         0.00000E+00
    0.00000E+00         0.00000E+00        -0.49985E+08
 
   -0.49937E+08         0.53907E+05         0.00000E+00
    0.53907E+05        -0.49991E+08         0.00000E+00
    0.00000E+00         0.00000E+00        -0.49986E+08
 
   -0.49939E+08         0.55720E+05         0.00000E+00
    0.55720E+05        -0.49990E+08         0.00000E+00
    0.00000E+00         0.00000E+00        -0.49986E+08
 
   -0.49940E+08         0.57487E+05         0.00000E+00
    0.57487E+05        -0.49989E+08         0.00000E+00
    0.00000E+00         0.00000E+00        -0.49986E+08
 
   -0.49942E+08         0.59207E+05         0.00000E+00
    0.59207E+05        -0.49988E+08         0.00000E+00
    0.00000E+00         0.00000E+00        -0.49986E+08
 
   -0.49944E+08         0.60878E+05         0.00000E+00
    0.60878E+05        -0.49987E+08         0.00000E+00
    0.00000E+00         0.00000E+00        -0.49986E+08
 
   -0.49945E+08         0.62497E+05         0.00000E+00
    0.62497E+05        -0.49987E+08         0.00000E+00
    0.00000E+00         0.00000E+00        -0.49986E+08
 
   -0.49947E+08         0.64065E+05         0.00000E+00
    0.64065E+05        -0.49986E+08         0.00000E+00
    0.00000E+00         0.00000E+00        -0.49987E+08
 
   -0.49949E+08         0.65579E+05         0.00000E+00
    0.65579E+05        -0.49985E+08         0.00000E+00
    0.00000E+00         0.00000E+00        -0.49987E+08
 
   -0.49951E+08         0.67038E+05         0.00000E+00
    0.67038E+05        -0.49984E+08         0.00000E+00
    0.00000E+00         0.00000E+00        -0.49987E+08
 
   -0.49953E+08         0.68440E+05         0.00000E+00
    0.68440E+05        -0.49983E+08         0.00000E+00
    0.00000E+00         0.00000E+00        -0.49987E+08
 
   -0.49955E+08         0.69784E+05         0.00000E+00
    0.69784E+05        -0.49982E+08         0.00000E+00
    0.00000E+00         0.00000E+00        -0.49987E+08
 
   -0.49957E+08         0.71068E+05         0.00000E+00
    0.71068E+05        -0.49981E+08         0.00000E+00
    0.00000E+00         0.00000E+00        -0.49988E+08
 
   -0.49959E+08         0.72292E+05         0.00000E+00
    0.72292E+05        -0.49980E+08         0.00000E+00
    0.00000E+00         0.00000E+00        -0.49988E+08
 
   -0.49961E+08         0.73454E+05         0.00000E+00
    0.73454E+05        -0.49979E+08         0.00000E+00
    0.00000E+00         0.00000E+00        -0.49988E+08
 
   -0.49964E+08         0.74553E+05         0.00000E+00
    0.74553E+05        -0.49978E+08         0.00000E+00
    0.00000E+00         0.00000E+00        -0.49988E+08
 
   -0.49966E+08         0.75587E+05         0.00000E+00
    0.75587E+05        -0.49977E+08         0.00000E+00
    0.00000E+00         0.00000E+00        -0.49989E+08
 
   -0.49968E+08         0.76555E+05         0.00000E+00
    0.76555E+05        -0.49976E+08         0.00000E+00
    0.00000E+00         0.00000E+00        -0.49989E+08
 
   -0.49970E+08         0.77456E+05         0.00000E+00
    0.77456E+05        -0.49975E+08         0.00000E+00
    0.00000E+00         0.00000E+00        -0.49989E+08
 
   -0.49973E+08         0.78290E+05         0.00000E+00
    0.78290E+05        -0.49974E+08         0.00000E+00
    0.00000E+00         0.00000E+00        -0.49989E+08
 
   -0.49975E+08         0.79054E+05         0.00000E+00
    0.79054E+05        -0.49973E+08         0.00000E+00
    0.00000E+00         0.00000E+00        -0.49990E+08
 
   -0.49978E+08         0.79748E+05         0.00000E+00
    0.79748E+05        -0.49971E+08         0.00000E+00
    0.00000E+00         0.00000E+00        -0.49990E+08
 
   -0.49980E+08         0.80372E+05         0.00000E+00
    0.80372E+05        -0.49970E+08         0.00000E+00
    0.00000E+00         0.00000E+00        -0.49990E+08
 
   -0.49982E+08         0.80923E+05         0.00000E+00
    0.80923E+05        -0.49969E+08         0.00000E+00
    0.00000E+00         0.00000E+00        -0.49990E+08
 
   -0.49985E+08         0.81401E+05         0.00000E+00
    0.81401E+05        -0.49968E+08         0.00000E+00
    0.00000E+00         0.00000E+00        -0.49991E+08
 
   -0.49987E+08         0.81806E+05         0.00000E+00
    0.81806E+05        -0.49967E+08         0.00000E+00
    0.00000E+00         0.00000E+00        -0.49991E+08
 
   -0.49990E+08         0.82136E+05         0.00000E+00
    0.82136E+05        -0.49966E+08         0.00000E+00
    0.00000E+00         0.00000E+00        -0.49991E+08
 
   -0.49905E+08         0.12756E+04         0.00000E+00
    0.12756E+04        -0.50000E+08         0.00000E+00
    0.00000E+00         0.00000E+00        -0.49981E+08
 
   -0.49905E+08         0.38285E+04         0.00000E+00
    0.38285E+04        -0.50000E+08         0.00000E+00
    0.00000E+00         0.00000E+00        -0.49981E+08
 
   -0.49905E+08         0.63795E+04         0.00000E+00
    0.63795E+04        -0.50000E+08         0.00000E+00
    0.00000E+00         0.00000E+00        -0.49981E+08
 
   -0.49906E+08         0.89265E+04         0.00000E+00
    0.89265E+04        -0.50000E+08         0.00000E+00
    0.00000E+00         0.00000E+00        -0.49981E+08
 
   -0.49906E+08         0.11468E+05         0.00000E+00
    0.11468E+05        -0.50000E+08         0.00000E+00
    0.00000E+00         0.00000E+00        -0.49981E+08
 
   -0.49906E+08         0.14001E+05         0.00000E+00
    0.14001E+05        -0.49999E+08         0.00000E+00
    0.00000E+00         0.00000E+00        -0.49981E+08
 
   -0.49907E+08         0.16524E+05         0.00000E+00
    0.16524E+05        -0.49999E+08         0.00000E+00
    0.00000E+00         0.00000E+00        -0.49981E+08
 
   -0.49907E+08         0.19035E+05         0.00000E+00
    0.19035E+05        -0.49999E+08         0.00000E+00
    0.00000E+00         0.00000E+00        -0.49981E+08
 
   -0.49908E+08         0.21532E+05         0.00000E+00
    0.21532E+05        -0.49999E+08         0.00000E+00
    0.00000E+00         0.00000E+00        -0.49981E+08
 
   -0.49909E+08         0.24012E+05         0.00000E+00
    0.24012E+05        -0.49998E+08         0.00000E+00
    0.00000E+00         0.00000E+00        -0.49981E+08
 
   -0.49909E+08         0.26475E+05         0.00000E+00
    0.26475E+05        -0.49998E+08         0.00000E+00
    0.00000E+00         0.00000E+00        -0.49981E+08
 
   -0.49910E+08         0.28917E+05         0.00000E+00
    0.28917E+05        -0.49998E+08         0.00000E+00
    0.00000E+00         0.00000E+00        -0.49982E+08
 
   -0.49911E+08         0.31337E+05         0.00000E+00
    0.31337E+05        -0.49997E+08         0.00000E+00
    0.00000E+00         0.00000E+00        -0.49982E+08
 
   -0.49912E+08         0.33732E+05         0.00000E+00
    0.33732E+05        -0.49997E+08         0.00000E+00
    0.00000E+00         0.00000E+00        -0.49982E+08
 
   -0.49913E+08         0.36101E+05         0.00000E+00
    0.36101E+05        -0.49996E+08         0.00000E+00
    0.00000E+00         0.00000E+00        -0.49982E+08
 
   -0.49914E+08         0.38442E+05         0.00000E+00
    0.38442E+05        -0.49996E+08         0.00000E+00
    0.00000E+00         0.00000E+00        -0.49982E+08
 
   -0.49915E+08         0.40752E+05         0.00000E+00
    0.40752E+05        -0.49995E+08         0.00000E+00
    0.00000E+00         0.00000E+00        -0.49982E+08
 
   -0.49917E+08         0.43030E+05         0.00000E+00
    0.43030E+05        -0.49994E+08         0.00000E+00
    0.00000E+00         0.00000E+00        -0.49982E+08
 
   -0.49918E+08         0.45274E+05         0.00000E+00
    0.45274E+05        -0.49994E+08         0.00000E+00
    0.00000E+00         0.00000E+00        -0.49982E+08
 
   -0.49919E+08         0.47482E+05         0.00000E+00
    0.47482E+05        -0.49993E+08         0.00000E+00
    0.00000E+00         0.00000E+00        -0.49982E+08
 
   -0.49921E+08         0.49651E+05         0.00000E+00
    0.49651E+05        -0.49992E+08         0.00000E+00
    0.00000E+00         0.00000E+00        -0.49983E+08
 
   -0.49922E+08         0.51780E+05         0.00000E+00
    0.51780E+05        -0.49992E+08         0.00000E+00
    0.00000E+00         0.00000E+00        -0.49983E+08
 
   -0.49924E+08         0.53867E+05         0.00000E+00
    0.53867E+05        -0.49991E+08         0.00000E+00
    0.00000E+00         0.00000E+00        -0.49983E+08
 
   -0.49926E+08         0.55911E+05         0.00000E+00
    0.55911E+05        -0.49990E+08         0.00000E+00
    0.00000E+00         0.00000E+00        -0.49983E+08
 
   -0.49927E+08         0.57909E+05         0.00000E+00
    0.57909E+05        -0.49989E+08         0.00000E+00
    0.00000E+00         0.00000E+00        -0.49983E+08
 
   -0.49929E+08         0.59859E+05         0.00000E+00
    0.59859E+05        -0.49988E+08         0.00000E+00
    0.00000E+00         0.00000E+00        -0.49984E+08
 
   -0.49931E+08         0.61760E+05         0.00000E+00
    0.61760E+05        -0.49987E+08         0.00000E+00
    0.00000E+00         0.00000E+00        -0.49984E+08
 
   -0.49933E+08         0.63610E+05         0.00000E+00
    0.63610E+05        -0.49986E+08         0.00000E+00
    0.00000E+00         0.00000E+00        -0.49984E+08
 
   -0.49935E+08         0.65407E+05         0.00000E+00
    0.65407E+05        -0.49985E+08         0.00000E+00
    0.00000E+00         0.00000E+00        -0.49984E+08
 
   -0.49937E+08         0.67150E+05         0.00000E+00
    0.67150E+05        -0.49984E+08         0.00000E+00
    0.00000E+00         0.00000E+00        -0.49984E+08
 
   -0.49939E+08         0.68837E+05         0.00000E+00
    0.68837E+05        -0.49983E+08         0.00000E+00
    0.00000E+00         0.00000E+00        -0.49985E+08
 
   -0.49941E+08         0.70466E+05         0.00000E+00
    0.70466E+05        -0.49982E+08         0.00000E+00
    0.00000E+00         0.00000E+00        -0.49985E+08
 
   -0.49944E+08         0.72036E+05         0.00000E+00
    0.72036E+05        -0.49981E+08         0.00000E+00
    0.00000E+00         0.00000E+00        -0.49985E+08
 
   -0.49946E+08         0.73545E+05         0.00000E+00
    0.73545E+05        -0.49980E+08         0.00000E+00
    0.00000E+00         0.00000E+00        -0.49985E+08
 
   -0.49948E+08         0.74992E+05         0.00000E+00
    0.74992E+05        -0.49979E+08         0.00000E+00
    0.00000E+00         0.00000E+00        -0.49985E+08
 
   -0.49951E+08         0.76375E+05         0.00000E+00
    0.76375E+05        -0.49978E+08         0.00000E+00
    0.00000E+00         0.00000E+00        -0.49986E+08
 
   -0.49953E+08         0.77693E+05         0.00000E+00
    0.77693E+05        -0.49977E+08         0.00000E+00
    0.00000E+00         0.00000E+00        -0.49986E+08
 
   -0.49955E+08         0.78944E+05         0.00000E+00
    0.78944E+05        -0.49976E+08         0.00000E+00
    0.00000E+00         0.00000E+00        -0.49986E+08
 
   -0.49958E+08         0.80127E+05         0.00000E+00
    0.80127E+05        -0.49975E+08         0.00000E+00
    0.00000E+00         0.00000E+00        -0.49987E+08
 
   -0.49961E+08         0.81240E+05         0.00000E+00
    0.81240E+05        -0.49973E+08         0.00000E+00
    0.00000E+00         0.00000E+00        -0.49987E+08
 
   -0.49963E+08         0.82283E+05         0.00000E+00
    0.82283E+05        -0.49972E+08         0.00000E+00
    0.00000E+00         0.00000E+00        -0.49987E+08
 
   -0.49966E+08         0.83254E+05         0.00000E+00
    0.83254E+05        -0.49971E+08         0.00000E+00
    0.00000E+00         0.00000E+00        -0.49987E+08
 
   -0.49969E+08         0.84152E+05         0.00000E+00
    0.84152E+05        -0.49970E+08         0.00000E+00
    0.00000E+00         0.00000E+00        -0.49988E+08
 
   -0.49971E+08         0.84975E+05         0.00000E+00
    0.84975E+05        -0.49968E+08         0.00000E+00
    0.00000E+00         0.00000E+00        -0.49988E+08
 
   -0.49974E+08         0.85723E+05         0.00000E+00
    0.85723E+05        -0.49967E+08         0.00000E+00
    0.00000E+00         0.00000E+00        -0.49988E+08
 
   -0.49977E+08         0.86395E+05         0.00000E+00
    0.86395E+05        -0.49966E+08         0.00000E+00
    0.00000E+00         0.00000E+00        -0.49989E+08
 
   -0.49980E+08         0.86989E+05         0.00000E+00
    0.86989E+05        -0.49965E+08         0.00000E+00
    0.00000E+00         0.00000E+00        -0.49989E+08
 
   -0.49983E+08         0.87505E+05         0.00000E+00
    0.87505E+05        -0.49963E+08         0.00000E+00
    0.00000E+00         0.00000E+00        -0.49989E+08
 
   -0.49986E+08         0.87941E+05         0.00000E+00
    0.87941E+05        -0.49962E+08         0.00000E+00
    0.00000E+00         0.00000E+00        -0.49989E+08
 
   -0.49989E+08         0.88297E+05         0.00000E+00
    0.88297E+05        -0.49961E+08         0.00000E+00
    0.00000E+00         0.00000E+00        -0.49990E+08
 
   -0.49892E+08         0.13738E+04         0.00000E+00
    0.13738E+04        -0.50000E+08         0.00000E+00
    0.00000E+00         0.00000E+00        -0.49978E+08
 
   -0.49892E+08         0.41247E+04         0.00000E+00
    0.41247E+04        -0.50000E+08         0.00000E+00
    0.00000E+00         0.00000E+00        -0.49978E+08
 
   -0.49892E+08         0.68742E+04         0.00000E+00
    0.68742E+04        -0.50000E+08         0.00000E+00
    0.00000E+00         0.00000E+00        -0.49978E+08
 
   -0.49892E+08         0.96200E+04         0.00000E+00
    0.96200E+04        -0.50000E+08         0.00000E+00
    0.00000E+00         0.00000E+00        -0.49978E+08
 
   -0.49893E+08         0.12360E+05         0.00000E+00
    0.12360E+05        -0.50000E+08         0.00000E+00
    0.00000E+00         0.00000E+00        -0.49978E+08
 
   -0.49893E+08         0.15092E+05         0.00000E+00
    0.15092E+05        -0.49999E+08         0.00000E+00
    0.00000E+00         0.00000E+00        -0.49979E+08
 
   -0.49894E+08         0.17813E+05         0.00000E+00
    0.17813E+05        -0.49999E+08         0.00000E+00
    0.00000E+00         0.00000E+00        -0.49979E+08
 
   -0.49894E+08         0.20522E+05         0.00000E+00
    0.20522E+05        -0.49999E+08         0.00000E+00
    0.00000E+00         0.00000E+00        -0.49979E+08
 
   -0.49895E+08         0.23216E+05         0.00000E+00
    0.23216E+05        -0.49998E+08         0.00000E+00
    0.00000E+00         0.00000E+00        -0.49979E+08
 
   -0.49896E+08         0.25893E+05         0.00000E+00
    0.25893E+05        -0.49998E+08         0.00000E+00
    0.00000E+00         0.00000E+00        -0.49979E+08
 
   -0.49897E+08         0.28551E+05         0.00000E+00
    0.28551E+05        -0.49998E+08         0.00000E+00
    0.00000E+00         0.00000E+00        -0.49979E+08
 
   -0.49898E+08         0.31187E+05         0.00000E+00
    0.31187E+05        -0.49997E+08         0.00000E+00
    0.00000E+00         0.00000E+00        -0.49979E+08
 
   -0.49899E+08         0.33799E+05         0.00000E+00
    0.33799E+05        -0.49997E+08         0.00000E+00
    0.00000E+00         0.00000E+00        -0.49979E+08
 
   -0.49900E+08         0.36385E+05         0.00000E+00
    0.36385E+05        -0.49996E+08         0.00000E+00
    0.00000E+00         0.00000E+00        -0.49979E+08
 
   -0.49901E+08         0.38943E+05         0.00000E+00
    0.38943E+05        -0.49996E+08         0.00000E+00
    0.00000E+00         0.00000E+00        -0.49979E+08
 
   -0.49902E+08         0.41471E+05         0.00000E+00
    0.41471E+05        -0.49995E+08         0.00000E+00
    0.00000E+00         0.00000E+00        -0.49979E+08
 
   -0.49904E+08         0.43966E+05         0.00000E+00
    0.43966E+05        -0.49994E+08         0.00000E+00
    0.00000E+00         0.00000E+00        -0.49980E+08
 
   -0.49905E+08         0.46427E+05         0.00000E+00
    0.46427E+05        -0.49994E+08         0.00000E+00
    0.00000E+00         0.00000E+00        -0.49980E+08
 
   -0.49906E+08         0.48850E+05         0.00000E+00
    0.48850E+05        -0.49993E+08         0.00000E+00
    0.00000E+00         0.00000E+00        -0.49980E+08
 
   -0.49908E+08         0.51235E+05         0.00000E+00
    0.51235E+05        -0.49992E+08         0.00000E+00
    0.00000E+00         0.00000E+00        -0.49980E+08
 
   -0.49910E+08         0.53578E+05         0.00000E+00
    0.53578E+05        -0.49991E+08         0.00000E+00
    0.00000E+00         0.00000E+00        -0.49980E+08
 
   -0.49911E+08         0.55879E+05         0.00000E+00
    0.55879E+05        -0.49990E+08         0.00000E+00
    0.00000E+00         0.00000E+00        -0.49980E+08
 
   -0.49913E+08         0.58134E+05         0.00000E+00
    0.58134E+05        -0.49989E+08         0.00000E+00
    0.00000E+00         0.00000E+00        -0.49981E+08
 
   -0.49915E+08         0.60342E+05         0.00000E+00
    0.60342E+05        -0.49989E+08         0.00000E+00
    0.00000E+00         0.00000E+00        -0.49981E+08
 
   -0.49917E+08         0.62500E+05         0.00000E+00
    0.62500E+05        -0.49988E+08         0.00000E+00
    0.00000E+00         0.00000E+00        -0.49981E+08
 
   -0.49919E+08         0.64608E+05         0.00000E+00
    0.64608E+05        -0.49987E+08         0.00000E+00
    0.00000E+00         0.00000E+00        -0.49981E+08
 
   -0.49921E+08         0.66663E+05         0.00000E+00
    0.66663E+05        -0.49986E+08         0.00000E+00
    0.00000E+00         0.00000E+00        -0.49981E+08
 
   -0.49924E+08         0.68662E+05         0.00000E+00
    0.68662E+05        -0.49984E+08         0.00000E+00
    0.00000E+00         0.00000E+00        -0.49982E+08
 
   -0.49926E+08         0.70605E+05         0.00000E+00
    0.70605E+05        -0.49983E+08         0.00000E+00
    0.00000E+00         0.00000E+00        -0.49982E+08
 
   -0.49928E+08         0.72489E+05         0.00000E+00
    0.72489E+05        -0.49982E+08         0.00000E+00
    0.00000E+00         0.00000E+00        -0.49982E+08
 
   -0.49931E+08         0.74312E+05         0.00000E+00
    0.74312E+05        -0.49981E+08         0.00000E+00
    0.00000E+00         0.00000E+00        -0.49982E+08
 
   -0.49933E+08         0.76073E+05         0.00000E+00
    0.76073E+05        -0.49980E+08         0.00000E+00
    0.00000E+00         0.00000E+00        -0.49983E+08
 
   -0.49936E+08         0.77771E+05         0.00000E+00
    0.77771E+05        -0.49979E+08         0.00000E+00
    0.00000E+00         0.00000E+00        -0.49983E+08
 
   -0.49938E+08         0.79402E+05         0.00000E+00
    0.79402E+05        -0.49977E+08         0.00000E+00
    0.00000E+00         0.00000E+00        -0.49983E+08
 
   -0.49941E+08         0.80966E+05         0.00000E+00
    0.80966E+05        -0.49976E+08         0.00000E+00
    0.00000E+00         0.00000E+00        -0.49983E+08
 
   -0.49944E+08         0.82462E+05         0.00000E+00
    0.82462E+05        -0.49975E+08         0.00000E+00
    0.00000E+00         0.00000E+00        -0.49984E+08
 
   -0.49946E+08         0.83887E+05         0.00000E+00
    0.83887E+05        -0.49974E+08         0.00000E+00
    0.00000E+00         0.00000E+00        -0.49984E+08
 
   -0.49949E+08         0.85240E+05         0.00000E+00
    0.85240E+05        -0.49972E+08         0.00000E+00
    0.00000E+00         0.00000E+00        -0.49984E+08
 
   -0.49952E+08         0.86519E+05         0.00000E+00
    0.86519E+05        -0.49971E+08         0.00000E+00
    0.00000E+00         0.00000E+00        -0.49985E+08
 
   -0.49955E+08         0.87724E+05         0.00000E+00
    0.87724E+05        -0.49970E+08         0.00000E+00
    0.00000E+00         0.00000E+00        -0.49985E+08
 
   -0.49958E+08         0.88852E+05         0.00000E+00
    0.88852E+05        -0.49968E+08         0.00000E+00
    0.00000E+00         0.00000E+00        -0.49985E+08
 
   -0.49961E+08         0.89902E+05         0.00000E+00
    0.89902E+05        -0.49967E+08         0.00000E+00
    0.00000E+00         0.00000E+00        -0.49986E+08
 
   -0.49964E+08         0.90874E+05         0.00000E+00
    0.90874E+05        -0.49965E+08         0.00000E+00
    0.00000E+00         0.00000E+00        -0.49986E+08
 
   -0.49967E+08         0.91765E+05         0.00000E+00
    0.91765E+05        -0.49964E+08         0.00000E+00
    0.00000E+00         0.00000E+00        -0.49986E+08
 
   -0.49970E+08         0.92575E+05         0.00000E+00
    0.92575E+05        -0.49962E+08         0.00000E+00
    0.00000E+00         0.00000E+00        -0.49987E+08
 
   -0.49974E+08         0.93303E+05         0.00000E+00
    0.93303E+05        -0.49961E+08         0.00000E+00
    0.00000E+00         0.00000E+00        -0.49987E+08
 
   -0.49977E+08         0.93946E+05         0.00000E+00
    0.93946E+05        -0.49959E+08         0.00000E+00
    0.00000E+00         0.00000E+00        -0.49987E+08
 
   -0.49980E+08         0.94505E+05         0.00000E+00
    0.94505E+05        -0.49958E+08         0.00000E+00
    0.00000E+00         0.00000E+00        -0.49988E+08
 
   -0.49983E+08         0.94978E+05         0.00000E+00
    0.94978E+05        -0.49956E+08         0.00000E+00
    0.00000E+00         0.00000E+00        -0.49988E+08
 
   -0.49987E+08         0.95364E+05         0.00000E+00
    0.95364E+05        -0.49955E+08         0.00000E+00
    0.00000E+00         0.00000E+00        -0.49988E+08
 
   -0.49878E+08         0.14856E+04         0.00000E+00
    0.14856E+04        -0.50000E+08         0.00000E+00
    0.00000E+00         0.00000E+00        -0.49976E+08
 
   -0.49878E+08         0.44622E+04         0.00000E+00
    0.44622E+04        -0.50000E+08         0.00000E+00
    0.00000E+00         0.00000E+00        -0.49976E+08
 
   -0.49878E+08         0.74379E+04         0.00000E+00
    0.74379E+04        -0.50000E+08         0.00000E+00
    0.00000E+00         0.00000E+00        -0.49976E+08
 
   -0.49878E+08         0.10410E+05         0.00000E+00
    0.10410E+05        -0.50000E+08         0.00000E+00
    0.00000E+00         0.00000E+00        -0.49976E+08
 
   -0.49879E+08         0.13377E+05         0.00000E+00
    0.13377E+05        -0.50000E+08         0.00000E+00
    0.00000E+00         0.00000E+00        -0.49976E+08
 
   -0.49879E+08         0.16335E+05         0.00000E+00
    0.16335E+05        -0.49999E+08         0.00000E+00
    0.00000E+00         0.00000E+00        -0.49976E+08
 
   -0.49880E+08         0.19283E+05         0.00000E+00
    0.19283E+05        -0.49999E+08         0.00000E+00
    0.00000E+00         0.00000E+00        -0.49976E+08
 
   -0.49880E+08         0.22218E+05         0.00000E+00
    0.22218E+05        -0.49999E+08         0.00000E+00
    0.00000E+00         0.00000E+00        -0.49976E+08
 
   -0.49881E+08         0.25137E+05         0.00000E+00
    0.25137E+05        -0.49998E+08         0.00000E+00
    0.00000E+00         0.00000E+00        -0.49976E+08
 
   -0.49882E+08         0.28038E+05         0.00000E+00
    0.28038E+05        -0.49998E+08         0.00000E+00
    0.00000E+00         0.00000E+00        -0.49976E+08
 
   -0.49883E+08         0.30918E+05         0.00000E+00
    0.30918E+05        -0.49997E+08         0.00000E+00
    0.00000E+00         0.00000E+00        -0.49976E+08
 
   -0.49884E+08         0.33776E+05         0.00000E+00
    0.33776E+05        -0.49997E+08         0.00000E+00
    0.00000E+00         0.00000E+00        -0.49976E+08
 
   -0.49885E+08         0.36607E+05         0.00000E+00
    0.36607E+05        -0.49996E+08         0.00000E+00
    0.00000E+00         0.00000E+00        -0.49976E+08
 
   -0.49886E+08         0.39411E+05         0.00000E+00
    0.39411E+05        -0.49996E+08         0.00000E+00
    0.00000E+00         0.00000E+00        -0.49976E+08
 
   -0.49888E+08         0.42185E+05         0.00000E+00
    0.42185E+05        -0.49995E+08         0.00000E+00
    0.00000E+00         0.00000E+00        -0.49977E+08
 
   -0.49889E+08         0.44926E+05         0.00000E+00
    0.44926E+05        -0.49994E+08         0.00000E+00
    0.00000E+00         0.00000E+00        -0.49977E+08
 
   -0.49891E+08         0.47632E+05         0.00000E+00
    0.47632E+05        -0.49994E+08         0.00000E+00
    0.00000E+00         0.00000E+00        -0.49977E+08
 
   -0.49892E+08         0.50300E+05         0.00000E+00
    0.50300E+05        -0.49993E+08         0.00000E+00
    0.00000E+00         0.00000E+00        -0.49977E+08
 
   -0.49894E+08         0.52928E+05         0.00000E+00
    0.52928E+05        -0.49992E+08         0.00000E+00
    0.00000E+00         0.00000E+00        -0.49977E+08
 
   -0.49896E+08         0.55515E+05         0.00000E+00
    0.55515E+05        -0.49991E+08         0.00000E+00
    0.00000E+00         0.00000E+00        -0.49977E+08
 
   -0.49898E+08         0.58056E+05         0.00000E+00
    0.58056E+05        -0.49990E+08         0.00000E+00
    0.00000E+00         0.00000E+00        -0.49978E+08
 
   -0.49900E+08         0.60552E+05         0.00000E+00
    0.60552E+05        -0.49989E+08         0.00000E+00
    0.00000E+00         0.00000E+00        -0.49978E+08
 
   -0.49902E+08         0.62998E+05         0.00000E+00
    0.62998E+05        -0.49988E+08         0.00000E+00
    0.00000E+00         0.00000E+00        -0.49978E+08
 
   -0.49904E+08         0.65393E+05         0.00000E+00
    0.65393E+05        -0.49987E+08         0.00000E+00
    0.00000E+00         0.00000E+00        -0.49978E+08
 
   -0.49906E+08         0.67735E+05         0.00000E+00
    0.67735E+05        -0.49986E+08         0.00000E+00
    0.00000E+00         0.00000E+00        -0.49978E+08
 
   -0.49908E+08         0.70021E+05         0.00000E+00
    0.70021E+05        -0.49985E+08         0.00000E+00
    0.00000E+00         0.00000E+00        -0.49979E+08
 
   -0.49911E+08         0.72250E+05         0.00000E+00
    0.72250E+05        -0.49984E+08         0.00000E+00
    0.00000E+00         0.00000E+00        -0.49979E+08
 
   -0.49913E+08         0.74419E+05         0.00000E+00
    0.74419E+05        -0.49982E+08         0.00000E+00
    0.00000E+00         0.00000E+00        -0.49979E+08
 
   -0.49916E+08         0.76527E+05         0.00000E+00
    0.76527E+05        -0.49981E+08         0.00000E+00
    0.00000E+00         0.00000E+00        -0.49979E+08
 
   -0.49919E+08         0.78571E+05         0.00000E+00
    0.78571E+05        -0.49980E+08         0.00000E+00
    0.00000E+00         0.00000E+00        -0.49980E+08
 
   -0.49921E+08         0.80550E+05         0.00000E+00
    0.80550E+05        -0.49979E+08         0.00000E+00
    0.00000E+00         0.00000E+00        -0.49980E+08
 
   -0.49924E+08         0.82461E+05         0.00000E+00
    0.82461E+05        -0.49977E+08         0.00000E+00
    0.00000E+00         0.00000E+00        -0.49980E+08
 
   -0.49927E+08         0.84303E+05         0.00000E+00
    0.84303E+05        -0.49976E+08         0.00000E+00
    0.00000E+00         0.00000E+00        -0.49981E+08
 
   -0.49930E+08         0.86073E+05         0.00000E+00
    0.86073E+05        -0.49974E+08         0.00000E+00
    0.00000E+00         0.00000E+00        -0.49981E+08
 
   -0.49933E+08         0.87771E+05         0.00000E+00
    0.87771E+05        -0.49973E+08         0.00000E+00
    0.00000E+00         0.00000E+00        -0.49981E+08
 
   -0.49936E+08         0.89394E+05         0.00000E+00
    0.89394E+05        -0.49972E+08         0.00000E+00
    0.00000E+00         0.00000E+00        -0.49981E+08
 
   -0.49939E+08         0.90940E+05         0.00000E+00
    0.90940E+05        -0.49970E+08         0.00000E+00
    0.00000E+00         0.00000E+00        -0.49982E+08
 
   -0.49942E+08         0.92409E+05         0.00000E+00
    0.92409E+05        -0.49968E+08         0.00000E+00
    0.00000E+00         0.00000E+00        -0.49982E+08
 
   -0.49946E+08         0.93798E+05         0.00000E+00
    0.93798E+05        -0.49967E+08         0.00000E+00
    0.00000E+00         0.00000E+00        -0.49983E+08
 
   -0.49949E+08         0.95106E+05         0.00000E+00
    0.95106E+05        -0.49965E+08         0.00000E+00
    0.00000E+00         0.00000E+00        -0.49983E+08
 
   -0.49952E+08         0.96331E+05         0.00000E+00
    0.96331E+05        -0.49964E+08         0.00000E+00
    0.00000E+00         0.00000E+00        -0.49983E+08
 
   -0.49956E+08         0.97472E+05         0.00000E+00
    0.97472E+05        -0.49962E+08         0.00000E+00
    0.00000E+00         0.00000E+00        -0.49984E+08
 
   -0.49959E+08         0.98528E+05         0.00000E+00
    0.98528E+05        -0.49961E+08         0.00000E+00
    0.00000E+00         0.00000E+00        -0.49984E+08
 
   -0.49963E+08         0.99496E+05         0.00000E+00
    0.99496E+05        -0.49959E+08         0.00000E+00
    0.00000E+00         0.00000E+00        -0.49984E+08
 
   -0.49966E+08         0.10038E+06         0.00000E+00
    0.10038E+06        -0.49957E+08         0.00000E+00
    0.00000E+00         0.00000E+00        -0.49985E+08
 
   -0.49970E+08         0.10117E+06         0.00000E+00
    0.10117E+06        -0.49956E+08         0.00000E+00
    0.00000E+00         0.00000E+00        -0.49985E+08
 
   -0.49974E+08         0.10187E+06         0.00000E+00
    0.10187E+06        -0.49954E+08         0.00000E+00
    0.00000E+00         0.00000E+00        -0.49986E+08
 
   -0.49977E+08         0.10247E+06         0.00000E+00
    0.10247E+06        -0.49952E+08         0.00000E+00
    0.00000E+00         0.00000E+00        -0.49986E+08
 
   -0.49981E+08         0.10299E+06         0.00000E+00
    0.10299E+06        -0.49951E+08         0.00000E+00
    0.00000E+00         0.00000E+00        -0.49986E+08
 
   -0.49985E+08         0.10341E+06         0.00000E+00
    0.10341E+06        -0.49949E+08         0.00000E+00
    0.00000E+00         0.00000E+00        -0.49987E+08
 
   -0.49862E+08         0.16124E+04         0.00000E+00
    0.16124E+04        -0.50000E+08         0.00000E+00
    0.00000E+00         0.00000E+00        -0.49972E+08
 
   -0.49862E+08         0.48451E+04         0.00000E+00
    0.48451E+04        -0.50000E+08         0.00000E+00
    0.00000E+00         0.00000E+00        -0.49972E+08
 
   -0.49862E+08         0.80778E+04         0.00000E+00
    0.80778E+04        -0.50000E+08         0.00000E+00
    0.00000E+00         0.00000E+00        -0.49972E+08
 
   -0.49863E+08         0.11308E+05         0.00000E+00
    0.11308E+05        -0.50000E+08         0.00000E+00
    0.00000E+00         0.00000E+00        -0.49972E+08
 
   -0.49863E+08         0.14532E+05         0.00000E+00
    0.14532E+05        -0.49999E+08         0.00000E+00
    0.00000E+00         0.00000E+00        -0.49973E+08
 
   -0.49864E+08         0.17748E+05         0.00000E+00
    0.17748E+05        -0.49999E+08         0.00000E+00
    0.00000E+00         0.00000E+00        -0.49973E+08
 
   -0.49864E+08         0.20953E+05         0.00000E+00
    0.20953E+05        -0.49999E+08         0.00000E+00
    0.00000E+00         0.00000E+00        -0.49973E+08
 
   -0.49865E+08         0.24144E+05         0.00000E+00
    0.24144E+05        -0.49998E+08         0.00000E+00
    0.00000E+00         0.00000E+00        -0.49973E+08
 
   -0.49866E+08         0.27319E+05         0.00000E+00
    0.27319E+05        -0.49998E+08         0.00000E+00
    0.00000E+00         0.00000E+00        -0.49973E+08
 
   -0.49867E+08         0.30474E+05         0.00000E+00
    0.30474E+05        -0.49998E+08         0.00000E+00
    0.00000E+00         0.00000E+00        -0.49973E+08
 
   -0.49868E+08         0.33607E+05         0.00000E+00
    0.33607E+05        -0.49997E+08         0.00000E+00
    0.00000E+00         0.00000E+00        -0.49973E+08
 
   -0.49869E+08         0.36716E+05         0.00000E+00
    0.36716E+05        -0.49996E+08         0.00000E+00
    0.00000E+00         0.00000E+00        -0.49973E+08
 
   -0.49870E+08         0.39797E+05         0.00000E+00
    0.39797E+05        -0.49996E+08         0.00000E+00
    0.00000E+00         0.00000E+00        -0.49973E+08
 
   -0.49872E+08         0.42848E+05         0.00000E+00
    0.42848E+05        -0.49995E+08         0.00000E+00
    0.00000E+00         0.00000E+00        -0.49973E+08
 
   -0.49873E+08         0.45866E+05         0.00000E+00
    0.45866E+05        -0.49994E+08         0.00000E+00
    0.00000E+00         0.00000E+00        -0.49974E+08
 
   -0.49875E+08         0.48849E+05         0.00000E+00
    0.48849E+05        -0.49993E+08         0.00000E+00
    0.00000E+00         0.00000E+00        -0.49974E+08
 
   -0.49877E+08         0.51793E+05         0.00000E+00
    0.51793E+05        -0.49993E+08         0.00000E+00
    0.00000E+00         0.00000E+00        -0.49974E+08
 
   -0.49878E+08         0.54697E+05         0.00000E+00
    0.54697E+05        -0.49992E+08         0.00000E+00
    0.00000E+00         0.00000E+00        -0.49974E+08
 
   -0.49880E+08         0.57558E+05         0.00000E+00
    0.57558E+05        -0.49991E+08         0.00000E+00
    0.00000E+00         0.00000E+00        -0.49974E+08
 
   -0.49882E+08         0.60373E+05         0.00000E+00
    0.60373E+05        -0.49990E+08         0.00000E+00
    0.00000E+00         0.00000E+00        -0.49974E+08
 
   -0.49885E+08         0.63139E+05         0.00000E+00
    0.63139E+05        -0.49989E+08         0.00000E+00
    0.00000E+00         0.00000E+00        -0.49975E+08
 
   -0.49887E+08         0.65855E+05         0.00000E+00
    0.65855E+05        -0.49988E+08         0.00000E+00
    0.00000E+00         0.00000E+00        -0.49975E+08
 
   -0.49889E+08         0.68517E+05         0.00000E+00
    0.68517E+05        -0.49986E+08         0.00000E+00
    0.00000E+00         0.00000E+00        -0.49975E+08
 
   -0.49891E+08         0.71124E+05         0.00000E+00
    0.71124E+05        -0.49985E+08         0.00000E+00
    0.00000E+00         0.00000E+00        -0.49975E+08
 
   -0.49894E+08         0.73672E+05         0.00000E+00
    0.73672E+05        -0.49984E+08         0.00000E+00
    0.00000E+00         0.00000E+00        -0.49976E+08
 
   -0.49897E+08         0.76161E+05         0.00000E+00
    0.76161E+05        -0.49983E+08         0.00000E+00
    0.00000E+00         0.00000E+00        -0.49976E+08
 
   -0.49899E+08         0.78587E+05         0.00000E+00
    0.78587E+05        -0.49981E+08         0.00000E+00
    0.00000E+00         0.00000E+00        -0.49976E+08
 
   -0.49902E+08         0.80948E+05         0.00000E+00
    0.80948E+05        -0.49980E+08         0.00000E+00
    0.00000E+00         0.00000E+00        -0.49976E+08
 
   -0.49905E+08         0.83241E+05         0.00000E+00
    0.83241E+05        -0.49979E+08         0.00000E+00
    0.00000E+00         0.00000E+00        -0.49977E+08
 
   -0.49908E+08         0.85466E+05         0.00000E+00
    0.85466E+05        -0.49977E+08         0.00000E+00
    0.00000E+00         0.00000E+00        -0.49977E+08
 
   -0.49911E+08         0.87619E+05         0.00000E+00
    0.87619E+05        -0.49976E+08         0.00000E+00
    0.00000E+00         0.00000E+00        -0.49977E+08
 
   -0.49914E+08         0.89699E+05         0.00000E+00
    0.89699E+05        -0.49974E+08         0.00000E+00
    0.00000E+00         0.00000E+00        -0.49978E+08
 
   -0.49917E+08         0.91704E+05         0.00000E+00
    0.91704E+05        -0.49973E+08         0.00000E+00
    0.00000E+00         0.00000E+00        -0.49978E+08
 
   -0.49921E+08         0.93631E+05         0.00000E+00
    0.93631E+05        -0.49971E+08         0.00000E+00
    0.00000E+00         0.00000E+00        -0.49978E+08
 
   -0.49924E+08         0.95479E+05         0.00000E+00
    0.95479E+05        -0.49969E+08         0.00000E+00
    0.00000E+00         0.00000E+00        -0.49979E+08
 
   -0.49928E+08         0.97246E+05         0.00000E+00
    0.97246E+05        -0.49968E+08         0.00000E+00
    0.00000E+00         0.00000E+00        -0.49979E+08
 
   -0.49931E+08         0.98929E+05         0.00000E+00
    0.98929E+05        -0.49966E+08         0.00000E+00
    0.00000E+00         0.00000E+00        -0.49979E+08
 
   -0.49935E+08         0.10053E+06         0.00000E+00
    0.10053E+06        -0.49964E+08         0.00000E+00
    0.00000E+00         0.00000E+00        -0.49980E+08
 
   -0.49939E+08         0.10204E+06         0.00000E+00
    0.10204E+06        -0.49963E+08         0.00000E+00
    0.00000E+00         0.00000E+00        -0.49980E+08
 
   -0.49942E+08         0.10346E+06         0.00000E+00
    0.10346E+06        -0.49961E+08         0.00000E+00
    0.00000E+00         0.00000E+00        -0.49981E+08
 
   -0.49946E+08         0.10480E+06         0.00000E+00
    0.10480E+06        -0.49959E+08         0.00000E+00
    0.00000E+00         0.00000E+00        -0.49981E+08
 
   -0.49950E+08         0.10604E+06         0.00000E+00
    0.10604E+06        -0.49957E+08         0.00000E+00
    0.00000E+00         0.00000E+00        -0.49981E+08
 
   -0.49954E+08         0.10719E+06         0.00000E+00
    0.10719E+06        -0.49955E+08         0.00000E+00
    0.00000E+00         0.00000E+00        -0.49982E+08
 
   -0.49958E+08         0.10825E+06         0.00000E+00
    0.10825E+06        -0.49954E+08         0.00000E+00
    0.00000E+00         0.00000E+00        -0.49982E+08
 
   -0.49962E+08         0.10921E+06         0.00000E+00
    0.10921E+06        -0.49952E+08         0.00000E+00
    0.00000E+00         0.00000E+00        -0.49983E+08
 
   -0.49966E+08         0.11007E+06         0.00000E+00
    0.11007E+06        -0.49950E+08         0.00000E+00
    0.00000E+00         0.00000E+00        -0.49983E+08
 
   -0.49970E+08         0.11083E+06         0.00000E+00
    0.11083E+06        -0.49948E+08         0.00000E+00
    0.00000E+00         0.00000E+00        -0.49984E+08
 
   -0.49975E+08         0.11150E+06         0.00000E+00
    0.11150E+06        -0.49946E+08         0.00000E+00
    0.00000E+00         0.00000E+00        -0.49984E+08
 
   -0.49979E+08         0.11206E+06         0.00000E+00
    0.11206E+06        -0.49944E+08         0.00000E+00
    0.00000E+00         0.00000E+00        -0.49985E+08
 
   -0.49983E+08         0.11252E+06         0.00000E+00
    0.11252E+06        -0.49942E+08         0.00000E+00
    0.00000E+00         0.00000E+00        -0.49985E+08
 
   -0.49845E+08         0.17559E+04         0.00000E+00
    0.17559E+04        -0.50000E+08         0.00000E+00
    0.00000E+00         0.00000E+00        -0.49969E+08
 
   -0.49845E+08         0.52788E+04         0.00000E+00
    0.52788E+04        -0.50000E+08         0.00000E+00
    0.00000E+00         0.00000E+00        -0.49969E+08
 
   -0.49846E+08         0.88026E+04         0.00000E+00
    0.88026E+04        -0.50000E+08         0.00000E+00
    0.00000E+00         0.00000E+00        -0.49969E+08
 
   -0.49846E+08         0.12324E+05         0.00000E+00
    0.12324E+05        -0.50000E+08         0.00000E+00
    0.00000E+00         0.00000E+00        -0.49969E+08
 
   -0.49846E+08         0.15840E+05         0.00000E+00
    0.15840E+05        -0.49999E+08         0.00000E+00
    0.00000E+00         0.00000E+00        -0.49969E+08
 
   -0.49847E+08         0.19348E+05         0.00000E+00
    0.19348E+05        -0.49999E+08         0.00000E+00
    0.00000E+00         0.00000E+00        -0.49969E+08
 
   -0.49848E+08         0.22845E+05         0.00000E+00
    0.22845E+05        -0.49999E+08         0.00000E+00
    0.00000E+00         0.00000E+00        -0.49969E+08
 
   -0.49848E+08         0.26326E+05         0.00000E+00
    0.26326E+05        -0.49998E+08         0.00000E+00
    0.00000E+00         0.00000E+00        -0.49969E+08
 
   -0.49849E+08         0.29791E+05         0.00000E+00
    0.29791E+05        -0.49998E+08         0.00000E+00
    0.00000E+00         0.00000E+00        -0.49969E+08
 
   -0.49850E+08         0.33234E+05         0.00000E+00
    0.33234E+05        -0.49997E+08         0.00000E+00
    0.00000E+00         0.00000E+00        -0.49970E+08
 
   -0.49852E+08         0.36654E+05         0.00000E+00
    0.36654E+05        -0.49997E+08         0.00000E+00
    0.00000E+00         0.00000E+00        -0.49970E+08
 
   -0.49853E+08         0.40047E+05         0.00000E+00
    0.40047E+05        -0.49996E+08         0.00000E+00
    0.00000E+00         0.00000E+00        -0.49970E+08
 
   -0.49854E+08         0.43410E+05         0.00000E+00
    0.43410E+05        -0.49995E+08         0.00000E+00
    0.00000E+00         0.00000E+00        -0.49970E+08
 
   -0.49856E+08         0.46740E+05         0.00000E+00
    0.46740E+05        -0.49994E+08         0.00000E+00
    0.00000E+00         0.00000E+00        -0.49970E+08
 
   -0.49858E+08         0.50035E+05         0.00000E+00
    0.50035E+05        -0.49994E+08         0.00000E+00
    0.00000E+00         0.00000E+00        -0.49970E+08
 
   -0.49859E+08         0.53290E+05         0.00000E+00
    0.53290E+05        -0.49993E+08         0.00000E+00
    0.00000E+00         0.00000E+00        -0.49970E+08
 
   -0.49861E+08         0.56505E+05         0.00000E+00
    0.56505E+05        -0.49992E+08         0.00000E+00
    0.00000E+00         0.00000E+00        -0.49971E+08
 
   -0.49863E+08         0.59674E+05         0.00000E+00
    0.59674E+05        -0.49991E+08         0.00000E+00
    0.00000E+00         0.00000E+00        -0.49971E+08
 
   -0.49866E+08         0.62797E+05         0.00000E+00
    0.62797E+05        -0.49990E+08         0.00000E+00
    0.00000E+00         0.00000E+00        -0.49971E+08
 
   -0.49868E+08         0.65869E+05         0.00000E+00
    0.65869E+05        -0.49988E+08         0.00000E+00
    0.00000E+00         0.00000E+00        -0.49971E+08
 
   -0.49870E+08         0.68889E+05         0.00000E+00
    0.68889E+05        -0.49987E+08         0.00000E+00
    0.00000E+00         0.00000E+00        -0.49971E+08
 
   -0.49873E+08         0.71852E+05         0.00000E+00
    0.71852E+05        -0.49986E+08         0.00000E+00
    0.00000E+00         0.00000E+00        -0.49972E+08
 
   -0.49875E+08         0.74758E+05         0.00000E+00
    0.74758E+05        -0.49985E+08         0.00000E+00
    0.00000E+00         0.00000E+00        -0.49972E+08
 
   -0.49878E+08         0.77603E+05         0.00000E+00
    0.77603E+05        -0.49983E+08         0.00000E+00
    0.00000E+00         0.00000E+00        -0.49972E+08
 
   -0.49881E+08         0.80384E+05         0.00000E+00
    0.80384E+05        -0.49982E+08         0.00000E+00
    0.00000E+00         0.00000E+00        -0.49973E+08
 
   -0.49884E+08         0.83099E+05         0.00000E+00
    0.83099E+05        -0.49980E+08         0.00000E+00
    0.00000E+00         0.00000E+00        -0.49973E+08
 
   -0.49887E+08         0.85746E+05         0.00000E+00
    0.85746E+05        -0.49979E+08         0.00000E+00
    0.00000E+00         0.00000E+00        -0.49973E+08
 
   -0.49890E+08         0.88322E+05         0.00000E+00
    0.88322E+05        -0.49977E+08         0.00000E+00
    0.00000E+00         0.00000E+00        -0.49973E+08
 
   -0.49893E+08         0.90825E+05         0.00000E+00
    0.90825E+05        -0.49976E+08         0.00000E+00
    0.00000E+00         0.00000E+00        -0.49974E+08
 
   -0.49897E+08         0.93252E+05         0.00000E+00
    0.93252E+05        -0.49974E+08         0.00000E+00
    0.00000E+00         0.00000E+00        -0.49974E+08
 
   -0.49900E+08         0.95601E+05         0.00000E+00
    0.95601E+05        -0.49973E+08         0.00000E+00
    0.00000E+00         0.00000E+00        -0.49975E+08
 
   -0.49904E+08         0.97870E+05         0.00000E+00
    0.97870E+05        -0.49971E+08         0.00000E+00
    0.00000E+00         0.00000E+00        -0.49975E+08
 
   -0.49907E+08         0.10006E+06         0.00000E+00
    0.10006E+06        -0.49969E+08         0.00000E+00
    0.00000E+00         0.00000E+00        -0.49975E+08
 
   -0.49911E+08         0.10216E+06         0.00000E+00
    0.10216E+06        -0.49967E+08         0.00000E+00
    0.00000E+00         0.00000E+00        -0.49976E+08
 
   -0.49915E+08         0.10417E+06         0.00000E+00
    0.10417E+06        -0.49965E+08         0.00000E+00
    0.00000E+00         0.00000E+00        -0.49976E+08
 
   -0.49919E+08         0.10610E+06         0.00000E+00
    0.10610E+06        -0.49964E+08         0.00000E+00
    0.00000E+00         0.00000E+00        -0.49976E+08
 
   -0.49923E+08         0.10794E+06         0.00000E+00
    0.10794E+06        -0.49962E+08         0.00000E+00
    0.00000E+00         0.00000E+00        -0.49977E+08
 
   -0.49927E+08         0.10968E+06         0.00000E+00
    0.10968E+06        -0.49960E+08         0.00000E+00
    0.00000E+00         0.00000E+00        -0.49977E+08
 
   -0.49931E+08         0.11133E+06         0.00000E+00
    0.11133E+06        -0.49958E+08         0.00000E+00
    0.00000E+00         0.00000E+00        -0.49978E+08
 
   -0.49935E+08         0.11289E+06         0.00000E+00
    0.11289E+06        -0.49956E+08         0.00000E+00
    0.00000E+00         0.00000E+00        -0.49978E+08
 
   -0.49939E+08         0.11434E+06         0.00000E+00
    0.11434E+06        -0.49954E+08         0.00000E+00
    0.00000E+00         0.00000E+00        -0.49979E+08
 
   -0.49944E+08         0.11570E+06         0.00000E+00
    0.11570E+06        -0.49952E+08         0.00000E+00
    0.00000E+00         0.00000E+00        -0.49979E+08
 
   -0.49948E+08         0.11696E+06         0.00000E+00
    0.11696E+06        -0.49950E+08         0.00000E+00
    0.00000E+00         0.00000E+00        -0.49980E+08
 
   -0.49953E+08         0.11811E+06         0.00000E+00
    0.11811E+06        -0.49948E+08         0.00000E+00
    0.00000E+00         0.00000E+00        -0.49980E+08
 
   -0.49957E+08         0.11916E+06         0.00000E+00
    0.11916E+06        -0.49946E+08         0.00000E+00
    0.00000E+00         0.00000E+00        -0.49981E+08
 
   -0.49962E+08         0.12010E+06         0.00000E+00
    0.12010E+06        -0.49943E+08         0.00000E+00
    0.00000E+00         0.00000E+00        -0.49981E+08
 
   -0.49967E+08         0.12094E+06         0.00000E+00
    0.12094E+06        -0.49941E+08         0.00000E+00
    0.00000E+00         0.00000E+00        -0.49982E+08
 
   -0.49971E+08         0.12166E+06         0.00000E+00
    0.12166E+06        -0.49939E+08         0.00000E+00
    0.00000E+00         0.00000E+00        -0.49982E+08
 
   -0.49976E+08         0.12228E+06         0.00000E+00
    0.12228E+06        -0.49937E+08         0.00000E+00
    0.00000E+00         0.00000E+00        -0.49983E+08
 
   -0.49981E+08         0.12278E+06         0.00000E+00
    0.12278E+06        -0.49935E+08         0.00000E+00
    0.00000E+00         0.00000E+00        -0.49983E+08
 
   -0.49827E+08         0.19183E+04         0.00000E+00
    0.19183E+04        -0.50000E+08         0.00000E+00
    0.00000E+00         0.00000E+00        -0.49965E+08
 
   -0.49827E+08         0.57697E+04         0.00000E+00
    0.57697E+04        -0.50000E+08         0.00000E+00
    0.00000E+00         0.00000E+00        -0.49965E+08
 
   -0.49827E+08         0.96231E+04         0.00000E+00
    0.96231E+04        -0.50000E+08         0.00000E+00
    0.00000E+00         0.00000E+00        -0.49965E+08
 
   -0.49827E+08         0.13475E+05         0.00000E+00
    0.13475E+05        -0.50000E+08         0.00000E+00
    0.00000E+00         0.00000E+00        -0.49965E+08
 
   -0.49828E+08         0.17322E+05         0.00000E+00
    0.17322E+05        -0.49999E+08         0.00000E+00
    0.00000E+00         0.00000E+00        -0.49965E+08
 
   -0.49829E+08         0.21160E+05         0.00000E+00
    0.21160E+05        -0.49999E+08         0.00000E+00
    0.00000E+00         0.00000E+00        -0.49966E+08
 
   -0.49829E+08         0.24986E+05         0.00000E+00
    0.24986E+05        -0.49999E+08         0.00000E+00
    0.00000E+00         0.00000E+00        -0.49966E+08
 
   -0.49830E+08         0.28797E+05         0.00000E+00
    0.28797E+05        -0.49998E+08         0.00000E+00
    0.00000E+00         0.00000E+00        -0.49966E+08
 
   -0.49831E+08         0.32588E+05         0.00000E+00
    0.32588E+05        -0.49998E+08         0.00000E+00
    0.00000E+00         0.00000E+00        -0.49966E+08
 
   -0.49832E+08         0.36357E+05         0.00000E+00
    0.36357E+05        -0.49997E+08         0.00000E+00
    0.00000E+00         0.00000E+00        -0.49966E+08
 
   -0.49834E+08         0.40101E+05         0.00000E+00
    0.40101E+05        -0.49996E+08         0.00000E+00
    0.00000E+00         0.00000E+00        -0.49966E+08
 
   -0.49835E+08         0.43815E+05         0.00000E+00
    0.43815E+05        -0.49995E+08         0.00000E+00
    0.00000E+00         0.00000E+00        -0.49966E+08
 
   -0.49837E+08         0.47496E+05         0.00000E+00
    0.47496E+05        -0.49995E+08         0.00000E+00
    0.00000E+00         0.00000E+00        -0.49966E+08
 
   -0.49839E+08         0.51142E+05         0.00000E+00
    0.51142E+05        -0.49994E+08         0.00000E+00
    0.00000E+00         0.00000E+00        -0.49966E+08
 
   -0.49840E+08         0.54748E+05         0.00000E+00
    0.54748E+05        -0.49993E+08         0.00000E+00
    0.00000E+00         0.00000E+00        -0.49967E+08
 
   -0.49842E+08         0.58311E+05         0.00000E+00
    0.58311E+05        -0.49992E+08         0.00000E+00
    0.00000E+00         0.00000E+00        -0.49967E+08
 
   -0.49845E+08         0.61829E+05         0.00000E+00
    0.61829E+05        -0.49991E+08         0.00000E+00
    0.00000E+00         0.00000E+00        -0.49967E+08
 
   -0.49847E+08         0.65298E+05         0.00000E+00
    0.65298E+05        -0.49989E+08         0.00000E+00
    0.00000E+00         0.00000E+00        -0.49967E+08
 
   -0.49849E+08         0.68714E+05         0.00000E+00
    0.68714E+05        -0.49988E+08         0.00000E+00
    0.00000E+00         0.00000E+00        -0.49967E+08
 
   -0.49852E+08         0.72076E+05         0.00000E+00
    0.72076E+05        -0.49987E+08         0.00000E+00
    0.00000E+00         0.00000E+00        -0.49968E+08
 
   -0.49855E+08         0.75379E+05         0.00000E+00
    0.75379E+05        -0.49986E+08         0.00000E+00
    0.00000E+00         0.00000E+00        -0.49968E+08
 
   -0.49857E+08         0.78621E+05         0.00000E+00
    0.78621E+05        -0.49984E+08         0.00000E+00
    0.00000E+00         0.00000E+00        -0.49968E+08
 
   -0.49860E+08         0.81799E+05         0.00000E+00
    0.81799E+05        -0.49983E+08         0.00000E+00
    0.00000E+00         0.00000E+00        -0.49969E+08
 
   -0.49863E+08         0.84910E+05         0.00000E+00
    0.84910E+05        -0.49981E+08         0.00000E+00
    0.00000E+00         0.00000E+00        -0.49969E+08
 
   -0.49866E+08         0.87951E+05         0.00000E+00
    0.87951E+05        -0.49980E+08         0.00000E+00
    0.00000E+00         0.00000E+00        -0.49969E+08
 
   -0.49870E+08         0.90920E+05         0.00000E+00
    0.90920E+05        -0.49978E+08         0.00000E+00
    0.00000E+00         0.00000E+00        -0.49970E+08
 
   -0.49873E+08         0.93814E+05         0.00000E+00
    0.93814E+05        -0.49976E+08         0.00000E+00
    0.00000E+00         0.00000E+00        -0.49970E+08
 
   -0.49877E+08         0.96629E+05         0.00000E+00
    0.96629E+05        -0.49975E+08         0.00000E+00
    0.00000E+00         0.00000E+00        -0.49970E+08
 
   -0.49880E+08         0.99365E+05         0.00000E+00
    0.99365E+05        -0.49973E+08         0.00000E+00
    0.00000E+00         0.00000E+00        -0.49971E+08
 
   -0.49884E+08         0.10202E+06         0.00000E+00
    0.10202E+06        -0.49971E+08         0.00000E+00
    0.00000E+00         0.00000E+00        -0.49971E+08
 
   -0.49888E+08         0.10458E+06         0.00000E+00
    0.10458E+06        -0.49969E+08         0.00000E+00
    0.00000E+00         0.00000E+00        -0.49971E+08
 
   -0.49892E+08         0.10706E+06         0.00000E+00
    0.10706E+06        -0.49967E+08         0.00000E+00
    0.00000E+00         0.00000E+00        -0.49972E+08
 
   -0.49896E+08         0.10945E+06         0.00000E+00
    0.10945E+06        -0.49965E+08         0.00000E+00
    0.00000E+00         0.00000E+00        -0.49972E+08
 
   -0.49900E+08         0.11175E+06         0.00000E+00
    0.11175E+06        -0.49963E+08         0.00000E+00
    0.00000E+00         0.00000E+00        -0.49973E+08
 
   -0.49904E+08         0.11395E+06         0.00000E+00
    0.11395E+06        -0.49961E+08         0.00000E+00
    0.00000E+00         0.00000E+00        -0.49973E+08
 
   -0.49909E+08         0.11606E+06         0.00000E+00
    0.11606E+06        -0.49959E+08         0.00000E+00
    0.00000E+00         0.00000E+00        -0.49974E+08
 
   -0.49913E+08         0.11806E+06         0.00000E+00
    0.11806E+06        -0.49957E+08         0.00000E+00
    0.00000E+00         0.00000E+00        -0.49974E+08
 
   -0.49918E+08         0.11997E+06         0.00000E+00
    0.11997E+06        -0.49955E+08         0.00000E+00
    0.00000E+00         0.00000E+00        -0.49974E+08
 
   -0.49922E+08         0.12177E+06         0.00000E+00
    0.12177E+06        -0.49952E+08         0.00000E+00
    0.00000E+00         0.00000E+00        -0.49975E+08
 
   -0.49927E+08         0.12347E+06         0.00000E+00
    0.12347E+06        -0.49950E+08         0.00000E+00
    0.00000E+00         0.00000E+00        -0.49975E+08
 
   -0.49932E+08         0.12506E+06         0.00000E+00
    0.12506E+06        -0.49948E+08         0.00000E+00
    0.00000E+00         0.00000E+00        -0.49976E+08
 
   -0.49937E+08         0.12655E+06         0.00000E+00
    0.12655E+06        -0.49946E+08         0.00000E+00
    0.00000E+00         0.00000E+00        -0.49977E+08
 
   -0.49942E+08         0.12792E+06         0.00000E+00
    0.12792E+06        -0.49943E+08         0.00000E+00
    0.00000E+00         0.00000E+00        -0.49977E+08
 
   -0.49947E+08         0.12918E+06         0.00000E+00
    0.12918E+06        -0.49941E+08         0.00000E+00
    0.00000E+00         0.00000E+00        -0.49978E+08
 
   -0.49952E+08         0.13033E+06         0.00000E+00
    0.13033E+06        -0.49939E+08         0.00000E+00
    0.00000E+00         0.00000E+00        -0.49978E+08
 
   -0.49957E+08         0.13136E+06         0.00000E+00
    0.13136E+06        -0.49936E+08         0.00000E+00
    0.00000E+00         0.00000E+00        -0.49979E+08
 
   -0.49963E+08         0.13227E+06         0.00000E+00
    0.13227E+06        -0.49934E+08         0.00000E+00
    0.00000E+00         0.00000E+00        -0.49979E+08
 
   -0.49968E+08         0.13307E+06         0.00000E+00
    0.13307E+06        -0.49932E+08         0.00000E+00
    0.00000E+00         0.00000E+00        -0.49980E+08
 
   -0.49973E+08         0.13375E+06         0.00000E+00
    0.13375E+06        -0.49929E+08         0.00000E+00
    0.00000E+00         0.00000E+00        -0.49980E+08
 
   -0.49979E+08         0.13430E+06         0.00000E+00
    0.13430E+06        -0.49927E+08         0.00000E+00
    0.00000E+00         0.00000E+00        -0.49981E+08
 
   -0.49807E+08         0.21021E+04         0.00000E+00
    0.21021E+04        -0.50000E+08         0.00000E+00
    0.00000E+00         0.00000E+00        -0.49961E+08
 
   -0.49807E+08         0.63257E+04         0.00000E+00
    0.63257E+04        -0.50000E+08         0.00000E+00
    0.00000E+00         0.00000E+00        -0.49961E+08
 
   -0.49807E+08         0.10552E+05         0.00000E+00
    0.10552E+05        -0.50000E+08         0.00000E+00
    0.00000E+00         0.00000E+00        -0.49961E+08
 
   -0.49807E+08         0.14778E+05         0.00000E+00
    0.14778E+05        -0.50000E+08         0.00000E+00
    0.00000E+00         0.00000E+00        -0.49961E+08
 
   -0.49808E+08         0.18999E+05         0.00000E+00
    0.18999E+05        -0.49999E+08         0.00000E+00
    0.00000E+00         0.00000E+00        -0.49961E+08
 
   -0.49808E+08         0.23211E+05         0.00000E+00
    0.23211E+05        -0.49999E+08         0.00000E+00
    0.00000E+00         0.00000E+00        -0.49961E+08
 
   -0.49809E+08         0.27410E+05         0.00000E+00
    0.27410E+05        -0.49998E+08         0.00000E+00
    0.00000E+00         0.00000E+00        -0.49962E+08
 
   -0.49810E+08         0.31593E+05         0.00000E+00
    0.31593E+05        -0.49998E+08         0.00000E+00
    0.00000E+00         0.00000E+00        -0.49962E+08
 
   -0.49811E+08         0.35755E+05         0.00000E+00
    0.35755E+05        -0.49997E+08         0.00000E+00
    0.00000E+00         0.00000E+00        -0.49962E+08
 
   -0.49813E+08         0.39892E+05         0.00000E+00
    0.39892E+05        -0.49996E+08         0.00000E+00
    0.00000E+00         0.00000E+00        -0.49962E+08
 
   -0.49814E+08         0.44000E+05         0.00000E+00
    0.44000E+05        -0.49996E+08         0.00000E+00
    0.00000E+00         0.00000E+00        -0.49962E+08
 
   -0.49816E+08         0.48076E+05         0.00000E+00
    0.48076E+05        -0.49995E+08         0.00000E+00
    0.00000E+00         0.00000E+00        -0.49962E+08
 
   -0.49818E+08         0.52116E+05         0.00000E+00
    0.52116E+05        -0.49994E+08         0.00000E+00
    0.00000E+00         0.00000E+00        -0.49962E+08
 
   -0.49820E+08         0.56116E+05         0.00000E+00
    0.56116E+05        -0.49993E+08         0.00000E+00
    0.00000E+00         0.00000E+00        -0.49962E+08
 
   -0.49822E+08         0.60073E+05         0.00000E+00
    0.60073E+05        -0.49992E+08         0.00000E+00
    0.00000E+00         0.00000E+00        -0.49963E+08
 
   -0.49824E+08         0.63982E+05         0.00000E+00
    0.63982E+05        -0.49991E+08         0.00000E+00
    0.00000E+00         0.00000E+00        -0.49963E+08
 
   -0.49826E+08         0.67841E+05         0.00000E+00
    0.67841E+05        -0.49989E+08         0.00000E+00
    0.00000E+00         0.00000E+00        -0.49963E+08
 
   -0.49829E+08         0.71645E+05         0.00000E+00
    0.71645E+05        -0.49988E+08         0.00000E+00
    0.00000E+00         0.00000E+00        -0.49963E+08
 
   -0.49832E+08         0.75391E+05         0.00000E+00
    0.75391E+05        -0.49987E+08         0.00000E+00
    0.00000E+00         0.00000E+00        -0.49964E+08
 
   -0.49834E+08         0.79076E+05         0.00000E+00
    0.79076E+05        -0.49985E+08         0.00000E+00
    0.00000E+00         0.00000E+00        -0.49964E+08
 
   -0.49837E+08         0.82697E+05         0.00000E+00
    0.82697E+05        -0.49984E+08         0.00000E+00
    0.00000E+00         0.00000E+00        -0.49964E+08
 
   -0.49841E+08         0.86250E+05         0.00000E+00
    0.86250E+05        -0.49982E+08         0.00000E+00
    0.00000E+00         0.00000E+00        -0.49965E+08
 
   -0.49844E+08         0.89731E+05         0.00000E+00
    0.89731E+05        -0.49980E+08         0.00000E+00
    0.00000E+00         0.00000E+00        -0.49965E+08
 
   -0.49847E+08         0.93139E+05         0.00000E+00
    0.93139E+05        -0.49979E+08         0.00000E+00
    0.00000E+00         0.00000E+00        -0.49965E+08
 
   -0.49851E+08         0.96470E+05         0.00000E+00
    0.96470E+05        -0.49977E+08         0.00000E+00
    0.00000E+00         0.00000E+00        -0.49966E+08
 
   -0.49854E+08         0.99721E+05         0.00000E+00
    0.99721E+05        -0.49975E+08         0.00000E+00
    0.00000E+00         0.00000E+00        -0.49966E+08
 
   -0.49858E+08         0.10289E+06         0.00000E+00
    0.10289E+06        -0.49973E+08         0.00000E+00
    0.00000E+00         0.00000E+00        -0.49966E+08
 
   -0.49862E+08         0.10597E+06         0.00000E+00
    0.10597E+06        -0.49971E+08         0.00000E+00
    0.00000E+00         0.00000E+00        -0.49967E+08
 
   -0.49866E+08         0.10896E+06         0.00000E+00
    0.10896E+06        -0.49969E+08         0.00000E+00
    0.00000E+00         0.00000E+00        -0.49967E+08
 
   -0.49870E+08         0.11187E+06         0.00000E+00
    0.11187E+06        -0.49967E+08         0.00000E+00
    0.00000E+00         0.00000E+00        -0.49968E+08
 
   -0.49875E+08         0.11467E+06         0.00000E+00
    0.11467E+06        -0.49965E+08         0.00000E+00
    0.00000E+00         0.00000E+00        -0.49968E+08
 
   -0.49879E+08         0.11739E+06         0.00000E+00
    0.11739E+06        -0.49963E+08         0.00000E+00
    0.00000E+00         0.00000E+00        -0.49968E+08
 
   -0.49884E+08         0.12000E+06         0.00000E+00
    0.12000E+06        -0.49961E+08         0.00000E+00
    0.00000E+00         0.00000E+00        -0.49969E+08
 
   -0.49888E+08         0.12251E+06         0.00000E+00
    0.12251E+06        -0.49958E+08         0.00000E+00
    0.00000E+00         0.00000E+00        -0.49969E+08
 
   -0.49893E+08         0.12492E+06         0.00000E+00
    0.12492E+06        -0.49956E+08         0.00000E+00
    0.00000E+00         0.00000E+00        -0.49970E+08
 
   -0.49898E+08         0.12722E+06         0.00000E+00
    0.12722E+06        -0.49954E+08         0.00000E+00
    0.00000E+00         0.00000E+00        -0.49970E+08
 
   -0.49903E+08         0.12941E+06         0.00000E+00
    0.12941E+06        -0.49951E+08         0.00000E+00
    0.00000E+00         0.00000E+00        -0.49971E+08
 
   -0.49908E+08         0.13150E+06         0.00000E+00
    0.13150E+06        -0.49949E+08         0.00000E+00
    0.00000E+00         0.00000E+00        -0.49971E+08
 
   -0.49913E+08         0.13347E+06         0.00000E+00
    0.13347E+06        -0.49947E+08         0.00000E+00
    0.00000E+00         0.00000E+00        -0.49972E+08
 
   -0.49919E+08         0.13533E+06         0.00000E+00
    0.13533E+06        -0.49944E+08         0.00000E+00
    0.00000E+00         0.00000E+00        -0.49973E+08
 
   -0.49924E+08         0.13707E+06         0.00000E+00
    0.13707E+06        -0.49942E+08         0.00000E+00
    0.00000E+00         0.00000E+00        -0.49973E+08
 
   -0.49929E+08         0.13869E+06         0.00000E+00
    0.13869E+06        -0.49939E+08         0.00000E+00
    0.00000E+00         0.00000E+00        -0.49974E+08
 
   -0.49935E+08         0.14019E+06         0.00000E+00
    0.14019E+06        -0.49936E+08         0.00000E+00
    0.00000E+00         0.00000E+00        -0.49974E+08
 
   -0.49941E+08         0.14157E+06         0.00000E+00
    0.14157E+06        -0.49934E+08         0.00000E+00
    0.00000E+00         0.00000E+00        -0.49975E+08
 
   -0.49946E+08         0.14283E+06         0.00000E+00
    0.14283E+06        -0.49931E+08         0.00000E+00
    0.00000E+00         0.00000E+00        -0.49976E+08
 
   -0.49952E+08         0.14396E+06         0.00000E+00
    0.14396E+06        -0.49929E+08         0.00000E+00
    0.00000E+00         0.00000E+00        -0.49976E+08
 
   -0.49958E+08         0.14496E+06         0.00000E+00
    0.14496E+06        -0.49926E+08         0.00000E+00
    0.00000E+00         0.00000E+00        -0.49977E+08
 
   -0.49964E+08         0.14584E+06         0.00000E+00
    0.14584E+06        -0.49923E+08         0.00000E+00
    0.00000E+00         0.00000E+00        -0.49977E+08
 
   -0.49970E+08         0.14658E+06         0.00000E+00
    0.14658E+06        -0.49920E+08         0.00000E+00
    0.00000E+00         0.00000E+00        -0.49978E+08
 
   -0.49976E+08         0.14719E+06         0.00000E+00
    0.14719E+06        -0.49918E+08         0.00000E+00
    0.00000E+00         0.00000E+00        -0.49979E+08
 
   -0.49785E+08         0.23108E+04         0.00000E+00
    0.23108E+04        -0.50000E+08         0.00000E+00
    0.00000E+00         0.00000E+00        -0.49957E+08
 
   -0.49785E+08         0.69567E+04         0.00000E+00
    0.69567E+04        -0.50000E+08         0.00000E+00
    0.00000E+00         0.00000E+00        -0.49957E+08
 
   -0.49785E+08         0.11607E+05         0.00000E+00
    0.11607E+05        -0.50000E+08         0.00000E+00
    0.00000E+00         0.00000E+00        -0.49957E+08
 
   -0.49785E+08         0.16257E+05         0.00000E+00
    0.16257E+05        -0.49999E+08         0.00000E+00
    0.00000E+00         0.00000E+00        -0.49957E+08
 
   -0.49786E+08         0.20902E+05         0.00000E+00
    0.20902E+05        -0.49999E+08         0.00000E+00
    0.00000E+00         0.00000E+00        -0.49957E+08
 
   -0.49786E+08         0.25538E+05         0.00000E+00
    0.25538E+05        -0.49999E+08         0.00000E+00
    0.00000E+00         0.00000E+00        -0.49957E+08
 
   -0.49787E+08         0.30159E+05         0.00000E+00
    0.30159E+05        -0.49998E+08         0.00000E+00
    0.00000E+00         0.00000E+00        -0.49957E+08
 
   -0.49788E+08         0.34762E+05         0.00000E+00
    0.34762E+05        -0.49998E+08         0.00000E+00
    0.00000E+00         0.00000E+00        -0.49957E+08
 
   -0.49790E+08         0.39342E+05         0.00000E+00
    0.39342E+05        -0.49997E+08         0.00000E+00
    0.00000E+00         0.00000E+00        -0.49957E+08
 
   -0.49791E+08         0.43895E+05         0.00000E+00
    0.43895E+05        -0.49996E+08         0.00000E+00
    0.00000E+00         0.00000E+00        -0.49957E+08
 
   -0.49793E+08         0.48415E+05         0.00000E+00
    0.48415E+05        -0.49995E+08         0.00000E+00
    0.00000E+00         0.00000E+00        -0.49958E+08
 
   -0.49795E+08         0.52899E+05         0.00000E+00
    0.52899E+05        -0.49994E+08         0.00000E+00
    0.00000E+00         0.00000E+00        -0.49958E+08
 
   -0.49797E+08         0.57343E+05         0.00000E+00
    0.57343E+05        -0.49993E+08         0.00000E+00
    0.00000E+00         0.00000E+00        -0.49958E+08
 
   -0.49799E+08         0.61742E+05         0.00000E+00
    0.61742E+05        -0.49992E+08         0.00000E+00
    0.00000E+00         0.00000E+00        -0.49958E+08
 
   -0.49801E+08         0.66092E+05         0.00000E+00
    0.66092E+05        -0.49991E+08         0.00000E+00
    0.00000E+00         0.00000E+00        -0.49958E+08
 
   -0.49804E+08         0.70389E+05         0.00000E+00
    0.70389E+05        -0.49989E+08         0.00000E+00
    0.00000E+00         0.00000E+00        -0.49959E+08
 
   -0.49806E+08         0.74629E+05         0.00000E+00
    0.74629E+05        -0.49988E+08         0.00000E+00
    0.00000E+00         0.00000E+00        -0.49959E+08
 
   -0.49809E+08         0.78808E+05         0.00000E+00
    0.78808E+05        -0.49986E+08         0.00000E+00
    0.00000E+00         0.00000E+00        -0.49959E+08
 
   -0.49812E+08         0.82923E+05         0.00000E+00
    0.82923E+05        -0.49985E+08         0.00000E+00
    0.00000E+00         0.00000E+00        -0.49959E+08
 
   -0.49815E+08         0.86969E+05         0.00000E+00
    0.86969E+05        -0.49983E+08         0.00000E+00
    0.00000E+00         0.00000E+00        -0.49960E+08
 
   -0.49819E+08         0.90943E+05         0.00000E+00
    0.90943E+05        -0.49982E+08         0.00000E+00
    0.00000E+00         0.00000E+00        -0.49960E+08
 
   -0.49822E+08         0.94842E+05         0.00000E+00
    0.94842E+05        -0.49980E+08         0.00000E+00
    0.00000E+00         0.00000E+00        -0.49960E+08
 
   -0.49826E+08         0.98661E+05         0.00000E+00
    0.98661E+05        -0.49978E+08         0.00000E+00
    0.00000E+00         0.00000E+00        -0.49961E+08
 
   -0.49830E+08         0.10240E+06         0.00000E+00
    0.10240E+06        -0.49976E+08         0.00000E+00
    0.00000E+00         0.00000E+00        -0.49961E+08
 
   -0.49834E+08         0.10605E+06         0.00000E+00
    0.10605E+06        -0.49974E+08         0.00000E+00
    0.00000E+00         0.00000E+00        -0.49961E+08
 
   -0.49838E+08         0.10961E+06         0.00000E+00
    0.10961E+06        -0.49972E+08         0.00000E+00
    0.00000E+00         0.00000E+00        -0.49962E+08
 
   -0.49842E+08         0.11308E+06         0.00000E+00
    0.11308E+06        -0.49970E+08         0.00000E+00
    0.00000E+00         0.00000E+00        -0.49962E+08
 
   -0.49846E+08         0.11646E+06         0.00000E+00
    0.11646E+06        -0.49968E+08         0.00000E+00
    0.00000E+00         0.00000E+00        -0.49963E+08
 
   -0.49851E+08         0.11974E+06         0.00000E+00
    0.11974E+06        -0.49965E+08         0.00000E+00
    0.00000E+00         0.00000E+00        -0.49963E+08
 
   -0.49855E+08         0.12291E+06         0.00000E+00
    0.12291E+06        -0.49963E+08         0.00000E+00
    0.00000E+00         0.00000E+00        -0.49964E+08
 
   -0.49860E+08         0.12599E+06         0.00000E+00
    0.12599E+06        -0.49961E+08         0.00000E+00
    0.00000E+00         0.00000E+00        -0.49964E+08
 
   -0.49865E+08         0.12895E+06         0.00000E+00
    0.12895E+06        -0.49958E+08         0.00000E+00
    0.00000E+00         0.00000E+00        -0.49965E+08
 
   -0.49870E+08         0.13181E+06         0.00000E+00
    0.13181E+06        -0.49956E+08         0.00000E+00
    0.00000E+00         0.00000E+00        -0.49965E+08
 
   -0.49876E+08         0.13456E+06         0.00000E+00
    0.13456E+06        -0.49953E+08         0.00000E+00
    0.00000E+00         0.00000E+00        -0.49966E+08
 
   -0.49881E+08         0.13719E+06         0.00000E+00
    0.13719E+06        -0.49951E+08         0.00000E+00
    0.00000E+00         0.00000E+00        -0.49966E+08
 
   -0.49886E+08         0.13971E+06         0.00000E+00
    0.13971E+06        -0.49948E+08         0.00000E+00
    0.00000E+00         0.00000E+00        -0.49967E+08
 
   -0.49892E+08         0.14211E+06         0.00000E+00
    0.14211E+06        -0.49945E+08         0.00000E+00
    0.00000E+00         0.00000E+00        -0.49967E+08
 
   -0.49898E+08         0.14438E+06         0.00000E+00
    0.14438E+06        -0.49943E+08         0.00000E+00
    0.00000E+00         0.00000E+00        -0.49968E+08
 
   -0.49903E+08         0.14654E+06         0.00000E+00
    0.14654E+06        -0.49940E+08         0.00000E+00
    0.00000E+00         0.00000E+00        -0.49969E+08
 
   -0.49909E+08         0.14857E+06         0.00000E+00
    0.14857E+06        -0.49937E+08         0.00000E+00
    0.00000E+00         0.00000E+00        -0.49969E+08
 
   -0.49915E+08         0.15047E+06         0.00000E+00
    0.15047E+06        -0.49934E+08         0.00000E+00
    0.00000E+00         0.00000E+00        -0.49970E+08
 
   -0.49921E+08         0.15225E+06         0.00000E+00
    0.15225E+06        -0.49931E+08         0.00000E+00
    0.00000E+00         0.00000E+00        -0.49971E+08
 
   -0.49927E+08         0.15389E+06         0.00000E+00
    0.15389E+06        -0.49929E+08         0.00000E+00
    0.00000E+00         0.00000E+00        -0.49971E+08
 
   -0.49934E+08         0.15540E+06         0.00000E+00
    0.15540E+06        -0.49926E+08         0.00000E+00
    0.00000E+00         0.00000E+00        -0.49972E+08
 
   -0.49940E+08         0.15678E+06         0.00000E+00
    0.15678E+06        -0.49923E+08         0.00000E+00
    0.00000E+00         0.00000E+00        -0.49973E+08
 
   -0.49947E+08         0.15801E+06         0.00000E+00
    0.15801E+06        -0.49920E+08         0.00000E+00
    0.00000E+00         0.00000E+00        -0.49973E+08
 
   -0.49953E+08         0.15912E+06         0.00000E+00
    0.15912E+06        -0.49917E+08         0.00000E+00
    0.00000E+00         0.00000E+00        -0.49974E+08
 
   -0.49960E+08         0.16008E+06         0.00000E+00
    0.16008E+06        -0.49914E+08         0.00000E+00
    0.00000E+00         0.00000E+00        -0.49975E+08
 
   -0.49966E+08         0.16090E+06         0.00000E+00
    0.16090E+06        -0.49911E+08         0.00000E+00
    0.00000E+00         0.00000E+00        -0.49975E+08
 
   -0.49973E+08         0.16157E+06         0.00000E+00
    0.16157E+06        -0.49908E+08         0.00000E+00
    0.00000E+00         0.00000E+00        -0.49976E+08
 
   -0.49760E+08         0.25485E+04         0.00000E+00
    0.25485E+04        -0.50000E+08         0.00000E+00
    0.00000E+00         0.00000E+00        -0.49952E+08
 
   -0.49760E+08         0.76748E+04         0.00000E+00
    0.76748E+04        -0.50000E+08         0.00000E+00
    0.00000E+00         0.00000E+00        -0.49952E+08
 
   -0.49760E+08         0.12807E+05         0.00000E+00
    0.12807E+05        -0.50000E+08         0.00000E+00
    0.00000E+00         0.00000E+00        -0.49952E+08
 
   -0.49761E+08         0.17939E+05         0.00000E+00
    0.17939E+05        -0.49999E+08         0.00000E+00
    0.00000E+00         0.00000E+00        -0.49952E+08
 
   -0.49761E+08         0.23066E+05         0.00000E+00
    0.23066E+05        -0.49999E+08         0.00000E+00
    0.00000E+00         0.00000E+00        -0.49952E+08
 
   -0.49762E+08         0.28182E+05         0.00000E+00
    0.28182E+05        -0.49998E+08         0.00000E+00
    0.00000E+00         0.00000E+00        -0.49952E+08
 
   -0.49763E+08         0.33282E+05         0.00000E+00
    0.33282E+05        -0.49998E+08         0.00000E+00
    0.00000E+00         0.00000E+00        -0.49952E+08
 
   -0.49764E+08         0.38361E+05         0.00000E+00
    0.38361E+05        -0.49997E+08         0.00000E+00
    0.00000E+00         0.00000E+00        -0.49952E+08
 
   -0.49766E+08         0.43414E+05         0.00000E+00
    0.43414E+05        -0.49996E+08         0.00000E+00
    0.00000E+00         0.00000E+00        -0.49952E+08
 
   -0.49767E+08         0.48436E+05         0.00000E+00
    0.48436E+05        -0.49995E+08         0.00000E+00
    0.00000E+00         0.00000E+00        -0.49953E+08
 
   -0.49769E+08         0.53421E+05         0.00000E+00
    0.53421E+05        -0.49994E+08         0.00000E+00
    0.00000E+00         0.00000E+00        -0.49953E+08
 
   -0.49771E+08         0.58365E+05         0.00000E+00
    0.58365E+05        -0.49993E+08         0.00000E+00
    0.00000E+00         0.00000E+00        -0.49953E+08
 
   -0.49773E+08         0.63263E+05         0.00000E+00
    0.63263E+05        -0.49992E+08         0.00000E+00
    0.00000E+00         0.00000E+00        -0.49953E+08
 
   -0.49776E+08         0.68110E+05         0.00000E+00
    0.68110E+05        -0.49991E+08         0.00000E+00
    0.00000E+00         0.00000E+00        -0.49953E+08
 
   -0.49778E+08         0.72901E+05         0.00000E+00
    0.72901E+05        -0.49989E+08         0.00000E+00
    0.00000E+00         0.00000E+00        -0.49954E+08
 
   -0.49781E+08         0.77633E+05         0.00000E+00
    0.77633E+05        -0.49988E+08         0.00000E+00
    0.00000E+00         0.00000E+00        -0.49954E+08
 
   -0.49784E+08         0.82300E+05         0.00000E+00
    0.82300E+05        -0.49986E+08         0.00000E+00
    0.00000E+00         0.00000E+00        -0.49954E+08
 
   -0.49787E+08         0.86898E+05         0.00000E+00
    0.86898E+05        -0.49985E+08         0.00000E+00
    0.00000E+00         0.00000E+00        -0.49954E+08
 
   -0.49791E+08         0.91423E+05         0.00000E+00
    0.91423E+05        -0.49983E+08         0.00000E+00
    0.00000E+00         0.00000E+00        -0.49955E+08
 
   -0.49794E+08         0.95871E+05         0.00000E+00
    0.95871E+05        -0.49981E+08         0.00000E+00
    0.00000E+00         0.00000E+00        -0.49955E+08
 
   -0.49798E+08         0.10024E+06         0.00000E+00
    0.10024E+06        -0.49979E+08         0.00000E+00
    0.00000E+00         0.00000E+00        -0.49955E+08
 
   -0.49802E+08         0.10452E+06         0.00000E+00
    0.10452E+06        -0.49977E+08         0.00000E+00
    0.00000E+00         0.00000E+00        -0.49956E+08
 
   -0.49806E+08         0.10871E+06         0.00000E+00
    0.10871E+06        -0.49975E+08         0.00000E+00
    0.00000E+00         0.00000E+00        -0.49956E+08
 
   -0.49810E+08         0.11281E+06         0.00000E+00
    0.11281E+06        -0.49973E+08         0.00000E+00
    0.00000E+00         0.00000E+00        -0.49957E+08
 
   -0.49815E+08         0.11682E+06         0.00000E+00
    0.11682E+06        -0.49971E+08         0.00000E+00
    0.00000E+00         0.00000E+00        -0.49957E+08
 
   -0.49819E+08         0.12072E+06         0.00000E+00
    0.12072E+06        -0.49968E+08         0.00000E+00
    0.00000E+00         0.00000E+00        -0.49957E+08
 
   -0.49824E+08         0.12453E+06         0.00000E+00
    0.12453E+06        -0.49966E+08         0.00000E+00
    0.00000E+00         0.00000E+00        -0.49958E+08
 
   -0.49829E+08         0.12822E+06         0.00000E+00
    0.12822E+06        -0.49963E+08         0.00000E+00
    0.00000E+00         0.00000E+00        -0.49958E+08
 
   -0.49834E+08         0.13181E+06         0.00000E+00
    0.13181E+06        -0.49961E+08         0.00000E+00
    0.00000E+00         0.00000E+00        -0.49959E+08
 
   -0.49839E+08         0.13529E+06         0.00000E+00
    0.13529E+06        -0.49958E+08         0.00000E+00
    0.00000E+00         0.00000E+00        -0.49959E+08
 
   -0.49845E+08         0.13865E+06         0.00000E+00
    0.13865E+06        -0.49956E+08         0.00000E+00
    0.00000E+00         0.00000E+00        -0.49960E+08
 
   -0.49850E+08         0.14190E+06         0.00000E+00
    0.14190E+06        -0.49953E+08         0.00000E+00
    0.00000E+00         0.00000E+00        -0.49961E+08
 
   -0.49856E+08         0.14502E+06         0.00000E+00
    0.14502E+06        -0.49950E+08         0.00000E+00
    0.00000E+00         0.00000E+00        -0.49961E+08
 
   -0.49861E+08         0.14802E+06         0.00000E+00
    0.14802E+06        -0.49947E+08         0.00000E+00
    0.00000E+00         0.00000E+00        -0.49962E+08
 
   -0.49867E+08         0.15090E+06         0.00000E+00
    0.15090E+06        -0.49944E+08         0.00000E+00
    0.00000E+00         0.00000E+00        -0.49962E+08
 
   -0.49873E+08         0.15365E+06         0.00000E+00
    0.15365E+06        -0.49942E+08         0.00000E+00
    0.00000E+00         0.00000E+00        -0.49963E+08
 
   -0.49880E+08         0.15627E+06         0.00000E+00
    0.15627E+06        -0.49939E+08         0.00000E+00
    0.00000E+00         0.00000E+00        -0.49964E+08
 
   -0.49886E+08         0.15876E+06         0.00000E+00
    0.15876E+06        -0.49936E+08         0.00000E+00
    0.00000E+00         0.00000E+00        -0.49964E+08
 
   -0.49892E+08         0.16111E+06         0.00000E+00
    0.16111E+06        -0.49932E+08         0.00000E+00
    0.00000E+00         0.00000E+00        -0.49965E+08
 
   -0.49899E+08         0.16333E+06         0.00000E+00
    0.16333E+06        -0.49929E+08         0.00000E+00
    0.00000E+00         0.00000E+00        -0.49966E+08
 
   -0.49906E+08         0.16541E+06         0.00000E+00
    0.16541E+06        -0.49926E+08         0.00000E+00
    0.00000E+00         0.00000E+00        -0.49966E+08
 
   -0.49912E+08         0.16735E+06         0.00000E+00
    0.16735E+06        -0.49923E+08         0.00000E+00
    0.00000E+00         0.00000E+00        -0.49967E+08
 
   -0.49919E+08         0.16914E+06         0.00000E+00
    0.16914E+06        -0.49920E+08         0.00000E+00
    0.00000E+00         0.00000E+00        -0.49968E+08
 
   -0.49926E+08         0.17079E+06         0.00000E+00
    0.17079E+06        -0.49917E+08         0.00000E+00
    0.00000E+00         0.00000E+00        -0.49969E+08
 
   -0.49933E+08         0.17230E+06         0.00000E+00
    0.17230E+06        -0.49913E+08         0.00000E+00
    0.00000E+00         0.00000E+00        -0.49969E+08
 
   -0.49940E+08         0.17366E+06         0.00000E+00
    0.17366E+06        -0.49910E+08         0.00000E+00
    0.00000E+00         0.00000E+00        -0.49970E+08
 
   -0.49948E+08         0.17486E+06         0.00000E+00
    0.17486E+06        -0.49907E+08         0.00000E+00
    0.00000E+00         0.00000E+00        -0.49971E+08
 
   -0.49955E+08         0.17592E+06         0.00000E+00
    0.17592E+06        -0.49903E+08         0.00000E+00
    0.00000E+00         0.00000E+00        -0.49972E+08
 
   -0.49962E+08         0.17682E+06         0.00000E+00
    0.17682E+06        -0.49900E+08         0.00000E+00
    0.00000E+00         0.00000E+00        -0.49973E+08
 
   -0.49970E+08         0.17757E+06         0.00000E+00
    0.17757E+06        -0.49897E+08         0.00000E+00
    0.00000E+00         0.00000E+00        -0.49973E+08
 
   -0.49733E+08         0.28204E+04         0.00000E+00
    0.28204E+04        -0.50000E+08         0.00000E+00
    0.00000E+00         0.00000E+00        -0.49947E+08
 
   -0.49733E+08         0.84955E+04         0.00000E+00
    0.84955E+04        -0.50000E+08         0.00000E+00
    0.00000E+00         0.00000E+00        -0.49947E+08
 
   -0.49733E+08         0.14177E+05         0.00000E+00
    0.14177E+05        -0.50000E+08         0.00000E+00
    0.00000E+00         0.00000E+00        -0.49947E+08
 
   -0.49734E+08         0.19858E+05         0.00000E+00
    0.19858E+05        -0.49999E+08         0.00000E+00
    0.00000E+00         0.00000E+00        -0.49947E+08
 
   -0.49734E+08         0.25534E+05         0.00000E+00
    0.25534E+05        -0.49999E+08         0.00000E+00
    0.00000E+00         0.00000E+00        -0.49947E+08
 
   -0.49735E+08         0.31196E+05         0.00000E+00
    0.31196E+05        -0.49998E+08         0.00000E+00
    0.00000E+00         0.00000E+00        -0.49947E+08
 
   -0.49736E+08         0.36840E+05         0.00000E+00
    0.36840E+05        -0.49998E+08         0.00000E+00
    0.00000E+00         0.00000E+00        -0.49947E+08
 
   -0.49738E+08         0.42460E+05         0.00000E+00
    0.42460E+05        -0.49997E+08         0.00000E+00
    0.00000E+00         0.00000E+00        -0.49947E+08
 
   -0.49739E+08         0.48048E+05         0.00000E+00
    0.48048E+05        -0.49996E+08         0.00000E+00
    0.00000E+00         0.00000E+00        -0.49947E+08
 
   -0.49741E+08         0.53600E+05         0.00000E+00
    0.53600E+05        -0.49995E+08         0.00000E+00
    0.00000E+00         0.00000E+00        -0.49947E+08
 
   -0.49743E+08         0.59110E+05         0.00000E+00
    0.59110E+05        -0.49994E+08         0.00000E+00
    0.00000E+00         0.00000E+00        -0.49947E+08
 
   -0.49745E+08         0.64572E+05         0.00000E+00
    0.64572E+05        -0.49992E+08         0.00000E+00
    0.00000E+00         0.00000E+00        -0.49948E+08
 
   -0.49748E+08         0.69981E+05         0.00000E+00
    0.69981E+05        -0.49991E+08         0.00000E+00
    0.00000E+00         0.00000E+00        -0.49948E+08
 
   -0.49750E+08         0.75331E+05         0.00000E+00
    0.75331E+05        -0.49989E+08         0.00000E+00
    0.00000E+00         0.00000E+00        -0.49948E+08
 
   -0.49753E+08         0.80617E+05         0.00000E+00
    0.80617E+05        -0.49988E+08         0.00000E+00
    0.00000E+00         0.00000E+00        -0.49948E+08
 
   -0.49756E+08         0.85834E+05         0.00000E+00
    0.85834E+05        -0.49986E+08         0.00000E+00
    0.00000E+00         0.00000E+00        -0.49949E+08
 
   -0.49760E+08         0.90977E+05         0.00000E+00
    0.90977E+05        -0.49984E+08         0.00000E+00
    0.00000E+00         0.00000E+00        -0.49949E+08
 
   -0.49763E+08         0.96042E+05         0.00000E+00
    0.96042E+05        -0.49983E+08         0.00000E+00
    0.00000E+00         0.00000E+00        -0.49949E+08
 
   -0.49767E+08         0.10102E+06         0.00000E+00
    0.10102E+06        -0.49981E+08         0.00000E+00
    0.00000E+00         0.00000E+00        -0.49950E+08
 
   -0.49771E+08         0.10592E+06         0.00000E+00
    0.10592E+06        -0.49978E+08         0.00000E+00
    0.00000E+00         0.00000E+00        -0.49950E+08
 
   -0.49775E+08         0.11072E+06         0.00000E+00
    0.11072E+06        -0.49976E+08         0.00000E+00
    0.00000E+00         0.00000E+00        -0.49950E+08
 
   -0.49780E+08         0.11542E+06         0.00000E+00
    0.11542E+06        -0.49974E+08         0.00000E+00
    0.00000E+00         0.00000E+00        -0.49951E+08
 
   -0.49784E+08         0.12003E+06         0.00000E+00
    0.12003E+06        -0.49972E+08         0.00000E+00
    0.00000E+00         0.00000E+00        -0.49951E+08
 
   -0.49789E+08         0.12453E+06         0.00000E+00
    0.12453E+06        -0.49969E+08         0.00000E+00
    0.00000E+00         0.00000E+00        -0.49952E+08
 
   -0.49794E+08         0.12892E+06         0.00000E+00
    0.12892E+06        -0.49967E+08         0.00000E+00
    0.00000E+00         0.00000E+00        -0.49952E+08
 
   -0.49799E+08         0.13320E+06         0.00000E+00
    0.13320E+06        -0.49964E+08         0.00000E+00
    0.00000E+00         0.00000E+00        -0.49953E+08
 
   -0.49804E+08         0.13737E+06         0.00000E+00
    0.13737E+06        -0.49961E+08         0.00000E+00
    0.00000E+00         0.00000E+00        -0.49953E+08
 
   -0.49810E+08         0.14142E+06         0.00000E+00
    0.14142E+06        -0.49959E+08         0.00000E+00
    0.00000E+00         0.00000E+00        -0.49954E+08
 
   -0.49815E+08         0.14534E+06         0.00000E+00
    0.14534E+06        -0.49956E+08         0.00000E+00
    0.00000E+00         0.00000E+00        -0.49954E+08
 
   -0.49821E+08         0.14915E+06         0.00000E+00
    0.14915E+06        -0.49953E+08         0.00000E+00
    0.00000E+00         0.00000E+00        -0.49955E+08
 
   -0.49827E+08         0.15282E+06         0.00000E+00
    0.15282E+06        -0.49950E+08         0.00000E+00
    0.00000E+00         0.00000E+00        -0.49955E+08
 
   -0.49833E+08         0.15637E+06         0.00000E+00
    0.15637E+06        -0.49947E+08         0.00000E+00
    0.00000E+00         0.00000E+00        -0.49956E+08
 
   -0.49840E+08         0.15978E+06         0.00000E+00
    0.15978E+06        -0.49944E+08         0.00000E+00
    0.00000E+00         0.00000E+00        -0.49957E+08
 
   -0.49846E+08         0.16306E+06         0.00000E+00
    0.16306E+06        -0.49941E+08         0.00000E+00
    0.00000E+00         0.00000E+00        -0.49957E+08
 
   -0.49853E+08         0.16620E+06         0.00000E+00
    0.16620E+06        -0.49937E+08         0.00000E+00
    0.00000E+00         0.00000E+00        -0.49958E+08
 
   -0.49859E+08         0.16920E+06         0.00000E+00
    0.16920E+06        -0.49934E+08         0.00000E+00
    0.00000E+00         0.00000E+00        -0.49959E+08
 
   -0.49866E+08         0.17205E+06         0.00000E+00
    0.17205E+06        -0.49931E+08         0.00000E+00
    0.00000E+00         0.00000E+00        -0.49959E+08
 
   -0.49873E+08         0.17477E+06         0.00000E+00
    0.17477E+06        -0.49928E+08         0.00000E+00
    0.00000E+00         0.00000E+00        -0.49960E+08
 
   -0.49880E+08         0.17733E+06         0.00000E+00
    0.17733E+06        -0.49924E+08         0.00000E+00
    0.00000E+00         0.00000E+00        -0.49961E+08
 
   -0.49888E+08         0.17975E+06         0.00000E+00
    0.17975E+06        -0.49921E+08         0.00000E+00
    0.00000E+00         0.00000E+00        -0.49962E+08
 
   -0.49895E+08         0.18201E+06         0.00000E+00
    0.18201E+06        -0.49917E+08         0.00000E+00
    0.00000E+00         0.00000E+00        -0.49962E+08
 
   -0.49903E+08         0.18413E+06         0.00000E+00
    0.18413E+06        -0.49914E+08         0.00000E+00
    0.00000E+00         0.00000E+00        -0.49963E+08
 
   -0.49910E+08         0.18609E+06         0.00000E+00
    0.18609E+06        -0.49910E+08         0.00000E+00
    0.00000E+00         0.00000E+00        -0.49964E+08
 
   -0.49918E+08         0.18789E+06         0.00000E+00
    0.18789E+06        -0.49907E+08         0.00000E+00
    0.00000E+00         0.00000E+00        -0.49965E+08
 
   -0.49926E+08         0.18953E+06         0.00000E+00
    0.18953E+06        -0.49903E+08         0.00000E+00
    0.00000E+00         0.00000E+00        -0.49966E+08
 
   -0.49934E+08         0.19101E+06         0.00000E+00
    0.19101E+06        -0.49899E+08         0.00000E+00
    0.00000E+00         0.00000E+00        -0.49967E+08
 
   -0.49942E+08         0.19234E+06         0.00000E+00
    0.19234E+06        -0.49896E+08         0.00000E+00
    0.00000E+00         0.00000E+00        -0.49967E+08
 
   -0.49950E+08         0.19349E+06         0.00000E+00
    0.19349E+06        -0.49892E+08         0.00000E+00
    0.00000E+00         0.00000E+00        -0.49968E+08
 
   -0.49958E+08         0.19449E+06         0.00000E+00
    0.19449E+06        -0.49888E+08         0.00000E+00
    0.00000E+00         0.00000E+00        -0.49969E+08
 
   -0.49966E+08         0.19531E+06         0.00000E+00
    0.19531E+06        -0.49885E+08         0.00000E+00
    0.00000E+00         0.00000E+00        -0.49970E+08
 
   -0.49703E+08         0.31330E+04         0.00000E+00
    0.31330E+04        -0.50000E+08         0.00000E+00
    0.00000E+00         0.00000E+00        -0.49941E+08
 
   -0.49703E+08         0.94373E+04         0.00000E+00
    0.94373E+04        -0.50000E+08         0.00000E+00
    0.00000E+00         0.00000E+00        -0.49941E+08
 
   -0.49703E+08         0.15748E+05         0.00000E+00
    0.15748E+05        -0.50000E+08         0.00000E+00
    0.00000E+00         0.00000E+00        -0.49941E+08
 
   -0.49704E+08         0.22058E+05         0.00000E+00
    0.22058E+05        -0.49999E+08         0.00000E+00
    0.00000E+00         0.00000E+00        -0.49941E+08
 
   -0.49704E+08         0.28360E+05         0.00000E+00
    0.28360E+05        -0.49999E+08         0.00000E+00
    0.00000E+00         0.00000E+00        -0.49941E+08
 
   -0.49705E+08         0.34645E+05         0.00000E+00
    0.34645E+05        -0.49998E+08         0.00000E+00
    0.00000E+00         0.00000E+00        -0.49941E+08
 
   -0.49707E+08         0.40908E+05         0.00000E+00
    0.40908E+05        -0.49997E+08         0.00000E+00
    0.00000E+00         0.00000E+00        -0.49941E+08
 
   -0.49708E+08         0.47141E+05         0.00000E+00
    0.47141E+05        -0.49996E+08         0.00000E+00
    0.00000E+00         0.00000E+00        -0.49941E+08
 
   -0.49710E+08         0.53338E+05         0.00000E+00
    0.53338E+05        -0.49995E+08         0.00000E+00
    0.00000E+00         0.00000E+00        -0.49941E+08
 
   -0.49712E+08         0.59490E+05         0.00000E+00
    0.59490E+05        -0.49994E+08         0.00000E+00
    0.00000E+00         0.00000E+00        -0.49941E+08
 
   -0.49714E+08         0.65593E+05         0.00000E+00
    0.65593E+05        -0.49993E+08         0.00000E+00
    0.00000E+00         0.00000E+00        -0.49941E+08
 
   -0.49717E+08         0.71639E+05         0.00000E+00
    0.71639E+05        -0.49991E+08         0.00000E+00
    0.00000E+00         0.00000E+00        -0.49942E+08
 
   -0.49719E+08         0.77622E+05         0.00000E+00
    0.77622E+05        -0.49990E+08         0.00000E+00
    0.00000E+00         0.00000E+00        -0.49942E+08
 
   -0.49722E+08         0.83536E+05         0.00000E+00
    0.83536E+05        -0.49988E+08         0.00000E+00
    0.00000E+00         0.00000E+00        -0.49942E+08
 
   -0.49726E+08         0.89376E+05         0.00000E+00
    0.89376E+05        -0.49986E+08         0.00000E+00
    0.00000E+00         0.00000E+00        -0.49942E+08
 
   -0.49729E+08         0.95136E+05         0.00000E+00
    0.95136E+05        -0.49984E+08         0.00000E+00
    0.00000E+00         0.00000E+00        -0.49943E+08
 
   -0.49733E+08         0.10081E+06         0.00000E+00
    0.10081E+06        -0.49982E+08         0.00000E+00
    0.00000E+00         0.00000E+00        -0.49943E+08
 
   -0.49737E+08         0.10639E+06         0.00000E+00
    0.10639E+06        -0.49980E+08         0.00000E+00
    0.00000E+00         0.00000E+00        -0.49943E+08
 
   -0.49741E+08         0.11188E+06         0.00000E+00
    0.11188E+06        -0.49978E+08         0.00000E+00
    0.00000E+00         0.00000E+00        -0.49944E+08
 
   -0.49746E+08         0.11727E+06         0.00000E+00
    0.11727E+06        -0.49975E+08         0.00000E+00
    0.00000E+00         0.00000E+00        -0.49944E+08
 
   -0.49750E+08         0.12255E+06         0.00000E+00
    0.12255E+06        -0.49973E+08         0.00000E+00
    0.00000E+00         0.00000E+00        -0.49945E+08
 
   -0.49755E+08         0.12772E+06         0.00000E+00
    0.12772E+06        -0.49970E+08         0.00000E+00
    0.00000E+00         0.00000E+00        -0.49945E+08
 
   -0.49760E+08         0.13277E+06         0.00000E+00
    0.13277E+06        -0.49968E+08         0.00000E+00
    0.00000E+00         0.00000E+00        -0.49946E+08
 
   -0.49766E+08         0.13771E+06         0.00000E+00
    0.13771E+06        -0.49965E+08         0.00000E+00
    0.00000E+00         0.00000E+00        -0.49946E+08
 
   -0.49771E+08         0.14253E+06         0.00000E+00
    0.14253E+06        -0.49962E+08         0.00000E+00
    0.00000E+00         0.00000E+00        -0.49947E+08
 
   -0.49777E+08         0.14722E+06         0.00000E+00
    0.14722E+06        -0.49959E+08         0.00000E+00
    0.00000E+00         0.00000E+00        -0.49947E+08
 
   -0.49783E+08         0.15178E+06         0.00000E+00
    0.15178E+06        -0.49956E+08         0.00000E+00
    0.00000E+00         0.00000E+00        -0.49948E+08
 
   -0.49789E+08         0.15620E+06         0.00000E+00
    0.15620E+06        -0.49953E+08         0.00000E+00
    0.00000E+00         0.00000E+00        -0.49948E+08
 
   -0.49795E+08         0.16050E+06         0.00000E+00
    0.16050E+06        -0.49950E+08         0.00000E+00
    0.00000E+00         0.00000E+00        -0.49949E+08
 
   -0.49802E+08         0.16465E+06         0.00000E+00
    0.16465E+06        -0.49947E+08         0.00000E+00
    0.00000E+00         0.00000E+00        -0.49950E+08
 
   -0.49808E+08         0.16866E+06         0.00000E+00
    0.16866E+06        -0.49943E+08         0.00000E+00
    0.00000E+00         0.00000E+00        -0.49950E+08
 
   -0.49815E+08         0.17253E+06         0.00000E+00
    0.17253E+06        -0.49940E+08         0.00000E+00
    0.00000E+00         0.00000E+00        -0.49951E+08
 
   -0.49822E+08         0.17625E+06         0.00000E+00
    0.17625E+06        -0.49937E+08         0.00000E+00
    0.00000E+00         0.00000E+00        -0.49952E+08
 
   -0.49829E+08         0.17982E+06         0.00000E+00
    0.17982E+06        -0.49933E+08         0.00000E+00
    0.00000E+00         0.00000E+00        -0.49952E+08
 
   -0.49837E+08         0.18324E+06         0.00000E+00
    0.18324E+06        -0.49930E+08         0.00000E+00
    0.00000E+00         0.00000E+00        -0.49953E+08
 
   -0.49844E+08         0.18650E+06         0.00000E+00
    0.18650E+06        -0.49926E+08         0.00000E+00
    0.00000E+00         0.00000E+00        -0.49954E+08
 
   -0.49852E+08         0.18961E+06         0.00000E+00
    0.18961E+06        -0.49922E+08         0.00000E+00
    0.00000E+00         0.00000E+00        -0.49955E+08
 
   -0.49860E+08         0.19256E+06         0.00000E+00
    0.19256E+06        -0.49918E+08         0.00000E+00
    0.00000E+00         0.00000E+00        -0.49956E+08
 
   -0.49867E+08         0.19535E+06         0.00000E+00
    0.19535E+06        -0.49915E+08         0.00000E+00
    0.00000E+00         0.00000E+00        -0.49956E+08
 
   -0.49875E+08         0.19797E+06         0.00000E+00
    0.19797E+06        -0.49911E+08         0.00000E+00
    0.00000E+00         0.00000E+00        -0.49957E+08
 
   -0.49884E+08         0.20043E+06         0.00000E+00
    0.20043E+06        -0.49907E+08         0.00000E+00
    0.00000E+00         0.00000E+00        -0.49958E+08
 
   -0.49892E+08         0.20273E+06         0.00000E+00
    0.20273E+06        -0.49903E+08         0.00000E+00
    0.00000E+00         0.00000E+00        -0.49959E+08
 
   -0.49900E+08         0.20486E+06         0.00000E+00
    0.20486E+06        -0.49899E+08         0.00000E+00
    0.00000E+00         0.00000E+00        -0.49960E+08
 
   -0.49909E+08         0.20682E+06         0.00000E+00
    0.20682E+06        -0.49895E+08         0.00000E+00
    0.00000E+00         0.00000E+00        -0.49961E+08
 
   -0.49918E+08         0.20861E+06         0.00000E+00
    0.20861E+06        -0.49891E+08         0.00000E+00
    0.00000E+00         0.00000E+00        -0.49962E+08
 
   -0.49926E+08         0.21023E+06         0.00000E+00
    0.21023E+06        -0.49887E+08         0.00000E+00
    0.00000E+00         0.00000E+00        -0.49963E+08
 
   -0.49935E+08         0.21167E+06         0.00000E+00
    0.21167E+06        -0.49883E+08         0.00000E+00
    0.00000E+00         0.00000E+00        -0.49964E+08
 
   -0.49944E+08         0.21294E+06         0.00000E+00
    0.21294E+06        -0.49879E+08         0.00000E+00
    0.00000E+00         0.00000E+00        -0.49965E+08
 
   -0.49953E+08         0.21403E+06         0.00000E+00
    0.21403E+06        -0.49875E+08         0.00000E+00
    0.00000E+00         0.00000E+00        -0.49966E+08
 
   -0.49963E+08         0.21494E+06         0.00000E+00
    0.21494E+06        -0.49871E+08         0.00000E+00
    0.00000E+00         0.00000E+00        -0.49967E+08
 
   -0.49670E+08         0.34944E+04         0.00000E+00
    0.34944E+04        -0.50000E+08         0.00000E+00
    0.00000E+00         0.00000E+00        -0.49934E+08
 
   -0.49670E+08         0.10524E+05         0.00000E+00
    0.10524E+05        -0.50000E+08         0.00000E+00
    0.00000E+00         0.00000E+00        -0.49934E+08
 
   -0.49670E+08         0.17558E+05         0.00000E+00
    0.17558E+05        -0.50000E+08         0.00000E+00
    0.00000E+00         0.00000E+00        -0.49934E+08
 
   -0.49670E+08         0.24590E+05         0.00000E+00
    0.24590E+05        -0.49999E+08         0.00000E+00
    0.00000E+00         0.00000E+00        -0.49934E+08
 
   -0.49671E+08         0.31609E+05         0.00000E+00
    0.31609E+05        -0.49998E+08         0.00000E+00
    0.00000E+00         0.00000E+00        -0.49934E+08
 
   -0.49672E+08         0.38607E+05         0.00000E+00
    0.38607E+05        -0.49998E+08         0.00000E+00
    0.00000E+00         0.00000E+00        -0.49934E+08
 
   -0.49674E+08         0.45577E+05         0.00000E+00
    0.45577E+05        -0.49997E+08         0.00000E+00
    0.00000E+00         0.00000E+00        -0.49934E+08
 
   -0.49675E+08         0.52508E+05         0.00000E+00
    0.52508E+05        -0.49996E+08         0.00000E+00
    0.00000E+00         0.00000E+00        -0.49934E+08
 
   -0.49677E+08         0.59395E+05         0.00000E+00
    0.59395E+05        -0.49994E+08         0.00000E+00
    0.00000E+00         0.00000E+00        -0.49934E+08
 
   -0.49680E+08         0.66228E+05         0.00000E+00
    0.66228E+05        -0.49993E+08         0.00000E+00
    0.00000E+00         0.00000E+00        -0.49935E+08
 
   -0.49682E+08         0.73000E+05         0.00000E+00
    0.73000E+05        -0.49992E+08         0.00000E+00
    0.00000E+00         0.00000E+00        -0.49935E+08
 
   -0.49685E+08         0.79705E+05         0.00000E+00
    0.79705E+05        -0.49990E+08         0.00000E+00
    0.00000E+00         0.00000E+00        -0.49935E+08
 
   -0.49688E+08         0.86334E+05         0.00000E+00
    0.86334E+05        -0.49988E+08         0.00000E+00
    0.00000E+00         0.00000E+00        -0.49935E+08
 
   -0.49692E+08         0.92882E+05         0.00000E+00
    0.92882E+05        -0.49986E+08         0.00000E+00
    0.00000E+00         0.00000E+00        -0.49936E+08
 
   -0.49695E+08         0.99341E+05         0.00000E+00
    0.99341E+05        -0.49984E+08         0.00000E+00
    0.00000E+00         0.00000E+00        -0.49936E+08
 
   -0.49699E+08         0.10571E+06         0.00000E+00
    0.10571E+06        -0.49982E+08         0.00000E+00
    0.00000E+00         0.00000E+00        -0.49936E+08
 
   -0.49703E+08         0.11197E+06         0.00000E+00
    0.11197E+06        -0.49980E+08         0.00000E+00
    0.00000E+00         0.00000E+00        -0.49937E+08
 
   -0.49708E+08         0.11813E+06         0.00000E+00
    0.11813E+06        -0.49977E+08         0.00000E+00
    0.00000E+00         0.00000E+00        -0.49937E+08
 
   -0.49713E+08         0.12417E+06         0.00000E+00
    0.12417E+06        -0.49975E+08         0.00000E+00
    0.00000E+00         0.00000E+00        -0.49937E+08
 
   -0.49718E+08         0.13010E+06         0.00000E+00
    0.13010E+06        -0.49972E+08         0.00000E+00
    0.00000E+00         0.00000E+00        -0.49938E+08
 
   -0.49723E+08         0.13591E+06         0.00000E+00
    0.13591E+06        -0.49969E+08         0.00000E+00
    0.00000E+00         0.00000E+00        -0.49938E+08
 
   -0.49728E+08         0.14159E+06         0.00000E+00
    0.14159E+06        -0.49966E+08         0.00000E+00
    0.00000E+00         0.00000E+00        -0.49939E+08
 
   -0.49734E+08         0.14714E+06         0.00000E+00
    0.14714E+06        -0.49963E+08         0.00000E+00
    0.00000E+00         0.00000E+00        -0.49939E+08
 
   -0.49740E+08         0.15255E+06         0.00000E+00
    0.15255E+06        -0.49960E+08         0.00000E+00
    0.00000E+00         0.00000E+00        -0.49940E+08
 
   -0.49746E+08         0.15783E+06         0.00000E+00
    0.15783E+06        -0.49957E+08         0.00000E+00
    0.00000E+00         0.00000E+00        -0.49941E+08
 
   -0.49753E+08         0.16296E+06         0.00000E+00
    0.16296E+06        -0.49954E+08         0.00000E+00
    0.00000E+00         0.00000E+00        -0.49941E+08
 
   -0.49759E+08         0.16794E+06         0.00000E+00
    0.16794E+06        -0.49950E+08         0.00000E+00
    0.00000E+00         0.00000E+00        -0.49942E+08
 
   -0.49766E+08         0.17278E+06         0.00000E+00
    0.17278E+06        -0.49947E+08         0.00000E+00
    0.00000E+00         0.00000E+00        -0.49943E+08
 
   -0.49773E+08         0.17746E+06         0.00000E+00
    0.17746E+06        -0.49943E+08         0.00000E+00
    0.00000E+00         0.00000E+00        -0.49943E+08
 
   -0.49780E+08         0.18198E+06         0.00000E+00
    0.18198E+06        -0.49940E+08         0.00000E+00
    0.00000E+00         0.00000E+00        -0.49944E+08
 
   -0.49788E+08         0.18635E+06         0.00000E+00
    0.18635E+06        -0.49936E+08         0.00000E+00
    0.00000E+00         0.00000E+00        -0.49945E+08
 
   -0.49795E+08         0.19056E+06         0.00000E+00
    0.19056E+06        -0.49932E+08         0.00000E+00
    0.00000E+00         0.00000E+00        -0.49946E+08
 
   -0.49803E+08         0.19460E+06         0.00000E+00
    0.19460E+06        -0.49928E+08         0.00000E+00
    0.00000E+00         0.00000E+00        -0.49946E+08
 
   -0.49811E+08         0.19848E+06         0.00000E+00
    0.19848E+06        -0.49924E+08         0.00000E+00
    0.00000E+00         0.00000E+00        -0.49947E+08
 
   -0.49819E+08         0.20219E+06         0.00000E+00
    0.20219E+06        -0.49920E+08         0.00000E+00
    0.00000E+00         0.00000E+00        -0.49948E+08
 
   -0.49828E+08         0.20573E+06         0.00000E+00
    0.20573E+06        -0.49916E+08         0.00000E+00
    0.00000E+00         0.00000E+00        -0.49949E+08
 
   -0.49836E+08         0.20909E+06         0.00000E+00
    0.20909E+06        -0.49912E+08         0.00000E+00
    0.00000E+00         0.00000E+00        -0.49950E+08
 
   -0.49845E+08         0.21229E+06         0.00000E+00
    0.21229E+06        -0.49908E+08         0.00000E+00
    0.00000E+00         0.00000E+00        -0.49951E+08
 
   -0.49853E+08         0.21531E+06         0.00000E+00
    0.21531E+06        -0.49904E+08         0.00000E+00
    0.00000E+00         0.00000E+00        -0.49951E+08
 
   -0.49862E+08         0.21815E+06         0.00000E+00
    0.21815E+06        -0.49900E+08         0.00000E+00
    0.00000E+00         0.00000E+00        -0.49952E+08
 
   -0.49871E+08         0.22082E+06         0.00000E+00
    0.22082E+06        -0.49896E+08         0.00000E+00
    0.00000E+00         0.00000E+00        -0.49953E+08
 
   -0.49880E+08         0.22331E+06         0.00000E+00
    0.22331E+06        -0.49891E+08         0.00000E+00
    0.00000E+00         0.00000E+00        -0.49954E+08
 
   -0.49890E+08         0.22561E+06         0.00000E+00
    0.22561E+06        -0.49887E+08         0.00000E+00
    0.00000E+00         0.00000E+00        -0.49955E+08
 
   -0.49899E+08         0.22774E+06         0.00000E+00
    0.22774E+06        -0.49883E+08         0.00000E+00
    0.00000E+00         0.00000E+00        -0.49956E+08
 
   -0.49909E+08         0.22968E+06         0.00000E+00
    0.22968E+06        -0.49878E+08         0.00000E+00
    0.00000E+00         0.00000E+00        -0.49957E+08
 
   -0.49918E+08         0.23144E+06         0.00000E+00
    0.23144E+06        -0.49874E+08         0.00000E+00
    0.00000E+00         0.00000E+00        -0.49958E+08
 
   -0.49928E+08         0.23300E+06         0.00000E+00
    0.23300E+06        -0.49869E+08         0.00000E+00
    0.00000E+00         0.00000E+00        -0.49959E+08
 
   -0.49938E+08         0.23439E+06         0.00000E+00
    0.23439E+06        -0.49865E+08         0.00000E+00
    0.00000E+00         0.00000E+00        -0.49961E+08
 
   -0.49948E+08         0.23558E+06         0.00000E+00
    0.23558E+06        -0.49860E+08         0.00000E+00
    0.00000E+00         0.00000E+00        -0.49962E+08
 
   -0.49958E+08         0.23658E+06         0.00000E+00
    0.23658E+06        -0.49856E+08         0.00000E+00
    0.00000E+00         0.00000E+00        -0.49963E+08
 
   -0.49633E+08         0.39147E+04         0.00000E+00
    0.39147E+04        -0.50000E+08         0.00000E+00
    0.00000E+00         0.00000E+00        -0.49927E+08
 
   -0.49633E+08         0.11783E+05         0.00000E+00
    0.11783E+05        -0.50000E+08         0.00000E+00
    0.00000E+00         0.00000E+00        -0.49927E+08
 
   -0.49633E+08         0.19654E+05         0.00000E+00
    0.19654E+05        -0.50000E+08         0.00000E+00
    0.00000E+00         0.00000E+00        -0.49926E+08
 
   -0.49633E+08         0.27517E+05         0.00000E+00
    0.27517E+05        -0.49999E+08         0.00000E+00
    0.00000E+00         0.00000E+00        -0.49926E+08
 
   -0.49634E+08         0.35361E+05         0.00000E+00
    0.35361E+05        -0.49998E+08         0.00000E+00
    0.00000E+00         0.00000E+00        -0.49926E+08
 
   -0.49635E+08         0.43177E+05         0.00000E+00
    0.43177E+05        -0.49997E+08         0.00000E+00
    0.00000E+00         0.00000E+00        -0.49927E+08
 
   -0.49637E+08         0.50954E+05         0.00000E+00
    0.50954E+05        -0.49996E+08         0.00000E+00
    0.00000E+00         0.00000E+00        -0.49927E+08
 
   -0.49639E+08         0.58683E+05         0.00000E+00
    0.58683E+05        -0.49995E+08         0.00000E+00
    0.00000E+00         0.00000E+00        -0.49927E+08
 
   -0.49641E+08         0.66355E+05         0.00000E+00
    0.66355E+05        -0.49994E+08         0.00000E+00
    0.00000E+00         0.00000E+00        -0.49927E+08
 
   -0.49644E+08         0.73961E+05         0.00000E+00
    0.73961E+05        -0.49992E+08         0.00000E+00
    0.00000E+00         0.00000E+00        -0.49927E+08
 
   -0.49647E+08         0.81491E+05         0.00000E+00
    0.81491E+05        -0.49990E+08         0.00000E+00
    0.00000E+00         0.00000E+00        -0.49927E+08
 
   -0.49650E+08         0.88939E+05         0.00000E+00
    0.88939E+05        -0.49988E+08         0.00000E+00
    0.00000E+00         0.00000E+00        -0.49928E+08
 
   -0.49653E+08         0.96295E+05         0.00000E+00
    0.96295E+05        -0.49986E+08         0.00000E+00
    0.00000E+00         0.00000E+00        -0.49928E+08
 
   -0.49657E+08         0.10355E+06         0.00000E+00
    0.10355E+06        -0.49984E+08         0.00000E+00
    0.00000E+00         0.00000E+00        -0.49928E+08
 
   -0.49661E+08         0.11070E+06         0.00000E+00
    0.11070E+06        -0.49982E+08         0.00000E+00
    0.00000E+00         0.00000E+00        -0.49929E+08
 
   -0.49666E+08         0.11774E+06         0.00000E+00
    0.11774E+06        -0.49979E+08         0.00000E+00
    0.00000E+00         0.00000E+00        -0.49929E+08
 
   -0.49671E+08         0.12466E+06         0.00000E+00
    0.12466E+06        -0.49977E+08         0.00000E+00
    0.00000E+00         0.00000E+00        -0.49929E+08
 
   -0.49676E+08         0.13145E+06         0.00000E+00
    0.13145E+06        -0.49974E+08         0.00000E+00
    0.00000E+00         0.00000E+00        -0.49930E+08
 
   -0.49681E+08         0.13812E+06         0.00000E+00
    0.13812E+06        -0.49971E+08         0.00000E+00
    0.00000E+00         0.00000E+00        -0.49930E+08
 
   -0.49687E+08         0.14464E+06         0.00000E+00
    0.14464E+06        -0.49968E+08         0.00000E+00
    0.00000E+00         0.00000E+00        -0.49931E+08
 
   -0.49693E+08         0.15102E+06         0.00000E+00
    0.15102E+06        -0.49965E+08         0.00000E+00
    0.00000E+00         0.00000E+00        -0.49932E+08
 
   -0.49699E+08         0.15726E+06         0.00000E+00
    0.15726E+06        -0.49962E+08         0.00000E+00
    0.00000E+00         0.00000E+00        -0.49932E+08
 
   -0.49705E+08         0.16334E+06         0.00000E+00
    0.16334E+06        -0.49958E+08         0.00000E+00
    0.00000E+00         0.00000E+00        -0.49933E+08
 
   -0.49712E+08         0.16927E+06         0.00000E+00
    0.16927E+06        -0.49955E+08         0.00000E+00
    0.00000E+00         0.00000E+00        -0.49933E+08
 
   -0.49719E+08         0.17503E+06         0.00000E+00
    0.17503E+06        -0.49951E+08         0.00000E+00
    0.00000E+00         0.00000E+00        -0.49934E+08
 
   -0.49726E+08         0.18064E+06         0.00000E+00
    0.18064E+06        -0.49947E+08         0.00000E+00
    0.00000E+00         0.00000E+00        -0.49935E+08
 
   -0.49734E+08         0.18607E+06         0.00000E+00
    0.18607E+06        -0.49944E+08         0.00000E+00
    0.00000E+00         0.00000E+00        -0.49935E+08
 
   -0.49741E+08         0.19134E+06         0.00000E+00
    0.19134E+06        -0.49940E+08         0.00000E+00
    0.00000E+00         0.00000E+00        -0.49936E+08
 
   -0.49749E+08         0.19643E+06         0.00000E+00
    0.19643E+06        -0.49936E+08         0.00000E+00
    0.00000E+00         0.00000E+00        -0.49937E+08
 
   -0.49757E+08         0.20135E+06         0.00000E+00
    0.20135E+06        -0.49932E+08         0.00000E+00
    0.00000E+00         0.00000E+00        -0.49938E+08
 
   -0.49765E+08         0.20609E+06         0.00000E+00
    0.20609E+06        -0.49927E+08         0.00000E+00
    0.00000E+00         0.00000E+00        -0.49939E+08
 
   -0.49774E+08         0.21065E+06         0.00000E+00
    0.21065E+06        -0.49923E+08         0.00000E+00
    0.00000E+00         0.00000E+00        -0.49939E+08
 
   -0.49783E+08         0.21503E+06         0.00000E+00
    0.21503E+06        -0.49919E+08         0.00000E+00
    0.00000E+00         0.00000E+00        -0.49940E+08
 
   -0.49791E+08         0.21922E+06         0.00000E+00
    0.21922E+06        -0.49915E+08         0.00000E+00
    0.00000E+00         0.00000E+00        -0.49941E+08
 
   -0.49800E+08         0.22323E+06         0.00000E+00
    0.22323E+06        -0.49910E+08         0.00000E+00
    0.00000E+00         0.00000E+00        -0.49942E+08
 
   -0.49810E+08         0.22706E+06         0.00000E+00
    0.22706E+06        -0.49906E+08         0.00000E+00
    0.00000E+00         0.00000E+00        -0.49943E+08
 
   -0.49819E+08         0.23069E+06         0.00000E+00
    0.23069E+06        -0.49901E+08         0.00000E+00
    0.00000E+00         0.00000E+00        -0.49944E+08
 
   -0.49828E+08         0.23413E+06         0.00000E+00
    0.23413E+06        -0.49897E+08         0.00000E+00
    0.00000E+00         0.00000E+00        -0.49945E+08
 
   -0.49838E+08         0.23739E+06         0.00000E+00
    0.23739E+06        -0.49892E+08         0.00000E+00
    0.00000E+00         0.00000E+00        -0.49946E+08
 
   -0.49848E+08         0.24045E+06         0.00000E+00
    0.24045E+06        -0.49887E+08         0.00000E+00
    0.00000E+00         0.00000E+00        -0.49947E+08
 
   -0.49858E+08         0.24332E+06         0.00000E+00
    0.24332E+06        -0.49883E+08         0.00000E+00
    0.00000E+00         0.00000E+00        -0.49948E+08
 
   -0.49868E+08         0.24600E+06         0.00000E+00
    0.24600E+06        -0.49878E+08         0.00000E+00
    0.00000E+00         0.00000E+00        -0.49949E+08
 
   -0.49878E+08         0.24849E+06         0.00000E+00
    0.24849E+06        -0.49873E+08         0.00000E+00
    0.00000E+00         0.00000E+00        -0.49950E+08
 
   -0.49889E+08         0.25078E+06         0.00000E+00
    0.25078E+06        -0.49868E+08         0.00000E+00
    0.00000E+00         0.00000E+00        -0.49951E+08
 
   -0.49899E+08         0.25287E+06         0.00000E+00
    0.25287E+06        -0.49864E+08         0.00000E+00
    0.00000E+00         0.00000E+00        -0.49953E+08
 
   -0.49910E+08         0.25477E+06         0.00000E+00
    0.25477E+06        -0.49859E+08         0.00000E+00
    0.00000E+00         0.00000E+00        -0.49954E+08
 
   -0.49921E+08         0.25647E+06         0.00000E+00
    0.25647E+06        -0.49854E+08         0.00000E+00
    0.00000E+00         0.00000E+00        -0.49955E+08
 
   -0.49931E+08         0.25797E+06         0.00000E+00
    0.25797E+06        -0.49849E+08         0.00000E+00
    0.00000E+00         0.00000E+00        -0.49956E+08
 
   -0.49942E+08         0.25927E+06         0.00000E+00
    0.25927E+06        -0.49844E+08         0.00000E+00
    0.00000E+00         0.00000E+00        -0.49957E+08
 
   -0.49954E+08         0.26036E+06         0.00000E+00
    0.26036E+06        -0.49839E+08         0.00000E+00
    0.00000E+00         0.00000E+00        -0.49958E+08
 
   -0.49591E+08         0.44063E+04         0.00000E+00
    0.44063E+04        -0.50000E+08         0.00000E+00
    0.00000E+00         0.00000E+00        -0.49918E+08
 
   -0.49591E+08         0.13250E+05         0.00000E+00
    0.13250E+05        -0.50000E+08         0.00000E+00
    0.00000E+00         0.00000E+00        -0.49918E+08
 
   -0.49591E+08         0.22091E+05         0.00000E+00
    0.22091E+05        -0.49999E+08         0.00000E+00
    0.00000E+00         0.00000E+00        -0.49918E+08
 
   -0.49592E+08         0.30916E+05         0.00000E+00
    0.30916E+05        -0.49999E+08         0.00000E+00
    0.00000E+00         0.00000E+00        -0.49918E+08
 
   -0.49593E+08         0.39712E+05         0.00000E+00
    0.39712E+05        -0.49998E+08         0.00000E+00
    0.00000E+00         0.00000E+00        -0.49918E+08
 
   -0.49594E+08         0.48468E+05         0.00000E+00
    0.48468E+05        -0.49997E+08         0.00000E+00
    0.00000E+00         0.00000E+00        -0.49918E+08
 
   -0.49596E+08         0.57172E+05         0.00000E+00
    0.57172E+05        -0.49996E+08         0.00000E+00
    0.00000E+00         0.00000E+00        -0.49918E+08
 
   -0.49598E+08         0.65813E+05         0.00000E+00
    0.65813E+05        -0.49994E+08         0.00000E+00
    0.00000E+00         0.00000E+00        -0.49918E+08
 
   -0.49601E+08         0.74380E+05         0.00000E+00
    0.74380E+05        -0.49993E+08         0.00000E+00
    0.00000E+00         0.00000E+00        -0.49919E+08
 
   -0.49604E+08         0.82863E+05         0.00000E+00
    0.82863E+05        -0.49991E+08         0.00000E+00
    0.00000E+00         0.00000E+00        -0.49919E+08
 
   -0.49607E+08         0.91252E+05         0.00000E+00
    0.91252E+05        -0.49989E+08         0.00000E+00
    0.00000E+00         0.00000E+00        -0.49919E+08
 
   -0.49611E+08         0.99538E+05         0.00000E+00
    0.99538E+05        -0.49987E+08         0.00000E+00
    0.00000E+00         0.00000E+00        -0.49919E+08
 
   -0.49615E+08         0.10771E+06         0.00000E+00
    0.10771E+06        -0.49984E+08         0.00000E+00
    0.00000E+00         0.00000E+00        -0.49920E+08
 
   -0.49619E+08         0.11576E+06         0.00000E+00
    0.11576E+06        -0.49982E+08         0.00000E+00
    0.00000E+00         0.00000E+00        -0.49920E+08
 
   -0.49624E+08         0.12369E+06         0.00000E+00
    0.12369E+06        -0.49979E+08         0.00000E+00
    0.00000E+00         0.00000E+00        -0.49921E+08
 
   -0.49629E+08         0.13147E+06         0.00000E+00
    0.13147E+06        -0.49976E+08         0.00000E+00
    0.00000E+00         0.00000E+00        -0.49921E+08
 
   -0.49635E+08         0.13912E+06         0.00000E+00
    0.13912E+06        -0.49973E+08         0.00000E+00
    0.00000E+00         0.00000E+00        -0.49922E+08
 
   -0.49641E+08         0.14661E+06         0.00000E+00
    0.14661E+06        -0.49970E+08         0.00000E+00
    0.00000E+00         0.00000E+00        -0.49922E+08
 
   -0.49647E+08         0.15395E+06         0.00000E+00
    0.15395E+06        -0.49967E+08         0.00000E+00
    0.00000E+00         0.00000E+00        -0.49923E+08
 
   -0.49653E+08         0.16112E+06         0.00000E+00
    0.16112E+06        -0.49963E+08         0.00000E+00
    0.00000E+00         0.00000E+00        -0.49923E+08
 
   -0.49660E+08         0.16813E+06         0.00000E+00
    0.16813E+06        -0.49960E+08         0.00000E+00
    0.00000E+00         0.00000E+00        -0.49924E+08
 
   -0.49667E+08         0.17497E+06         0.00000E+00
    0.17497E+06        -0.49956E+08         0.00000E+00
    0.00000E+00         0.00000E+00        -0.49925E+08
 
   -0.49674E+08         0.18163E+06         0.00000E+00
    0.18163E+06        -0.49952E+08         0.00000E+00
    0.00000E+00         0.00000E+00        -0.49925E+08
 
   -0.49682E+08         0.18810E+06         0.00000E+00
    0.18810E+06        -0.49948E+08         0.00000E+00
    0.00000E+00         0.00000E+00        -0.49926E+08
 
   -0.49689E+08         0.19439E+06         0.00000E+00
    0.19439E+06        -0.49944E+08         0.00000E+00
    0.00000E+00         0.00000E+00        -0.49927E+08
 
   -0.49697E+08         0.20050E+06         0.00000E+00
    0.20050E+06        -0.49940E+08         0.00000E+00
    0.00000E+00         0.00000E+00        -0.49927E+08
 
   -0.49706E+08         0.20641E+06         0.00000E+00
    0.20641E+06        -0.49936E+08         0.00000E+00
    0.00000E+00         0.00000E+00        -0.49928E+08
 
   -0.49714E+08         0.21213E+06         0.00000E+00
    0.21213E+06        -0.49931E+08         0.00000E+00
    0.00000E+00         0.00000E+00        -0.49929E+08
 
   -0.49723E+08         0.21765E+06         0.00000E+00
    0.21765E+06        -0.49927E+08         0.00000E+00
    0.00000E+00         0.00000E+00        -0.49930E+08
 
   -0.49732E+08         0.22297E+06         0.00000E+00
    0.22297E+06        -0.49922E+08         0.00000E+00
    0.00000E+00         0.00000E+00        -0.49931E+08
 
   -0.49741E+08         0.22810E+06         0.00000E+00
    0.22810E+06        -0.49918E+08         0.00000E+00
    0.00000E+00         0.00000E+00        -0.49932E+08
 
   -0.49751E+08         0.23302E+06         0.00000E+00
    0.23302E+06        -0.49913E+08         0.00000E+00
    0.00000E+00         0.00000E+00        -0.49933E+08
 
   -0.49760E+08         0.23774E+06         0.00000E+00
    0.23774E+06        -0.49908E+08         0.00000E+00
    0.00000E+00         0.00000E+00        -0.49934E+08
 
   -0.49770E+08         0.24225E+06         0.00000E+00
    0.24225E+06        -0.49904E+08         0.00000E+00
    0.00000E+00         0.00000E+00        -0.49935E+08
 
   -0.49780E+08         0.24656E+06         0.00000E+00
    0.24656E+06        -0.49899E+08         0.00000E+00
    0.00000E+00         0.00000E+00        -0.49936E+08
 
   -0.49790E+08         0.25067E+06         0.00000E+00
    0.25067E+06        -0.49894E+08         0.00000E+00
    0.00000E+00         0.00000E+00        -0.49937E+08
 
   -0.49801E+08         0.25457E+06         0.00000E+00
    0.25457E+06        -0.49889E+08         0.00000E+00
    0.00000E+00         0.00000E+00        -0.49938E+08
 
   -0.49811E+08         0.25826E+06         0.00000E+00
    0.25826E+06        -0.49884E+08         0.00000E+00
    0.00000E+00         0.00000E+00        -0.49939E+08
 
   -0.49822E+08         0.26175E+06         0.00000E+00
    0.26175E+06        -0.49879E+08         0.00000E+00
    0.00000E+00         0.00000E+00        -0.49940E+08
 
   -0.49833E+08         0.26502E+06         0.00000E+00
    0.26502E+06        -0.49873E+08         0.00000E+00
    0.00000E+00         0.00000E+00        -0.49941E+08
 
   -0.49844E+08         0.26810E+06         0.00000E+00
    0.26810E+06        -0.49868E+08         0.00000E+00
    0.00000E+00         0.00000E+00        -0.49942E+08
 
   -0.49855E+08         0.27096E+06         0.00000E+00
    0.27096E+06        -0.49863E+08         0.00000E+00
    0.00000E+00         0.00000E+00        -0.49944E+08
 
   -0.49866E+08         0.27362E+06         0.00000E+00
    0.27362E+06        -0.49858E+08         0.00000E+00
    0.00000E+00         0.00000E+00        -0.49945E+08
 
   -0.49877E+08         0.27607E+06         0.00000E+00
    0.27607E+06        -0.49853E+08         0.00000E+00
    0.00000E+00         0.00000E+00        -0.49946E+08
 
   -0.49889E+08         0.27831E+06         0.00000E+00
    0.27831E+06        -0.49847E+08         0.00000E+00
    0.00000E+00         0.00000E+00        -0.49947E+08
 
   -0.49900E+08         0.28034E+06         0.00000E+00
    0.28034E+06        -0.49842E+08         0.00000E+00
    0.00000E+00         0.00000E+00        -0.49948E+08
 
   -0.49912E+08         0.28217E+06         0.00000E+00
    0.28217E+06        -0.49837E+08         0.00000E+00
    0.00000E+00         0.00000E+00        -0.49950E+08
 
   -0.49924E+08         0.28379E+06         0.00000E+00
    0.28379E+06        -0.49831E+08         0.00000E+00
    0.00000E+00         0.00000E+00        -0.49951E+08
 
   -0.49936E+08         0.28520E+06         0.00000E+00
    0.28520E+06        -0.49826E+08         0.00000E+00
    0.00000E+00         0.00000E+00        -0.49952E+08
 
   -0.49948E+08         0.28640E+06         0.00000E+00
    0.28640E+06        -0.49820E+08         0.00000E+00
    0.00000E+00         0.00000E+00        -0.49954E+08
 
   -0.49544E+08         0.49842E+04         0.00000E+00
    0.49842E+04        -0.50000E+08         0.00000E+00
    0.00000E+00         0.00000E+00        -0.49909E+08
 
   -0.49544E+08         0.14968E+05         0.00000E+00
    0.14968E+05        -0.50000E+08         0.00000E+00
    0.00000E+00         0.00000E+00        -0.49909E+08
 
   -0.49544E+08         0.24938E+05         0.00000E+00
    0.24938E+05        -0.49999E+08         0.00000E+00
    0.00000E+00         0.00000E+00        -0.49909E+08
 
   -0.49545E+08         0.34879E+05         0.00000E+00
    0.34879E+05        -0.49999E+08         0.00000E+00
    0.00000E+00         0.00000E+00        -0.49909E+08
 
   -0.49546E+08         0.44776E+05         0.00000E+00
    0.44776E+05        -0.49998E+08         0.00000E+00
    0.00000E+00         0.00000E+00        -0.49909E+08
 
   -0.49548E+08         0.54616E+05         0.00000E+00
    0.54616E+05        -0.49996E+08         0.00000E+00
    0.00000E+00         0.00000E+00        -0.49909E+08
 
   -0.49550E+08         0.64385E+05         0.00000E+00
    0.64385E+05        -0.49995E+08         0.00000E+00
    0.00000E+00         0.00000E+00        -0.49909E+08
 
   -0.49553E+08         0.74070E+05         0.00000E+00
    0.74070E+05        -0.49993E+08         0.00000E+00
    0.00000E+00         0.00000E+00        -0.49909E+08
 
   -0.49556E+08         0.83658E+05         0.00000E+00
    0.83658E+05        -0.49991E+08         0.00000E+00
    0.00000E+00         0.00000E+00        -0.49909E+08
 
   -0.49559E+08         0.93139E+05         0.00000E+00
    0.93139E+05        -0.49989E+08         0.00000E+00
    0.00000E+00         0.00000E+00        -0.49910E+08
 
   -0.49563E+08         0.10250E+06         0.00000E+00
    0.10250E+06        -0.49987E+08         0.00000E+00
    0.00000E+00         0.00000E+00        -0.49910E+08
 
   -0.49567E+08         0.11173E+06         0.00000E+00
    0.11173E+06        -0.49984E+08         0.00000E+00
    0.00000E+00         0.00000E+00        -0.49910E+08
 
   -0.49572E+08         0.12082E+06         0.00000E+00
    0.12082E+06        -0.49982E+08         0.00000E+00
    0.00000E+00         0.00000E+00        -0.49911E+08
 
   -0.49577E+08         0.12976E+06         0.00000E+00
    0.12976E+06        -0.49979E+08         0.00000E+00
    0.00000E+00         0.00000E+00        -0.49911E+08
 
   -0.49583E+08         0.13855E+06         0.00000E+00
    0.13855E+06        -0.49976E+08         0.00000E+00
    0.00000E+00         0.00000E+00        -0.49912E+08
 
   -0.49589E+08         0.14717E+06         0.00000E+00
    0.14717E+06        -0.49972E+08         0.00000E+00
    0.00000E+00         0.00000E+00        -0.49912E+08
 
   -0.49595E+08         0.15561E+06         0.00000E+00
    0.15561E+06        -0.49969E+08         0.00000E+00
    0.00000E+00         0.00000E+00        -0.49913E+08
 
   -0.49602E+08         0.16387E+06         0.00000E+00
    0.16387E+06        -0.49965E+08         0.00000E+00
    0.00000E+00         0.00000E+00        -0.49913E+08
 
   -0.49609E+08         0.17195E+06         0.00000E+00
    0.17195E+06        -0.49962E+08         0.00000E+00
    0.00000E+00         0.00000E+00        -0.49914E+08
 
   -0.49616E+08         0.17983E+06         0.00000E+00
    0.17983E+06        -0.49958E+08         0.00000E+00
    0.00000E+00         0.00000E+00        -0.49915E+08
 
   -0.49624E+08         0.18751E+06         0.00000E+00
    0.18751E+06        -0.49954E+08         0.00000E+00
    0.00000E+00         0.00000E+00        -0.49915E+08
 
   -0.49631E+08         0.19499E+06         0.00000E+00
    0.19499E+06        -0.49950E+08         0.00000E+00
    0.00000E+00         0.00000E+00        -0.49916E+08
 
   -0.49640E+08         0.20227E+06         0.00000E+00
    0.20227E+06        -0.49945E+08         0.00000E+00
    0.00000E+00         0.00000E+00        -0.49917E+08
 
   -0.49648E+08         0.20933E+06         0.00000E+00
    0.20933E+06        -0.49941E+08         0.00000E+00
    0.00000E+00         0.00000E+00        -0.49918E+08
 
   -0.49657E+08         0.21617E+06         0.00000E+00
    0.21617E+06        -0.49936E+08         0.00000E+00
    0.00000E+00         0.00000E+00        -0.49919E+08
 
   -0.49666E+08         0.22280E+06         0.00000E+00
    0.22280E+06        -0.49931E+08         0.00000E+00
    0.00000E+00         0.00000E+00        -0.49920E+08
 
   -0.49676E+08         0.22921E+06         0.00000E+00
    0.22921E+06        -0.49927E+08         0.00000E+00
    0.00000E+00         0.00000E+00        -0.49920E+08
 
   -0.49685E+08         0.23539E+06         0.00000E+00
    0.23539E+06        -0.49922E+08         0.00000E+00
    0.00000E+00         0.00000E+00        -0.49921E+08
 
   -0.49695E+08         0.24135E+06         0.00000E+00
    0.24135E+06        -0.49917E+08         0.00000E+00
    0.00000E+00         0.00000E+00        -0.49922E+08
 
   -0.49705E+08         0.24709E+06         0.00000E+00
    0.24709E+06        -0.49912E+08         0.00000E+00
    0.00000E+00         0.00000E+00        -0.49923E+08
 
   -0.49715E+08         0.25260E+06         0.00000E+00
    0.25260E+06        -0.49907E+08         0.00000E+00
    0.00000E+00         0.00000E+00        -0.49924E+08
 
   -0.49726E+08         0.25789E+06         0.00000E+00
    0.25789E+06        -0.49901E+08         0.00000E+00
    0.00000E+00         0.00000E+00        -0.49925E+08
 
   -0.49736E+08         0.26294E+06         0.00000E+00
    0.26294E+06        -0.49896E+08         0.00000E+00
    0.00000E+00         0.00000E+00        -0.49927E+08
 
   -0.49747E+08         0.26777E+06         0.00000E+00
    0.26777E+06        -0.49891E+08         0.00000E+00
    0.00000E+00         0.00000E+00        -0.49928E+08
 
   -0.49758E+08         0.27238E+06         0.00000E+00
    0.27238E+06        -0.49885E+08         0.00000E+00
    0.00000E+00         0.00000E+00        -0.49929E+08
 
   -0.49770E+08         0.27675E+06         0.00000E+00
    0.27675E+06        -0.49880E+08         0.00000E+00
    0.00000E+00         0.00000E+00        -0.49930E+08
 
   -0.49781E+08         0.28090E+06         0.00000E+00
    0.28090E+06        -0.49875E+08         0.00000E+00
    0.00000E+00         0.00000E+00        -0.49931E+08
 
   -0.49793E+08         0.28483E+06         0.00000E+00
    0.28483E+06        -0.49869E+08         0.00000E+00
    0.00000E+00         0.00000E+00        -0.49932E+08
 
   -0.49804E+08         0.28853E+06         0.00000E+00
    0.28853E+06        -0.49863E+08         0.00000E+00
    0.00000E+00         0.00000E+00        -0.49934E+08
 
   -0.49816E+08         0.29201E+06         0.00000E+00
    0.29201E+06        -0.49858E+08         0.00000E+00
    0.00000E+00         0.00000E+00        -0.49935E+08
 
   -0.49828E+08         0.29527E+06         0.00000E+00
    0.29527E+06        -0.49852E+08         0.00000E+00
    0.00000E+00         0.00000E+00        -0.49936E+08
 
   -0.49840E+08         0.29831E+06         0.00000E+00
    0.29831E+06        -0.49846E+08         0.00000E+00
    0.00000E+00         0.00000E+00        -0.49937E+08
 
   -0.49853E+08         0.30113E+06         0.00000E+00
    0.30113E+06        -0.49841E+08         0.00000E+00
    0.00000E+00         0.00000E+00        -0.49939E+08
 
   -0.49865E+08         0.30373E+06         0.00000E+00
    0.30373E+06        -0.49835E+08         0.00000E+00
    0.00000E+00         0.00000E+00        -0.49940E+08
 
   -0.49878E+08         0.30611E+06         0.00000E+00
    0.30611E+06        -0.49829E+08         0.00000E+00
    0.00000E+00         0.00000E+00        -0.49941E+08
 
   -0.49891E+08         0.30827E+06         0.00000E+00
    0.30827E+06        -0.49823E+08         0.00000E+00
    0.00000E+00         0.00000E+00        -0.49943E+08
 
   -0.49903E+08         0.31022E+06         0.00000E+00
    0.31022E+06        -0.49817E+08         0.00000E+00
    0.00000E+00         0.00000E+00        -0.49944E+08
 
   -0.49916E+08         0.31195E+06         0.00000E+00
    0.31195E+06        -0.49812E+08         0.00000E+00
    0.00000E+00         0.00000E+00        -0.49946E+08
 
   -0.49929E+08         0.31347E+06         0.00000E+00
    0.31347E+06        -0.49806E+08         0.00000E+00
    0.00000E+00         0.00000E+00        -0.49947E+08
 
   -0.49943E+08         0.31477E+06         0.00000E+00
    0.31477E+06        -0.49800E+08         0.00000E+00
    0.00000E+00         0.00000E+00        -0.49948E+08
 
   -0.49491E+08         0.56668E+04         0.00000E+00
    0.56668E+04        -0.50000E+08         0.00000E+00
    0.00000E+00         0.00000E+00        -0.49898E+08
 
   -0.49491E+08         0.16986E+05         0.00000E+00
    0.16986E+05        -0.50000E+08         0.00000E+00
    0.00000E+00         0.00000E+00        -0.49898E+08
 
   -0.49491E+08         0.28274E+05         0.00000E+00
    0.28274E+05        -0.49999E+08         0.00000E+00
    0.00000E+00         0.00000E+00        -0.49898E+08
 
   -0.49492E+08         0.39513E+05         0.00000E+00
    0.39513E+05        -0.49998E+08         0.00000E+00
    0.00000E+00         0.00000E+00        -0.49898E+08
 
   -0.49494E+08         0.50687E+05         0.00000E+00
    0.50687E+05        -0.49997E+08         0.00000E+00
    0.00000E+00         0.00000E+00        -0.49898E+08
 
   -0.49496E+08         0.61779E+05         0.00000E+00
    0.61779E+05        -0.49996E+08         0.00000E+00
    0.00000E+00         0.00000E+00        -0.49898E+08
 
   -0.49498E+08         0.72774E+05         0.00000E+00
    0.72774E+05        -0.49994E+08         0.00000E+00
    0.00000E+00         0.00000E+00        -0.49898E+08
 
   -0.49501E+08         0.83655E+05         0.00000E+00
    0.83655E+05        -0.49992E+08         0.00000E+00
    0.00000E+00         0.00000E+00        -0.49899E+08
 
   -0.49505E+08         0.94410E+05         0.00000E+00
    0.94410E+05        -0.49990E+08         0.00000E+00
    0.00000E+00         0.00000E+00        -0.49899E+08
 
   -0.49509E+08         0.10502E+06         0.00000E+00
    0.10502E+06        -0.49988E+08         0.00000E+00
    0.00000E+00         0.00000E+00        -0.49899E+08
 
   -0.49514E+08         0.11549E+06         0.00000E+00
    0.11549E+06        -0.49985E+08         0.00000E+00
    0.00000E+00         0.00000E+00        -0.49900E+08
 
   -0.49519E+08         0.12578E+06         0.00000E+00
    0.12578E+06        -0.49982E+08         0.00000E+00
    0.00000E+00         0.00000E+00        -0.49900E+08
 
   -0.49525E+08         0.13590E+06         0.00000E+00
    0.13590E+06        -0.49979E+08         0.00000E+00
    0.00000E+00         0.00000E+00        -0.49901E+08
 
   -0.49531E+08         0.14584E+06         0.00000E+00
    0.14584E+06        -0.49975E+08         0.00000E+00
    0.00000E+00         0.00000E+00        -0.49901E+08
 
   -0.49537E+08         0.15558E+06         0.00000E+00
    0.15558E+06        -0.49972E+08         0.00000E+00
    0.00000E+00         0.00000E+00        -0.49902E+08
 
   -0.49544E+08         0.16511E+06         0.00000E+00
    0.16511E+06        -0.49968E+08         0.00000E+00
    0.00000E+00         0.00000E+00        -0.49902E+08
 
   -0.49551E+08         0.17444E+06         0.00000E+00
    0.17444E+06        -0.49964E+08         0.00000E+00
    0.00000E+00         0.00000E+00        -0.49903E+08
 
   -0.49559E+08         0.18354E+06         0.00000E+00
    0.18354E+06        -0.49960E+08         0.00000E+00
    0.00000E+00         0.00000E+00        -0.49904E+08
 
   -0.49567E+08         0.19242E+06         0.00000E+00
    0.19242E+06        -0.49956E+08         0.00000E+00
    0.00000E+00         0.00000E+00        -0.49905E+08
 
   -0.49575E+08         0.20106E+06         0.00000E+00
    0.20106E+06        -0.49951E+08         0.00000E+00
    0.00000E+00         0.00000E+00        -0.49905E+08
 
   -0.49584E+08         0.20947E+06         0.00000E+00
    0.20947E+06        -0.49947E+08         0.00000E+00
    0.00000E+00         0.00000E+00        -0.49906E+08
 
   -0.49593E+08         0.21764E+06         0.00000E+00
    0.21764E+06        -0.49942E+08         0.00000E+00
    0.00000E+00         0.00000E+00        -0.49907E+08
 
   -0.49602E+08         0.22556E+06         0.00000E+00
    0.22556E+06        -0.49937E+08         0.00000E+00
    0.00000E+00         0.00000E+00        -0.49908E+08
 
   -0.49612E+08         0.23323E+06         0.00000E+00
    0.23323E+06        -0.49932E+08         0.00000E+00
    0.00000E+00         0.00000E+00        -0.49909E+08
 
   -0.49622E+08         0.24066E+06         0.00000E+00
    0.24066E+06        -0.49927E+08         0.00000E+00
    0.00000E+00         0.00000E+00        -0.49910E+08
 
   -0.49632E+08         0.24783E+06         0.00000E+00
    0.24783E+06        -0.49922E+08         0.00000E+00
    0.00000E+00         0.00000E+00        -0.49911E+08
 
   -0.49643E+08         0.25474E+06         0.00000E+00
    0.25474E+06        -0.49916E+08         0.00000E+00
    0.00000E+00         0.00000E+00        -0.49912E+08
 
   -0.49654E+08         0.26140E+06         0.00000E+00
    0.26140E+06        -0.49911E+08         0.00000E+00
    0.00000E+00         0.00000E+00        -0.49913E+08
 
   -0.49665E+08         0.26780E+06         0.00000E+00
    0.26780E+06        -0.49905E+08         0.00000E+00
    0.00000E+00         0.00000E+00        -0.49914E+08
 
   -0.49676E+08         0.27395E+06         0.00000E+00
    0.27395E+06        -0.49900E+08         0.00000E+00
    0.00000E+00         0.00000E+00        -0.49915E+08
 
   -0.49687E+08         0.27984E+06         0.00000E+00
    0.27984E+06        -0.49894E+08         0.00000E+00
    0.00000E+00         0.00000E+00        -0.49916E+08
 
   -0.49699E+08         0.28547E+06         0.00000E+00
    0.28547E+06        -0.49888E+08         0.00000E+00
    0.00000E+00         0.00000E+00        -0.49917E+08
 
   -0.49711E+08         0.29085E+06         0.00000E+00
    0.29085E+06        -0.49882E+08         0.00000E+00
    0.00000E+00         0.00000E+00        -0.49919E+08
 
   -0.49723E+08         0.29598E+06         0.00000E+00
    0.29598E+06        -0.49877E+08         0.00000E+00
    0.00000E+00         0.00000E+00        -0.49920E+08
 
   -0.49735E+08         0.30086E+06         0.00000E+00
    0.30086E+06        -0.49871E+08         0.00000E+00
    0.00000E+00         0.00000E+00        -0.49921E+08
 
   -0.49748E+08         0.30549E+06         0.00000E+00
    0.30549E+06        -0.49865E+08         0.00000E+00
    0.00000E+00         0.00000E+00        -0.49922E+08
 
   -0.49760E+08         0.30987E+06         0.00000E+00
    0.30987E+06        -0.49859E+08         0.00000E+00
    0.00000E+00         0.00000E+00        -0.49924E+08
 
   -0.49773E+08         0.31400E+06         0.00000E+00
    0.31400E+06        -0.49853E+08         0.00000E+00
    0.00000E+00         0.00000E+00        -0.49925E+08
 
   -0.49786E+08         0.31790E+06         0.00000E+00
    0.31790E+06        -0.49846E+08         0.00000E+00
    0.00000E+00         0.00000E+00        -0.49926E+08
 
   -0.49799E+08         0.32155E+06         0.00000E+00
    0.32155E+06        -0.49840E+08         0.00000E+00
    0.00000E+00         0.00000E+00        -0.49928E+08
 
   -0.49812E+08         0.32497E+06         0.00000E+00
    0.32497E+06        -0.49834E+08         0.00000E+00
    0.00000E+00         0.00000E+00        -0.49929E+08
 
   -0.49825E+08         0.32816E+06         0.00000E+00
    0.32816E+06        -0.49828E+08         0.00000E+00
    0.00000E+00         0.00000E+00        -0.49931E+08
 
   -0.49839E+08         0.33111E+06         0.00000E+00
    0.33111E+06        -0.49822E+08         0.00000E+00
    0.00000E+00         0.00000E+00        -0.49932E+08
 
   -0.49852E+08         0.33384E+06         0.00000E+00
    0.33384E+06        -0.49815E+08         0.00000E+00
    0.00000E+00         0.00000E+00        -0.49934E+08
 
   -0.49866E+08         0.33634E+06         0.00000E+00
    0.33634E+06        -0.49809E+08         0.00000E+00
    0.00000E+00         0.00000E+00        -0.49935E+08
 
   -0.49880E+08         0.33861E+06         0.00000E+00
    0.33861E+06        -0.49803E+08         0.00000E+00
    0.00000E+00         0.00000E+00        -0.49937E+08
 
   -0.49894E+08         0.34067E+06         0.00000E+00
    0.34067E+06        -0.49796E+08         0.00000E+00
    0.00000E+00         0.00000E+00        -0.49938E+08
 
   -0.49908E+08         0.34250E+06         0.00000E+00
    0.34250E+06        -0.49790E+08         0.00000E+00
    0.00000E+00         0.00000E+00        -0.49940E+08
 
   -0.49922E+08         0.34412E+06         0.00000E+00
    0.34412E+06        -0.49784E+08         0.00000E+00
    0.00000E+00         0.00000E+00        -0.49941E+08
 
   -0.49936E+08         0.34552E+06         0.00000E+00
    0.34552E+06        -0.49777E+08         0.00000E+00
    0.00000E+00         0.00000E+00        -0.49943E+08
 
   -0.49430E+08         0.64756E+04         0.00000E+00
    0.64756E+04        -0.50000E+08         0.00000E+00
    0.00000E+00         0.00000E+00        -0.49886E+08
 
   -0.49430E+08         0.19363E+05         0.00000E+00
    0.19363E+05        -0.50000E+08         0.00000E+00
    0.00000E+00         0.00000E+00        -0.49886E+08
 
   -0.49431E+08         0.32193E+05         0.00000E+00
    0.32193E+05        -0.49999E+08         0.00000E+00
    0.00000E+00         0.00000E+00        -0.49886E+08
 
   -0.49432E+08         0.44947E+05         0.00000E+00
    0.44947E+05        -0.49998E+08         0.00000E+00
    0.00000E+00         0.00000E+00        -0.49886E+08
 
   -0.49434E+08         0.57602E+05         0.00000E+00
    0.57602E+05        -0.49997E+08         0.00000E+00
    0.00000E+00         0.00000E+00        -0.49886E+08
 
   -0.49437E+08         0.70142E+05         0.00000E+00
    0.70142E+05        -0.49995E+08         0.00000E+00
    0.00000E+00         0.00000E+00        -0.49886E+08
 
   -0.49440E+08         0.82547E+05         0.00000E+00
    0.82547E+05        -0.49993E+08         0.00000E+00
    0.00000E+00         0.00000E+00        -0.49887E+08
 
   -0.49444E+08         0.94800E+05         0.00000E+00
    0.94800E+05        -0.49991E+08         0.00000E+00
    0.00000E+00         0.00000E+00        -0.49887E+08
 
   -0.49448E+08         0.10689E+06         0.00000E+00
    0.10689E+06        -0.49988E+08         0.00000E+00
    0.00000E+00         0.00000E+00        -0.49887E+08
 
   -0.49453E+08         0.11879E+06         0.00000E+00
    0.11879E+06        -0.49985E+08         0.00000E+00
    0.00000E+00         0.00000E+00        -0.49888E+08
 
   -0.49459E+08         0.13049E+06         0.00000E+00
    0.13049E+06        -0.49982E+08         0.00000E+00
    0.00000E+00         0.00000E+00        -0.49888E+08
 
   -0.49465E+08         0.14199E+06         0.00000E+00
    0.14199E+06        -0.49979E+08         0.00000E+00
    0.00000E+00         0.00000E+00        -0.49889E+08
 
   -0.49472E+08         0.15326E+06         0.00000E+00
    0.15326E+06        -0.49975E+08         0.00000E+00
    0.00000E+00         0.00000E+00        -0.49889E+08
 
   -0.49479E+08         0.16430E+06         0.00000E+00
    0.16430E+06        -0.49972E+08         0.00000E+00
    0.00000E+00         0.00000E+00        -0.49890E+08
 
   -0.49486E+08         0.17510E+06         0.00000E+00
    0.17510E+06        -0.49967E+08         0.00000E+00
    0.00000E+00         0.00000E+00        -0.49891E+08
 
   -0.49494E+08         0.18565E+06         0.00000E+00
    0.18565E+06        -0.49963E+08         0.00000E+00
    0.00000E+00         0.00000E+00        -0.49891E+08
 
   -0.49503E+08         0.19593E+06         0.00000E+00
    0.19593E+06        -0.49959E+08         0.00000E+00
    0.00000E+00         0.00000E+00        -0.49892E+08
 
   -0.49512E+08         0.20595E+06         0.00000E+00
    0.20595E+06        -0.49954E+08         0.00000E+00
    0.00000E+00         0.00000E+00        -0.49893E+08
 
   -0.49521E+08         0.21569E+06         0.00000E+00
    0.21569E+06        -0.49949E+08         0.00000E+00
    0.00000E+00         0.00000E+00        -0.49894E+08
 
   -0.49531E+08         0.22516E+06         0.00000E+00
    0.22516E+06        -0.49944E+08         0.00000E+00
    0.00000E+00         0.00000E+00        -0.49895E+08
 
   -0.49541E+08         0.23434E+06         0.00000E+00
    0.23434E+06        -0.49939E+08         0.00000E+00
    0.00000E+00         0.00000E+00        -0.49896E+08
 
   -0.49551E+08         0.24323E+06         0.00000E+00
    0.24323E+06        -0.49933E+08         0.00000E+00
    0.00000E+00         0.00000E+00        -0.49897E+08
 
   -0.49562E+08         0.25183E+06         0.00000E+00
    0.25183E+06        -0.49928E+08         0.00000E+00
    0.00000E+00         0.00000E+00        -0.49898E+08
 
   -0.49573E+08         0.26014E+06         0.00000E+00
    0.26014E+06        -0.49922E+08         0.00000E+00
    0.00000E+00         0.00000E+00        -0.49899E+08
 
   -0.49584E+08         0.26815E+06         0.00000E+00
    0.26815E+06        -0.49917E+08         0.00000E+00
    0.00000E+00         0.00000E+00        -0.49900E+08
 
   -0.49596E+08         0.27587E+06         0.00000E+00
    0.27587E+06        -0.49911E+08         0.00000E+00
    0.00000E+00         0.00000E+00        -0.49901E+08
 
   -0.49608E+08         0.28329E+06         0.00000E+00
    0.28329E+06        -0.49905E+08         0.00000E+00
    0.00000E+00         0.00000E+00        -0.49902E+08
 
   -0.49620E+08         0.29042E+06         0.00000E+00
    0.29042E+06        -0.49899E+08         0.00000E+00
    0.00000E+00         0.00000E+00        -0.49904E+08
 
   -0.49632E+08         0.29725E+06         0.00000E+00
    0.29725E+06        -0.49892E+08         0.00000E+00
    0.00000E+00         0.00000E+00        -0.49905E+08
 
   -0.49645E+08         0.30379E+06         0.00000E+00
    0.30379E+06        -0.49886E+08         0.00000E+00
    0.00000E+00         0.00000E+00        -0.49906E+08
 
   -0.49658E+08         0.31004E+06         0.00000E+00
    0.31004E+06        -0.49880E+08         0.00000E+00
    0.00000E+00         0.00000E+00        -0.49908E+08
 
   -0.49671E+08         0.31600E+06         0.00000E+00
    0.31600E+06        -0.49873E+08         0.00000E+00
    0.00000E+00         0.00000E+00        -0.49909E+08
 
   -0.49684E+08         0.32167E+06         0.00000E+00
    0.32167E+06        -0.49867E+08         0.00000E+00
    0.00000E+00         0.00000E+00        -0.49910E+08
 
   -0.49697E+08         0.32707E+06         0.00000E+00
    0.32707E+06        -0.49861E+08         0.00000E+00
    0.00000E+00         0.00000E+00        -0.49912E+08
 
   -0.49711E+08         0.33219E+06         0.00000E+00
    0.33219E+06        -0.49854E+08         0.00000E+00
    0.00000E+00         0.00000E+00        -0.49913E+08
 
   -0.49725E+08         0.33703E+06         0.00000E+00
    0.33703E+06        -0.49847E+08         0.00000E+00
    0.00000E+00         0.00000E+00        -0.49914E+08
 
   -0.49739E+08         0.34160E+06         0.00000E+00
    0.34160E+06        -0.49841E+08         0.00000E+00
    0.00000E+00         0.00000E+00        -0.49916E+08
 
   -0.49753E+08         0.34591E+06         0.00000E+00
    0.34591E+06        -0.49834E+08         0.00000E+00
    0.00000E+00         0.00000E+00        -0.49917E+08
 
   -0.49767E+08         0.34996E+06         0.00000E+00
    0.34996E+06        -0.49827E+08         0.00000E+00
    0.00000E+00         0.00000E+00        -0.49919E+08
 
   -0.49781E+08         0.35375E+06         0.00000E+00
    0.35375E+06        -0.49821E+08         0.00000E+00
    0.00000E+00         0.00000E+00        -0.49920E+08
 
   -0.49795E+08         0.35729E+06         0.00000E+00
    0.35729E+06        -0.49814E+08         0.00000E+00
    0.00000E+00         0.00000E+00        -0.49922E+08
 
   -0.49810E+08         0.36059E+06         0.00000E+00
    0.36059E+06        -0.49807E+08         0.00000E+00
    0.00000E+00         0.00000E+00        -0.49923E+08
 
   -0.49824E+08         0.36364E+06         0.00000E+00
    0.36364E+06        -0.49801E+08         0.00000E+00
    0.00000E+00         0.00000E+00        -0.49925E+08
 
   -0.49839E+08         0.36646E+06         0.00000E+00
    0.36646E+06        -0.49794E+08         0.00000E+00
    0.00000E+00         0.00000E+00        -0.49927E+08
 
   -0.49854E+08         0.36904E+06         0.00000E+00
    0.36904E+06        -0.49787E+08         0.00000E+00
    0.00000E+00         0.00000E+00        -0.49928E+08
 
   -0.49869E+08         0.37140E+06         0.00000E+00
    0.37140E+06        -0.49780E+08         0.00000E+00
    0.00000E+00         0.00000E+00        -0.49930E+08
 
   -0.49884E+08         0.37354E+06         0.00000E+00
    0.37354E+06        -0.49773E+08         0.00000E+00
    0.00000E+00         0.00000E+00        -0.49931E+08
 
   -0.49899E+08         0.37545E+06         0.00000E+00
    0.37545E+06        -0.49767E+08         0.00000E+00
    0.00000E+00         0.00000E+00        -0.49933E+08
 
   -0.49914E+08         0.37715E+06         0.00000E+00
    0.37715E+06        -0.49760E+08         0.00000E+00
    0.00000E+00         0.00000E+00        -0.49935E+08
 
   -0.49930E+08         0.37864E+06         0.00000E+00
    0.37864E+06        -0.49753E+08         0.00000E+00
    0.00000E+00         0.00000E+00        -0.49937E+08
 
   -0.49361E+08         0.74360E+04         0.00000E+00
    0.74360E+04        -0.50000E+08         0.00000E+00
    0.00000E+00         0.00000E+00        -0.49872E+08
 
   -0.49362E+08         0.22167E+05         0.00000E+00
    0.22167E+05        -0.50000E+08         0.00000E+00
    0.00000E+00         0.00000E+00        -0.49872E+08
 
   -0.49363E+08         0.36804E+05         0.00000E+00
    0.36804E+05        -0.49999E+08         0.00000E+00
    0.00000E+00         0.00000E+00        -0.49872E+08
 
   -0.49365E+08         0.51322E+05         0.00000E+00
    0.51322E+05        -0.49998E+08         0.00000E+00
    0.00000E+00         0.00000E+00        -0.49872E+08
 
   -0.49367E+08         0.65698E+05         0.00000E+00
    0.65698E+05        -0.49996E+08         0.00000E+00
    0.00000E+00         0.00000E+00        -0.49873E+08
 
   -0.49371E+08         0.79910E+05         0.00000E+00
    0.79910E+05        -0.49994E+08         0.00000E+00
    0.00000E+00         0.00000E+00        -0.49873E+08
 
   -0.49375E+08         0.93938E+05         0.00000E+00
    0.93938E+05        -0.49992E+08         0.00000E+00
    0.00000E+00         0.00000E+00        -0.49873E+08
 
   -0.49379E+08         0.10776E+06         0.00000E+00
    0.10776E+06        -0.49989E+08         0.00000E+00
    0.00000E+00         0.00000E+00        -0.49874E+08
 
   -0.49385E+08         0.12136E+06         0.00000E+00
    0.12136E+06        -0.49986E+08         0.00000E+00
    0.00000E+00         0.00000E+00        -0.49874E+08
 
   -0.49391E+08         0.13473E+06         0.00000E+00
    0.13473E+06        -0.49983E+08         0.00000E+00
    0.00000E+00         0.00000E+00        -0.49875E+08
 
   -0.49398E+08         0.14784E+06         0.00000E+00
    0.14784E+06        -0.49979E+08         0.00000E+00
    0.00000E+00         0.00000E+00        -0.49875E+08
 
   -0.49405E+08         0.16068E+06         0.00000E+00
    0.16068E+06        -0.49976E+08         0.00000E+00
    0.00000E+00         0.00000E+00        -0.49876E+08
 
   -0.49413E+08         0.17324E+06         0.00000E+00
    0.17324E+06        -0.49971E+08         0.00000E+00
    0.00000E+00         0.00000E+00        -0.49877E+08
 
   -0.49421E+08         0.18550E+06         0.00000E+00
    0.18550E+06        -0.49967E+08         0.00000E+00
    0.00000E+00         0.00000E+00        -0.49878E+08
 
   -0.49430E+08         0.19747E+06         0.00000E+00
    0.19747E+06        -0.49962E+08         0.00000E+00
    0.00000E+00         0.00000E+00        -0.49878E+08
 
   -0.49440E+08         0.20912E+06         0.00000E+00
    0.20912E+06        -0.49957E+08         0.00000E+00
    0.00000E+00         0.00000E+00        -0.49879E+08
 
   -0.49449E+08         0.22045E+06         0.00000E+00
    0.22045E+06        -0.49952E+08         0.00000E+00
    0.00000E+00         0.00000E+00        -0.49880E+08
 
   -0.49460E+08         0.23146E+06         0.00000E+00
    0.23146E+06        -0.49947E+08         0.00000E+00
    0.00000E+00         0.00000E+00        -0.49881E+08
 
   -0.49471E+08         0.24213E+06         0.00000E+00
    0.24213E+06        -0.49941E+08         0.00000E+00
    0.00000E+00         0.00000E+00        -0.49882E+08
 
   -0.49482E+08         0.25246E+06         0.00000E+00
    0.25246E+06        -0.49936E+08         0.00000E+00
    0.00000E+00         0.00000E+00        -0.49884E+08
 
   -0.49493E+08         0.26245E+06         0.00000E+00
    0.26245E+06        -0.49930E+08         0.00000E+00
    0.00000E+00         0.00000E+00        -0.49885E+08
 
   -0.49505E+08         0.27210E+06         0.00000E+00
    0.27210E+06        -0.49924E+08         0.00000E+00
    0.00000E+00         0.00000E+00        -0.49886E+08
 
   -0.49518E+08         0.28140E+06         0.00000E+00
    0.28140E+06        -0.49918E+08         0.00000E+00
    0.00000E+00         0.00000E+00        -0.49887E+08
 
   -0.49530E+08         0.29035E+06         0.00000E+00
    0.29035E+06        -0.49911E+08         0.00000E+00
    0.00000E+00         0.00000E+00        -0.49888E+08
 
   -0.49543E+08         0.29896E+06         0.00000E+00
    0.29896E+06        -0.49905E+08         0.00000E+00
    0.00000E+00         0.00000E+00        -0.49890E+08
 
   -0.49557E+08         0.30722E+06         0.00000E+00
    0.30722E+06        -0.49898E+08         0.00000E+00
    0.00000E+00         0.00000E+00        -0.49891E+08
 
   -0.49570E+08         0.31514E+06         0.00000E+00
    0.31514E+06        -0.49892E+08         0.00000E+00
    0.00000E+00         0.00000E+00        -0.49892E+08
 
   -0.49584E+08         0.32272E+06         0.00000E+00
    0.32272E+06        -0.49885E+08         0.00000E+00
    0.00000E+00         0.00000E+00        -0.49894E+08
 
   -0.49598E+08         0.32995E+06         0.00000E+00
    0.32995E+06        -0.49878E+08         0.00000E+00
    0.00000E+00         0.00000E+00        -0.49895E+08
 
   -0.49612E+08         0.33686E+06         0.00000E+00
    0.33686E+06        -0.49871E+08         0.00000E+00
    0.00000E+00         0.00000E+00        -0.49897E+08
 
   -0.49626E+08         0.34343E+06         0.00000E+00
    0.34343E+06        -0.49864E+08         0.00000E+00
    0.00000E+00         0.00000E+00        -0.49898E+08
 
   -0.49641E+08         0.34967E+06         0.00000E+00
    0.34967E+06        -0.49857E+08         0.00000E+00
    0.00000E+00         0.00000E+00        -0.49900E+08
 
   -0.49656E+08         0.35560E+06         0.00000E+00
    0.35560E+06        -0.49850E+08         0.00000E+00
    0.00000E+00         0.00000E+00        -0.49901E+08
 
   -0.49671E+08         0.36121E+06         0.00000E+00
    0.36121E+06        -0.49843E+08         0.00000E+00
    0.00000E+00         0.00000E+00        -0.49903E+08
 
   -0.49686E+08         0.36651E+06         0.00000E+00
    0.36651E+06        -0.49836E+08         0.00000E+00
    0.00000E+00         0.00000E+00        -0.49904E+08
 
   -0.49701E+08         0.37152E+06         0.00000E+00
    0.37152E+06        -0.49828E+08         0.00000E+00
    0.00000E+00         0.00000E+00        -0.49906E+08
 
   -0.49716E+08         0.37623E+06         0.00000E+00
    0.37623E+06        -0.49821E+08         0.00000E+00
    0.00000E+00         0.00000E+00        -0.49907E+08
 
   -0.49731E+08         0.38065E+06         0.00000E+00
    0.38065E+06        -0.49814E+08         0.00000E+00
    0.00000E+00         0.00000E+00        -0.49909E+08
 
   -0.49747E+08         0.38479E+06         0.00000E+00
    0.38479E+06        -0.49807E+08         0.00000E+00
    0.00000E+00         0.00000E+00        -0.49911E+08
 
   -0.49762E+08         0.38866E+06         0.00000E+00
    0.38866E+06        -0.49799E+08         0.00000E+00
    0.00000E+00         0.00000E+00        -0.49912E+08
 
   -0.49778E+08         0.39227E+06         0.00000E+00
    0.39227E+06        -0.49792E+08         0.00000E+00
    0.00000E+00         0.00000E+00        -0.49914E+08
 
   -0.49794E+08         0.39562E+06         0.00000E+00
    0.39562E+06        -0.49785E+08         0.00000E+00
    0.00000E+00         0.00000E+00        -0.49916E+08
 
   -0.49810E+08         0.39872E+06         0.00000E+00
    0.39872E+06        -0.49778E+08         0.00000E+00
    0.00000E+00         0.00000E+00        -0.49917E+08
 
   -0.49826E+08         0.40158E+06         0.00000E+00
    0.40158E+06        -0.49770E+08         0.00000E+00
    0.00000E+00         0.00000E+00        -0.49919E+08
 
   -0.49841E+08         0.40420E+06         0.00000E+00
    0.40420E+06        -0.49763E+08         0.00000E+00
    0.00000E+00         0.00000E+00        -0.49921E+08
 
   -0.49858E+08         0.40660E+06         0.00000E+00
    0.40660E+06        -0.49756E+08         0.00000E+00
    0.00000E+00         0.00000E+00        -0.49923E+08
 
   -0.49874E+08         0.40878E+06         0.00000E+00
    0.40878E+06        -0.49749E+08         0.00000E+00
    0.00000E+00         0.00000E+00        -0.49924E+08
 
   -0.49890E+08         0.41075E+06         0.00000E+00
    0.41075E+06        -0.49741E+08         0.00000E+00
    0.00000E+00         0.00000E+00        -0.49926E+08
 
   -0.49906E+08         0.41251E+06         0.00000E+00
    0.41251E+06        -0.49734E+08         0.00000E+00
    0.00000E+00         0.00000E+00        -0.49928E+08
 
   -0.49923E+08         0.41407E+06         0.00000E+00
    0.41407E+06        -0.49727E+08         0.00000E+00
    0.00000E+00         0.00000E+00        -0.49930E+08
 
   -0.49282E+08         0.85769E+04         0.00000E+00
    0.85769E+04        -0.50000E+08         0.00000E+00
    0.00000E+00         0.00000E+00        -0.49856E+08
 
   -0.49283E+08         0.25476E+05         0.00000E+00
    0.25476E+05        -0.50000E+08         0.00000E+00
    0.00000E+00         0.00000E+00        -0.49857E+08
 
   -0.49285E+08         0.42226E+05         0.00000E+00
    0.42226E+05        -0.49999E+08         0.00000E+00
    0.00000E+00         0.00000E+00        -0.49857E+08
 
   -0.49287E+08         0.58799E+05         0.00000E+00
    0.58799E+05        -0.49997E+08         0.00000E+00
    0.00000E+00         0.00000E+00        -0.49857E+08
 
   -0.49291E+08         0.75170E+05         0.00000E+00
    0.75170E+05        -0.49995E+08         0.00000E+00
    0.00000E+00         0.00000E+00        -0.49857E+08
 
   -0.49295E+08         0.91312E+05         0.00000E+00
    0.91312E+05        -0.49993E+08         0.00000E+00
    0.00000E+00         0.00000E+00        -0.49858E+08
 
   -0.49301E+08         0.10720E+06         0.00000E+00
    0.10720E+06        -0.49991E+08         0.00000E+00
    0.00000E+00         0.00000E+00        -0.49858E+08
 
   -0.49307E+08         0.12282E+06         0.00000E+00
    0.12282E+06        -0.49987E+08         0.00000E+00
    0.00000E+00         0.00000E+00        -0.49859E+08
 
   -0.49313E+08         0.13815E+06         0.00000E+00
    0.13815E+06        -0.49984E+08         0.00000E+00
    0.00000E+00         0.00000E+00        -0.49859E+08
 
   -0.49321E+08         0.15316E+06         0.00000E+00
    0.15316E+06        -0.49980E+08         0.00000E+00
    0.00000E+00         0.00000E+00        -0.49860E+08
 
   -0.49329E+08         0.16785E+06         0.00000E+00
    0.16785E+06        -0.49976E+08         0.00000E+00
    0.00000E+00         0.00000E+00        -0.49861E+08
 
   -0.49338E+08         0.18219E+06         0.00000E+00
    0.18219E+06        -0.49972E+08         0.00000E+00
    0.00000E+00         0.00000E+00        -0.49862E+08
 
   -0.49347E+08         0.19618E+06         0.00000E+00
    0.19618E+06        -0.49967E+08         0.00000E+00
    0.00000E+00         0.00000E+00        -0.49863E+08
 
   -0.49357E+08         0.20980E+06         0.00000E+00
    0.20980E+06        -0.49962E+08         0.00000E+00
    0.00000E+00         0.00000E+00        -0.49864E+08
 
   -0.49368E+08         0.22304E+06         0.00000E+00
    0.22304E+06        -0.49956E+08         0.00000E+00
    0.00000E+00         0.00000E+00        -0.49865E+08
 
   -0.49379E+08         0.23590E+06         0.00000E+00
    0.23590E+06        -0.49951E+08         0.00000E+00
    0.00000E+00         0.00000E+00        -0.49866E+08
 
   -0.49391E+08         0.24836E+06         0.00000E+00
    0.24836E+06        -0.49945E+08         0.00000E+00
    0.00000E+00         0.00000E+00        -0.49867E+08
 
   -0.49403E+08         0.26042E+06         0.00000E+00
    0.26042E+06        -0.49939E+08         0.00000E+00
    0.00000E+00         0.00000E+00        -0.49868E+08
 
   -0.49416E+08         0.27207E+06         0.00000E+00
    0.27207E+06        -0.49933E+08         0.00000E+00
    0.00000E+00         0.00000E+00        -0.49870E+08
 
   -0.49429E+08         0.28332E+06         0.00000E+00
    0.28332E+06        -0.49926E+08         0.00000E+00
    0.00000E+00         0.00000E+00        -0.49871E+08
 
   -0.49442E+08         0.29416E+06         0.00000E+00
    0.29416E+06        -0.49920E+08         0.00000E+00
    0.00000E+00         0.00000E+00        -0.49872E+08
 
   -0.49456E+08         0.30458E+06         0.00000E+00
    0.30458E+06        -0.49913E+08         0.00000E+00
    0.00000E+00         0.00000E+00        -0.49874E+08
 
   -0.49470E+08         0.31459E+06         0.00000E+00
    0.31459E+06        -0.49906E+08         0.00000E+00
    0.00000E+00         0.00000E+00        -0.49875E+08
 
   -0.49485E+08         0.32419E+06         0.00000E+00
    0.32419E+06        -0.49899E+08         0.00000E+00
    0.00000E+00         0.00000E+00        -0.49877E+08
 
   -0.49500E+08         0.33338E+06         0.00000E+00
    0.33338E+06        -0.49892E+08         0.00000E+00
    0.00000E+00         0.00000E+00        -0.49878E+08
 
   -0.49515E+08         0.34217E+06         0.00000E+00
    0.34217E+06        -0.49884E+08         0.00000E+00
    0.00000E+00         0.00000E+00        -0.49880E+08
 
   -0.49530E+08         0.35055E+06         0.00000E+00
    0.35055E+06        -0.49877E+08         0.00000E+00
    0.00000E+00         0.00000E+00        -0.49881E+08
 
   -0.49546E+08         0.35854E+06         0.00000E+00
    0.35854E+06        -0.49869E+08         0.00000E+00
    0.00000E+00         0.00000E+00        -0.49883E+08
 
   -0.49562E+08         0.36614E+06         0.00000E+00
    0.36614E+06        -0.49862E+08         0.00000E+00
    0.00000E+00         0.00000E+00        -0.49885E+08
 
   -0.49578E+08         0.37336E+06         0.00000E+00
    0.37336E+06        -0.49854E+08         0.00000E+00
    0.00000E+00         0.00000E+00        -0.49886E+08
 
   -0.49594E+08         0.38019E+06         0.00000E+00
    0.38019E+06        -0.49846E+08         0.00000E+00
    0.00000E+00         0.00000E+00        -0.49888E+08
 
   -0.49610E+08         0.38666E+06         0.00000E+00
    0.38666E+06        -0.49839E+08         0.00000E+00
    0.00000E+00         0.00000E+00        -0.49890E+08
 
   -0.49626E+08         0.39277E+06         0.00000E+00
    0.39277E+06        -0.49831E+08         0.00000E+00
    0.00000E+00         0.00000E+00        -0.49891E+08
 
   -0.49643E+08         0.39853E+06         0.00000E+00
    0.39853E+06        -0.49823E+08         0.00000E+00
    0.00000E+00         0.00000E+00        -0.49893E+08
 
   -0.49660E+08         0.40395E+06         0.00000E+00
    0.40395E+06        -0.49815E+08         0.00000E+00
    0.00000E+00         0.00000E+00        -0.49895E+08
 
   -0.49676E+08         0.40904E+06         0.00000E+00
    0.40904E+06        -0.49808E+08         0.00000E+00
    0.00000E+00         0.00000E+00        -0.49897E+08
 
   -0.49693E+08         0.41381E+06         0.00000E+00
    0.41381E+06        -0.49800E+08         0.00000E+00
    0.00000E+00         0.00000E+00        -0.49899E+08
 
   -0.49710E+08         0.41827E+06         0.00000E+00
    0.41827E+06        -0.49792E+08         0.00000E+00
    0.00000E+00         0.00000E+00        -0.49900E+08
 
   -0.49727E+08         0.42242E+06         0.00000E+00
    0.42242E+06        -0.49784E+08         0.00000E+00
    0.00000E+00         0.00000E+00        -0.49902E+08
 
   -0.49744E+08         0.42630E+06         0.00000E+00
    0.42630E+06        -0.49776E+08         0.00000E+00
    0.00000E+00         0.00000E+00        -0.49904E+08
 
   -0.49761E+08         0.42989E+06         0.00000E+00
    0.42989E+06        -0.49769E+08         0.00000E+00
    0.00000E+00         0.00000E+00        -0.49906E+08
 
   -0.49778E+08         0.43322E+06         0.00000E+00
    0.43322E+06        -0.49761E+08         0.00000E+00
    0.00000E+00         0.00000E+00        -0.49908E+08
 
   -0.49795E+08         0.43630E+06         0.00000E+00
    0.43630E+06        -0.49753E+08         0.00000E+00
    0.00000E+00         0.00000E+00        -0.49910E+08
 
   -0.49812E+08         0.43913E+06         0.00000E+00
    0.43913E+06        -0.49745E+08         0.00000E+00
    0.00000E+00         0.00000E+00        -0.49911E+08
 
   -0.49829E+08         0.44173E+06         0.00000E+00
    0.44173E+06        -0.49737E+08         0.00000E+00
    0.00000E+00         0.00000E+00        -0.49913E+08
 
   -0.49846E+08         0.44411E+06         0.00000E+00
    0.44411E+06        -0.49730E+08         0.00000E+00
    0.00000E+00         0.00000E+00        -0.49915E+08
 
   -0.49863E+08         0.44628E+06         0.00000E+00
    0.44628E+06        -0.49722E+08         0.00000E+00
    0.00000E+00         0.00000E+00        -0.49917E+08
 
   -0.49881E+08         0.44825E+06         0.00000E+00
    0.44825E+06        -0.49714E+08         0.00000E+00
    0.00000E+00         0.00000E+00        -0.49919E+08
 
   -0.49898E+08         0.45003E+06         0.00000E+00
    0.45003E+06        -0.49707E+08         0.00000E+00
    0.00000E+00         0.00000E+00        -0.49921E+08
 
   -0.49915E+08         0.45163E+06         0.00000E+00
    0.45163E+06        -0.49699E+08         0.00000E+00
    0.00000E+00         0.00000E+00        -0.49923E+08
 
   -0.49191E+08         0.99305E+04         0.00000E+00
    0.99305E+04        -0.50000E+08         0.00000E+00
    0.00000E+00         0.00000E+00        -0.49838E+08
 
   -0.49193E+08         0.29372E+05         0.00000E+00
    0.29372E+05        -0.50000E+08         0.00000E+00
    0.00000E+00         0.00000E+00        -0.49838E+08
 
   -0.49196E+08         0.48589E+05         0.00000E+00
    0.48589E+05        -0.49998E+08         0.00000E+00
    0.00000E+00         0.00000E+00        -0.49839E+08
 
   -0.49199E+08         0.67550E+05         0.00000E+00
    0.67550E+05        -0.49997E+08         0.00000E+00
    0.00000E+00         0.00000E+00        -0.49839E+08
 
   -0.49204E+08         0.86225E+05         0.00000E+00
    0.86225E+05        -0.49995E+08         0.00000E+00
    0.00000E+00         0.00000E+00        -0.49840E+08
 
   -0.49210E+08         0.10459E+06         0.00000E+00
    0.10459E+06        -0.49992E+08         0.00000E+00
    0.00000E+00         0.00000E+00        -0.49840E+08
 
   -0.49217E+08         0.12261E+06         0.00000E+00
    0.12261E+06        -0.49989E+08         0.00000E+00
    0.00000E+00         0.00000E+00        -0.49841E+08
 
   -0.49224E+08         0.14027E+06         0.00000E+00
    0.14027E+06        -0.49985E+08         0.00000E+00
    0.00000E+00         0.00000E+00        -0.49842E+08
 
   -0.49233E+08         0.15754E+06         0.00000E+00
    0.15754E+06        -0.49981E+08         0.00000E+00
    0.00000E+00         0.00000E+00        -0.49843E+08
 
   -0.49242E+08         0.17441E+06         0.00000E+00
    0.17441E+06        -0.49977E+08         0.00000E+00
    0.00000E+00         0.00000E+00        -0.49844E+08
 
   -0.49252E+08         0.19086E+06         0.00000E+00
    0.19086E+06        -0.49972E+08         0.00000E+00
    0.00000E+00         0.00000E+00        -0.49845E+08
 
   -0.49263E+08         0.20688E+06         0.00000E+00
    0.20688E+06        -0.49967E+08         0.00000E+00
    0.00000E+00         0.00000E+00        -0.49846E+08
 
   -0.49274E+08         0.22244E+06         0.00000E+00
    0.22244E+06        -0.49962E+08         0.00000E+00
    0.00000E+00         0.00000E+00        -0.49847E+08
 
   -0.49287E+08         0.23754E+06         0.00000E+00
    0.23754E+06        -0.49956E+08         0.00000E+00
    0.00000E+00         0.00000E+00        -0.49849E+08
 
   -0.49299E+08         0.25218E+06         0.00000E+00
    0.25218E+06        -0.49950E+08         0.00000E+00
    0.00000E+00         0.00000E+00        -0.49850E+08
 
   -0.49313E+08         0.26633E+06         0.00000E+00
    0.26633E+06        -0.49944E+08         0.00000E+00
    0.00000E+00         0.00000E+00        -0.49851E+08
 
   -0.49327E+08         0.28000E+06         0.00000E+00
    0.28000E+06        -0.49937E+08         0.00000E+00
    0.00000E+00         0.00000E+00        -0.49853E+08
 
   -0.49341E+08         0.29318E+06         0.00000E+00
    0.29318E+06        -0.49930E+08         0.00000E+00
    0.00000E+00         0.00000E+00        -0.49854E+08
 
   -0.49356E+08         0.30587E+06         0.00000E+00
    0.30587E+06        -0.49923E+08         0.00000E+00
    0.00000E+00         0.00000E+00        -0.49856E+08
 
   -0.49371E+08         0.31806E+06         0.00000E+00
    0.31806E+06        -0.49916E+08         0.00000E+00
    0.00000E+00         0.00000E+00        -0.49857E+08
 
   -0.49387E+08         0.32976E+06         0.00000E+00
    0.32976E+06        -0.49908E+08         0.00000E+00
    0.00000E+00         0.00000E+00        -0.49859E+08
 
   -0.49403E+08         0.34097E+06         0.00000E+00
    0.34097E+06        -0.49901E+08         0.00000E+00
    0.00000E+00         0.00000E+00        -0.49861E+08
 
   -0.49420E+08         0.35169E+06         0.00000E+00
    0.35169E+06        -0.49893E+08         0.00000E+00
    0.00000E+00         0.00000E+00        -0.49863E+08
 
   -0.49436E+08         0.36192E+06         0.00000E+00
    0.36192E+06        -0.49885E+08         0.00000E+00
    0.00000E+00         0.00000E+00        -0.49864E+08
 
   -0.49454E+08         0.37166E+06         0.00000E+00
    0.37166E+06        -0.49877E+08         0.00000E+00
    0.00000E+00         0.00000E+00        -0.49866E+08
 
   -0.49471E+08         0.38094E+06         0.00000E+00
    0.38094E+06        -0.49869E+08         0.00000E+00
    0.00000E+00         0.00000E+00        -0.49868E+08
 
   -0.49488E+08         0.38974E+06         0.00000E+00
    0.38974E+06        -0.49861E+08         0.00000E+00
    0.00000E+00         0.00000E+00        -0.49870E+08
 
   -0.49506E+08         0.39809E+06         0.00000E+00
    0.39809E+06        -0.49852E+08         0.00000E+00
    0.00000E+00         0.00000E+00        -0.49872E+08
 
   -0.49524E+08         0.40599E+06         0.00000E+00
    0.40599E+06        -0.49844E+08         0.00000E+00
    0.00000E+00         0.00000E+00        -0.49874E+08
 
   -0.49542E+08         0.41344E+06         0.00000E+00
    0.41344E+06        -0.49836E+08         0.00000E+00
    0.00000E+00         0.00000E+00        -0.49876E+08
 
   -0.49560E+08         0.42047E+06         0.00000E+00
    0.42047E+06        -0.49827E+08         0.00000E+00
    0.00000E+00         0.00000E+00        -0.49877E+08
 
   -0.49578E+08         0.42708E+06         0.00000E+00
    0.42708E+06        -0.49819E+08         0.00000E+00
    0.00000E+00         0.00000E+00        -0.49879E+08
 
   -0.49596E+08         0.43329E+06         0.00000E+00
    0.43329E+06        -0.49810E+08         0.00000E+00
    0.00000E+00         0.00000E+00        -0.49881E+08
 
   -0.49615E+08         0.43910E+06         0.00000E+00
    0.43910E+06        -0.49802E+08         0.00000E+00
    0.00000E+00         0.00000E+00        -0.49883E+08
 
   -0.49633E+08         0.44454E+06         0.00000E+00
    0.44454E+06        -0.49794E+08         0.00000E+00
    0.00000E+00         0.00000E+00        -0.49885E+08
 
   -0.49652E+08         0.44962E+06         0.00000E+00
    0.44962E+06        -0.49785E+08         0.00000E+00
    0.00000E+00         0.00000E+00        -0.49887E+08
 
   -0.49670E+08         0.45434E+06         0.00000E+00
    0.45434E+06        -0.49777E+08         0.00000E+00
    0.00000E+00         0.00000E+00        -0.49889E+08
 
   -0.49688E+08         0.45874E+06         0.00000E+00
    0.45874E+06        -0.49768E+08         0.00000E+00
    0.00000E+00         0.00000E+00        -0.49891E+08
 
   -0.49707E+08         0.46281E+06         0.00000E+00
    0.46281E+06        -0.49760E+08         0.00000E+00
    0.00000E+00         0.00000E+00        -0.49893E+08
 
   -0.49725E+08         0.46658E+06         0.00000E+00
    0.46658E+06        -0.49752E+08         0.00000E+00
    0.00000E+00         0.00000E+00        -0.49895E+08
 
   -0.49744E+08         0.47006E+06         0.00000E+00
    0.47006E+06        -0.49743E+08         0.00000E+00
    0.00000E+00         0.00000E+00        -0.49897E+08
 
   -0.49762E+08         0.47328E+06         0.00000E+00
    0.47328E+06        -0.49735E+08         0.00000E+00
    0.00000E+00         0.00000E+00        -0.49899E+08
 
   -0.49780E+08         0.47623E+06         0.00000E+00
    0.47623E+06        -0.49727E+08         0.00000E+00
    0.00000E+00         0.00000E+00        -0.49901E+08
 
   -0.49798E+08         0.47895E+06         0.00000E+00
    0.47895E+06        -0.49719E+08         0.00000E+00
    0.00000E+00         0.00000E+00        -0.49903E+08
 
   -0.49817E+08         0.48144E+06         0.00000E+00
    0.48144E+06        -0.49711E+08         0.00000E+00
    0.00000E+00         0.00000E+00        -0.49905E+08
 
   -0.49835E+08         0.48373E+06         0.00000E+00
    0.48373E+06        -0.49702E+08         0.00000E+00
    0.00000E+00         0.00000E+00        -0.49907E+08
 
   -0.49853E+08         0.48582E+06         0.00000E+00
    0.48582E+06        -0.49694E+08         0.00000E+00
    0.00000E+00         0.00000E+00        -0.49909E+08
 
   -0.49871E+08         0.48773E+06         0.00000E+00
    0.48773E+06        -0.49686E+08         0.00000E+00
    0.00000E+00         0.00000E+00        -0.49911E+08
 
   -0.49889E+08         0.48947E+06         0.00000E+00
    0.48947E+06        -0.49678E+08         0.00000E+00
    0.00000E+00         0.00000E+00        -0.49914E+08
 
   -0.49907E+08         0.49107E+06         0.00000E+00
    0.49107E+06        -0.49670E+08         0.00000E+00
    0.00000E+00         0.00000E+00        -0.49916E+08
 
   -0.49086E+08         0.11531E+05         0.00000E+00
    0.11531E+05        -0.50000E+08         0.00000E+00
    0.00000E+00         0.00000E+00        -0.49817E+08
 
   -0.49089E+08         0.33944E+05         0.00000E+00
    0.33944E+05        -0.50000E+08         0.00000E+00
    0.00000E+00         0.00000E+00        -0.49818E+08
 
   -0.49093E+08         0.56028E+05         0.00000E+00
    0.56028E+05        -0.49998E+08         0.00000E+00
    0.00000E+00         0.00000E+00        -0.49818E+08
 
   -0.49099E+08         0.77749E+05         0.00000E+00
    0.77749E+05        -0.49996E+08         0.00000E+00
    0.00000E+00         0.00000E+00        -0.49819E+08
 
   -0.49105E+08         0.99073E+05         0.00000E+00
    0.99073E+05        -0.49994E+08         0.00000E+00
    0.00000E+00         0.00000E+00        -0.49820E+08
 
   -0.49113E+08         0.11997E+06         0.00000E+00
    0.11997E+06        -0.49991E+08         0.00000E+00
    0.00000E+00         0.00000E+00        -0.49821E+08
 
   -0.49122E+08         0.14042E+06         0.00000E+00
    0.14042E+06        -0.49987E+08         0.00000E+00
    0.00000E+00         0.00000E+00        -0.49822E+08
 
   -0.49131E+08         0.16038E+06         0.00000E+00
    0.16038E+06        -0.49983E+08         0.00000E+00
    0.00000E+00         0.00000E+00        -0.49823E+08
 
   -0.49142E+08         0.17985E+06         0.00000E+00
    0.17985E+06        -0.49979E+08         0.00000E+00
    0.00000E+00         0.00000E+00        -0.49824E+08
 
   -0.49154E+08         0.19879E+06         0.00000E+00
    0.19879E+06        -0.49974E+08         0.00000E+00
    0.00000E+00         0.00000E+00        -0.49825E+08
 
   -0.49166E+08         0.21720E+06         0.00000E+00
    0.21720E+06        -0.49968E+08         0.00000E+00
    0.00000E+00         0.00000E+00        -0.49827E+08
 
   -0.49180E+08         0.23505E+06         0.00000E+00
    0.23505E+06        -0.49962E+08         0.00000E+00
    0.00000E+00         0.00000E+00        -0.49828E+08
 
   -0.49194E+08         0.25234E+06         0.00000E+00
    0.25234E+06        -0.49956E+08         0.00000E+00
    0.00000E+00         0.00000E+00        -0.49830E+08
 
   -0.49208E+08         0.26906E+06         0.00000E+00
    0.26906E+06        -0.49950E+08         0.00000E+00
    0.00000E+00         0.00000E+00        -0.49832E+08
 
   -0.49224E+08         0.28519E+06         0.00000E+00
    0.28519E+06        -0.49943E+08         0.00000E+00
    0.00000E+00         0.00000E+00        -0.49833E+08
 
   -0.49240E+08         0.30073E+06         0.00000E+00
    0.30073E+06        -0.49936E+08         0.00000E+00
    0.00000E+00         0.00000E+00        -0.49835E+08
 
   -0.49257E+08         0.31568E+06         0.00000E+00
    0.31568E+06        -0.49928E+08         0.00000E+00
    0.00000E+00         0.00000E+00        -0.49837E+08
 
   -0.49274E+08         0.33003E+06         0.00000E+00
    0.33003E+06        -0.49920E+08         0.00000E+00
    0.00000E+00         0.00000E+00        -0.49839E+08
 
   -0.49291E+08         0.34379E+06         0.00000E+00
    0.34379E+06        -0.49912E+08         0.00000E+00
    0.00000E+00         0.00000E+00        -0.49841E+08
 
   -0.49309E+08         0.35695E+06         0.00000E+00
    0.35695E+06        -0.49904E+08         0.00000E+00
    0.00000E+00         0.00000E+00        -0.49843E+08
 
   -0.49328E+08         0.36951E+06         0.00000E+00
    0.36951E+06        -0.49896E+08         0.00000E+00
    0.00000E+00         0.00000E+00        -0.49845E+08
 
   -0.49347E+08         0.38149E+06         0.00000E+00
    0.38149E+06        -0.49888E+08         0.00000E+00
    0.00000E+00         0.00000E+00        -0.49847E+08
 
   -0.49366E+08         0.39289E+06         0.00000E+00
    0.39289E+06        -0.49879E+08         0.00000E+00
    0.00000E+00         0.00000E+00        -0.49849E+08
 
   -0.49385E+08         0.40372E+06         0.00000E+00
    0.40372E+06        -0.49870E+08         0.00000E+00
    0.00000E+00         0.00000E+00        -0.49851E+08
 
   -0.49405E+08         0.41397E+06         0.00000E+00
    0.41397E+06        -0.49861E+08         0.00000E+00
    0.00000E+00         0.00000E+00        -0.49853E+08
 
   -0.49425E+08         0.42368E+06         0.00000E+00
    0.42368E+06        -0.49853E+08         0.00000E+00
    0.00000E+00         0.00000E+00        -0.49855E+08
 
   -0.49445E+08         0.43284E+06         0.00000E+00
    0.43284E+06        -0.49844E+08         0.00000E+00
    0.00000E+00         0.00000E+00        -0.49858E+08
 
   -0.49465E+08         0.44146E+06         0.00000E+00
    0.44146E+06        -0.49834E+08         0.00000E+00
    0.00000E+00         0.00000E+00        -0.49860E+08
 
   -0.49485E+08         0.44957E+06         0.00000E+00
    0.44957E+06        -0.49825E+08         0.00000E+00
    0.00000E+00         0.00000E+00        -0.49862E+08
 
   -0.49505E+08         0.45718E+06         0.00000E+00
    0.45718E+06        -0.49816E+08         0.00000E+00
    0.00000E+00         0.00000E+00        -0.49864E+08
 
   -0.49526E+08         0.46430E+06         0.00000E+00
    0.46430E+06        -0.49807E+08         0.00000E+00
    0.00000E+00         0.00000E+00        -0.49867E+08
 
   -0.49546E+08         0.47094E+06         0.00000E+00
    0.47094E+06        -0.49798E+08         0.00000E+00
    0.00000E+00         0.00000E+00        -0.49869E+08
 
   -0.49566E+08         0.47714E+06         0.00000E+00
    0.47714E+06        -0.49789E+08         0.00000E+00
    0.00000E+00         0.00000E+00        -0.49871E+08
 
   -0.49587E+08         0.48289E+06         0.00000E+00
    0.48289E+06        -0.49780E+08         0.00000E+00
    0.00000E+00         0.00000E+00        -0.49873E+08
 
   -0.49607E+08         0.48823E+06         0.00000E+00
    0.48823E+06        -0.49771E+08         0.00000E+00
    0.00000E+00         0.00000E+00        -0.49876E+08
 
   -0.49627E+08         0.49317E+06         0.00000E+00
    0.49317E+06        -0.49762E+08         0.00000E+00
    0.00000E+00         0.00000E+00        -0.49878E+08
 
   -0.49648E+08         0.49773E+06         0.00000E+00
    0.49773E+06        -0.49753E+08         0.00000E+00
    0.00000E+00         0.00000E+00        -0.49880E+08
 
   -0.49668E+08         0.50193E+06         0.00000E+00
    0.50193E+06        -0.49744E+08         0.00000E+00
    0.00000E+00         0.00000E+00        -0.49882E+08
 
   -0.49688E+08         0.50580E+06         0.00000E+00
    0.50580E+06        -0.49735E+08         0.00000E+00
    0.00000E+00         0.00000E+00        -0.49885E+08
 
   -0.49708E+08         0.50934E+06         0.00000E+00
    0.50934E+06        -0.49726E+08         0.00000E+00
    0.00000E+00         0.00000E+00        -0.49887E+08
 
   -0.49727E+08         0.51259E+06         0.00000E+00
    0.51259E+06        -0.49717E+08         0.00000E+00
    0.00000E+00         0.00000E+00        -0.49889E+08
 
   -0.49747E+08         0.51557E+06         0.00000E+00
    0.51557E+06        -0.49709E+08         0.00000E+00
    0.00000E+00         0.00000E+00        -0.49891E+08
 
   -0.49767E+08         0.51829E+06         0.00000E+00
    0.51829E+06        -0.49700E+08         0.00000E+00
    0.00000E+00         0.00000E+00        -0.49893E+08
 
   -0.49786E+08         0.52077E+06         0.00000E+00
    0.52077E+06        -0.49692E+08         0.00000E+00
    0.00000E+00         0.00000E+00        -0.49895E+08
 
   -0.49805E+08         0.52305E+06         0.00000E+00
    0.52305E+06        -0.49683E+08         0.00000E+00
    0.00000E+00         0.00000E+00        -0.49898E+08
 
   -0.49824E+08         0.52513E+06         0.00000E+00
    0.52513E+06        -0.49675E+08         0.00000E+00
    0.00000E+00         0.00000E+00        -0.49900E+08
 
   -0.49843E+08         0.52705E+06         0.00000E+00
    0.52705E+06        -0.49666E+08         0.00000E+00
    0.00000E+00         0.00000E+00        -0.49902E+08
 
   -0.49862E+08         0.52881E+06         0.00000E+00
    0.52881E+06        -0.49658E+08         0.00000E+00
    0.00000E+00         0.00000E+00        -0.49904E+08
 
   -0.49881E+08         0.53045E+06         0.00000E+00
    0.53045E+06        -0.49649E+08         0.00000E+00
    0.00000E+00         0.00000E+00        -0.49906E+08
 
   -0.49900E+08         0.53197E+06         0.00000E+00
    0.53197E+06        -0.49641E+08         0.00000E+00
    0.00000E+00         0.00000E+00        -0.49908E+08
 
   -0.48965E+08         0.13413E+05         0.00000E+00
    0.13413E+05        -0.50000E+08         0.00000E+00
    0.00000E+00         0.00000E+00        -0.49793E+08
 
   -0.48969E+08         0.39275E+05         0.00000E+00
    0.39275E+05        -0.49999E+08         0.00000E+00
    0.00000E+00         0.00000E+00        -0.49794E+08
 
   -0.48976E+08         0.64669E+05         0.00000E+00
    0.64669E+05        -0.49998E+08         0.00000E+00
    0.00000E+00         0.00000E+00        -0.49795E+08
 
   -0.48983E+08         0.89558E+05         0.00000E+00
    0.89558E+05        -0.49996E+08         0.00000E+00
    0.00000E+00         0.00000E+00        -0.49796E+08
 
   -0.48992E+08         0.11391E+06         0.00000E+00
    0.11391E+06        -0.49993E+08         0.00000E+00
    0.00000E+00         0.00000E+00        -0.49797E+08
 
   -0.49003E+08         0.13768E+06         0.00000E+00
    0.13768E+06        -0.49989E+08         0.00000E+00
    0.00000E+00         0.00000E+00        -0.49798E+08
 
   -0.49014E+08         0.16086E+06         0.00000E+00
    0.16086E+06        -0.49985E+08         0.00000E+00
    0.00000E+00         0.00000E+00        -0.49800E+08
 
   -0.49027E+08         0.18341E+06         0.00000E+00
    0.18341E+06        -0.49981E+08         0.00000E+00
    0.00000E+00         0.00000E+00        -0.49801E+08
 
   -0.49040E+08         0.20531E+06         0.00000E+00
    0.20531E+06        -0.49975E+08         0.00000E+00
    0.00000E+00         0.00000E+00        -0.49803E+08
 
   -0.49055E+08         0.22655E+06         0.00000E+00
    0.22655E+06        -0.49970E+08         0.00000E+00
    0.00000E+00         0.00000E+00        -0.49805E+08
 
   -0.49070E+08         0.24711E+06         0.00000E+00
    0.24711E+06        -0.49964E+08         0.00000E+00
    0.00000E+00         0.00000E+00        -0.49807E+08
 
   -0.49087E+08         0.26697E+06         0.00000E+00
    0.26697E+06        -0.49957E+08         0.00000E+00
    0.00000E+00         0.00000E+00        -0.49809E+08
 
   -0.49104E+08         0.28613E+06         0.00000E+00
    0.28613E+06        -0.49950E+08         0.00000E+00
    0.00000E+00         0.00000E+00        -0.49811E+08
 
   -0.49122E+08         0.30457E+06         0.00000E+00
    0.30457E+06        -0.49943E+08         0.00000E+00
    0.00000E+00         0.00000E+00        -0.49813E+08
 
   -0.49141E+08         0.32230E+06         0.00000E+00
    0.32230E+06        -0.49935E+08         0.00000E+00
    0.00000E+00         0.00000E+00        -0.49815E+08
 
   -0.49160E+08         0.33930E+06         0.00000E+00
    0.33930E+06        -0.49927E+08         0.00000E+00
    0.00000E+00         0.00000E+00        -0.49817E+08
 
   -0.49180E+08         0.35558E+06         0.00000E+00
    0.35558E+06        -0.49919E+08         0.00000E+00
    0.00000E+00         0.00000E+00        -0.49820E+08
 
   -0.49201E+08         0.37114E+06         0.00000E+00
    0.37114E+06        -0.49910E+08         0.00000E+00
    0.00000E+00         0.00000E+00        -0.49822E+08
 
   -0.49221E+08         0.38597E+06         0.00000E+00
    0.38597E+06        -0.49901E+08         0.00000E+00
    0.00000E+00         0.00000E+00        -0.49825E+08
 
   -0.49243E+08         0.40010E+06         0.00000E+00
    0.40010E+06        -0.49892E+08         0.00000E+00
    0.00000E+00         0.00000E+00        -0.49827E+08
 
   -0.49264E+08         0.41352E+06         0.00000E+00
    0.41352E+06        -0.49883E+08         0.00000E+00
    0.00000E+00         0.00000E+00        -0.49830E+08
 
   -0.49286E+08         0.42624E+06         0.00000E+00
    0.42624E+06        -0.49874E+08         0.00000E+00
    0.00000E+00         0.00000E+00        -0.49832E+08
 
   -0.49309E+08         0.43828E+06         0.00000E+00
    0.43828E+06        -0.49864E+08         0.00000E+00
    0.00000E+00         0.00000E+00        -0.49835E+08
 
   -0.49331E+08         0.44964E+06         0.00000E+00
    0.44964E+06        -0.49855E+08         0.00000E+00
    0.00000E+00         0.00000E+00        -0.49837E+08
 
   -0.49354E+08         0.46034E+06         0.00000E+00
    0.46034E+06        -0.49845E+08         0.00000E+00
    0.00000E+00         0.00000E+00        -0.49840E+08
 
   -0.49377E+08         0.47039E+06         0.00000E+00
    0.47039E+06        -0.49836E+08         0.00000E+00
    0.00000E+00         0.00000E+00        -0.49842E+08
 
   -0.49400E+08         0.47982E+06         0.00000E+00
    0.47982E+06        -0.49826E+08         0.00000E+00
    0.00000E+00         0.00000E+00        -0.49845E+08
 
   -0.49422E+08         0.48863E+06         0.00000E+00
    0.48863E+06        -0.49816E+08         0.00000E+00
    0.00000E+00         0.00000E+00        -0.49848E+08
 
   -0.49445E+08         0.49684E+06         0.00000E+00
    0.49684E+06        -0.49806E+08         0.00000E+00
    0.00000E+00         0.00000E+00        -0.49850E+08
 
   -0.49468E+08         0.50448E+06         0.00000E+00
    0.50448E+06        -0.49796E+08         0.00000E+00
    0.00000E+00         0.00000E+00        -0.49853E+08
 
   -0.49491E+08         0.51157E+06         0.00000E+00
    0.51157E+06        -0.49787E+08         0.00000E+00
    0.00000E+00         0.00000E+00        -0.49856E+08
 
   -0.49514E+08         0.51813E+06         0.00000E+00
    0.51813E+06        -0.49777E+08         0.00000E+00
    0.00000E+00         0.00000E+00        -0.49858E+08
 
   -0.49537E+08         0.52417E+06         0.00000E+00
    0.52417E+06        -0.49767E+08         0.00000E+00
    0.00000E+00         0.00000E+00        -0.49861E+08
 
   -0.49560E+08         0.52973E+06         0.00000E+00
    0.52973E+06        -0.49757E+08         0.00000E+00
    0.00000E+00         0.00000E+00        -0.49863E+08
 
   -0.49582E+08         0.53483E+06         0.00000E+00
    0.53483E+06        -0.49748E+08         0.00000E+00
    0.00000E+00         0.00000E+00        -0.49866E+08
 
   -0.49604E+08         0.53949E+06         0.00000E+00
    0.53949E+06        -0.49738E+08         0.00000E+00
    0.00000E+00         0.00000E+00        -0.49869E+08
 
   -0.49626E+08         0.54374E+06         0.00000E+00
    0.54374E+06        -0.49729E+08         0.00000E+00
    0.00000E+00         0.00000E+00        -0.49871E+08
 
   -0.49648E+08         0.54761E+06         0.00000E+00
    0.54761E+06        -0.49719E+08         0.00000E+00
    0.00000E+00         0.00000E+00        -0.49874E+08
 
   -0.49670E+08         0.55111E+06         0.00000E+00
    0.55111E+06        -0.49710E+08         0.00000E+00
    0.00000E+00         0.00000E+00        -0.49876E+08
 
   -0.49691E+08         0.55429E+06         0.00000E+00
    0.55429E+06        -0.49701E+08         0.00000E+00
    0.00000E+00         0.00000E+00        -0.49878E+08
 
   -0.49713E+08         0.55715E+06         0.00000E+00
    0.55715E+06        -0.49692E+08         0.00000E+00
    0.00000E+00         0.00000E+00        -0.49881E+08
 
   -0.49734E+08         0.55975E+06         0.00000E+00
    0.55975E+06        -0.49683E+08         0.00000E+00
    0.00000E+00         0.00000E+00        -0.49883E+08
 
   -0.49754E+08         0.56209E+06         0.00000E+00
    0.56209E+06        -0.49674E+08         0.00000E+00
    0.00000E+00         0.00000E+00        -0.49886E+08
 
   -0.49775E+08         0.56421E+06         0.00000E+00
    0.56421E+06        -0.49665E+08         0.00000E+00
    0.00000E+00         0.00000E+00        -0.49888E+08
 
   -0.49795E+08         0.56613E+06         0.00000E+00
    0.56613E+06        -0.49656E+08         0.00000E+00
    0.00000E+00         0.00000E+00        -0.49890E+08
 
   -0.49815E+08         0.56789E+06         0.00000E+00
    0.56789E+06        -0.49647E+08         0.00000E+00
    0.00000E+00         0.00000E+00        -0.49892E+08
 
   -0.49835E+08         0.56951E+06         0.00000E+00
    0.56951E+06        -0.49639E+08         0.00000E+00
    0.00000E+00         0.00000E+00        -0.49895E+08
 
   -0.49854E+08         0.57102E+06         0.00000E+00
    0.57102E+06        -0.49630E+08         0.00000E+00
    0.00000E+00         0.00000E+00        -0.49897E+08
 
   -0.49874E+08         0.57245E+06         0.00000E+00
    0.57245E+06        -0.49622E+08         0.00000E+00
    0.00000E+00         0.00000E+00        -0.49899E+08
 
   -0.49893E+08         0.57382E+06         0.00000E+00
    0.57382E+06        -0.49613E+08         0.00000E+00
    0.00000E+00         0.00000E+00        -0.49901E+08
 
   -0.48824E+08         0.15609E+05         0.00000E+00
    0.15609E+05        -0.50000E+08         0.00000E+00
    0.00000E+00         0.00000E+00        -0.49765E+08
 
   -0.48832E+08         0.45440E+05         0.00000E+00
    0.45440E+05        -0.49999E+08         0.00000E+00
    0.00000E+00         0.00000E+00        -0.49766E+08
 
   -0.48841E+08         0.74619E+05         0.00000E+00
    0.74619E+05        -0.49998E+08         0.00000E+00
    0.00000E+00         0.00000E+00        -0.49768E+08
 
   -0.48852E+08         0.10311E+06         0.00000E+00
    0.10311E+06        -0.49995E+08         0.00000E+00
    0.00000E+00         0.00000E+00        -0.49769E+08
 
   -0.48864E+08         0.13087E+06         0.00000E+00
    0.13087E+06        -0.49992E+08         0.00000E+00
    0.00000E+00         0.00000E+00        -0.49771E+08
 
   -0.48877E+08         0.15788E+06         0.00000E+00
    0.15788E+06        -0.49988E+08         0.00000E+00
    0.00000E+00         0.00000E+00        -0.49773E+08
 
   -0.48892E+08         0.18410E+06         0.00000E+00
    0.18410E+06        -0.49983E+08         0.00000E+00
    0.00000E+00         0.00000E+00        -0.49775E+08
 
   -0.48909E+08         0.20951E+06         0.00000E+00
    0.20951E+06        -0.49978E+08         0.00000E+00
    0.00000E+00         0.00000E+00        -0.49777E+08
 
   -0.48926E+08         0.23410E+06         0.00000E+00
    0.23410E+06        -0.49972E+08         0.00000E+00
    0.00000E+00         0.00000E+00        -0.49780E+08
 
   -0.48944E+08         0.25784E+06         0.00000E+00
    0.25784E+06        -0.49966E+08         0.00000E+00
    0.00000E+00         0.00000E+00        -0.49782E+08
 
   -0.48964E+08         0.28073E+06         0.00000E+00
    0.28073E+06        -0.49959E+08         0.00000E+00
    0.00000E+00         0.00000E+00        -0.49785E+08
 
   -0.48984E+08         0.30274E+06         0.00000E+00
    0.30274E+06        -0.49951E+08         0.00000E+00
    0.00000E+00         0.00000E+00        -0.49787E+08
 
   -0.49005E+08         0.32389E+06         0.00000E+00
    0.32389E+06        -0.49944E+08         0.00000E+00
    0.00000E+00         0.00000E+00        -0.49790E+08
 
   -0.49027E+08         0.34416E+06         0.00000E+00
    0.34416E+06        -0.49936E+08         0.00000E+00
    0.00000E+00         0.00000E+00        -0.49793E+08
 
   -0.49050E+08         0.36355E+06         0.00000E+00
    0.36355E+06        -0.49927E+08         0.00000E+00
    0.00000E+00         0.00000E+00        -0.49795E+08
 
   -0.49073E+08         0.38206E+06         0.00000E+00
    0.38206E+06        -0.49918E+08         0.00000E+00
    0.00000E+00         0.00000E+00        -0.49798E+08
 
   -0.49097E+08         0.39970E+06         0.00000E+00
    0.39970E+06        -0.49909E+08         0.00000E+00
    0.00000E+00         0.00000E+00        -0.49801E+08
 
   -0.49122E+08         0.41647E+06         0.00000E+00
    0.41647E+06        -0.49900E+08         0.00000E+00
    0.00000E+00         0.00000E+00        -0.49804E+08
 
   -0.49146E+08         0.43239E+06         0.00000E+00
    0.43239E+06        -0.49890E+08         0.00000E+00
    0.00000E+00         0.00000E+00        -0.49807E+08
 
   -0.49172E+08         0.44745E+06         0.00000E+00
    0.44745E+06        -0.49880E+08         0.00000E+00
    0.00000E+00         0.00000E+00        -0.49810E+08
 
   -0.49197E+08         0.46169E+06         0.00000E+00
    0.46169E+06        -0.49870E+08         0.00000E+00
    0.00000E+00         0.00000E+00        -0.49814E+08
 
   -0.49223E+08         0.47510E+06         0.00000E+00
    0.47510E+06        -0.49860E+08         0.00000E+00
    0.00000E+00         0.00000E+00        -0.49817E+08
 
   -0.49249E+08         0.48770E+06         0.00000E+00
    0.48770E+06        -0.49850E+08         0.00000E+00
    0.00000E+00         0.00000E+00        -0.49820E+08
 
   -0.49275E+08         0.49952E+06         0.00000E+00
    0.49952E+06        -0.49840E+08         0.00000E+00
    0.00000E+00         0.00000E+00        -0.49823E+08
 
   -0.49301E+08         0.51057E+06         0.00000E+00
    0.51057E+06        -0.49829E+08         0.00000E+00
    0.00000E+00         0.00000E+00        -0.49826E+08
 
   -0.49327E+08         0.52087E+06         0.00000E+00
    0.52087E+06        -0.49819E+08         0.00000E+00
    0.00000E+00         0.00000E+00        -0.49829E+08
 
   -0.49354E+08         0.53045E+06         0.00000E+00
    0.53045E+06        -0.49808E+08         0.00000E+00
    0.00000E+00         0.00000E+00        -0.49832E+08
 
   -0.49380E+08         0.53933E+06         0.00000E+00
    0.53933E+06        -0.49798E+08         0.00000E+00
    0.00000E+00         0.00000E+00        -0.49836E+08
 
   -0.49406E+08         0.54753E+06         0.00000E+00
    0.54753E+06        -0.49788E+08         0.00000E+00
    0.00000E+00         0.00000E+00        -0.49839E+08
 
   -0.49432E+08         0.55507E+06         0.00000E+00
    0.55507E+06        -0.49777E+08         0.00000E+00
    0.00000E+00         0.00000E+00        -0.49842E+08
 
   -0.49458E+08         0.56199E+06         0.00000E+00
    0.56199E+06        -0.49767E+08         0.00000E+00
    0.00000E+00         0.00000E+00        -0.49845E+08
 
   -0.49483E+08         0.56831E+06         0.00000E+00
    0.56831E+06        -0.49756E+08         0.00000E+00
    0.00000E+00         0.00000E+00        -0.49848E+08
 
   -0.49509E+08         0.57406E+06         0.00000E+00
    0.57406E+06        -0.49746E+08         0.00000E+00
    0.00000E+00         0.00000E+00        -0.49851E+08
 
   -0.49534E+08         0.57928E+06         0.00000E+00
    0.57928E+06        -0.49736E+08         0.00000E+00
    0.00000E+00         0.00000E+00        -0.49854E+08
 
   -0.49559E+08         0.58398E+06         0.00000E+00
    0.58398E+06        -0.49726E+08         0.00000E+00
    0.00000E+00         0.00000E+00        -0.49857E+08
 
   -0.49583E+08         0.58821E+06         0.00000E+00
    0.58821E+06        -0.49716E+08         0.00000E+00
    0.00000E+00         0.00000E+00        -0.49860E+08
 
   -0.49607E+08         0.59198E+06         0.00000E+00
    0.59198E+06        -0.49706E+08         0.00000E+00
    0.00000E+00         0.00000E+00        -0.49863E+08
 
   -0.49631E+08         0.59535E+06         0.00000E+00
    0.59535E+06        -0.49696E+08         0.00000E+00
    0.00000E+00         0.00000E+00        -0.49865E+08
 
   -0.49655E+08         0.59833E+06         0.00000E+00
    0.59833E+06        -0.49686E+08         0.00000E+00
    0.00000E+00         0.00000E+00        -0.49868E+08
 
   -0.49678E+08         0.60097E+06         0.00000E+00
    0.60097E+06        -0.49677E+08         0.00000E+00
    0.00000E+00         0.00000E+00        -0.49871E+08
 
   -0.49700E+08         0.60329E+06         0.00000E+00
    0.60329E+06        -0.49668E+08         0.00000E+00
    0.00000E+00         0.00000E+00        -0.49874E+08
 
   -0.49723E+08         0.60533E+06         0.00000E+00
    0.60533E+06        -0.49658E+08         0.00000E+00
    0.00000E+00         0.00000E+00        -0.49876E+08
 
   -0.49744E+08         0.60713E+06         0.00000E+00
    0.60713E+06        -0.49649E+08         0.00000E+00
    0.00000E+00         0.00000E+00        -0.49879E+08
 
   -0.49766E+08         0.60873E+06         0.00000E+00
    0.60873E+06        -0.49640E+08         0.00000E+00
    0.00000E+00         0.00000E+00        -0.49881E+08
 
   -0.49787E+08         0.61015E+06         0.00000E+00
    0.61015E+06        -0.49631E+08         0.00000E+00
    0.00000E+00         0.00000E+00        -0.49884E+08
 
   -0.49808E+08         0.61143E+06         0.00000E+00
    0.61143E+06        -0.49622E+08         0.00000E+00
    0.00000E+00         0.00000E+00        -0.49886E+08
 
   -0.49828E+08         0.61261E+06         0.00000E+00
    0.61261E+06        -0.49614E+08         0.00000E+00
    0.00000E+00         0.00000E+00        -0.49888E+08
 
   -0.49848E+08         0.61373E+06         0.00000E+00
    0.61373E+06        -0.49605E+08         0.00000E+00
    0.00000E+00         0.00000E+00        -0.49891E+08
 
   -0.49867E+08         0.61481E+06         0.00000E+00
    0.61481E+06        -0.49597E+08         0.00000E+00
    0.00000E+00         0.00000E+00        -0.49893E+08
 
   -0.49887E+08         0.61590E+06         0.00000E+00
    0.61590E+06        -0.49588E+08         0.00000E+00
    0.00000E+00         0.00000E+00        -0.49895E+08
 
   -0.48662E+08         0.18144E+05         0.00000E+00
    0.18144E+05        -0.50000E+08         0.00000E+00
    0.00000E+00         0.00000E+00        -0.49732E+08
 
   -0.48673E+08         0.52486E+05         0.00000E+00
    0.52486E+05        -0.49999E+08         0.00000E+00
    0.00000E+00         0.00000E+00        -0.49735E+08
 
   -0.48687E+08         0.85940E+05         0.00000E+00
    0.85940E+05        -0.49997E+08         0.00000E+00
    0.00000E+00         0.00000E+00        -0.49737E+08
 
   -0.48701E+08         0.11847E+06         0.00000E+00
    0.11847E+06        -0.49994E+08         0.00000E+00
    0.00000E+00         0.00000E+00        -0.49739E+08
 
   -0.48718E+08         0.15003E+06         0.00000E+00
    0.15003E+06        -0.49991E+08         0.00000E+00
    0.00000E+00         0.00000E+00        -0.49742E+08
 
   -0.48736E+08         0.18061E+06         0.00000E+00
    0.18061E+06        -0.49986E+08         0.00000E+00
    0.00000E+00         0.00000E+00        -0.49744E+08
 
   -0.48755E+08         0.21017E+06         0.00000E+00
    0.21017E+06        -0.49981E+08         0.00000E+00
    0.00000E+00         0.00000E+00        -0.49747E+08
 
   -0.48776E+08         0.23870E+06         0.00000E+00
    0.23870E+06        -0.49975E+08         0.00000E+00
    0.00000E+00         0.00000E+00        -0.49750E+08
 
   -0.48798E+08         0.26619E+06         0.00000E+00
    0.26619E+06        -0.49969E+08         0.00000E+00
    0.00000E+00         0.00000E+00        -0.49753E+08
 
   -0.48821E+08         0.29261E+06         0.00000E+00
    0.29261E+06        -0.49962E+08         0.00000E+00
    0.00000E+00         0.00000E+00        -0.49757E+08
 
   -0.48846E+08         0.31797E+06         0.00000E+00
    0.31797E+06        -0.49954E+08         0.00000E+00
    0.00000E+00         0.00000E+00        -0.49760E+08
 
   -0.48871E+08         0.34226E+06         0.00000E+00
    0.34226E+06        -0.49946E+08         0.00000E+00
    0.00000E+00         0.00000E+00        -0.49763E+08
 
   -0.48897E+08         0.36548E+06         0.00000E+00
    0.36548E+06        -0.49938E+08         0.00000E+00
    0.00000E+00         0.00000E+00        -0.49767E+08
 
   -0.48924E+08         0.38763E+06         0.00000E+00
    0.38763E+06        -0.49929E+08         0.00000E+00
    0.00000E+00         0.00000E+00        -0.49770E+08
 
   -0.48951E+08         0.40872E+06         0.00000E+00
    0.40872E+06        -0.49920E+08         0.00000E+00
    0.00000E+00         0.00000E+00        -0.49774E+08
 
   -0.48979E+08         0.42875E+06         0.00000E+00
    0.42875E+06        -0.49910E+08         0.00000E+00
    0.00000E+00         0.00000E+00        -0.49778E+08
 
   -0.49008E+08         0.44775E+06         0.00000E+00
    0.44775E+06        -0.49900E+08         0.00000E+00
    0.00000E+00         0.00000E+00        -0.49782E+08
 
   -0.49037E+08         0.46571E+06         0.00000E+00
    0.46571E+06        -0.49890E+08         0.00000E+00
    0.00000E+00         0.00000E+00        -0.49785E+08
 
   -0.49067E+08         0.48265E+06         0.00000E+00
    0.48265E+06        -0.49880E+08         0.00000E+00
    0.00000E+00         0.00000E+00        -0.49789E+08
 
   -0.49096E+08         0.49860E+06         0.00000E+00
    0.49860E+06        -0.49869E+08         0.00000E+00
    0.00000E+00         0.00000E+00        -0.49793E+08
 
   -0.49126E+08         0.51358E+06         0.00000E+00
    0.51358E+06        -0.49859E+08         0.00000E+00
    0.00000E+00         0.00000E+00        -0.49797E+08
 
   -0.49156E+08         0.52759E+06         0.00000E+00
    0.52759E+06        -0.49848E+08         0.00000E+00
    0.00000E+00         0.00000E+00        -0.49801E+08
 
   -0.49187E+08         0.54068E+06         0.00000E+00
    0.54068E+06        -0.49837E+08         0.00000E+00
    0.00000E+00         0.00000E+00        -0.49805E+08
 
   -0.49217E+08         0.55285E+06         0.00000E+00
    0.55285E+06        -0.49826E+08         0.00000E+00
    0.00000E+00         0.00000E+00        -0.49809E+08
 
   -0.49247E+08         0.56414E+06         0.00000E+00
    0.56414E+06        -0.49815E+08         0.00000E+00
    0.00000E+00         0.00000E+00        -0.49812E+08
 
   -0.49277E+08         0.57458E+06         0.00000E+00
    0.57458E+06        -0.49804E+08         0.00000E+00
    0.00000E+00         0.00000E+00        -0.49816E+08
 
   -0.49307E+08         0.58419E+06         0.00000E+00
    0.58419E+06        -0.49793E+08         0.00000E+00
    0.00000E+00         0.00000E+00        -0.49820E+08
 
   -0.49337E+08         0.59300E+06         0.00000E+00
    0.59300E+06        -0.49782E+08         0.00000E+00
    0.00000E+00         0.00000E+00        -0.49824E+08
 
   -0.49367E+08         0.60104E+06         0.00000E+00
    0.60104E+06        -0.49771E+08         0.00000E+00
    0.00000E+00         0.00000E+00        -0.49828E+08
 
   -0.49396E+08         0.60835E+06         0.00000E+00
    0.60835E+06        -0.49760E+08         0.00000E+00
    0.00000E+00         0.00000E+00        -0.49831E+08
 
   -0.49425E+08         0.61496E+06         0.00000E+00
    0.61496E+06        -0.49749E+08         0.00000E+00
    0.00000E+00         0.00000E+00        -0.49835E+08
 
   -0.49454E+08         0.62090E+06         0.00000E+00
    0.62090E+06        -0.49739E+08         0.00000E+00
    0.00000E+00         0.00000E+00        -0.49839E+08
 
   -0.49482E+08         0.62621E+06         0.00000E+00
    0.62621E+06        -0.49728E+08         0.00000E+00
    0.00000E+00         0.00000E+00        -0.49842E+08
 
   -0.49510E+08         0.63092E+06         0.00000E+00
    0.63092E+06        -0.49717E+08         0.00000E+00
    0.00000E+00         0.00000E+00        -0.49845E+08
 
   -0.49538E+08         0.63507E+06         0.00000E+00
    0.63507E+06        -0.49707E+08         0.00000E+00
    0.00000E+00         0.00000E+00        -0.49849E+08
 
   -0.49564E+08         0.63870E+06         0.00000E+00
    0.63870E+06        -0.49697E+08         0.00000E+00
    0.00000E+00         0.00000E+00        -0.49852E+08
 
   -0.49591E+08         0.64185E+06         0.00000E+00
    0.64185E+06        -0.49686E+08         0.00000E+00
    0.00000E+00         0.00000E+00        -0.49855E+08
 
   -0.49617E+08         0.64454E+06         0.00000E+00
    0.64454E+06        -0.49676E+08         0.00000E+00
    0.00000E+00         0.00000E+00        -0.49859E+08
 
   -0.49642E+08         0.64684E+06         0.00000E+00
    0.64684E+06        -0.49667E+08         0.00000E+00
    0.00000E+00         0.00000E+00        -0.49862E+08
 
   -0.49667E+08         0.64876E+06         0.00000E+00
    0.64876E+06        -0.49657E+08         0.00000E+00
    0.00000E+00         0.00000E+00        -0.49865E+08
 
   -0.49691E+08         0.65037E+06         0.00000E+00
    0.65037E+06        -0.49647E+08         0.00000E+00
    0.00000E+00         0.00000E+00        -0.49868E+08
 
   -0.49715E+08         0.65169E+06         0.00000E+00
    0.65169E+06        -0.49638E+08         0.00000E+00
    0.00000E+00         0.00000E+00        -0.49871E+08
 
   -0.49738E+08         0.65278E+06         0.00000E+00
    0.65278E+06        -0.49629E+08         0.00000E+00
    0.00000E+00         0.00000E+00        -0.49873E+08
 
   -0.49760E+08         0.65367E+06         0.00000E+00
    0.65367E+06        -0.49620E+08         0.00000E+00
    0.00000E+00         0.00000E+00        -0.49876E+08
 
   -0.49782E+08         0.65441E+06         0.00000E+00
    0.65441E+06        -0.49611E+08         0.00000E+00
    0.00000E+00         0.00000E+00        -0.49879E+08
 
   -0.49803E+08         0.65504E+06         0.00000E+00
    0.65504E+06        -0.49602E+08         0.00000E+00
    0.00000E+00         0.00000E+00        -0.49881E+08
 
   -0.49823E+08         0.65561E+06         0.00000E+00
    0.65561E+06        -0.49593E+08         0.00000E+00
    0.00000E+00         0.00000E+00        -0.49883E+08
 
   -0.49843E+08         0.65617E+06         0.00000E+00
    0.65617E+06        -0.49585E+08         0.00000E+00
    0.00000E+00         0.00000E+00        -0.49886E+08
 
   -0.49863E+08         0.65676E+06         0.00000E+00
    0.65676E+06        -0.49577E+08         0.00000E+00
    0.00000E+00         0.00000E+00        -0.49888E+08
 
   -0.49882E+08         0.65742E+06         0.00000E+00
    0.65742E+06        -0.49568E+08         0.00000E+00
    0.00000E+00         0.00000E+00        -0.49890E+08
 
   -0.48476E+08         0.21028E+05         0.00000E+00
    0.21028E+05        -0.50000E+08         0.00000E+00
    0.00000E+00         0.00000E+00        -0.49695E+08
 
   -0.48492E+08         0.60420E+05         0.00000E+00
    0.60420E+05        -0.49999E+08         0.00000E+00
    0.00000E+00         0.00000E+00        -0.49698E+08
 
   -0.48510E+08         0.98619E+05         0.00000E+00
    0.98619E+05        -0.49997E+08         0.00000E+00
    0.00000E+00         0.00000E+00        -0.49701E+08
 
   -0.48530E+08         0.13559E+06         0.00000E+00
    0.13559E+06        -0.49994E+08         0.00000E+00
    0.00000E+00         0.00000E+00        -0.49705E+08
 
   -0.48553E+08         0.17131E+06         0.00000E+00
    0.17131E+06        -0.49990E+08         0.00000E+00
    0.00000E+00         0.00000E+00        -0.49708E+08
 
   -0.48576E+08         0.20576E+06         0.00000E+00
    0.20576E+06        -0.49985E+08         0.00000E+00
    0.00000E+00         0.00000E+00        -0.49712E+08
 
   -0.48602E+08         0.23892E+06         0.00000E+00
    0.23892E+06        -0.49979E+08         0.00000E+00
    0.00000E+00         0.00000E+00        -0.49716E+08
 
   -0.48628E+08         0.27077E+06         0.00000E+00
    0.27077E+06        -0.49973E+08         0.00000E+00
    0.00000E+00         0.00000E+00        -0.49720E+08
 
   -0.48656E+08         0.30131E+06         0.00000E+00
    0.30131E+06        -0.49966E+08         0.00000E+00
    0.00000E+00         0.00000E+00        -0.49724E+08
 
   -0.48685E+08         0.33054E+06         0.00000E+00
    0.33054E+06        -0.49958E+08         0.00000E+00
    0.00000E+00         0.00000E+00        -0.49729E+08
 
   -0.48715E+08         0.35846E+06         0.00000E+00
    0.35846E+06        -0.49950E+08         0.00000E+00
    0.00000E+00         0.00000E+00        -0.49733E+08
 
   -0.48747E+08         0.38507E+06         0.00000E+00
    0.38507E+06        -0.49941E+08         0.00000E+00
    0.00000E+00         0.00000E+00        -0.49738E+08
 
   -0.48778E+08         0.41039E+06         0.00000E+00
    0.41039E+06        -0.49932E+08         0.00000E+00
    0.00000E+00         0.00000E+00        -0.49742E+08
 
   -0.48811E+08         0.43442E+06         0.00000E+00
    0.43442E+06        -0.49923E+08         0.00000E+00
    0.00000E+00         0.00000E+00        -0.49747E+08
 
   -0.48844E+08         0.45718E+06         0.00000E+00
    0.45718E+06        -0.49913E+08         0.00000E+00
    0.00000E+00         0.00000E+00        -0.49752E+08
 
   -0.48878E+08         0.47869E+06         0.00000E+00
    0.47869E+06        -0.49903E+08         0.00000E+00
    0.00000E+00         0.00000E+00        -0.49756E+08
 
   -0.48913E+08         0.49898E+06         0.00000E+00
    0.49898E+06        -0.49893E+08         0.00000E+00
    0.00000E+00         0.00000E+00        -0.49761E+08
 
   -0.48947E+08         0.51805E+06         0.00000E+00
    0.51805E+06        -0.49882E+08         0.00000E+00
    0.00000E+00         0.00000E+00        -0.49766E+08
 
   -0.48982E+08         0.53594E+06         0.00000E+00
    0.53594E+06        -0.49871E+08         0.00000E+00
    0.00000E+00         0.00000E+00        -0.49771E+08
 
   -0.49017E+08         0.55268E+06         0.00000E+00
    0.55268E+06        -0.49860E+08         0.00000E+00
    0.00000E+00         0.00000E+00        -0.49775E+08
 
   -0.49052E+08         0.56828E+06         0.00000E+00
    0.56828E+06        -0.49849E+08         0.00000E+00
    0.00000E+00         0.00000E+00        -0.49780E+08
 
   -0.49088E+08         0.58279E+06         0.00000E+00
    0.58279E+06        -0.49838E+08         0.00000E+00
    0.00000E+00         0.00000E+00        -0.49785E+08
 
   -0.49123E+08         0.59623E+06         0.00000E+00
    0.59623E+06        -0.49827E+08         0.00000E+00
    0.00000E+00         0.00000E+00        -0.49790E+08
 
   -0.49158E+08         0.60864E+06         0.00000E+00
    0.60864E+06        -0.49815E+08         0.00000E+00
    0.00000E+00         0.00000E+00        -0.49795E+08
 
   -0.49193E+08         0.62005E+06         0.00000E+00
    0.62005E+06        -0.49804E+08         0.00000E+00
    0.00000E+00         0.00000E+00        -0.49799E+08
 
   -0.49227E+08         0.63049E+06         0.00000E+00
    0.63049E+06        -0.49793E+08         0.00000E+00
    0.00000E+00         0.00000E+00        -0.49804E+08
 
   -0.49262E+08         0.64001E+06         0.00000E+00
    0.64001E+06        -0.49781E+08         0.00000E+00
    0.00000E+00         0.00000E+00        -0.49809E+08
 
   -0.49296E+08         0.64863E+06         0.00000E+00
    0.64863E+06        -0.49770E+08         0.00000E+00
    0.00000E+00         0.00000E+00        -0.49813E+08
 
   -0.49329E+08         0.65639E+06         0.00000E+00
    0.65639E+06        -0.49759E+08         0.00000E+00
    0.00000E+00         0.00000E+00        -0.49818E+08
 
   -0.49362E+08         0.66334E+06         0.00000E+00
    0.66334E+06        -0.49748E+08         0.00000E+00
    0.00000E+00         0.00000E+00        -0.49822E+08
 
   -0.49395E+08         0.66951E+06         0.00000E+00
    0.66951E+06        -0.49737E+08         0.00000E+00
    0.00000E+00         0.00000E+00        -0.49826E+08
 
   -0.49427E+08         0.67494E+06         0.00000E+00
    0.67494E+06        -0.49726E+08         0.00000E+00
    0.00000E+00         0.00000E+00        -0.49831E+08
 
   -0.49459E+08         0.67967E+06         0.00000E+00
    0.67967E+06        -0.49715E+08         0.00000E+00
    0.00000E+00         0.00000E+00        -0.49835E+08
 
   -0.49489E+08         0.68374E+06         0.00000E+00
    0.68374E+06        -0.49704E+08         0.00000E+00
    0.00000E+00         0.00000E+00        -0.49839E+08
 
   -0.49520E+08         0.68721E+06         0.00000E+00
    0.68721E+06        -0.49694E+08         0.00000E+00
    0.00000E+00         0.00000E+00        -0.49843E+08
 
   -0.49549E+08         0.69010E+06         0.00000E+00
    0.69010E+06        -0.49684E+08         0.00000E+00
    0.00000E+00         0.00000E+00        -0.49847E+08
 
   -0.49578E+08         0.69247E+06         0.00000E+00
    0.69247E+06        -0.49673E+08         0.00000E+00
    0.00000E+00         0.00000E+00        -0.49850E+08
 
   -0.49606E+08         0.69435E+06         0.00000E+00
    0.69435E+06        -0.49663E+08         0.00000E+00
    0.00000E+00         0.00000E+00        -0.49854E+08
 
   -0.49634E+08         0.69581E+06         0.00000E+00
    0.69581E+06        -0.49653E+08         0.00000E+00
    0.00000E+00         0.00000E+00        -0.49857E+08
 
   -0.49660E+08         0.69687E+06         0.00000E+00
    0.69687E+06        -0.49644E+08         0.00000E+00
    0.00000E+00         0.00000E+00        -0.49861E+08
 
   -0.49686E+08         0.69760E+06         0.00000E+00
    0.69760E+06        -0.49634E+08         0.00000E+00
    0.00000E+00         0.00000E+00        -0.49864E+08
 
   -0.49711E+08         0.69803E+06         0.00000E+00
    0.69803E+06        -0.49625E+08         0.00000E+00
    0.00000E+00         0.00000E+00        -0.49867E+08
 
   -0.49735E+08         0.69823E+06         0.00000E+00
    0.69823E+06        -0.49616E+08         0.00000E+00
    0.00000E+00         0.00000E+00        -0.49870E+08
 
   -0.49758E+08         0.69824E+06         0.00000E+00
    0.69824E+06        -0.49607E+08         0.00000E+00
    0.00000E+00         0.00000E+00        -0.49873E+08
 
   -0.49780E+08         0.69812E+06         0.00000E+00
    0.69812E+06        -0.49598E+08         0.00000E+00
    0.00000E+00         0.00000E+00        -0.49876E+08
 
   -0.49802E+08         0.69792E+06         0.00000E+00
    0.69792E+06        -0.49590E+08         0.00000E+00
    0.00000E+00         0.00000E+00        -0.49878E+08
 
   -0.49822E+08         0.69769E+06         0.00000E+00
    0.69769E+06        -0.49581E+08         0.00000E+00
    0.00000E+00         0.00000E+00        -0.49881E+08
 
   -0.49842E+08         0.69749E+06         0.00000E+00
    0.69749E+06        -0.49573E+08         0.00000E+00
    0.00000E+00         0.00000E+00        -0.49883E+08
 
   -0.49861E+08         0.69739E+06         0.00000E+00
    0.69739E+06        -0.49565E+08         0.00000E+00
    0.00000E+00         0.00000E+00        -0.49885E+08
 
   -0.49879E+08         0.69742E+06         0.00000E+00
    0.69742E+06        -0.49557E+08         0.00000E+00
    0.00000E+00         0.00000E+00        -0.49887E+08
 
   -0.48262E+08         0.24252E+05         0.00000E+00
    0.24252E+05        -0.50000E+08         0.00000E+00
    0.00000E+00         0.00000E+00        -0.49652E+08
 
   -0.48285E+08         0.69176E+05         0.00000E+00
    0.69176E+05        -0.49999E+08         0.00000E+00
    0.00000E+00         0.00000E+00        -0.49657E+08
 
   -0.48310E+08         0.11253E+06         0.00000E+00
    0.11253E+06        -0.49997E+08         0.00000E+00
    0.00000E+00         0.00000E+00        -0.49661E+08
 
   -0.48337E+08         0.15429E+06         0.00000E+00
    0.15429E+06        -0.49993E+08         0.00000E+00
    0.00000E+00         0.00000E+00        -0.49666E+08
 
   -0.48367E+08         0.19444E+06         0.00000E+00
    0.19444E+06        -0.49989E+08         0.00000E+00
    0.00000E+00         0.00000E+00        -0.49671E+08
 
   -0.48398E+08         0.23296E+06         0.00000E+00
    0.23296E+06        -0.49984E+08         0.00000E+00
    0.00000E+00         0.00000E+00        -0.49676E+08
 
   -0.48430E+08         0.26986E+06         0.00000E+00
    0.26986E+06        -0.49978E+08         0.00000E+00
    0.00000E+00         0.00000E+00        -0.49682E+08
 
   -0.48464E+08         0.30514E+06         0.00000E+00
    0.30514E+06        -0.49971E+08         0.00000E+00
    0.00000E+00         0.00000E+00        -0.49687E+08
 
   -0.48499E+08         0.33880E+06         0.00000E+00
    0.33880E+06        -0.49963E+08         0.00000E+00
    0.00000E+00         0.00000E+00        -0.49693E+08
 
   -0.48536E+08         0.37085E+06         0.00000E+00
    0.37085E+06        -0.49955E+08         0.00000E+00
    0.00000E+00         0.00000E+00        -0.49698E+08
 
   -0.48573E+08         0.40131E+06         0.00000E+00
    0.40131E+06        -0.49947E+08         0.00000E+00
    0.00000E+00         0.00000E+00        -0.49704E+08
 
   -0.48611E+08         0.43020E+06         0.00000E+00
    0.43020E+06        -0.49938E+08         0.00000E+00
    0.00000E+00         0.00000E+00        -0.49710E+08
 
   -0.48650E+08         0.45754E+06         0.00000E+00
    0.45754E+06        -0.49929E+08         0.00000E+00
    0.00000E+00         0.00000E+00        -0.49716E+08
 
   -0.48690E+08         0.48336E+06         0.00000E+00
    0.48336E+06        -0.49919E+08         0.00000E+00
    0.00000E+00         0.00000E+00        -0.49722E+08
 
   -0.48730E+08         0.50769E+06         0.00000E+00
    0.50769E+06        -0.49909E+08         0.00000E+00
    0.00000E+00         0.00000E+00        -0.49728E+08
 
   -0.48771E+08         0.53056E+06         0.00000E+00
    0.53056E+06        -0.49899E+08         0.00000E+00
    0.00000E+00         0.00000E+00        -0.49734E+08
 
   -0.48811E+08         0.55199E+06         0.00000E+00
    0.55199E+06        -0.49888E+08         0.00000E+00
    0.00000E+00         0.00000E+00        -0.49740E+08
 
   -0.48852E+08         0.57204E+06         0.00000E+00
    0.57204E+06        -0.49877E+08         0.00000E+00
    0.00000E+00         0.00000E+00        -0.49746E+08
 
   -0.48894E+08         0.59073E+06         0.00000E+00
    0.59073E+06        -0.49866E+08         0.00000E+00
    0.00000E+00         0.00000E+00        -0.49752E+08
 
   -0.48935E+08         0.60810E+06         0.00000E+00
    0.60810E+06        -0.49855E+08         0.00000E+00
    0.00000E+00         0.00000E+00        -0.49758E+08
 
   -0.48976E+08         0.62419E+06         0.00000E+00
    0.62419E+06        -0.49844E+08         0.00000E+00
    0.00000E+00         0.00000E+00        -0.49764E+08
 
   -0.49017E+08         0.63905E+06         0.00000E+00
    0.63905E+06        -0.49833E+08         0.00000E+00
    0.00000E+00         0.00000E+00        -0.49770E+08
 
   -0.49058E+08         0.65271E+06         0.00000E+00
    0.65271E+06        -0.49822E+08         0.00000E+00
    0.00000E+00         0.00000E+00        -0.49776E+08
 
   -0.49098E+08         0.66522E+06         0.00000E+00
    0.66522E+06        -0.49810E+08         0.00000E+00
    0.00000E+00         0.00000E+00        -0.49782E+08
 
   -0.49138E+08         0.67662E+06         0.00000E+00
    0.67662E+06        -0.49799E+08         0.00000E+00
    0.00000E+00         0.00000E+00        -0.49787E+08
 
   -0.49178E+08         0.68695E+06         0.00000E+00
    0.68695E+06        -0.49788E+08         0.00000E+00
    0.00000E+00         0.00000E+00        -0.49793E+08
 
   -0.49217E+08         0.69626E+06         0.00000E+00
    0.69626E+06        -0.49777E+08         0.00000E+00
    0.00000E+00         0.00000E+00        -0.49799E+08
 
   -0.49255E+08         0.70458E+06         0.00000E+00
    0.70458E+06        -0.49766E+08         0.00000E+00
    0.00000E+00         0.00000E+00        -0.49804E+08
 
   -0.49293E+08         0.71197E+06         0.00000E+00
    0.71197E+06        -0.49755E+08         0.00000E+00
    0.00000E+00         0.00000E+00        -0.49810E+08
 
   -0.49331E+08         0.71846E+06         0.00000E+00
    0.71846E+06        -0.49744E+08         0.00000E+00
    0.00000E+00         0.00000E+00        -0.49815E+08
 
   -0.49367E+08         0.72410E+06         0.00000E+00
    0.72410E+06        -0.49733E+08         0.00000E+00
    0.00000E+00         0.00000E+00        -0.49820E+08
 
   -0.49403E+08         0.72894E+06         0.00000E+00
    0.72894E+06        -0.49722E+08         0.00000E+00
    0.00000E+00         0.00000E+00        -0.49825E+08
 
   -0.49438E+08         0.73302E+06         0.00000E+00
    0.73302E+06        -0.49712E+08         0.00000E+00
    0.00000E+00         0.00000E+00        -0.49830E+08
 
   -0.49472E+08         0.73638E+06         0.00000E+00
    0.73638E+06        -0.49701E+08         0.00000E+00
    0.00000E+00         0.00000E+00        -0.49835E+08
 
   -0.49506E+08         0.73908E+06         0.00000E+00
    0.73908E+06        -0.49691E+08         0.00000E+00
    0.00000E+00         0.00000E+00        -0.49839E+08
 
   -0.49538E+08         0.74116E+06         0.00000E+00
    0.74116E+06        -0.49681E+08         0.00000E+00
    0.00000E+00         0.00000E+00        -0.49844E+08
 
   -0.49570E+08         0.74267E+06         0.00000E+00
    0.74267E+06        -0.49671E+08         0.00000E+00
    0.00000E+00         0.00000E+00        -0.49848E+08
 
   -0.49600E+08         0.74366E+06         0.00000E+00
    0.74366E+06        -0.49661E+08         0.00000E+00
    0.00000E+00         0.00000E+00        -0.49852E+08
 
   -0.49629E+08         0.74418E+06         0.00000E+00
    0.74418E+06        -0.49651E+08         0.00000E+00
    0.00000E+00         0.00000E+00        -0.49856E+08
 
   -0.49658E+08         0.74428E+06         0.00000E+00
    0.74428E+06        -0.49642E+08         0.00000E+00
    0.00000E+00         0.00000E+00        -0.49860E+08
 
   -0.49685E+08         0.74401E+06         0.00000E+00
    0.74401E+06        -0.49633E+08         0.00000E+00
    0.00000E+00         0.00000E+00        -0.49864E+08
 
   -0.49711E+08         0.74344E+06         0.00000E+00
    0.74344E+06        -0.49623E+08         0.00000E+00
    0.00000E+00         0.00000E+00        -0.49867E+08
 
   -0.49737E+08         0.74261E+06         0.00000E+00
    0.74261E+06        -0.49615E+08         0.00000E+00
    0.00000E+00         0.00000E+00        -0.49870E+08
 
   -0.49761E+08         0.74159E+06         0.00000E+00
    0.74159E+06        -0.49606E+08         0.00000E+00
    0.00000E+00         0.00000E+00        -0.49873E+08
 
   -0.49783E+08         0.74044E+06         0.00000E+00
    0.74044E+06        -0.49598E+08         0.00000E+00
    0.00000E+00         0.00000E+00        -0.49876E+08
 
   -0.49805E+08         0.73922E+06         0.00000E+00
    0.73922E+06        -0.49590E+08         0.00000E+00
    0.00000E+00         0.00000E+00        -0.49879E+08
 
   -0.49826E+08         0.73799E+06         0.00000E+00
    0.73799E+06        -0.49582E+08         0.00000E+00
    0.00000E+00         0.00000E+00        -0.49881E+08
 
   -0.49845E+08         0.73683E+06         0.00000E+00
    0.73683E+06        -0.49574E+08         0.00000E+00
    0.00000E+00         0.00000E+00        -0.49884E+08
 
   -0.49863E+08         0.73580E+06         0.00000E+00
    0.73580E+06        -0.49566E+08         0.00000E+00
    0.00000E+00         0.00000E+00        -0.49886E+08
 
   -0.49881E+08         0.73498E+06         0.00000E+00
    0.73498E+06        -0.49559E+08         0.00000E+00
    0.00000E+00         0.00000E+00        -0.49888E+08
 
   -0.48018E+08         0.27772E+05         0.00000E+00
    0.27772E+05        -0.50000E+08         0.00000E+00
    0.00000E+00         0.00000E+00        -0.49604E+08
 
   -0.48050E+08         0.78594E+05         0.00000E+00
    0.78594E+05        -0.49999E+08         0.00000E+00
    0.00000E+00         0.00000E+00        -0.49610E+08
 
   -0.48084E+08         0.12738E+06         0.00000E+00
    0.12738E+06        -0.49996E+08         0.00000E+00
    0.00000E+00         0.00000E+00        -0.49616E+08
 
   -0.48121E+08         0.17412E+06         0.00000E+00
    0.17412E+06        -0.49993E+08         0.00000E+00
    0.00000E+00         0.00000E+00        -0.49623E+08
 
   -0.48159E+08         0.21881E+06         0.00000E+00
    0.21881E+06        -0.49988E+08         0.00000E+00
    0.00000E+00         0.00000E+00        -0.49629E+08
 
   -0.48199E+08         0.26147E+06         0.00000E+00
    0.26147E+06        -0.49983E+08         0.00000E+00
    0.00000E+00         0.00000E+00        -0.49636E+08
 
   -0.48241E+08         0.30212E+06         0.00000E+00
    0.30212E+06        -0.49977E+08         0.00000E+00
    0.00000E+00         0.00000E+00        -0.49643E+08
 
   -0.48284E+08         0.34076E+06         0.00000E+00
    0.34076E+06        -0.49970E+08         0.00000E+00
    0.00000E+00         0.00000E+00        -0.49651E+08
 
   -0.48328E+08         0.37744E+06         0.00000E+00
    0.37744E+06        -0.49962E+08         0.00000E+00
    0.00000E+00         0.00000E+00        -0.49658E+08
 
   -0.48373E+08         0.41217E+06         0.00000E+00
    0.41217E+06        -0.49954E+08         0.00000E+00
    0.00000E+00         0.00000E+00        -0.49665E+08
 
   -0.48419E+08         0.44501E+06         0.00000E+00
    0.44501E+06        -0.49946E+08         0.00000E+00
    0.00000E+00         0.00000E+00        -0.49673E+08
 
   -0.48466E+08         0.47598E+06         0.00000E+00
    0.47598E+06        -0.49937E+08         0.00000E+00
    0.00000E+00         0.00000E+00        -0.49681E+08
 
   -0.48513E+08         0.50513E+06         0.00000E+00
    0.50513E+06        -0.49928E+08         0.00000E+00
    0.00000E+00         0.00000E+00        -0.49688E+08
 
   -0.48561E+08         0.53251E+06         0.00000E+00
    0.53251E+06        -0.49918E+08         0.00000E+00
    0.00000E+00         0.00000E+00        -0.49696E+08
 
   -0.48609E+08         0.55816E+06         0.00000E+00
    0.55816E+06        -0.49908E+08         0.00000E+00
    0.00000E+00         0.00000E+00        -0.49703E+08
 
   -0.48657E+08         0.58214E+06         0.00000E+00
    0.58214E+06        -0.49898E+08         0.00000E+00
    0.00000E+00         0.00000E+00        -0.49711E+08
 
   -0.48705E+08         0.60449E+06         0.00000E+00
    0.60449E+06        -0.49888E+08         0.00000E+00
    0.00000E+00         0.00000E+00        -0.49719E+08
 
   -0.48754E+08         0.62527E+06         0.00000E+00
    0.62527E+06        -0.49878E+08         0.00000E+00
    0.00000E+00         0.00000E+00        -0.49726E+08
 
   -0.48802E+08         0.64454E+06         0.00000E+00
    0.64454E+06        -0.49867E+08         0.00000E+00
    0.00000E+00         0.00000E+00        -0.49734E+08
 
   -0.48850E+08         0.66234E+06         0.00000E+00
    0.66234E+06        -0.49857E+08         0.00000E+00
    0.00000E+00         0.00000E+00        -0.49741E+08
 
   -0.48898E+08         0.67872E+06         0.00000E+00
    0.67872E+06        -0.49846E+08         0.00000E+00
    0.00000E+00         0.00000E+00        -0.49749E+08
 
   -0.48945E+08         0.69376E+06         0.00000E+00
    0.69376E+06        -0.49836E+08         0.00000E+00
    0.00000E+00         0.00000E+00        -0.49756E+08
 
   -0.48992E+08         0.70749E+06         0.00000E+00
    0.70749E+06        -0.49825E+08         0.00000E+00
    0.00000E+00         0.00000E+00        -0.49763E+08
 
   -0.49038E+08         0.71996E+06         0.00000E+00
    0.71996E+06        -0.49815E+08         0.00000E+00
    0.00000E+00         0.00000E+00        -0.49771E+08
 
   -0.49084E+08         0.73124E+06         0.00000E+00
    0.73124E+06        -0.49804E+08         0.00000E+00
    0.00000E+00         0.00000E+00        -0.49778E+08
 
   -0.49129E+08         0.74137E+06         0.00000E+00
    0.74137E+06        -0.49794E+08         0.00000E+00
    0.00000E+00         0.00000E+00        -0.49785E+08
 
   -0.49173E+08         0.75040E+06         0.00000E+00
    0.75040E+06        -0.49783E+08         0.00000E+00
    0.00000E+00         0.00000E+00        -0.49791E+08
 
   -0.49217E+08         0.75838E+06         0.00000E+00
    0.75838E+06        -0.49773E+08         0.00000E+00
    0.00000E+00         0.00000E+00        -0.49798E+08
 
   -0.49260E+08         0.76536E+06         0.00000E+00
    0.76536E+06        -0.49763E+08         0.00000E+00
    0.00000E+00         0.00000E+00        -0.49804E+08
 
   -0.49301E+08         0.77139E+06         0.00000E+00
    0.77139E+06        -0.49753E+08         0.00000E+00
    0.00000E+00         0.00000E+00        -0.49811E+08
 
   -0.49342E+08         0.77652E+06         0.00000E+00
    0.77652E+06        -0.49742E+08         0.00000E+00
    0.00000E+00         0.00000E+00        -0.49817E+08
 
   -0.49382E+08         0.78079E+06         0.00000E+00
    0.78079E+06        -0.49732E+08         0.00000E+00
    0.00000E+00         0.00000E+00        -0.49823E+08
 
   -0.49421E+08         0.78425E+06         0.00000E+00
    0.78425E+06        -0.49723E+08         0.00000E+00
    0.00000E+00         0.00000E+00        -0.49829E+08
 
   -0.49459E+08         0.78694E+06         0.00000E+00
    0.78694E+06        -0.49713E+08         0.00000E+00
    0.00000E+00         0.00000E+00        -0.49834E+08
 
   -0.49495E+08         0.78892E+06         0.00000E+00
    0.78892E+06        -0.49703E+08         0.00000E+00
    0.00000E+00         0.00000E+00        -0.49840E+08
 
   -0.49531E+08         0.79023E+06         0.00000E+00
    0.79023E+06        -0.49693E+08         0.00000E+00
    0.00000E+00         0.00000E+00        -0.49845E+08
 
   -0.49565E+08         0.79092E+06         0.00000E+00
    0.79092E+06        -0.49684E+08         0.00000E+00
    0.00000E+00         0.00000E+00        -0.49850E+08
 
   -0.49598E+08         0.79105E+06         0.00000E+00
    0.79105E+06        -0.49675E+08         0.00000E+00
    0.00000E+00         0.00000E+00        -0.49855E+08
 
   -0.49630E+08         0.79065E+06         0.00000E+00
    0.79065E+06        -0.49666E+08         0.00000E+00
    0.00000E+00         0.00000E+00        -0.49859E+08
 
   -0.49661E+08         0.78979E+06         0.00000E+00
    0.78979E+06        -0.49657E+08         0.00000E+00
    0.00000E+00         0.00000E+00        -0.49863E+08
 
   -0.49690E+08         0.78853E+06         0.00000E+00
    0.78853E+06        -0.49648E+08         0.00000E+00
    0.00000E+00         0.00000E+00        -0.49868E+08
 
   -0.49717E+08         0.78691E+06         0.00000E+00
    0.78691E+06        -0.49640E+08         0.00000E+00
    0.00000E+00         0.00000E+00        -0.49871E+08
 
   -0.49744E+08         0.78500E+06         0.00000E+00
    0.78500E+06        -0.49631E+08         0.00000E+00
    0.00000E+00         0.00000E+00        -0.49875E+08
 
   -0.49769E+08         0.78286E+06         0.00000E+00
    0.78286E+06        -0.49623E+08         0.00000E+00
    0.00000E+00         0.00000E+00        -0.49878E+08
 
   -0.49792E+08         0.78056E+06         0.00000E+00
    0.78056E+06        -0.49615E+08         0.00000E+00
    0.00000E+00         0.00000E+00        -0.49881E+08
 
   -0.49814E+08         0.77818E+06         0.00000E+00
    0.77818E+06        -0.49608E+08         0.00000E+00
    0.00000E+00         0.00000E+00        -0.49884E+08
 
   -0.49834E+08         0.77577E+06         0.00000E+00
    0.77577E+06        -0.49600E+08         0.00000E+00
    0.00000E+00         0.00000E+00        -0.49887E+08
 
   -0.49853E+08         0.77343E+06         0.00000E+00
    0.77343E+06        -0.49593E+08         0.00000E+00
    0.00000E+00         0.00000E+00        -0.49889E+08
 
   -0.49871E+08         0.77123E+06         0.00000E+00
    0.77123E+06        -0.49586E+08         0.00000E+00
    0.00000E+00         0.00000E+00        -0.49891E+08
 
   -0.49887E+08         0.76926E+06         0.00000E+00
    0.76926E+06        -0.49580E+08         0.00000E+00
    0.00000E+00         0.00000E+00        -0.49893E+08
 
   -0.47743E+08         0.31502E+05         0.00000E+00
    0.31502E+05        -0.50000E+08         0.00000E+00
    0.00000E+00         0.00000E+00        -0.49549E+08
 
   -0.47786E+08         0.88376E+05         0.00000E+00
    0.88376E+05        -0.49999E+08         0.00000E+00
    0.00000E+00         0.00000E+00        -0.49557E+08
 
   -0.47832E+08         0.14264E+06         0.00000E+00
    0.14264E+06        -0.49996E+08         0.00000E+00
    0.00000E+00         0.00000E+00        -0.49566E+08
 
   -0.47880E+08         0.19433E+06         0.00000E+00
    0.19433E+06        -0.49993E+08         0.00000E+00
    0.00000E+00         0.00000E+00        -0.49575E+08
 
   -0.47930E+08         0.24346E+06         0.00000E+00
    0.24346E+06        -0.49988E+08         0.00000E+00
    0.00000E+00         0.00000E+00        -0.49584E+08
 
   -0.47981E+08         0.29007E+06         0.00000E+00
    0.29007E+06        -0.49983E+08         0.00000E+00
    0.00000E+00         0.00000E+00        -0.49593E+08
 
   -0.48034E+08         0.33420E+06         0.00000E+00
    0.33420E+06        -0.49977E+08         0.00000E+00
    0.00000E+00         0.00000E+00        -0.49602E+08
 
   -0.48088E+08         0.37591E+06         0.00000E+00
    0.37591E+06        -0.49970E+08         0.00000E+00
    0.00000E+00         0.00000E+00        -0.49612E+08
 
   -0.48143E+08         0.41526E+06         0.00000E+00
    0.41526E+06        -0.49963E+08         0.00000E+00
    0.00000E+00         0.00000E+00        -0.49621E+08
 
   -0.48198E+08         0.45230E+06         0.00000E+00
    0.45230E+06        -0.49956E+08         0.00000E+00
    0.00000E+00         0.00000E+00        -0.49631E+08
 
   -0.48255E+08         0.48710E+06         0.00000E+00
    0.48710E+06        -0.49948E+08         0.00000E+00
    0.00000E+00         0.00000E+00        -0.49641E+08
 
   -0.48311E+08         0.51973E+06         0.00000E+00
    0.51973E+06        -0.49940E+08         0.00000E+00
    0.00000E+00         0.00000E+00        -0.49650E+08
 
   -0.48368E+08         0.55026E+06         0.00000E+00
    0.55026E+06        -0.49931E+08         0.00000E+00
    0.00000E+00         0.00000E+00        -0.49660E+08
 
   -0.48425E+08         0.57877E+06         0.00000E+00
    0.57877E+06        -0.49923E+08         0.00000E+00
    0.00000E+00         0.00000E+00        -0.49670E+08
 
   -0.48483E+08         0.60533E+06         0.00000E+00
    0.60533E+06        -0.49914E+08         0.00000E+00
    0.00000E+00         0.00000E+00        -0.49679E+08
 
   -0.48540E+08         0.63001E+06         0.00000E+00
    0.63001E+06        -0.49905E+08         0.00000E+00
    0.00000E+00         0.00000E+00        -0.49689E+08
 
   -0.48596E+08         0.65290E+06         0.00000E+00
    0.65290E+06        -0.49896E+08         0.00000E+00
    0.00000E+00         0.00000E+00        -0.49698E+08
 
   -0.48653E+08         0.67406E+06         0.00000E+00
    0.67406E+06        -0.49887E+08         0.00000E+00
    0.00000E+00         0.00000E+00        -0.49708E+08
 
   -0.48709E+08         0.69358E+06         0.00000E+00
    0.69358E+06        -0.49878E+08         0.00000E+00
    0.00000E+00         0.00000E+00        -0.49717E+08
 
   -0.48764E+08         0.71152E+06         0.00000E+00
    0.71152E+06        -0.49869E+08         0.00000E+00
    0.00000E+00         0.00000E+00        -0.49727E+08
 
   -0.48819E+08         0.72795E+06         0.00000E+00
    0.72795E+06        -0.49860E+08         0.00000E+00
    0.00000E+00         0.00000E+00        -0.49736E+08
 
   -0.48873E+08         0.74296E+06         0.00000E+00
    0.74296E+06        -0.49851E+08         0.00000E+00
    0.00000E+00         0.00000E+00        -0.49745E+08
 
   -0.48926E+08         0.75659E+06         0.00000E+00
    0.75659E+06        -0.49842E+08         0.00000E+00
    0.00000E+00         0.00000E+00        -0.49754E+08
 
   -0.48979E+08         0.76892E+06         0.00000E+00
    0.76892E+06        -0.49833E+08         0.00000E+00
    0.00000E+00         0.00000E+00        -0.49762E+08
 
   -0.49031E+08         0.78001E+06         0.00000E+00
    0.78001E+06        -0.49824E+08         0.00000E+00
    0.00000E+00         0.00000E+00        -0.49771E+08
 
   -0.49081E+08         0.78992E+06         0.00000E+00
    0.78992E+06        -0.49816E+08         0.00000E+00
    0.00000E+00         0.00000E+00        -0.49779E+08
 
   -0.49131E+08         0.79870E+06         0.00000E+00
    0.79870E+06        -0.49807E+08         0.00000E+00
    0.00000E+00         0.00000E+00        -0.49788E+08
 
   -0.49180E+08         0.80641E+06         0.00000E+00
    0.80641E+06        -0.49798E+08         0.00000E+00
    0.00000E+00         0.00000E+00        -0.49796E+08
 
   -0.49228E+08         0.81309E+06         0.00000E+00
    0.81309E+06        -0.49789E+08         0.00000E+00
    0.00000E+00         0.00000E+00        -0.49803E+08
 
   -0.49274E+08         0.81880E+06         0.00000E+00
    0.81880E+06        -0.49781E+08         0.00000E+00
    0.00000E+00         0.00000E+00        -0.49811E+08
 
   -0.49319E+08         0.82359E+06         0.00000E+00
    0.82359E+06        -0.49772E+08         0.00000E+00
    0.00000E+00         0.00000E+00        -0.49818E+08
 
   -0.49364E+08         0.82749E+06         0.00000E+00
    0.82749E+06        -0.49764E+08         0.00000E+00
    0.00000E+00         0.00000E+00        -0.49825E+08
 
   -0.49406E+08         0.83055E+06         0.00000E+00
    0.83055E+06        -0.49755E+08         0.00000E+00
    0.00000E+00         0.00000E+00        -0.49832E+08
 
   -0.49448E+08         0.83282E+06         0.00000E+00
    0.83282E+06        -0.49747E+08         0.00000E+00
    0.00000E+00         0.00000E+00        -0.49839E+08
 
   -0.49488E+08         0.83434E+06         0.00000E+00
    0.83434E+06        -0.49738E+08         0.00000E+00
    0.00000E+00         0.00000E+00        -0.49845E+08
 
   -0.49527E+08         0.83514E+06         0.00000E+00
    0.83514E+06        -0.49730E+08         0.00000E+00
    0.00000E+00         0.00000E+00        -0.49851E+08
 
   -0.49564E+08         0.83527E+06         0.00000E+00
    0.83527E+06        -0.49721E+08         0.00000E+00
    0.00000E+00         0.00000E+00        -0.49857E+08
 
   -0.49600E+08         0.83478E+06         0.00000E+00
    0.83478E+06        -0.49713E+08         0.00000E+00
    0.00000E+00         0.00000E+00        -0.49863E+08
 
   -0.49635E+08         0.83370E+06         0.00000E+00
    0.83370E+06        -0.49705E+08         0.00000E+00
    0.00000E+00         0.00000E+00        -0.49868E+08
 
   -0.49668E+08         0.83209E+06         0.00000E+00
    0.83209E+06        -0.49697E+08         0.00000E+00
    0.00000E+00         0.00000E+00        -0.49873E+08
 
   -0.49699E+08         0.83000E+06         0.00000E+00
    0.83000E+06        -0.49689E+08         0.00000E+00
    0.00000E+00         0.00000E+00        -0.49878E+08
 
   -0.49728E+08         0.82748E+06         0.00000E+00
    0.82748E+06        -0.49681E+08         0.00000E+00
    0.00000E+00         0.00000E+00        -0.49882E+08
 
   -0.49756E+08         0.82459E+06         0.00000E+00
    0.82459E+06        -0.49673E+08         0.00000E+00
    0.00000E+00         0.00000E+00        -0.49886E+08
 
   -0.49782E+08         0.82138E+06         0.00000E+00
    0.82138E+06        -0.49666E+08         0.00000E+00
    0.00000E+00         0.00000E+00        -0.49890E+08
 
   -0.49806E+08         0.81794E+06         0.00000E+00
    0.81794E+06        -0.49658E+08         0.00000E+00
    0.00000E+00         0.00000E+00        -0.49893E+08
 
   -0.49829E+08         0.81432E+06         0.00000E+00
    0.81432E+06        -0.49651E+08         0.00000E+00
    0.00000E+00         0.00000E+00        -0.49896E+08
 
   -0.49849E+08         0.81062E+06         0.00000E+00
    0.81062E+06        -0.49644E+08         0.00000E+00
    0.00000E+00         0.00000E+00        -0.49899E+08
 
   -0.49868E+08         0.80690E+06         0.00000E+00
    0.80690E+06        -0.49638E+08         0.00000E+00
    0.00000E+00         0.00000E+00        -0.49901E+08
 
   -0.49884E+08         0.80328E+06         0.00000E+00
    0.80328E+06        -0.49632E+08         0.00000E+00
    0.00000E+00         0.00000E+00        -0.49903E+08
 
   -0.49899E+08         0.79984E+06         0.00000E+00
    0.79984E+06        -0.49626E+08         0.00000E+00
    0.00000E+00         0.00000E+00        -0.49905E+08
 
   -0.47436E+08         0.35296E+05         0.00000E+00
    0.35296E+05        -0.50000E+08         0.00000E+00
    0.00000E+00         0.00000E+00        -0.49487E+08
 
   -0.47495E+08         0.98053E+05         0.00000E+00
    0.98053E+05        -0.49999E+08         0.00000E+00
    0.00000E+00         0.00000E+00        -0.49499E+08
 
   -0.47555E+08         0.15752E+06         0.00000E+00
    0.15752E+06        -0.49996E+08         0.00000E+00
    0.00000E+00         0.00000E+00        -0.49510E+08
 
   -0.47617E+08         0.21377E+06         0.00000E+00
    0.21377E+06        -0.49993E+08         0.00000E+00
    0.00000E+00         0.00000E+00        -0.49522E+08
 
   -0.47681E+08         0.26685E+06         0.00000E+00
    0.26685E+06        -0.49989E+08         0.00000E+00
    0.00000E+00         0.00000E+00        -0.49534E+08
 
   -0.47746E+08         0.31685E+06         0.00000E+00
    0.31685E+06        -0.49984E+08         0.00000E+00
    0.00000E+00         0.00000E+00        -0.49546E+08
 
   -0.47813E+08         0.36386E+06         0.00000E+00
    0.36386E+06        -0.49979E+08         0.00000E+00
    0.00000E+00         0.00000E+00        -0.49558E+08
 
   -0.47880E+08         0.40797E+06         0.00000E+00
    0.40797E+06        -0.49973E+08         0.00000E+00
    0.00000E+00         0.00000E+00        -0.49571E+08
 
   -0.47947E+08         0.44928E+06         0.00000E+00
    0.44928E+06        -0.49967E+08         0.00000E+00
    0.00000E+00         0.00000E+00        -0.49583E+08
 
   -0.48015E+08         0.48789E+06         0.00000E+00
    0.48789E+06        -0.49961E+08         0.00000E+00
    0.00000E+00         0.00000E+00        -0.49595E+08
 
   -0.48083E+08         0.52392E+06         0.00000E+00
    0.52392E+06        -0.49954E+08         0.00000E+00
    0.00000E+00         0.00000E+00        -0.49607E+08
 
   -0.48151E+08         0.55746E+06         0.00000E+00
    0.55746E+06        -0.49948E+08         0.00000E+00
    0.00000E+00         0.00000E+00        -0.49620E+08
 
   -0.48219E+08         0.58864E+06         0.00000E+00
    0.58864E+06        -0.49941E+08         0.00000E+00
    0.00000E+00         0.00000E+00        -0.49632E+08
 
   -0.48287E+08         0.61757E+06         0.00000E+00
    0.61757E+06        -0.49934E+08         0.00000E+00
    0.00000E+00         0.00000E+00        -0.49644E+08
 
   -0.48354E+08         0.64436E+06         0.00000E+00
    0.64436E+06        -0.49928E+08         0.00000E+00
    0.00000E+00         0.00000E+00        -0.49656E+08
 
   -0.48420E+08         0.66911E+06         0.00000E+00
    0.66911E+06        -0.49921E+08         0.00000E+00
    0.00000E+00         0.00000E+00        -0.49668E+08
 
   -0.48486E+08         0.69195E+06         0.00000E+00
    0.69195E+06        -0.49915E+08         0.00000E+00
    0.00000E+00         0.00000E+00        -0.49680E+08
 
   -0.48551E+08         0.71297E+06         0.00000E+00
    0.71297E+06        -0.49909E+08         0.00000E+00
    0.00000E+00         0.00000E+00        -0.49692E+08
 
   -0.48615E+08         0.73228E+06         0.00000E+00
    0.73228E+06        -0.49902E+08         0.00000E+00
    0.00000E+00         0.00000E+00        -0.49703E+08
 
   -0.48678E+08         0.74998E+06         0.00000E+00
    0.74998E+06        -0.49896E+08         0.00000E+00
    0.00000E+00         0.00000E+00        -0.49715E+08
 
   -0.48741E+08         0.76615E+06         0.00000E+00
    0.76615E+06        -0.49890E+08         0.00000E+00
    0.00000E+00         0.00000E+00        -0.49726E+08
 
   -0.48802E+08         0.78089E+06         0.00000E+00
    0.78089E+06        -0.49884E+08         0.00000E+00
    0.00000E+00         0.00000E+00        -0.49737E+08
 
   -0.48862E+08         0.79429E+06         0.00000E+00
    0.79429E+06        -0.49878E+08         0.00000E+00
    0.00000E+00         0.00000E+00        -0.49748E+08
 
   -0.48921E+08         0.80641E+06         0.00000E+00
    0.80641E+06        -0.49872E+08         0.00000E+00
    0.00000E+00         0.00000E+00        -0.49759E+08
 
   -0.48978E+08         0.81733E+06         0.00000E+00
    0.81733E+06        -0.49866E+08         0.00000E+00
    0.00000E+00         0.00000E+00        -0.49769E+08
 
   -0.49035E+08         0.82712E+06         0.00000E+00
    0.82712E+06        -0.49861E+08         0.00000E+00
    0.00000E+00         0.00000E+00        -0.49779E+08
 
   -0.49090E+08         0.83583E+06         0.00000E+00
    0.83583E+06        -0.49855E+08         0.00000E+00
    0.00000E+00         0.00000E+00        -0.49789E+08
 
   -0.49144E+08         0.84352E+06         0.00000E+00
    0.84352E+06        -0.49849E+08         0.00000E+00
    0.00000E+00         0.00000E+00        -0.49799E+08
 
   -0.49196E+08         0.85024E+06         0.00000E+00
    0.85024E+06        -0.49843E+08         0.00000E+00
    0.00000E+00         0.00000E+00        -0.49808E+08
 
   -0.49248E+08         0.85602E+06         0.00000E+00
    0.85602E+06        -0.49837E+08         0.00000E+00
    0.00000E+00         0.00000E+00        -0.49817E+08
 
   -0.49297E+08         0.86092E+06         0.00000E+00
    0.86092E+06        -0.49831E+08         0.00000E+00
    0.00000E+00         0.00000E+00        -0.49826E+08
 
   -0.49346E+08         0.86496E+06         0.00000E+00
    0.86496E+06        -0.49825E+08         0.00000E+00
    0.00000E+00         0.00000E+00        -0.49834E+08
 
   -0.49393E+08         0.86817E+06         0.00000E+00
    0.86817E+06        -0.49819E+08         0.00000E+00
    0.00000E+00         0.00000E+00        -0.49842E+08
 
   -0.49438E+08         0.87058E+06         0.00000E+00
    0.87058E+06        -0.49812E+08         0.00000E+00
    0.00000E+00         0.00000E+00        -0.49850E+08
 
   -0.49482E+08         0.87223E+06         0.00000E+00
    0.87223E+06        -0.49806E+08         0.00000E+00
    0.00000E+00         0.00000E+00        -0.49858E+08
 
   -0.49525E+08         0.87313E+06         0.00000E+00
    0.87313E+06        -0.49799E+08         0.00000E+00
    0.00000E+00         0.00000E+00        -0.49865E+08
 
   -0.49565E+08         0.87331E+06         0.00000E+00
    0.87331E+06        -0.49792E+08         0.00000E+00
    0.00000E+00         0.00000E+00        -0.49871E+08
 
   -0.49604E+08         0.87280E+06         0.00000E+00
    0.87280E+06        -0.49785E+08         0.00000E+00
    0.00000E+00         0.00000E+00        -0.49878E+08
 
   -0.49642E+08         0.87162E+06         0.00000E+00
    0.87162E+06        -0.49778E+08         0.00000E+00
    0.00000E+00         0.00000E+00        -0.49884E+08
 
   -0.49677E+08         0.86981E+06         0.00000E+00
    0.86981E+06        -0.49771E+08         0.00000E+00
    0.00000E+00         0.00000E+00        -0.49890E+08
 
   -0.49711E+08         0.86739E+06         0.00000E+00
    0.86739E+06        -0.49764E+08         0.00000E+00
    0.00000E+00         0.00000E+00        -0.49895E+08
 
   -0.49743E+08         0.86440E+06         0.00000E+00
    0.86440E+06        -0.49757E+08         0.00000E+00
    0.00000E+00         0.00000E+00        -0.49900E+08
 
   -0.49773E+08         0.86090E+06         0.00000E+00
    0.86090E+06        -0.49750E+08         0.00000E+00
    0.00000E+00         0.00000E+00        -0.49905E+08
 
   -0.49801E+08         0.85692E+06         0.00000E+00
    0.85692E+06        -0.49744E+08         0.00000E+00
    0.00000E+00         0.00000E+00        -0.49909E+08
 
   -0.49826E+08         0.85254E+06         0.00000E+00
    0.85254E+06        -0.49737E+08         0.00000E+00
    0.00000E+00         0.00000E+00        -0.49913E+08
 
   -0.49850E+08         0.84780E+06         0.00000E+00
    0.84780E+06        -0.49730E+08         0.00000E+00
    0.00000E+00         0.00000E+00        -0.49916E+08
 
   -0.49871E+08         0.84280E+06         0.00000E+00
    0.84280E+06        -0.49724E+08         0.00000E+00
    0.00000E+00         0.00000E+00        -0.49919E+08
 
   -0.49890E+08         0.83761E+06         0.00000E+00
    0.83761E+06        -0.49718E+08         0.00000E+00
    0.00000E+00         0.00000E+00        -0.49921E+08
 
   -0.49906E+08         0.83233E+06         0.00000E+00
    0.83233E+06        -0.49712E+08         0.00000E+00
    0.00000E+00         0.00000E+00        -0.49924E+08
 
   -0.49920E+08         0.82707E+06         0.00000E+00
    0.82707E+06        -0.49706E+08         0.00000E+00
    0.00000E+00         0.00000E+00        -0.49925E+08
 
   -0.47100E+08         0.38950E+05         0.00000E+00
    0.38950E+05        -0.50000E+08         0.00000E+00
    0.00000E+00         0.00000E+00        -0.49420E+08
 
   -0.47177E+08         0.10695E+06         0.00000E+00
    0.10695E+06        -0.49999E+08         0.00000E+00
    0.00000E+00         0.00000E+00        -0.49435E+08
 
   -0.47255E+08         0.17085E+06         0.00000E+00
    0.17085E+06        -0.49997E+08         0.00000E+00
    0.00000E+00         0.00000E+00        -0.49450E+08
 
   -0.47335E+08         0.23076E+06         0.00000E+00
    0.23076E+06        -0.49994E+08         0.00000E+00
    0.00000E+00         0.00000E+00        -0.49466E+08
 
   -0.47417E+08         0.28680E+06         0.00000E+00
    0.28680E+06        -0.49991E+08         0.00000E+00
    0.00000E+00         0.00000E+00        -0.49481E+08
 
   -0.47498E+08         0.33912E+06         0.00000E+00
    0.33912E+06        -0.49987E+08         0.00000E+00
    0.00000E+00         0.00000E+00        -0.49497E+08
 
   -0.47581E+08         0.38786E+06         0.00000E+00
    0.38786E+06        -0.49983E+08         0.00000E+00
    0.00000E+00         0.00000E+00        -0.49513E+08
 
   -0.47663E+08         0.43317E+06         0.00000E+00
    0.43317E+06        -0.49979E+08         0.00000E+00
    0.00000E+00         0.00000E+00        -0.49528E+08
 
   -0.47745E+08         0.47522E+06         0.00000E+00
    0.47522E+06        -0.49975E+08         0.00000E+00
    0.00000E+00         0.00000E+00        -0.49544E+08
 
   -0.47827E+08         0.51416E+06         0.00000E+00
    0.51416E+06        -0.49971E+08         0.00000E+00
    0.00000E+00         0.00000E+00        -0.49560E+08
 
   -0.47909E+08         0.55018E+06         0.00000E+00
    0.55018E+06        -0.49967E+08         0.00000E+00
    0.00000E+00         0.00000E+00        -0.49575E+08
 
   -0.47990E+08         0.58343E+06         0.00000E+00
    0.58343E+06        -0.49964E+08         0.00000E+00
    0.00000E+00         0.00000E+00        -0.49591E+08
 
   -0.48070E+08         0.61409E+06         0.00000E+00
    0.61409E+06        -0.49960E+08         0.00000E+00
    0.00000E+00         0.00000E+00        -0.49606E+08
 
   -0.48149E+08         0.64233E+06         0.00000E+00
    0.64233E+06        -0.49957E+08         0.00000E+00
    0.00000E+00         0.00000E+00        -0.49621E+08
 
   -0.48226E+08         0.66830E+06         0.00000E+00
    0.66830E+06        -0.49954E+08         0.00000E+00
    0.00000E+00         0.00000E+00        -0.49636E+08
 
   -0.48303E+08         0.69218E+06         0.00000E+00
    0.69218E+06        -0.49952E+08         0.00000E+00
    0.00000E+00         0.00000E+00        -0.49651E+08
 
   -0.48378E+08         0.71411E+06         0.00000E+00
    0.71411E+06        -0.49949E+08         0.00000E+00
    0.00000E+00         0.00000E+00        -0.49665E+08
 
   -0.48452E+08         0.73424E+06         0.00000E+00
    0.73424E+06        -0.49947E+08         0.00000E+00
    0.00000E+00         0.00000E+00        -0.49680E+08
 
   -0.48524E+08         0.75272E+06         0.00000E+00
    0.75272E+06        -0.49946E+08         0.00000E+00
    0.00000E+00         0.00000E+00        -0.49694E+08
 
   -0.48595E+08         0.76967E+06         0.00000E+00
    0.76967E+06        -0.49944E+08         0.00000E+00
    0.00000E+00         0.00000E+00        -0.49708E+08
 
   -0.48664E+08         0.78521E+06         0.00000E+00
    0.78521E+06        -0.49943E+08         0.00000E+00
    0.00000E+00         0.00000E+00        -0.49721E+08
 
   -0.48732E+08         0.79945E+06         0.00000E+00
    0.79945E+06        -0.49942E+08         0.00000E+00
    0.00000E+00         0.00000E+00        -0.49735E+08
 
   -0.48798E+08         0.81250E+06         0.00000E+00
    0.81250E+06        -0.49941E+08         0.00000E+00
    0.00000E+00         0.00000E+00        -0.49748E+08
 
   -0.48863E+08         0.82445E+06         0.00000E+00
    0.82445E+06        -0.49940E+08         0.00000E+00
    0.00000E+00         0.00000E+00        -0.49761E+08
 
   -0.48926E+08         0.83538E+06         0.00000E+00
    0.83538E+06        -0.49939E+08         0.00000E+00
    0.00000E+00         0.00000E+00        -0.49773E+08
 
   -0.48988E+08         0.84535E+06         0.00000E+00
    0.84535E+06        -0.49938E+08         0.00000E+00
    0.00000E+00         0.00000E+00        -0.49785E+08
 
   -0.49048E+08         0.85442E+06         0.00000E+00
    0.85442E+06        -0.49937E+08         0.00000E+00
    0.00000E+00         0.00000E+00        -0.49797E+08
 
   -0.49106E+08         0.86265E+06         0.00000E+00
    0.86265E+06        -0.49936E+08         0.00000E+00
    0.00000E+00         0.00000E+00        -0.49808E+08
 
   -0.49163E+08         0.87007E+06         0.00000E+00
    0.87007E+06        -0.49934E+08         0.00000E+00
    0.00000E+00         0.00000E+00        -0.49819E+08
 
   -0.49219E+08         0.87670E+06         0.00000E+00
    0.87670E+06        -0.49932E+08         0.00000E+00
    0.00000E+00         0.00000E+00        -0.49830E+08
 
   -0.49272E+08         0.88258E+06         0.00000E+00
    0.88258E+06        -0.49930E+08         0.00000E+00
    0.00000E+00         0.00000E+00        -0.49840E+08
 
   -0.49325E+08         0.88771E+06         0.00000E+00
    0.88771E+06        -0.49928E+08         0.00000E+00
    0.00000E+00         0.00000E+00        -0.49850E+08
 
   -0.49376E+08         0.89210E+06         0.00000E+00
    0.89210E+06        -0.49925E+08         0.00000E+00
    0.00000E+00         0.00000E+00        -0.49860E+08
 
   -0.49425E+08         0.89575E+06         0.00000E+00
    0.89575E+06        -0.49922E+08         0.00000E+00
    0.00000E+00         0.00000E+00        -0.49869E+08
 
   -0.49473E+08         0.89865E+06         0.00000E+00
    0.89865E+06        -0.49918E+08         0.00000E+00
    0.00000E+00         0.00000E+00        -0.49878E+08
 
   -0.49519E+08         0.90080E+06         0.00000E+00
    0.90080E+06        -0.49914E+08         0.00000E+00
    0.00000E+00         0.00000E+00        -0.49887E+08
 
   -0.49563E+08         0.90219E+06         0.00000E+00
    0.90219E+06        -0.49910E+08         0.00000E+00
    0.00000E+00         0.00000E+00        -0.49895E+08
 
   -0.49606E+08         0.90281E+06         0.00000E+00
    0.90281E+06        -0.49905E+08         0.00000E+00
    0.00000E+00         0.00000E+00        -0.49902E+08
 
   -0.49647E+08         0.90264E+06         0.00000E+00
    0.90264E+06        -0.49900E+08         0.00000E+00
    0.00000E+00         0.00000E+00        -0.49909E+08
 
   -0.49686E+08         0.90170E+06         0.00000E+00
    0.90170E+06        -0.49894E+08         0.00000E+00
    0.00000E+00         0.00000E+00        -0.49916E+08
 
   -0.49723E+08         0.89996E+06         0.00000E+00
    0.89996E+06        -0.49888E+08         0.00000E+00
    0.00000E+00         0.00000E+00        -0.49922E+08
 
   -0.49758E+08         0.89744E+06         0.00000E+00
    0.89744E+06        -0.49882E+08         0.00000E+00
    0.00000E+00         0.00000E+00        -0.49928E+08
 
   -0.49791E+08         0.89414E+06         0.00000E+00
    0.89414E+06        -0.49876E+08         0.00000E+00
    0.00000E+00         0.00000E+00        -0.49933E+08
 
   -0.49822E+08         0.89010E+06         0.00000E+00
    0.89010E+06        -0.49869E+08         0.00000E+00
    0.00000E+00         0.00000E+00        -0.49938E+08
 
   -0.49850E+08         0.88533E+06         0.00000E+00
    0.88533E+06        -0.49863E+08         0.00000E+00
    0.00000E+00         0.00000E+00        -0.49943E+08
 
   -0.49876E+08         0.87989E+06         0.00000E+00
    0.87989E+06        -0.49856E+08         0.00000E+00
    0.00000E+00         0.00000E+00        -0.49946E+08
 
   -0.49899E+08         0.87383E+06         0.00000E+00
    0.87383E+06        -0.49850E+08         0.00000E+00
    0.00000E+00         0.00000E+00        -0.49950E+08
 
   -0.49920E+08         0.86722E+06         0.00000E+00
    0.86722E+06        -0.49843E+08         0.00000E+00
    0.00000E+00         0.00000E+00        -0.49953E+08
 
   -0.49937E+08         0.86016E+06         0.00000E+00
    0.86016E+06        -0.49838E+08         0.00000E+00
    0.00000E+00         0.00000E+00        -0.49955E+08
 
   -0.49951E+08         0.85276E+06         0.00000E+00
    0.85276E+06        -0.49832E+08         0.00000E+00
    0.00000E+00         0.00000E+00        -0.49957E+08
 
   -0.46737E+08         0.42189E+05         0.00000E+00
    0.42189E+05        -0.50000E+08         0.00000E+00
    0.00000E+00         0.00000E+00        -0.49347E+08
 
   -0.46838E+08         0.11415E+06         0.00000E+00
    0.11415E+06        -0.49999E+08         0.00000E+00
    0.00000E+00         0.00000E+00        -0.49367E+08
 
   -0.46939E+08         0.18102E+06         0.00000E+00
    0.18102E+06        -0.49998E+08         0.00000E+00
    0.00000E+00         0.00000E+00        -0.49387E+08
 
   -0.47041E+08         0.24299E+06         0.00000E+00
    0.24299E+06        -0.49996E+08         0.00000E+00
    0.00000E+00         0.00000E+00        -0.49407E+08
 
   -0.47143E+08         0.30027E+06         0.00000E+00
    0.30027E+06        -0.49994E+08         0.00000E+00
    0.00000E+00         0.00000E+00        -0.49427E+08
 
   -0.47245E+08         0.35307E+06         0.00000E+00
    0.35307E+06        -0.49992E+08         0.00000E+00
    0.00000E+00         0.00000E+00        -0.49447E+08
 
   -0.47346E+08         0.40163E+06         0.00000E+00
    0.40163E+06        -0.49991E+08         0.00000E+00
    0.00000E+00         0.00000E+00        -0.49467E+08
 
   -0.47446E+08         0.44620E+06         0.00000E+00
    0.44620E+06        -0.49989E+08         0.00000E+00
    0.00000E+00         0.00000E+00        -0.49487E+08
 
   -0.47546E+08         0.48702E+06         0.00000E+00
    0.48702E+06        -0.49989E+08         0.00000E+00
    0.00000E+00         0.00000E+00        -0.49507E+08
 
   -0.47644E+08         0.52435E+06         0.00000E+00
    0.52435E+06        -0.49988E+08         0.00000E+00
    0.00000E+00         0.00000E+00        -0.49526E+08
 
   -0.47740E+08         0.55844E+06         0.00000E+00
    0.55844E+06        -0.49989E+08         0.00000E+00
    0.00000E+00         0.00000E+00        -0.49546E+08
 
   -0.47835E+08         0.58955E+06         0.00000E+00
    0.58955E+06        -0.49990E+08         0.00000E+00
    0.00000E+00         0.00000E+00        -0.49565E+08
 
   -0.47928E+08         0.61793E+06         0.00000E+00
    0.61793E+06        -0.49992E+08         0.00000E+00
    0.00000E+00         0.00000E+00        -0.49584E+08
 
   -0.48018E+08         0.64382E+06         0.00000E+00
    0.64382E+06        -0.49994E+08         0.00000E+00
    0.00000E+00         0.00000E+00        -0.49602E+08
 
   -0.48107E+08         0.66746E+06         0.00000E+00
    0.66746E+06        -0.49998E+08         0.00000E+00
    0.00000E+00         0.00000E+00        -0.49621E+08
 
   -0.48193E+08         0.68909E+06         0.00000E+00
    0.68909E+06        -0.50001E+08         0.00000E+00
    0.00000E+00         0.00000E+00        -0.49639E+08
 
   -0.48277E+08         0.70890E+06         0.00000E+00
    0.70890E+06        -0.50006E+08         0.00000E+00
    0.00000E+00         0.00000E+00        -0.49656E+08
 
   -0.48359E+08         0.72712E+06         0.00000E+00
    0.72712E+06        -0.50011E+08         0.00000E+00
    0.00000E+00         0.00000E+00        -0.49674E+08
 
   -0.48439E+08         0.74392E+06         0.00000E+00
    0.74392E+06        -0.50016E+08         0.00000E+00
    0.00000E+00         0.00000E+00        -0.49691E+08
 
   -0.48517E+08         0.75948E+06         0.00000E+00
    0.75948E+06        -0.50022E+08         0.00000E+00
    0.00000E+00         0.00000E+00        -0.49708E+08
 
   -0.48592E+08         0.77396E+06         0.00000E+00
    0.77396E+06        -0.50028E+08         0.00000E+00
    0.00000E+00         0.00000E+00        -0.49724E+08
 
   -0.48665E+08         0.78749E+06         0.00000E+00
    0.78749E+06        -0.50035E+08         0.00000E+00
    0.00000E+00         0.00000E+00        -0.49740E+08
 
   -0.48736E+08         0.80019E+06         0.00000E+00
    0.80019E+06        -0.50041E+08         0.00000E+00
    0.00000E+00         0.00000E+00        -0.49755E+08
 
   -0.48805E+08         0.81217E+06         0.00000E+00
    0.81217E+06        -0.50047E+08         0.00000E+00
    0.00000E+00         0.00000E+00        -0.49770E+08
 
   -0.48872E+08         0.82351E+06         0.00000E+00
    0.82351E+06        -0.50054E+08         0.00000E+00
    0.00000E+00         0.00000E+00        -0.49785E+08
 
   -0.48938E+08         0.83428E+06         0.00000E+00
    0.83428E+06        -0.50060E+08         0.00000E+00
    0.00000E+00         0.00000E+00        -0.49799E+08
 
   -0.49001E+08         0.84453E+06         0.00000E+00
    0.84453E+06        -0.50066E+08         0.00000E+00
    0.00000E+00         0.00000E+00        -0.49813E+08
 
   -0.49063E+08         0.85430E+06         0.00000E+00
    0.85430E+06        -0.50071E+08         0.00000E+00
    0.00000E+00         0.00000E+00        -0.49827E+08
 
   -0.49123E+08         0.86360E+06         0.00000E+00
    0.86360E+06        -0.50076E+08         0.00000E+00
    0.00000E+00         0.00000E+00        -0.49840E+08
 
   -0.49182E+08         0.87243E+06         0.00000E+00
    0.87243E+06        -0.50081E+08         0.00000E+00
    0.00000E+00         0.00000E+00        -0.49852E+08
 
   -0.49239E+08         0.88078E+06         0.00000E+00
    0.88078E+06        -0.50085E+08         0.00000E+00
    0.00000E+00         0.00000E+00        -0.49864E+08
 
   -0.49294E+08         0.88862E+06         0.00000E+00
    0.88862E+06        -0.50088E+08         0.00000E+00
    0.00000E+00         0.00000E+00        -0.49876E+08
 
   -0.49348E+08         0.89592E+06         0.00000E+00
    0.89592E+06        -0.50090E+08         0.00000E+00
    0.00000E+00         0.00000E+00        -0.49887E+08
 
   -0.49401E+08         0.90263E+06         0.00000E+00
    0.90263E+06        -0.50091E+08         0.00000E+00
    0.00000E+00         0.00000E+00        -0.49898E+08
 
   -0.49452E+08         0.90869E+06         0.00000E+00
    0.90869E+06        -0.50092E+08         0.00000E+00
    0.00000E+00         0.00000E+00        -0.49909E+08
 
   -0.49502E+08         0.91404E+06         0.00000E+00
    0.91404E+06        -0.50091E+08         0.00000E+00
    0.00000E+00         0.00000E+00        -0.49918E+08
 
   -0.49551E+08         0.91860E+06         0.00000E+00
    0.91860E+06        -0.50090E+08         0.00000E+00
    0.00000E+00         0.00000E+00        -0.49928E+08
 
   -0.49598E+08         0.92232E+06         0.00000E+00
    0.92232E+06        -0.50088E+08         0.00000E+00
    0.00000E+00         0.00000E+00        -0.49937E+08
 
   -0.49643E+08         0.92511E+06         0.00000E+00
    0.92511E+06        -0.50084E+08         0.00000E+00
    0.00000E+00         0.00000E+00        -0.49945E+08
 
   -0.49686E+08         0.92691E+06         0.00000E+00
    0.92691E+06        -0.50080E+08         0.00000E+00
    0.00000E+00         0.00000E+00        -0.49953E+08
 
   -0.49728E+08         0.92765E+06         0.00000E+00
    0.92765E+06        -0.50076E+08         0.00000E+00
    0.00000E+00         0.00000E+00        -0.49961E+08
 
   -0.49768E+08         0.92727E+06         0.00000E+00
    0.92727E+06        -0.50070E+08         0.00000E+00
    0.00000E+00         0.00000E+00        -0.49967E+08
 
   -0.49806E+08         0.92572E+06         0.00000E+00
    0.92572E+06        -0.50064E+08         0.00000E+00
    0.00000E+00         0.00000E+00        -0.49974E+08
 
   -0.49842E+08         0.92296E+06         0.00000E+00
    0.92296E+06        -0.50057E+08         0.00000E+00
    0.00000E+00         0.00000E+00        -0.49980E+08
 
   -0.49875E+08         0.91897E+06         0.00000E+00
    0.91897E+06        -0.50050E+08         0.00000E+00
    0.00000E+00         0.00000E+00        -0.49985E+08
 
   -0.49905E+08         0.91374E+06         0.00000E+00
    0.91374E+06        -0.50043E+08         0.00000E+00
    0.00000E+00         0.00000E+00        -0.49989E+08
 
   -0.49933E+08         0.90729E+06         0.00000E+00
    0.90729E+06        -0.50036E+08         0.00000E+00
    0.00000E+00         0.00000E+00        -0.49993E+08
 
   -0.49957E+08         0.89966E+06         0.00000E+00
    0.89966E+06        -0.50028E+08         0.00000E+00
    0.00000E+00         0.00000E+00        -0.49997E+08
 
   -0.49978E+08         0.89091E+06         0.00000E+00
    0.89091E+06        -0.50021E+08         0.00000E+00
    0.00000E+00         0.00000E+00        -0.50000E+08
 
   -0.49995E+08         0.88112E+06         0.00000E+00
    0.88112E+06        -0.50014E+08         0.00000E+00
    0.00000E+00         0.00000E+00        -0.50002E+08
 
   -0.46357E+08         0.44681E+05         0.00000E+00
    0.44681E+05        -0.50000E+08         0.00000E+00
    0.00000E+00         0.00000E+00        -0.49271E+08
 
   -0.46487E+08         0.11845E+06         0.00000E+00
    0.11845E+06        -0.49999E+08         0.00000E+00
    0.00000E+00         0.00000E+00        -0.49296E+08
 
   -0.46616E+08         0.18590E+06         0.00000E+00
    0.18590E+06        -0.49999E+08         0.00000E+00
    0.00000E+00         0.00000E+00        -0.49322E+08
 
   -0.46744E+08         0.24733E+06         0.00000E+00
    0.24733E+06        -0.49999E+08         0.00000E+00
    0.00000E+00         0.00000E+00        -0.49348E+08
 
   -0.46871E+08         0.30307E+06         0.00000E+00
    0.30307E+06        -0.49999E+08         0.00000E+00
    0.00000E+00         0.00000E+00        -0.49373E+08
 
   -0.46997E+08         0.35346E+06         0.00000E+00
    0.35346E+06        -0.50000E+08         0.00000E+00
    0.00000E+00         0.00000E+00        -0.49399E+08
 
   -0.47120E+08         0.39888E+06         0.00000E+00
    0.39888E+06        -0.50002E+08         0.00000E+00
    0.00000E+00         0.00000E+00        -0.49424E+08
 
   -0.47242E+08         0.43969E+06         0.00000E+00
    0.43969E+06        -0.50006E+08         0.00000E+00
    0.00000E+00         0.00000E+00        -0.49449E+08
 
   -0.47360E+08         0.47629E+06         0.00000E+00
    0.47629E+06        -0.50010E+08         0.00000E+00
    0.00000E+00         0.00000E+00        -0.49473E+08
 
   -0.47476E+08         0.50905E+06         0.00000E+00
    0.50905E+06        -0.50016E+08         0.00000E+00
    0.00000E+00         0.00000E+00        -0.49498E+08
 
   -0.47588E+08         0.53837E+06         0.00000E+00
    0.53837E+06        -0.50023E+08         0.00000E+00
    0.00000E+00         0.00000E+00        -0.49521E+08
 
   -0.47697E+08         0.56461E+06         0.00000E+00
    0.56461E+06        -0.50031E+08         0.00000E+00
    0.00000E+00         0.00000E+00        -0.49545E+08
 
   -0.47803E+08         0.58815E+06         0.00000E+00
    0.58815E+06        -0.50041E+08         0.00000E+00
    0.00000E+00         0.00000E+00        -0.49568E+08
 
   -0.47905E+08         0.60934E+06         0.00000E+00
    0.60934E+06        -0.50052E+08         0.00000E+00
    0.00000E+00         0.00000E+00        -0.49591E+08
 
   -0.48003E+08         0.62852E+06         0.00000E+00
    0.62852E+06        -0.50064E+08         0.00000E+00
    0.00000E+00         0.00000E+00        -0.49613E+08
 
   -0.48099E+08         0.64601E+06         0.00000E+00
    0.64601E+06        -0.50078E+08         0.00000E+00
    0.00000E+00         0.00000E+00        -0.49634E+08
 
   -0.48190E+08         0.66209E+06         0.00000E+00
    0.66209E+06        -0.50092E+08         0.00000E+00
    0.00000E+00         0.00000E+00        -0.49656E+08
 
   -0.48279E+08         0.67706E+06         0.00000E+00
    0.67706E+06        -0.50107E+08         0.00000E+00
    0.00000E+00         0.00000E+00        -0.49676E+08
 
   -0.48364E+08         0.69115E+06         0.00000E+00
    0.69115E+06        -0.50123E+08         0.00000E+00
    0.00000E+00         0.00000E+00        -0.49697E+08
 
   -0.48445E+08         0.70458E+06         0.00000E+00
    0.70458E+06        -0.50140E+08         0.00000E+00
    0.00000E+00         0.00000E+00        -0.49716E+08
 
   -0.48524E+08         0.71756E+06         0.00000E+00
    0.71756E+06        -0.50157E+08         0.00000E+00
    0.00000E+00         0.00000E+00        -0.49735E+08
 
   -0.48600E+08         0.73025E+06         0.00000E+00
    0.73025E+06        -0.50174E+08         0.00000E+00
    0.00000E+00         0.00000E+00        -0.49754E+08
 
   -0.48674E+08         0.74279E+06         0.00000E+00
    0.74279E+06        -0.50191E+08         0.00000E+00
    0.00000E+00         0.00000E+00        -0.49772E+08
 
   -0.48744E+08         0.75530E+06         0.00000E+00
    0.75530E+06        -0.50208E+08         0.00000E+00
    0.00000E+00         0.00000E+00        -0.49790E+08
 
   -0.48813E+08         0.76785E+06         0.00000E+00
    0.76785E+06        -0.50225E+08         0.00000E+00
    0.00000E+00         0.00000E+00        -0.49807E+08
 
   -0.48879E+08         0.78051E+06         0.00000E+00
    0.78051E+06        -0.50242E+08         0.00000E+00
    0.00000E+00         0.00000E+00        -0.49823E+08
 
   -0.48944E+08         0.79331E+06         0.00000E+00
    0.79331E+06        -0.50257E+08         0.00000E+00
    0.00000E+00         0.00000E+00        -0.49839E+08
 
   -0.49007E+08         0.80625E+06         0.00000E+00
    0.80625E+06        -0.50273E+08         0.00000E+00
    0.00000E+00         0.00000E+00        -0.49855E+08
 
   -0.49068E+08         0.81931E+06         0.00000E+00
    0.81931E+06        -0.50287E+08         0.00000E+00
    0.00000E+00         0.00000E+00        -0.49870E+08
 
   -0.49127E+08         0.83246E+06         0.00000E+00
    0.83246E+06        -0.50300E+08         0.00000E+00
    0.00000E+00         0.00000E+00        -0.49885E+08
 
   -0.49186E+08         0.84562E+06         0.00000E+00
    0.84562E+06        -0.50312E+08         0.00000E+00
    0.00000E+00         0.00000E+00        -0.49899E+08
 
   -0.49243E+08         0.85872E+06         0.00000E+00
    0.85872E+06        -0.50322E+08         0.00000E+00
    0.00000E+00         0.00000E+00        -0.49912E+08
 
   -0.49299E+08         0.87163E+06         0.00000E+00
    0.87163E+06        -0.50331E+08         0.00000E+00
    0.00000E+00         0.00000E+00        -0.49925E+08
 
   -0.49355E+08         0.88426E+06         0.00000E+00
    0.88426E+06        -0.50339E+08         0.00000E+00
    0.00000E+00         0.00000E+00        -0.49938E+08
 
   -0.49409E+08         0.89645E+06         0.00000E+00
    0.89645E+06        -0.50345E+08         0.00000E+00
    0.00000E+00         0.00000E+00        -0.49950E+08
 
   -0.49462E+08         0.90805E+06         0.00000E+00
    0.90805E+06        -0.50349E+08         0.00000E+00
    0.00000E+00         0.00000E+00        -0.49961E+08
 
   -0.49515E+08         0.91891E+06         0.00000E+00
    0.91891E+06        -0.50352E+08         0.00000E+00
    0.00000E+00         0.00000E+00        -0.49973E+08
 
   -0.49566E+08         0.92885E+06         0.00000E+00
    0.92885E+06        -0.50353E+08         0.00000E+00
    0.00000E+00         0.00000E+00        -0.49983E+08
 
   -0.49617E+08         0.93771E+06         0.00000E+00
    0.93771E+06        -0.50352E+08         0.00000E+00
    0.00000E+00         0.00000E+00        -0.49993E+08
 
   -0.49667E+08         0.94531E+06         0.00000E+00
    0.94531E+06        -0.50350E+08         0.00000E+00
    0.00000E+00         0.00000E+00        -0.50002E+08
 
   -0.49715E+08         0.95148E+06         0.00000E+00
    0.95148E+06        -0.50346E+08         0.00000E+00
    0.00000E+00         0.00000E+00        -0.50011E+08
 
   -0.49762E+08         0.95605E+06         0.00000E+00
    0.95605E+06        -0.50341E+08         0.00000E+00
    0.00000E+00         0.00000E+00        -0.50020E+08
 
   -0.49807E+08         0.95886E+06         0.00000E+00
    0.95886E+06        -0.50334E+08         0.00000E+00
    0.00000E+00         0.00000E+00        -0.50027E+08
 
   -0.49851E+08         0.95978E+06         0.00000E+00
    0.95978E+06        -0.50326E+08         0.00000E+00
    0.00000E+00         0.00000E+00        -0.50035E+08
 
   -0.49892E+08         0.95867E+06         0.00000E+00
    0.95867E+06        -0.50317E+08         0.00000E+00
    0.00000E+00         0.00000E+00        -0.50041E+08
 
   -0.49931E+08         0.95544E+06         0.00000E+00
    0.95544E+06        -0.50308E+08         0.00000E+00
    0.00000E+00         0.00000E+00        -0.50047E+08
 
   -0.49967E+08         0.95001E+06         0.00000E+00
    0.95001E+06        -0.50298E+08         0.00000E+00
    0.00000E+00         0.00000E+00        -0.50052E+08
 
   -0.49999E+08         0.94234E+06         0.00000E+00
    0.94234E+06        -0.50287E+08         0.00000E+00
    0.00000E+00         0.00000E+00        -0.50057E+08
 
   -0.50028E+08         0.93241E+06         0.00000E+00
    0.93241E+06        -0.50277E+08         0.00000E+00
    0.00000E+00         0.00000E+00        -0.50060E+08
 
   -0.50053E+08         0.92028E+06         0.00000E+00
    0.92028E+06        -0.50267E+08         0.00000E+00
    0.00000E+00         0.00000E+00        -0.50063E+08
 
   -0.45972E+08         0.46021E+05         0.00000E+00
    0.46021E+05        -0.50000E+08         0.00000E+00
    0.00000E+00         0.00000E+00        -0.49192E+08
 
   -0.46138E+08         0.11823E+06         0.00000E+00
    0.11823E+06        -0.50000E+08         0.00000E+00
    0.00000E+00         0.00000E+00        -0.49225E+08
 
   -0.46302E+08         0.18251E+06         0.00000E+00
    0.18251E+06        -0.50001E+08         0.00000E+00
    0.00000E+00         0.00000E+00        -0.49258E+08
 
   -0.46463E+08         0.23935E+06         0.00000E+00
    0.23935E+06        -0.50003E+08         0.00000E+00
    0.00000E+00         0.00000E+00        -0.49290E+08
 
   -0.46620E+08         0.28927E+06         0.00000E+00
    0.28927E+06        -0.50007E+08         0.00000E+00
    0.00000E+00         0.00000E+00        -0.49323E+08
 
   -0.46774E+08         0.33284E+06         0.00000E+00
    0.33284E+06        -0.50013E+08         0.00000E+00
    0.00000E+00         0.00000E+00        -0.49354E+08
 
   -0.46923E+08         0.37062E+06         0.00000E+00
    0.37062E+06        -0.50021E+08         0.00000E+00
    0.00000E+00         0.00000E+00        -0.49386E+08
 
   -0.47067E+08         0.40320E+06         0.00000E+00
    0.40320E+06        -0.50031E+08         0.00000E+00
    0.00000E+00         0.00000E+00        -0.49417E+08
 
   -0.47207E+08         0.43118E+06         0.00000E+00
    0.43118E+06        -0.50043E+08         0.00000E+00
    0.00000E+00         0.00000E+00        -0.49447E+08
 
   -0.47341E+08         0.45512E+06         0.00000E+00
    0.45512E+06        -0.50058E+08         0.00000E+00
    0.00000E+00         0.00000E+00        -0.49477E+08
 
   -0.47469E+08         0.47561E+06         0.00000E+00
    0.47561E+06        -0.50075E+08         0.00000E+00
    0.00000E+00         0.00000E+00        -0.49506E+08
 
   -0.47592E+08         0.49319E+06         0.00000E+00
    0.49319E+06        -0.50094E+08         0.00000E+00
    0.00000E+00         0.00000E+00        -0.49534E+08
 
   -0.47709E+08         0.50840E+06         0.00000E+00
    0.50840E+06        -0.50115E+08         0.00000E+00
    0.00000E+00         0.00000E+00        -0.49562E+08
 
   -0.47821E+08         0.52174E+06         0.00000E+00
    0.52174E+06        -0.50139E+08         0.00000E+00
    0.00000E+00         0.00000E+00        -0.49589E+08
 
   -0.47928E+08         0.53366E+06         0.00000E+00
    0.53366E+06        -0.50164E+08         0.00000E+00
    0.00000E+00         0.00000E+00        -0.49616E+08
 
   -0.48029E+08         0.54461E+06         0.00000E+00
    0.54461E+06        -0.50191E+08         0.00000E+00
    0.00000E+00         0.00000E+00        -0.49641E+08
 
   -0.48125E+08         0.55498E+06         0.00000E+00
    0.55498E+06        -0.50219E+08         0.00000E+00
    0.00000E+00         0.00000E+00        -0.49666E+08
 
   -0.48216E+08         0.56512E+06         0.00000E+00
    0.56512E+06        -0.50249E+08         0.00000E+00
    0.00000E+00         0.00000E+00        -0.49690E+08
 
   -0.48302E+08         0.57536E+06         0.00000E+00
    0.57536E+06        -0.50280E+08         0.00000E+00
    0.00000E+00         0.00000E+00        -0.49714E+08
 
   -0.48384E+08         0.58596E+06         0.00000E+00
    0.58596E+06        -0.50311E+08         0.00000E+00
    0.00000E+00         0.00000E+00        -0.49736E+08
 
   -0.48463E+08         0.59717E+06         0.00000E+00
    0.59717E+06        -0.50343E+08         0.00000E+00
    0.00000E+00         0.00000E+00        -0.49758E+08
 
   -0.48537E+08         0.60917E+06         0.00000E+00
    0.60917E+06        -0.50375E+08         0.00000E+00
    0.00000E+00         0.00000E+00        -0.49780E+08
 
   -0.48608E+08         0.62211E+06         0.00000E+00
    0.62211E+06        -0.50407E+08         0.00000E+00
    0.00000E+00         0.00000E+00        -0.49800E+08
 
   -0.48677E+08         0.63612E+06         0.00000E+00
    0.63612E+06        -0.50439E+08         0.00000E+00
    0.00000E+00         0.00000E+00        -0.49820E+08
 
   -0.48742E+08         0.65125E+06         0.00000E+00
    0.65125E+06        -0.50470E+08         0.00000E+00
    0.00000E+00         0.00000E+00        -0.49840E+08
 
   -0.48805E+08         0.66756E+06         0.00000E+00
    0.66756E+06        -0.50501E+08         0.00000E+00
    0.00000E+00         0.00000E+00        -0.49858E+08
 
   -0.48867E+08         0.68503E+06         0.00000E+00
    0.68503E+06        -0.50530E+08         0.00000E+00
    0.00000E+00         0.00000E+00        -0.49877E+08
 
   -0.48927E+08         0.70362E+06         0.00000E+00
    0.70362E+06        -0.50558E+08         0.00000E+00
    0.00000E+00         0.00000E+00        -0.49894E+08
 
   -0.48985E+08         0.72327E+06         0.00000E+00
    0.72327E+06        -0.50584E+08         0.00000E+00
    0.00000E+00         0.00000E+00        -0.49911E+08
 
   -0.49043E+08         0.74386E+06         0.00000E+00
    0.74386E+06        -0.50609E+08         0.00000E+00
    0.00000E+00         0.00000E+00        -0.49927E+08
 
   -0.49099E+08         0.76526E+06         0.00000E+00
    0.76526E+06        -0.50631E+08         0.00000E+00
    0.00000E+00         0.00000E+00        -0.49943E+08
 
   -0.49156E+08         0.78729E+06         0.00000E+00
    0.78729E+06        -0.50652E+08         0.00000E+00
    0.00000E+00         0.00000E+00        -0.49959E+08
 
   -0.49212E+08         0.80977E+06         0.00000E+00
    0.80977E+06        -0.50670E+08         0.00000E+00
    0.00000E+00         0.00000E+00        -0.49974E+08
 
   -0.49268E+08         0.83245E+06         0.00000E+00
    0.83245E+06        -0.50686E+08         0.00000E+00
    0.00000E+00         0.00000E+00        -0.49988E+08
 
   -0.49324E+08         0.85511E+06         0.00000E+00
    0.85511E+06        -0.50699E+08         0.00000E+00
    0.00000E+00         0.00000E+00        -0.50002E+08
 
   -0.49380E+08         0.87746E+06         0.00000E+00
    0.87746E+06        -0.50709E+08         0.00000E+00
    0.00000E+00         0.00000E+00        -0.50015E+08
 
   -0.49437E+08         0.89921E+06         0.00000E+00
    0.89921E+06        -0.50717E+08         0.00000E+00
    0.00000E+00         0.00000E+00        -0.50028E+08
 
   -0.49493E+08         0.92007E+06         0.00000E+00
    0.92007E+06        -0.50721E+08         0.00000E+00
    0.00000E+00         0.00000E+00        -0.50040E+08
 
   -0.49550E+08         0.93970E+06         0.00000E+00
    0.93970E+06        -0.50723E+08         0.00000E+00
    0.00000E+00         0.00000E+00        -0.50052E+08
 
   -0.49608E+08         0.95777E+06         0.00000E+00
    0.95777E+06        -0.50723E+08         0.00000E+00
    0.00000E+00         0.00000E+00        -0.50063E+08
 
   -0.49665E+08         0.97396E+06         0.00000E+00
    0.97396E+06        -0.50719E+08         0.00000E+00
    0.00000E+00         0.00000E+00        -0.50074E+08
 
   -0.49722E+08         0.98793E+06         0.00000E+00
    0.98793E+06        -0.50713E+08         0.00000E+00
    0.00000E+00         0.00000E+00        -0.50084E+08
 
   -0.49779E+08         0.99936E+06         0.00000E+00
    0.99936E+06        -0.50705E+08         0.00000E+00
    0.00000E+00         0.00000E+00        -0.50094E+08
 
   -0.49834E+08         0.10079E+07         0.00000E+00
    0.10079E+07        -0.50695E+08         0.00000E+00
    0.00000E+00         0.00000E+00        -0.50103E+08
 
   -0.49889E+08         0.10133E+07         0.00000E+00
    0.10133E+07        -0.50682E+08         0.00000E+00
    0.00000E+00         0.00000E+00        -0.50111E+08
 
   -0.49942E+08         0.10153E+07         0.00000E+00
    0.10153E+07        -0.50668E+08         0.00000E+00
    0.00000E+00         0.00000E+00        -0.50119E+08
 
   -0.49993E+08         0.10135E+07         0.00000E+00
    0.10135E+07        -0.50652E+08         0.00000E+00
    0.00000E+00         0.00000E+00        -0.50126E+08
 
   -0.50041E+08         0.10079E+07         0.00000E+00
    0.10079E+07        -0.50636E+08         0.00000E+00
    0.00000E+00         0.00000E+00        -0.50133E+08
 
   -0.50085E+08         0.99826E+06         0.00000E+00
    0.99826E+06        -0.50619E+08         0.00000E+00
    0.00000E+00         0.00000E+00        -0.50138E+08
 
   -0.50126E+08         0.98447E+06         0.00000E+00
    0.98447E+06        -0.50602E+08         0.00000E+00
    0.00000E+00         0.00000E+00        -0.50143E+08
 
   -0.45602E+08         0.45617E+05         0.00000E+00
    0.45617E+05        -0.49999E+08         0.00000E+00
    0.00000E+00         0.00000E+00        -0.49111E+08
 
   -0.45814E+08         0.11100E+06         0.00000E+00
    0.11100E+06        -0.50000E+08         0.00000E+00
    0.00000E+00         0.00000E+00        -0.49153E+08
 
   -0.46021E+08         0.16628E+06         0.00000E+00
    0.16628E+06        -0.50003E+08         0.00000E+00
    0.00000E+00         0.00000E+00        -0.49195E+08
 
   -0.46222E+08         0.21228E+06         0.00000E+00
    0.21228E+06        -0.50010E+08         0.00000E+00
    0.00000E+00         0.00000E+00        -0.49237E+08
 
   -0.46416E+08         0.24990E+06         0.00000E+00
    0.24990E+06        -0.50019E+08         0.00000E+00
    0.00000E+00         0.00000E+00        -0.49277E+08
 
   -0.46602E+08         0.28003E+06         0.00000E+00
    0.28003E+06        -0.50032E+08         0.00000E+00
    0.00000E+00         0.00000E+00        -0.49317E+08
 
   -0.46780E+08         0.30360E+06         0.00000E+00
    0.30360E+06        -0.50049E+08         0.00000E+00
    0.00000E+00         0.00000E+00        -0.49356E+08
 
   -0.46950E+08         0.32152E+06         0.00000E+00
    0.32152E+06        -0.50069E+08         0.00000E+00
    0.00000E+00         0.00000E+00        -0.49394E+08
 
   -0.47111E+08         0.33470E+06         0.00000E+00
    0.33470E+06        -0.50093E+08         0.00000E+00
    0.00000E+00         0.00000E+00        -0.49431E+08
 
   -0.47263E+08         0.34400E+06         0.00000E+00
    0.34400E+06        -0.50121E+08         0.00000E+00
    0.00000E+00         0.00000E+00        -0.49467E+08
 
   -0.47406E+08         0.35026E+06         0.00000E+00
    0.35026E+06        -0.50152E+08         0.00000E+00
    0.00000E+00         0.00000E+00        -0.49502E+08
 
   -0.47541E+08         0.35427E+06         0.00000E+00
    0.35427E+06        -0.50187E+08         0.00000E+00
    0.00000E+00         0.00000E+00        -0.49536E+08
 
   -0.47667E+08         0.35676E+06         0.00000E+00
    0.35676E+06        -0.50225E+08         0.00000E+00
    0.00000E+00         0.00000E+00        -0.49569E+08
 
   -0.47784E+08         0.35840E+06         0.00000E+00
    0.35840E+06        -0.50266E+08         0.00000E+00
    0.00000E+00         0.00000E+00        -0.49600E+08
 
   -0.47893E+08         0.35983E+06         0.00000E+00
    0.35983E+06        -0.50310E+08         0.00000E+00
    0.00000E+00         0.00000E+00        -0.49631E+08
 
   -0.47995E+08         0.36159E+06         0.00000E+00
    0.36159E+06        -0.50355E+08         0.00000E+00
    0.00000E+00         0.00000E+00        -0.49660E+08
 
   -0.48090E+08         0.36418E+06         0.00000E+00
    0.36418E+06        -0.50403E+08         0.00000E+00
    0.00000E+00         0.00000E+00        -0.49689E+08
 
   -0.48177E+08         0.36804E+06         0.00000E+00
    0.36804E+06        -0.50452E+08         0.00000E+00
    0.00000E+00         0.00000E+00        -0.49716E+08
 
   -0.48259E+08         0.37353E+06         0.00000E+00
    0.37353E+06        -0.50503E+08         0.00000E+00
    0.00000E+00         0.00000E+00        -0.49743E+08
 
   -0.48335E+08         0.38098E+06         0.00000E+00
    0.38098E+06        -0.50554E+08         0.00000E+00
    0.00000E+00         0.00000E+00        -0.49768E+08
 
   -0.48406E+08         0.39064E+06         0.00000E+00
    0.39064E+06        -0.50605E+08         0.00000E+00
    0.00000E+00         0.00000E+00        -0.49793E+08
 
   -0.48472E+08         0.40270E+06         0.00000E+00
    0.40270E+06        -0.50657E+08         0.00000E+00
    0.00000E+00         0.00000E+00        -0.49816E+08
 
   -0.48535E+08         0.41732E+06         0.00000E+00
    0.41732E+06        -0.50708E+08         0.00000E+00
    0.00000E+00         0.00000E+00        -0.49839E+08
 
   -0.48594E+08         0.43457E+06         0.00000E+00
    0.43457E+06        -0.50759E+08         0.00000E+00
    0.00000E+00         0.00000E+00        -0.49861E+08
 
   -0.48650E+08         0.45450E+06         0.00000E+00
    0.45450E+06        -0.50808E+08         0.00000E+00
    0.00000E+00         0.00000E+00        -0.49882E+08
 
   -0.48704E+08         0.47710E+06         0.00000E+00
    0.47710E+06        -0.50856E+08         0.00000E+00
    0.00000E+00         0.00000E+00        -0.49902E+08
 
   -0.48756E+08         0.50233E+06         0.00000E+00
    0.50233E+06        -0.50903E+08         0.00000E+00
    0.00000E+00         0.00000E+00        -0.49922E+08
 
   -0.48807E+08         0.53006E+06         0.00000E+00
    0.53006E+06        -0.50947E+08         0.00000E+00
    0.00000E+00         0.00000E+00        -0.49941E+08
 
   -0.48858E+08         0.56017E+06         0.00000E+00
    0.56017E+06        -0.50989E+08         0.00000E+00
    0.00000E+00         0.00000E+00        -0.49960E+08
 
   -0.48908E+08         0.59247E+06         0.00000E+00
    0.59247E+06        -0.51028E+08         0.00000E+00
    0.00000E+00         0.00000E+00        -0.49978E+08
 
   -0.48958E+08         0.62672E+06         0.00000E+00
    0.62672E+06        -0.51064E+08         0.00000E+00
    0.00000E+00         0.00000E+00        -0.49995E+08
 
   -0.49010E+08         0.66265E+06         0.00000E+00
    0.66265E+06        -0.51097E+08         0.00000E+00
    0.00000E+00         0.00000E+00        -0.50012E+08
 
   -0.49062E+08         0.69997E+06         0.00000E+00
    0.69997E+06        -0.51126E+08         0.00000E+00
    0.00000E+00         0.00000E+00        -0.50028E+08
 
   -0.49116E+08         0.73831E+06         0.00000E+00
    0.73831E+06        -0.51152E+08         0.00000E+00
    0.00000E+00         0.00000E+00        -0.50044E+08
 
   -0.49171E+08         0.77731E+06         0.00000E+00
    0.77731E+06        -0.51173E+08         0.00000E+00
    0.00000E+00         0.00000E+00        -0.50059E+08
 
   -0.49229E+08         0.81653E+06         0.00000E+00
    0.81653E+06        -0.51191E+08         0.00000E+00
    0.00000E+00         0.00000E+00        -0.50074E+08
 
   -0.49288E+08         0.85552E+06         0.00000E+00
    0.85552E+06        -0.51205E+08         0.00000E+00
    0.00000E+00         0.00000E+00        -0.50089E+08
 
   -0.49350E+08         0.89381E+06         0.00000E+00
    0.89381E+06        -0.51214E+08         0.00000E+00
    0.00000E+00         0.00000E+00        -0.50103E+08
 
   -0.49415E+08         0.93087E+06         0.00000E+00
    0.93087E+06        -0.51219E+08         0.00000E+00
    0.00000E+00         0.00000E+00        -0.50117E+08
 
   -0.49481E+08         0.96618E+06         0.00000E+00
    0.96618E+06        -0.51220E+08         0.00000E+00
    0.00000E+00         0.00000E+00        -0.50131E+08
 
   -0.49550E+08         0.99916E+06         0.00000E+00
    0.99916E+06        -0.51216E+08         0.00000E+00
    0.00000E+00         0.00000E+00        -0.50144E+08
 
   -0.49621E+08         0.10292E+07         0.00000E+00
    0.10292E+07        -0.51208E+08         0.00000E+00
    0.00000E+00         0.00000E+00        -0.50156E+08
 
   -0.49694E+08         0.10558E+07         0.00000E+00
    0.10558E+07        -0.51197E+08         0.00000E+00
    0.00000E+00         0.00000E+00        -0.50169E+08
 
   -0.49768E+08         0.10784E+07         0.00000E+00
    0.10784E+07        -0.51181E+08         0.00000E+00
    0.00000E+00         0.00000E+00        -0.50180E+08
 
   -0.49843E+08         0.10962E+07         0.00000E+00
    0.10962E+07        -0.51162E+08         0.00000E+00
    0.00000E+00         0.00000E+00        -0.50191E+08
 
   -0.49919E+08         0.11089E+07         0.00000E+00
    0.11089E+07        -0.51140E+08         0.00000E+00
    0.00000E+00         0.00000E+00        -0.50202E+08
 
   -0.49994E+08         0.11158E+07         0.00000E+00
    0.11158E+07        -0.51115E+08         0.00000E+00
    0.00000E+00         0.00000E+00        -0.50212E+08
 
   -0.50068E+08         0.11164E+07         0.00000E+00
    0.11164E+07        -0.51087E+08         0.00000E+00
    0.00000E+00         0.00000E+00        -0.50221E+08
 
   -0.50139E+08         0.11103E+07         0.00000E+00
    0.11103E+07        -0.51059E+08         0.00000E+00
    0.00000E+00         0.00000E+00        -0.50230E+08
 
   -0.50208E+08         0.10971E+07         0.00000E+00
    0.10971E+07        -0.51029E+08         0.00000E+00
    0.00000E+00         0.00000E+00        -0.50238E+08
 
   -0.45278E+08         0.42262E+05         0.00000E+00
    0.42262E+05        -0.49998E+08         0.00000E+00
    0.00000E+00         0.00000E+00        -0.49024E+08
 
   -0.45550E+08         0.92231E+05         0.00000E+00
    0.92231E+05        -0.50000E+08         0.00000E+00
    0.00000E+00         0.00000E+00        -0.49079E+08
 
   -0.45812E+08         0.12922E+06         0.00000E+00
    0.12922E+06        -0.50008E+08         0.00000E+00
    0.00000E+00         0.00000E+00        -0.49133E+08
 
   -0.46061E+08         0.15473E+06         0.00000E+00
    0.15473E+06        -0.50021E+08         0.00000E+00
    0.00000E+00         0.00000E+00        -0.49185E+08
 
   -0.46298E+08         0.17028E+06         0.00000E+00
    0.17028E+06        -0.50039E+08         0.00000E+00
    0.00000E+00         0.00000E+00        -0.49236E+08
 
   -0.46521E+08         0.17736E+06         0.00000E+00
    0.17736E+06        -0.50063E+08         0.00000E+00
    0.00000E+00         0.00000E+00        -0.49286E+08
 
   -0.46731E+08         0.17746E+06         0.00000E+00
    0.17746E+06        -0.50094E+08         0.00000E+00
    0.00000E+00         0.00000E+00        -0.49334E+08
 
   -0.46926E+08         0.17200E+06         0.00000E+00
    0.17200E+06        -0.50130E+08         0.00000E+00
    0.00000E+00         0.00000E+00        -0.49380E+08
 
   -0.47107E+08         0.16232E+06         0.00000E+00
    0.16232E+06        -0.50171E+08         0.00000E+00
    0.00000E+00         0.00000E+00        -0.49425E+08
 
   -0.47274E+08         0.14968E+06         0.00000E+00
    0.14968E+06        -0.50218E+08         0.00000E+00
    0.00000E+00         0.00000E+00        -0.49467E+08
 
   -0.47427E+08         0.13525E+06         0.00000E+00
    0.13525E+06        -0.50270E+08         0.00000E+00
    0.00000E+00         0.00000E+00        -0.49508E+08
 
   -0.47567E+08         0.12008E+06         0.00000E+00
    0.12008E+06        -0.50327E+08         0.00000E+00
    0.00000E+00         0.00000E+00        -0.49548E+08
 
   -0.47695E+08         0.10513E+06         0.00000E+00
    0.10513E+06        -0.50388E+08         0.00000E+00
    0.00000E+00         0.00000E+00        -0.49586E+08
 
   -0.47810E+08         0.91270E+05         0.00000E+00
    0.91270E+05        -0.50452E+08         0.00000E+00
    0.00000E+00         0.00000E+00        -0.49621E+08
 
   -0.47914E+08         0.79236E+05         0.00000E+00
    0.79236E+05        -0.50520E+08         0.00000E+00
    0.00000E+00         0.00000E+00        -0.49656E+08
 
   -0.48008E+08         0.69685E+05         0.00000E+00
    0.69685E+05        -0.50590E+08         0.00000E+00
    0.00000E+00         0.00000E+00        -0.49689E+08
 
   -0.48092E+08         0.63173E+05         0.00000E+00
    0.63173E+05        -0.50663E+08         0.00000E+00
    0.00000E+00         0.00000E+00        -0.49720E+08
 
   -0.48167E+08         0.60165E+05         0.00000E+00
    0.60165E+05        -0.50737E+08         0.00000E+00
    0.00000E+00         0.00000E+00        -0.49750E+08
 
   -0.48235E+08         0.61040E+05         0.00000E+00
    0.61040E+05        -0.50812E+08         0.00000E+00
    0.00000E+00         0.00000E+00        -0.49778E+08
 
   -0.48295E+08         0.66100E+05         0.00000E+00
    0.66100E+05        -0.50887E+08         0.00000E+00
    0.00000E+00         0.00000E+00        -0.49805E+08
 
   -0.48349E+08         0.75569E+05         0.00000E+00
    0.75569E+05        -0.50963E+08         0.00000E+00
    0.00000E+00         0.00000E+00        -0.49831E+08
 
   -0.48398E+08         0.89604E+05         0.00000E+00
    0.89604E+05        -0.51038E+08         0.00000E+00
    0.00000E+00         0.00000E+00        -0.49856E+08
 
   -0.48442E+08         0.10830E+06         0.00000E+00
    0.10830E+06        -0.51112E+08         0.00000E+00
    0.00000E+00         0.00000E+00        -0.49880E+08
 
   -0.48483E+08         0.13168E+06         0.00000E+00
    0.13168E+06        -0.51185E+08         0.00000E+00
    0.00000E+00         0.00000E+00        -0.49903E+08
 
   -0.48521E+08         0.15973E+06         0.00000E+00
    0.15973E+06        -0.51256E+08         0.00000E+00
    0.00000E+00         0.00000E+00        -0.49924E+08
 
   -0.48557E+08         0.19236E+06         0.00000E+00
    0.19236E+06        -0.51324E+08         0.00000E+00
    0.00000E+00         0.00000E+00        -0.49945E+08
 
   -0.48593E+08         0.22946E+06         0.00000E+00
    0.22946E+06        -0.51390E+08         0.00000E+00
    0.00000E+00         0.00000E+00        -0.49966E+08
 
   -0.48627E+08         0.27085E+06         0.00000E+00
    0.27085E+06        -0.51453E+08         0.00000E+00
    0.00000E+00         0.00000E+00        -0.49985E+08
 
   -0.48662E+08         0.31630E+06         0.00000E+00
    0.31630E+06        -0.51513E+08         0.00000E+00
    0.00000E+00         0.00000E+00        -0.50004E+08
 
   -0.48698E+08         0.36554E+06         0.00000E+00
    0.36554E+06        -0.51568E+08         0.00000E+00
    0.00000E+00         0.00000E+00        -0.50022E+08
 
   -0.48736E+08         0.41826E+06         0.00000E+00
    0.41826E+06        -0.51620E+08         0.00000E+00
    0.00000E+00         0.00000E+00        -0.50040E+08
 
   -0.48777E+08         0.47409E+06         0.00000E+00
    0.47409E+06        -0.51667E+08         0.00000E+00
    0.00000E+00         0.00000E+00        -0.50058E+08
 
   -0.48820E+08         0.53263E+06         0.00000E+00
    0.53263E+06        -0.51709E+08         0.00000E+00
    0.00000E+00         0.00000E+00        -0.50075E+08
 
   -0.48867E+08         0.59340E+06         0.00000E+00
    0.59340E+06        -0.51747E+08         0.00000E+00
    0.00000E+00         0.00000E+00        -0.50092E+08
 
   -0.48918E+08         0.65591E+06         0.00000E+00
    0.65591E+06        -0.51779E+08         0.00000E+00
    0.00000E+00         0.00000E+00        -0.50108E+08
 
   -0.48973E+08         0.71958E+06         0.00000E+00
    0.71958E+06        -0.51805E+08         0.00000E+00
    0.00000E+00         0.00000E+00        -0.50125E+08
 
   -0.49034E+08         0.78379E+06         0.00000E+00
    0.78379E+06        -0.51825E+08         0.00000E+00
    0.00000E+00         0.00000E+00        -0.50141E+08
 
   -0.49100E+08         0.84788E+06         0.00000E+00
    0.84788E+06        -0.51840E+08         0.00000E+00
    0.00000E+00         0.00000E+00        -0.50157E+08
 
   -0.49171E+08         0.91111E+06         0.00000E+00
    0.91111E+06        -0.51848E+08         0.00000E+00
    0.00000E+00         0.00000E+00        -0.50173E+08
 
   -0.49248E+08         0.97270E+06         0.00000E+00
    0.97270E+06        -0.51850E+08         0.00000E+00
    0.00000E+00         0.00000E+00        -0.50189E+08
 
   -0.49331E+08         0.10318E+07         0.00000E+00
    0.10318E+07        -0.51846E+08         0.00000E+00
    0.00000E+00         0.00000E+00        -0.50204E+08
 
   -0.49419E+08         0.10876E+07         0.00000E+00
    0.10876E+07        -0.51835E+08         0.00000E+00
    0.00000E+00         0.00000E+00        -0.50220E+08
 
   -0.49514E+08         0.11390E+07         0.00000E+00
    0.11390E+07        -0.51818E+08         0.00000E+00
    0.00000E+00         0.00000E+00        -0.50235E+08
 
   -0.49613E+08         0.11852E+07         0.00000E+00
    0.11852E+07        -0.51795E+08         0.00000E+00
    0.00000E+00         0.00000E+00        -0.50251E+08
 
   -0.49718E+08         0.12251E+07         0.00000E+00
    0.12251E+07        -0.51766E+08         0.00000E+00
    0.00000E+00         0.00000E+00        -0.50266E+08
 
   -0.49826E+08         0.12577E+07         0.00000E+00
    0.12577E+07        -0.51731E+08         0.00000E+00
    0.00000E+00         0.00000E+00        -0.50280E+08
 
   -0.49938E+08         0.12820E+07         0.00000E+00
    0.12820E+07        -0.51691E+08         0.00000E+00
    0.00000E+00         0.00000E+00        -0.50295E+08
 
   -0.50053E+08         0.12969E+07         0.00000E+00
    0.12969E+07        -0.51647E+08         0.00000E+00
    0.00000E+00         0.00000E+00        -0.50309E+08
 
   -0.50169E+08         0.13014E+07         0.00000E+00
    0.13014E+07        -0.51599E+08         0.00000E+00
    0.00000E+00         0.00000E+00        -0.50323E+08
 
   -0.50284E+08         0.12947E+07         0.00000E+00
    0.12947E+07        -0.51549E+08         0.00000E+00
    0.00000E+00         0.00000E+00        -0.50336E+08
 
   -0.45055E+08         0.32988E+05         0.00000E+00
    0.32988E+05        -0.49995E+08         0.00000E+00
    0.00000E+00         0.00000E+00        -0.48917E+08
 
   -0.45405E+08         0.52850E+05         0.00000E+00
    0.52850E+05        -0.50001E+08         0.00000E+00
    0.00000E+00         0.00000E+00        -0.48988E+08
 
   -0.45734E+08         0.56532E+05         0.00000E+00
    0.56532E+05        -0.50016E+08         0.00000E+00
    0.00000E+00         0.00000E+00        -0.49057E+08
 
   -0.46041E+08         0.46695E+05         0.00000E+00
    0.46695E+05        -0.50040E+08         0.00000E+00
    0.00000E+00         0.00000E+00        -0.49123E+08
 
   -0.46325E+08         0.25939E+05         0.00000E+00
    0.25939E+05        -0.50074E+08         0.00000E+00
    0.00000E+00         0.00000E+00        -0.49186E+08
 
   -0.46587E+08        -0.32933E+04         0.00000E+00
   -0.32933E+04        -0.50116E+08         0.00000E+00
    0.00000E+00         0.00000E+00        -0.49247E+08
 
   -0.46825E+08        -0.38731E+05         0.00000E+00
   -0.38731E+05        -0.50167E+08         0.00000E+00
    0.00000E+00         0.00000E+00        -0.49305E+08
 
   -0.47041E+08        -0.78287E+05         0.00000E+00
   -0.78287E+05        -0.50226E+08         0.00000E+00
    0.00000E+00         0.00000E+00        -0.49360E+08
 
   -0.47235E+08        -0.12007E+06         0.00000E+00
   -0.12007E+06        -0.50293E+08         0.00000E+00
    0.00000E+00         0.00000E+00        -0.49412E+08
 
   -0.47408E+08        -0.16240E+06         0.00000E+00
   -0.16240E+06        -0.50367E+08         0.00000E+00
    0.00000E+00         0.00000E+00        -0.49462E+08
 
   -0.47561E+08        -0.20379E+06         0.00000E+00
   -0.20379E+06        -0.50447E+08         0.00000E+00
    0.00000E+00         0.00000E+00        -0.49508E+08
 
   -0.47695E+08        -0.24294E+06         0.00000E+00
   -0.24294E+06        -0.50533E+08         0.00000E+00
    0.00000E+00         0.00000E+00        -0.49552E+08
 
   -0.47812E+08        -0.27876E+06         0.00000E+00
   -0.27876E+06        -0.50624E+08         0.00000E+00
    0.00000E+00         0.00000E+00        -0.49594E+08
 
   -0.47913E+08        -0.31031E+06         0.00000E+00
   -0.31031E+06        -0.50718E+08         0.00000E+00
    0.00000E+00         0.00000E+00        -0.49633E+08
 
   -0.47999E+08        -0.33682E+06         0.00000E+00
   -0.33682E+06        -0.50815E+08         0.00000E+00
    0.00000E+00         0.00000E+00        -0.49670E+08
 
   -0.48071E+08        -0.35766E+06         0.00000E+00
   -0.35766E+06        -0.50915E+08         0.00000E+00
    0.00000E+00         0.00000E+00        -0.49704E+08
 
   -0.48131E+08        -0.37235E+06         0.00000E+00
   -0.37235E+06        -0.51017E+08         0.00000E+00
    0.00000E+00         0.00000E+00        -0.49736E+08
 
   -0.48181E+08        -0.38051E+06         0.00000E+00
   -0.38051E+06        -0.51119E+08         0.00000E+00
    0.00000E+00         0.00000E+00        -0.49767E+08
 
   -0.48221E+08        -0.38187E+06         0.00000E+00
   -0.38187E+06        -0.51222E+08         0.00000E+00
    0.00000E+00         0.00000E+00        -0.49795E+08
 
   -0.48254E+08        -0.37626E+06         0.00000E+00
   -0.37626E+06        -0.51324E+08         0.00000E+00
    0.00000E+00         0.00000E+00        -0.49822E+08
 
   -0.48279E+08        -0.36357E+06         0.00000E+00
   -0.36357E+06        -0.51425E+08         0.00000E+00
    0.00000E+00         0.00000E+00        -0.49848E+08
 
   -0.48299E+08        -0.34377E+06         0.00000E+00
   -0.34377E+06        -0.51525E+08         0.00000E+00
    0.00000E+00         0.00000E+00        -0.49871E+08
 
   -0.48314E+08        -0.31689E+06         0.00000E+00
   -0.31689E+06        -0.51623E+08         0.00000E+00
    0.00000E+00         0.00000E+00        -0.49894E+08
 
   -0.48326E+08        -0.28302E+06         0.00000E+00
   -0.28302E+06        -0.51719E+08         0.00000E+00
    0.00000E+00         0.00000E+00        -0.49916E+08
 
   -0.48336E+08        -0.24229E+06         0.00000E+00
   -0.24229E+06        -0.51811E+08         0.00000E+00
    0.00000E+00         0.00000E+00        -0.49936E+08
 
   -0.48344E+08        -0.19487E+06         0.00000E+00
   -0.19487E+06        -0.51900E+08         0.00000E+00
    0.00000E+00         0.00000E+00        -0.49956E+08
 
   -0.48353E+08        -0.14097E+06         0.00000E+00
   -0.14097E+06        -0.51986E+08         0.00000E+00
    0.00000E+00         0.00000E+00        -0.49975E+08
 
   -0.48362E+08        -0.80830E+05         0.00000E+00
   -0.80830E+05        -0.52068E+08         0.00000E+00
    0.00000E+00         0.00000E+00        -0.49993E+08
 
   -0.48373E+08        -0.14740E+05         0.00000E+00
   -0.14740E+05        -0.52145E+08         0.00000E+00
    0.00000E+00         0.00000E+00        -0.50010E+08
 
   -0.48387E+08         0.56982E+05         0.00000E+00
    0.56982E+05        -0.52217E+08         0.00000E+00
    0.00000E+00         0.00000E+00        -0.50027E+08
 
   -0.48404E+08         0.13397E+06         0.00000E+00
    0.13397E+06        -0.52284E+08         0.00000E+00
    0.00000E+00         0.00000E+00        -0.50044E+08
 
   -0.48425E+08         0.21582E+06         0.00000E+00
    0.21582E+06        -0.52346E+08         0.00000E+00
    0.00000E+00         0.00000E+00        -0.50061E+08
 
   -0.48452E+08         0.30208E+06         0.00000E+00
    0.30208E+06        -0.52402E+08         0.00000E+00
    0.00000E+00         0.00000E+00        -0.50078E+08
 
   -0.48486E+08         0.39223E+06         0.00000E+00
    0.39223E+06        -0.52451E+08         0.00000E+00
    0.00000E+00         0.00000E+00        -0.50094E+08
 
   -0.48526E+08         0.48571E+06         0.00000E+00
    0.48571E+06        -0.52494E+08         0.00000E+00
    0.00000E+00         0.00000E+00        -0.50111E+08
 
   -0.48573E+08         0.58188E+06         0.00000E+00
    0.58188E+06        -0.52529E+08         0.00000E+00
    0.00000E+00         0.00000E+00        -0.50127E+08
 
   -0.48630E+08         0.68001E+06         0.00000E+00
    0.68001E+06        -0.52558E+08         0.00000E+00
    0.00000E+00         0.00000E+00        -0.50144E+08
 
   -0.48695E+08         0.77931E+06         0.00000E+00
    0.77931E+06        -0.52578E+08         0.00000E+00
    0.00000E+00         0.00000E+00        -0.50161E+08
 
   -0.48771E+08         0.87888E+06         0.00000E+00
    0.87888E+06        -0.52590E+08         0.00000E+00
    0.00000E+00         0.00000E+00        -0.50179E+08
 
   -0.48856E+08         0.97773E+06         0.00000E+00
    0.97773E+06        -0.52594E+08         0.00000E+00
    0.00000E+00         0.00000E+00        -0.50197E+08
 
   -0.48953E+08         0.10748E+07         0.00000E+00
    0.10748E+07        -0.52589E+08         0.00000E+00
    0.00000E+00         0.00000E+00        -0.50215E+08
 
   -0.49060E+08         0.11688E+07         0.00000E+00
    0.11688E+07        -0.52575E+08         0.00000E+00
    0.00000E+00         0.00000E+00        -0.50234E+08
 
   -0.49180E+08         0.12584E+07         0.00000E+00
    0.12584E+07        -0.52552E+08         0.00000E+00
    0.00000E+00         0.00000E+00        -0.50253E+08
 
   -0.49310E+08         0.13423E+07         0.00000E+00
    0.13423E+07        -0.52520E+08         0.00000E+00
    0.00000E+00         0.00000E+00        -0.50273E+08
 
   -0.49452E+08         0.14188E+07         0.00000E+00
    0.14188E+07        -0.52478E+08         0.00000E+00
    0.00000E+00         0.00000E+00        -0.50293E+08
 
   -0.49606E+08         0.14863E+07         0.00000E+00
    0.14863E+07        -0.52427E+08         0.00000E+00
    0.00000E+00         0.00000E+00        -0.50313E+08
 
   -0.49769E+08         0.15430E+07         0.00000E+00
    0.15430E+07        -0.52367E+08         0.00000E+00
    0.00000E+00         0.00000E+00        -0.50334E+08
 
   -0.49942E+08         0.15870E+07         0.00000E+00
    0.15870E+07        -0.52299E+08         0.00000E+00
    0.00000E+00         0.00000E+00        -0.50355E+08
 
   -0.50124E+08         0.16165E+07         0.00000E+00
    0.16165E+07        -0.52223E+08         0.00000E+00
    0.00000E+00         0.00000E+00        -0.50376E+08
 
   -0.50312E+08         0.16296E+07         0.00000E+00
    0.16296E+07        -0.52140E+08         0.00000E+00
    0.00000E+00         0.00000E+00        -0.50397E+08
 
   -0.45027E+08         0.10881E+05         0.00000E+00
    0.10881E+05        -0.49990E+08         0.00000E+00
    0.00000E+00         0.00000E+00        -0.48744E+08
 
   -0.45473E+08        -0.24635E+05         0.00000E+00
   -0.24635E+05        -0.50003E+08         0.00000E+00
    0.00000E+00         0.00000E+00        -0.48836E+08
 
   -0.45879E+08        -0.78133E+05         0.00000E+00
   -0.78133E+05        -0.50032E+08         0.00000E+00
    0.00000E+00         0.00000E+00        -0.48923E+08
 
   -0.46246E+08        -0.14502E+06         0.00000E+00
   -0.14502E+06        -0.50075E+08         0.00000E+00
    0.00000E+00         0.00000E+00        -0.49005E+08
 
   -0.46575E+08        -0.22127E+06         0.00000E+00
   -0.22127E+06        -0.50132E+08         0.00000E+00
    0.00000E+00         0.00000E+00        -0.49082E+08
 
   -0.46866E+08        -0.30328E+06         0.00000E+00
   -0.30328E+06        -0.50202E+08         0.00000E+00
    0.00000E+00         0.00000E+00        -0.49154E+08
 
   -0.47122E+08        -0.38785E+06         0.00000E+00
   -0.38785E+06        -0.50283E+08         0.00000E+00
    0.00000E+00         0.00000E+00        -0.49222E+08
 
   -0.47343E+08        -0.47224E+06         0.00000E+00
   -0.47224E+06        -0.50375E+08         0.00000E+00
    0.00000E+00         0.00000E+00        -0.49284E+08
 
   -0.47533E+08        -0.55411E+06         0.00000E+00
   -0.55411E+06        -0.50476E+08         0.00000E+00
    0.00000E+00         0.00000E+00        -0.49343E+08
 
   -0.47694E+08        -0.63154E+06         0.00000E+00
   -0.63154E+06        -0.50586E+08         0.00000E+00
    0.00000E+00         0.00000E+00        -0.49397E+08
 
   -0.47827E+08        -0.70294E+06         0.00000E+00
   -0.70294E+06        -0.50701E+08         0.00000E+00
    0.00000E+00         0.00000E+00        -0.49446E+08
 
   -0.47936E+08        -0.76705E+06         0.00000E+00
   -0.76705E+06        -0.50822E+08         0.00000E+00
    0.00000E+00         0.00000E+00        -0.49492E+08
 
   -0.48022E+08        -0.82290E+06         0.00000E+00
   -0.82290E+06        -0.50947E+08         0.00000E+00
    0.00000E+00         0.00000E+00        -0.49535E+08
 
   -0.48089E+08        -0.86975E+06         0.00000E+00
   -0.86975E+06        -0.51074E+08         0.00000E+00
    0.00000E+00         0.00000E+00        -0.49573E+08
 
   -0.48138E+08        -0.90709E+06         0.00000E+00
   -0.90709E+06        -0.51204E+08         0.00000E+00
    0.00000E+00         0.00000E+00        -0.49609E+08
 
   -0.48171E+08        -0.93459E+06         0.00000E+00
   -0.93459E+06        -0.51334E+08         0.00000E+00
    0.00000E+00         0.00000E+00        -0.49642E+08
 
   -0.48191E+08        -0.95207E+06         0.00000E+00
   -0.95207E+06        -0.51464E+08         0.00000E+00
    0.00000E+00         0.00000E+00        -0.49672E+08
 
   -0.48199E+08        -0.95947E+06         0.00000E+00
   -0.95947E+06        -0.51593E+08         0.00000E+00
    0.00000E+00         0.00000E+00        -0.49699E+08
 
   -0.48197E+08        -0.95684E+06         0.00000E+00
   -0.95684E+06        -0.51721E+08         0.00000E+00
    0.00000E+00         0.00000E+00        -0.49724E+08
 
   -0.48188E+08        -0.94429E+06         0.00000E+00
   -0.94429E+06        -0.51846E+08         0.00000E+00
    0.00000E+00         0.00000E+00        -0.49748E+08
 
   -0.48171E+08        -0.92200E+06         0.00000E+00
   -0.92200E+06        -0.51970E+08         0.00000E+00
    0.00000E+00         0.00000E+00        -0.49769E+08
 
   -0.48150E+08        -0.89018E+06         0.00000E+00
   -0.89018E+06        -0.52090E+08         0.00000E+00
    0.00000E+00         0.00000E+00        -0.49789E+08
 
   -0.48125E+08        -0.84908E+06         0.00000E+00
   -0.84908E+06        -0.52206E+08         0.00000E+00
    0.00000E+00         0.00000E+00        -0.49807E+08
 
   -0.48098E+08        -0.79895E+06         0.00000E+00
   -0.79895E+06        -0.52319E+08         0.00000E+00
    0.00000E+00         0.00000E+00        -0.49824E+08
 
   -0.48069E+08        -0.74008E+06         0.00000E+00
   -0.74008E+06        -0.52428E+08         0.00000E+00
    0.00000E+00         0.00000E+00        -0.49840E+08
 
   -0.48040E+08        -0.67273E+06         0.00000E+00
   -0.67273E+06        -0.52533E+08         0.00000E+00
    0.00000E+00         0.00000E+00        -0.49855E+08
 
   -0.48013E+08        -0.59718E+06         0.00000E+00
   -0.59718E+06        -0.52633E+08         0.00000E+00
    0.00000E+00         0.00000E+00        -0.49870E+08
 
   -0.47987E+08        -0.51371E+06         0.00000E+00
   -0.51371E+06        -0.52728E+08         0.00000E+00
    0.00000E+00         0.00000E+00        -0.49884E+08
 
   -0.47965E+08        -0.42261E+06         0.00000E+00
   -0.42261E+06        -0.52818E+08         0.00000E+00
    0.00000E+00         0.00000E+00        -0.49897E+08
 
   -0.47947E+08        -0.32417E+06         0.00000E+00
   -0.32417E+06        -0.52902E+08         0.00000E+00
    0.00000E+00         0.00000E+00        -0.49911E+08
 
   -0.47935E+08        -0.21869E+06         0.00000E+00
   -0.21869E+06        -0.52981E+08         0.00000E+00
    0.00000E+00         0.00000E+00        -0.49924E+08
 
   -0.47928E+08        -0.10650E+06         0.00000E+00
   -0.10650E+06        -0.53054E+08         0.00000E+00
    0.00000E+00         0.00000E+00        -0.49937E+08
 
   -0.47930E+08         0.12037E+05         0.00000E+00
    0.12037E+05        -0.53120E+08         0.00000E+00
    0.00000E+00         0.00000E+00        -0.49951E+08
 
   -0.47940E+08         0.13652E+06         0.00000E+00
    0.13652E+06        -0.53180E+08         0.00000E+00
    0.00000E+00         0.00000E+00        -0.49965E+08
 
   -0.47960E+08         0.26648E+06         0.00000E+00
    0.26648E+06        -0.53232E+08         0.00000E+00
    0.00000E+00         0.00000E+00        -0.49979E+08
 
   -0.47991E+08         0.40139E+06         0.00000E+00
    0.40139E+06        -0.53277E+08         0.00000E+00
    0.00000E+00         0.00000E+00        -0.49994E+08
 
   -0.48033E+08         0.54062E+06         0.00000E+00
    0.54062E+06        -0.53313E+08         0.00000E+00
    0.00000E+00         0.00000E+00        -0.50010E+08
 
   -0.48090E+08         0.68343E+06         0.00000E+00
    0.68343E+06        -0.53341E+08         0.00000E+00
    0.00000E+00         0.00000E+00        -0.50027E+08
 
   -0.48161E+08         0.82895E+06         0.00000E+00
    0.82895E+06        -0.53358E+08         0.00000E+00
    0.00000E+00         0.00000E+00        -0.50045E+08
 
   -0.48247E+08         0.97616E+06         0.00000E+00
    0.97616E+06        -0.53366E+08         0.00000E+00
    0.00000E+00         0.00000E+00        -0.50063E+08
 
   -0.48351E+08         0.11239E+07         0.00000E+00
    0.11239E+07        -0.53362E+08         0.00000E+00
    0.00000E+00         0.00000E+00        -0.50083E+08
 
   -0.48473E+08         0.12707E+07         0.00000E+00
    0.12707E+07        -0.53347E+08         0.00000E+00
    0.00000E+00         0.00000E+00        -0.50105E+08
 
   -0.48614E+08         0.14150E+07         0.00000E+00
    0.14150E+07        -0.53320E+08         0.00000E+00
    0.00000E+00         0.00000E+00        -0.50127E+08
 
   -0.48775E+08         0.15550E+07         0.00000E+00
    0.15550E+07        -0.53279E+08         0.00000E+00
    0.00000E+00         0.00000E+00        -0.50152E+08
 
   -0.48958E+08         0.16886E+07         0.00000E+00
    0.16886E+07        -0.53225E+08         0.00000E+00
    0.00000E+00         0.00000E+00        -0.50177E+08
 
   -0.49162E+08         0.18133E+07         0.00000E+00
    0.18133E+07        -0.53157E+08         0.00000E+00
    0.00000E+00         0.00000E+00        -0.50204E+08
 
   -0.49388E+08         0.19266E+07         0.00000E+00
    0.19266E+07        -0.53074E+08         0.00000E+00
    0.00000E+00         0.00000E+00        -0.50233E+08
 
   -0.49635E+08         0.20256E+07         0.00000E+00
    0.20256E+07        -0.52977E+08         0.00000E+00
    0.00000E+00         0.00000E+00        -0.50263E+08
 
   -0.49905E+08         0.21069E+07         0.00000E+00
    0.21069E+07        -0.52865E+08         0.00000E+00
    0.00000E+00         0.00000E+00        -0.50295E+08
 
   -0.50194E+08         0.21671E+07         0.00000E+00
    0.21671E+07        -0.52739E+08         0.00000E+00
    0.00000E+00         0.00000E+00        -0.50327E+08
 
   -0.45365E+08        -0.37524E+05         0.00000E+00
   -0.37524E+05        -0.49981E+08         0.00000E+00
    0.00000E+00         0.00000E+00        -0.48409E+08
 
   -0.45908E+08        -0.16918E+06         0.00000E+00
   -0.16918E+06        -0.50008E+08         0.00000E+00
    0.00000E+00         0.00000E+00        -0.48523E+08
 
   -0.46382E+08        -0.31428E+06         0.00000E+00
   -0.31428E+06        -0.50058E+08         0.00000E+00
    0.00000E+00         0.00000E+00        -0.48628E+08
 
   -0.46792E+08        -0.46667E+06         0.00000E+00
   -0.46667E+06        -0.50130E+08         0.00000E+00
    0.00000E+00         0.00000E+00        -0.48724E+08
 
   -0.47141E+08        -0.62070E+06         0.00000E+00
   -0.62070E+06        -0.50221E+08         0.00000E+00
    0.00000E+00         0.00000E+00        -0.48812E+08
 
   -0.47433E+08        -0.77178E+06         0.00000E+00
   -0.77178E+06        -0.50329E+08         0.00000E+00
    0.00000E+00         0.00000E+00        -0.48892E+08
 
   -0.47674E+08        -0.91629E+06         0.00000E+00
   -0.91629E+06        -0.50450E+08         0.00000E+00
    0.00000E+00         0.00000E+00        -0.48965E+08
 
   -0.47868E+08        -0.10514E+07         0.00000E+00
   -0.10514E+07        -0.50582E+08         0.00000E+00
    0.00000E+00         0.00000E+00        -0.49030E+08
 
   -0.48020E+08        -0.11750E+07         0.00000E+00
   -0.11750E+07        -0.50723E+08         0.00000E+00
    0.00000E+00         0.00000E+00        -0.49088E+08
 
   -0.48135E+08        -0.12855E+07         0.00000E+00
   -0.12855E+07        -0.50871E+08         0.00000E+00
    0.00000E+00         0.00000E+00        -0.49141E+08
 
   -0.48217E+08        -0.13818E+07         0.00000E+00
   -0.13818E+07        -0.51023E+08         0.00000E+00
    0.00000E+00         0.00000E+00        -0.49188E+08
 
   -0.48270E+08        -0.14634E+07         0.00000E+00
   -0.14634E+07        -0.51178E+08         0.00000E+00
    0.00000E+00         0.00000E+00        -0.49229E+08
 
   -0.48298E+08        -0.15299E+07         0.00000E+00
   -0.15299E+07        -0.51333E+08         0.00000E+00
    0.00000E+00         0.00000E+00        -0.49266E+08
 
   -0.48305E+08        -0.15813E+07         0.00000E+00
   -0.15813E+07        -0.51489E+08         0.00000E+00
    0.00000E+00         0.00000E+00        -0.49299E+08
 
   -0.48293E+08        -0.16180E+07         0.00000E+00
   -0.16180E+07        -0.51642E+08         0.00000E+00
    0.00000E+00         0.00000E+00        -0.49327E+08
 
   -0.48267E+08        -0.16402E+07         0.00000E+00
   -0.16402E+07        -0.51794E+08         0.00000E+00
    0.00000E+00         0.00000E+00        -0.49352E+08
 
   -0.48228E+08        -0.16485E+07         0.00000E+00
   -0.16485E+07        -0.51942E+08         0.00000E+00
    0.00000E+00         0.00000E+00        -0.49374E+08
 
   -0.48178E+08        -0.16435E+07         0.00000E+00
   -0.16435E+07        -0.52086E+08         0.00000E+00
    0.00000E+00         0.00000E+00        -0.49393E+08
 
   -0.48121E+08        -0.16258E+07         0.00000E+00
   -0.16258E+07        -0.52226E+08         0.00000E+00
    0.00000E+00         0.00000E+00        -0.49409E+08
 
   -0.48057E+08        -0.15960E+07         0.00000E+00
   -0.15960E+07        -0.52361E+08         0.00000E+00
    0.00000E+00         0.00000E+00        -0.49423E+08
 
   -0.47989E+08        -0.15548E+07         0.00000E+00
   -0.15548E+07        -0.52491E+08         0.00000E+00
    0.00000E+00         0.00000E+00        -0.49436E+08
 
   -0.47917E+08        -0.15026E+07         0.00000E+00
   -0.15026E+07        -0.52617E+08         0.00000E+00
    0.00000E+00         0.00000E+00        -0.49447E+08
 
   -0.47844E+08        -0.14400E+07         0.00000E+00
   -0.14400E+07        -0.52737E+08         0.00000E+00
    0.00000E+00         0.00000E+00        -0.49456E+08
 
   -0.47770E+08        -0.13675E+07         0.00000E+00
   -0.13675E+07        -0.52852E+08         0.00000E+00
    0.00000E+00         0.00000E+00        -0.49464E+08
 
   -0.47696E+08        -0.12855E+07         0.00000E+00
   -0.12855E+07        -0.52963E+08         0.00000E+00
    0.00000E+00         0.00000E+00        -0.49472E+08
 
   -0.47624E+08        -0.11943E+07         0.00000E+00
   -0.11943E+07        -0.53068E+08         0.00000E+00
    0.00000E+00         0.00000E+00        -0.49478E+08
 
   -0.47554E+08        -0.10942E+07         0.00000E+00
   -0.10942E+07        -0.53169E+08         0.00000E+00
    0.00000E+00         0.00000E+00        -0.49484E+08
 
   -0.47487E+08        -0.98550E+06         0.00000E+00
   -0.98550E+06        -0.53265E+08         0.00000E+00
    0.00000E+00         0.00000E+00        -0.49490E+08
 
   -0.47425E+08        -0.86830E+06         0.00000E+00
   -0.86830E+06        -0.53356E+08         0.00000E+00
    0.00000E+00         0.00000E+00        -0.49496E+08
 
   -0.47369E+08        -0.74275E+06         0.00000E+00
   -0.74275E+06        -0.53441E+08         0.00000E+00
    0.00000E+00         0.00000E+00        -0.49502E+08
 
   -0.47318E+08        -0.60892E+06         0.00000E+00
   -0.60892E+06        -0.53522E+08         0.00000E+00
    0.00000E+00         0.00000E+00        -0.49508E+08
 
   -0.47275E+08        -0.46689E+06         0.00000E+00
   -0.46689E+06        -0.53598E+08         0.00000E+00
    0.00000E+00         0.00000E+00        -0.49514E+08
 
   -0.47241E+08        -0.31670E+06         0.00000E+00
   -0.31670E+06        -0.53668E+08         0.00000E+00
    0.00000E+00         0.00000E+00        -0.49522E+08
 
   -0.47217E+08        -0.15838E+06         0.00000E+00
   -0.15838E+06        -0.53732E+08         0.00000E+00
    0.00000E+00         0.00000E+00        -0.49530E+08
 
   -0.47204E+08         0.79743E+04         0.00000E+00
    0.79743E+04        -0.53790E+08         0.00000E+00
    0.00000E+00         0.00000E+00        -0.49539E+08
 
   -0.47204E+08         0.18226E+06         0.00000E+00
    0.18226E+06        -0.53841E+08         0.00000E+00
    0.00000E+00         0.00000E+00        -0.49549E+08
 
   -0.47219E+08         0.36427E+06         0.00000E+00
    0.36427E+06        -0.53884E+08         0.00000E+00
    0.00000E+00         0.00000E+00        -0.49560E+08
 
   -0.47250E+08         0.55372E+06         0.00000E+00
    0.55372E+06        -0.53919E+08         0.00000E+00
    0.00000E+00         0.00000E+00        -0.49574E+08
 
   -0.47299E+08         0.75015E+06         0.00000E+00
    0.75015E+06        -0.53944E+08         0.00000E+00
    0.00000E+00         0.00000E+00        -0.49588E+08
 
   -0.47369E+08         0.95294E+06         0.00000E+00
    0.95294E+06        -0.53959E+08         0.00000E+00
    0.00000E+00         0.00000E+00        -0.49605E+08
 
   -0.47462E+08         0.11612E+07         0.00000E+00
    0.11612E+07        -0.53962E+08         0.00000E+00
    0.00000E+00         0.00000E+00        -0.49625E+08
 
   -0.47580E+08         0.13739E+07         0.00000E+00
    0.13739E+07        -0.53952E+08         0.00000E+00
    0.00000E+00         0.00000E+00        -0.49646E+08
 
   -0.47726E+08         0.15895E+07         0.00000E+00
    0.15895E+07        -0.53927E+08         0.00000E+00
    0.00000E+00         0.00000E+00        -0.49670E+08
 
   -0.47902E+08         0.18061E+07         0.00000E+00
    0.18061E+07        -0.53885E+08         0.00000E+00
    0.00000E+00         0.00000E+00        -0.49697E+08
 
   -0.48112E+08         0.20217E+07         0.00000E+00
    0.20217E+07        -0.53826E+08         0.00000E+00
    0.00000E+00         0.00000E+00        -0.49727E+08
 
   -0.48356E+08         0.22334E+07         0.00000E+00
    0.22334E+07        -0.53747E+08         0.00000E+00
    0.00000E+00         0.00000E+00        -0.49760E+08
 
   -0.48639E+08         0.24379E+07         0.00000E+00
    0.24379E+07        -0.53646E+08         0.00000E+00
    0.00000E+00         0.00000E+00        -0.49797E+08
 
   -0.48962E+08         0.26313E+07         0.00000E+00
    0.26313E+07        -0.53522E+08         0.00000E+00
    0.00000E+00         0.00000E+00        -0.49837E+08
 
   -0.49327E+08         0.28090E+07         0.00000E+00
    0.28090E+07        -0.53373E+08         0.00000E+00
    0.00000E+00         0.00000E+00        -0.49880E+08
 
   -0.49736E+08         0.29660E+07         0.00000E+00
    0.29660E+07        -0.53199E+08         0.00000E+00
    0.00000E+00         0.00000E+00        -0.49927E+08
 
   -0.46337E+08        -0.13198E+06         0.00000E+00
   -0.13198E+06        -0.49970E+08         0.00000E+00
    0.00000E+00         0.00000E+00        -0.47734E+08
 
   -0.46930E+08        -0.41570E+06         0.00000E+00
   -0.41570E+06        -0.50015E+08         0.00000E+00
    0.00000E+00         0.00000E+00        -0.47861E+08
 
   -0.47415E+08        -0.69541E+06         0.00000E+00
   -0.69541E+06        -0.50096E+08         0.00000E+00
    0.00000E+00         0.00000E+00        -0.47975E+08
 
   -0.47803E+08        -0.96239E+06         0.00000E+00
   -0.96239E+06        -0.50205E+08         0.00000E+00
    0.00000E+00         0.00000E+00        -0.48074E+08
 
   -0.48106E+08        -0.12116E+07         0.00000E+00
   -0.12116E+07        -0.50335E+08         0.00000E+00
    0.00000E+00         0.00000E+00        -0.48161E+08
 
   -0.48334E+08        -0.14397E+07         0.00000E+00
   -0.14397E+07        -0.50483E+08         0.00000E+00
    0.00000E+00         0.00000E+00        -0.48236E+08
 
   -0.48497E+08        -0.16439E+07         0.00000E+00
   -0.16439E+07        -0.50643E+08         0.00000E+00
    0.00000E+00         0.00000E+00        -0.48300E+08
 
   -0.48603E+08        -0.18229E+07         0.00000E+00
   -0.18229E+07        -0.50812E+08         0.00000E+00
    0.00000E+00         0.00000E+00        -0.48355E+08
 
   -0.48662E+08        -0.19760E+07         0.00000E+00
   -0.19760E+07        -0.50985E+08         0.00000E+00
    0.00000E+00         0.00000E+00        -0.48402E+08
 
   -0.48681E+08        -0.21032E+07         0.00000E+00
   -0.21032E+07        -0.51160E+08         0.00000E+00
    0.00000E+00         0.00000E+00        -0.48440E+08
 
   -0.48666E+08        -0.22051E+07         0.00000E+00
   -0.22051E+07        -0.51334E+08         0.00000E+00
    0.00000E+00         0.00000E+00        -0.48472E+08
 
   -0.48625E+08        -0.22830E+07         0.00000E+00
   -0.22830E+07        -0.51504E+08         0.00000E+00
    0.00000E+00         0.00000E+00        -0.48498E+08
 
   -0.48561E+08        -0.23382E+07         0.00000E+00
   -0.23382E+07        -0.51669E+08         0.00000E+00
    0.00000E+00         0.00000E+00        -0.48518E+08
 
   -0.48481E+08        -0.23724E+07         0.00000E+00
   -0.23724E+07        -0.51829E+08         0.00000E+00
    0.00000E+00         0.00000E+00        -0.48534E+08
 
   -0.48386E+08        -0.23872E+07         0.00000E+00
   -0.23872E+07        -0.51981E+08         0.00000E+00
    0.00000E+00         0.00000E+00        -0.48546E+08
 
   -0.48282E+08        -0.23843E+07         0.00000E+00
   -0.23843E+07        -0.52126E+08         0.00000E+00
    0.00000E+00         0.00000E+00        -0.48554E+08
 
   -0.48170E+08        -0.23651E+07         0.00000E+00
   -0.23651E+07        -0.52264E+08         0.00000E+00
    0.00000E+00         0.00000E+00        -0.48559E+08
 
   -0.48053E+08        -0.23314E+07         0.00000E+00
   -0.23314E+07        -0.52394E+08         0.00000E+00
    0.00000E+00         0.00000E+00        -0.48562E+08
 
   -0.47932E+08        -0.22843E+07         0.00000E+00
   -0.22843E+07        -0.52516E+08         0.00000E+00
    0.00000E+00         0.00000E+00        -0.48562E+08
 
   -0.47810E+08        -0.22251E+07         0.00000E+00
   -0.22251E+07        -0.52632E+08         0.00000E+00
    0.00000E+00         0.00000E+00        -0.48561E+08
 
   -0.47686E+08        -0.21549E+07         0.00000E+00
   -0.21549E+07        -0.52741E+08         0.00000E+00
    0.00000E+00         0.00000E+00        -0.48558E+08
 
   -0.47563E+08        -0.20746E+07         0.00000E+00
   -0.20746E+07        -0.52843E+08         0.00000E+00
    0.00000E+00         0.00000E+00        -0.48554E+08
 
   -0.47441E+08        -0.19849E+07         0.00000E+00
   -0.19849E+07        -0.52939E+08         0.00000E+00
    0.00000E+00         0.00000E+00        -0.48548E+08
 
   -0.47321E+08        -0.18865E+07         0.00000E+00
   -0.18865E+07        -0.53031E+08         0.00000E+00
    0.00000E+00         0.00000E+00        -0.48543E+08
 
   -0.47203E+08        -0.17797E+07         0.00000E+00
   -0.17797E+07        -0.53117E+08         0.00000E+00
    0.00000E+00         0.00000E+00        -0.48536E+08
 
   -0.47088E+08        -0.16650E+07         0.00000E+00
   -0.16650E+07        -0.53199E+08         0.00000E+00
    0.00000E+00         0.00000E+00        -0.48530E+08
 
   -0.46977E+08        -0.15425E+07         0.00000E+00
   -0.15425E+07        -0.53277E+08         0.00000E+00
    0.00000E+00         0.00000E+00        -0.48523E+08
 
   -0.46869E+08        -0.14122E+07         0.00000E+00
   -0.14122E+07        -0.53351E+08         0.00000E+00
    0.00000E+00         0.00000E+00        -0.48516E+08
 
   -0.46766E+08        -0.12740E+07         0.00000E+00
   -0.12740E+07        -0.53422E+08         0.00000E+00
    0.00000E+00         0.00000E+00        -0.48510E+08
 
   -0.46668E+08        -0.11279E+07         0.00000E+00
   -0.11279E+07        -0.53490E+08         0.00000E+00
    0.00000E+00         0.00000E+00        -0.48504E+08
 
   -0.46575E+08        -0.97337E+06         0.00000E+00
   -0.97337E+06        -0.53556E+08         0.00000E+00
    0.00000E+00         0.00000E+00        -0.48498E+08
 
   -0.46489E+08        -0.81016E+06         0.00000E+00
   -0.81016E+06        -0.53618E+08         0.00000E+00
    0.00000E+00         0.00000E+00        -0.48494E+08
 
   -0.46411E+08        -0.63772E+06         0.00000E+00
   -0.63772E+06        -0.53679E+08         0.00000E+00
    0.00000E+00         0.00000E+00        -0.48490E+08
 
   -0.46341E+08        -0.45549E+06         0.00000E+00
   -0.45549E+06        -0.53736E+08         0.00000E+00
    0.00000E+00         0.00000E+00        -0.48488E+08
 
   -0.46281E+08        -0.26282E+06         0.00000E+00
   -0.26282E+06        -0.53790E+08         0.00000E+00
    0.00000E+00         0.00000E+00        -0.48487E+08
 
   -0.46233E+08        -0.59025E+05         0.00000E+00
   -0.59025E+05        -0.53841E+08         0.00000E+00
    0.00000E+00         0.00000E+00        -0.48487E+08
 
   -0.46198E+08         0.15659E+06         0.00000E+00
    0.15659E+06        -0.53887E+08         0.00000E+00
    0.00000E+00         0.00000E+00        -0.48489E+08
 
   -0.46180E+08         0.38472E+06         0.00000E+00
    0.38472E+06        -0.53929E+08         0.00000E+00
    0.00000E+00         0.00000E+00        -0.48494E+08
 
   -0.46180E+08         0.62596E+06         0.00000E+00
    0.62596E+06        -0.53964E+08         0.00000E+00
    0.00000E+00         0.00000E+00        -0.48501E+08
 
   -0.46202E+08         0.88081E+06         0.00000E+00
    0.88081E+06        -0.53991E+08         0.00000E+00
    0.00000E+00         0.00000E+00        -0.48511E+08
 
   -0.46249E+08         0.11496E+07         0.00000E+00
    0.11496E+07        -0.54008E+08         0.00000E+00
    0.00000E+00         0.00000E+00        -0.48524E+08
 
   -0.46325E+08         0.14322E+07         0.00000E+00
    0.14322E+07        -0.54014E+08         0.00000E+00
    0.00000E+00         0.00000E+00        -0.48540E+08
 
   -0.46435E+08         0.17284E+07         0.00000E+00
    0.17284E+07        -0.54005E+08         0.00000E+00
    0.00000E+00         0.00000E+00        -0.48560E+08
 
   -0.46584E+08         0.20373E+07         0.00000E+00
    0.20373E+07        -0.53979E+08         0.00000E+00
    0.00000E+00         0.00000E+00        -0.48585E+08
 
   -0.46776E+08         0.23574E+07         0.00000E+00
    0.23574E+07        -0.53933E+08         0.00000E+00
    0.00000E+00         0.00000E+00        -0.48614E+08
 
   -0.47018E+08         0.26867E+07         0.00000E+00
    0.26867E+07        -0.53862E+08         0.00000E+00
    0.00000E+00         0.00000E+00        -0.48648E+08
 
   -0.47315E+08         0.30224E+07         0.00000E+00
    0.30224E+07        -0.53763E+08         0.00000E+00
    0.00000E+00         0.00000E+00        -0.48688E+08
 
   -0.47675E+08         0.33611E+07         0.00000E+00
    0.33611E+07        -0.53633E+08         0.00000E+00
    0.00000E+00         0.00000E+00        -0.48734E+08
 
   -0.48103E+08         0.36982E+07         0.00000E+00
    0.36982E+07        -0.53467E+08         0.00000E+00
    0.00000E+00         0.00000E+00        -0.48786E+08
 
   -0.48606E+08         0.40257E+07         0.00000E+00
    0.40257E+07        -0.53258E+08         0.00000E+00
    0.00000E+00         0.00000E+00        -0.48845E+08
 
   -0.48295E+08        -0.29051E+06         0.00000E+00
   -0.29051E+06        -0.49958E+08         0.00000E+00
    0.00000E+00         0.00000E+00        -0.46459E+08
 
   -0.48787E+08        -0.78709E+06         0.00000E+00
   -0.78709E+06        -0.50030E+08         0.00000E+00
    0.00000E+00         0.00000E+00        -0.46572E+08
 
   -0.49135E+08        -0.12323E+07         0.00000E+00
   -0.12323E+07        -0.50136E+08         0.00000E+00
    0.00000E+00         0.00000E+00        -0.46663E+08
 
   -0.49364E+08        -0.16283E+07         0.00000E+00
   -0.16283E+07        -0.50273E+08         0.00000E+00
    0.00000E+00         0.00000E+00        -0.46736E+08
 
   -0.49494E+08        -0.19729E+07         0.00000E+00
   -0.19729E+07        -0.50431E+08         0.00000E+00
    0.00000E+00         0.00000E+00        -0.46794E+08
 
   -0.49541E+08        -0.22651E+07         0.00000E+00
   -0.22651E+07        -0.50602E+08         0.00000E+00
    0.00000E+00         0.00000E+00        -0.46837E+08
 
   -0.49521E+08        -0.25057E+07         0.00000E+00
   -0.25057E+07        -0.50778E+08         0.00000E+00
    0.00000E+00         0.00000E+00        -0.46868E+08
 
   -0.49449E+08        -0.26974E+07         0.00000E+00
   -0.26974E+07        -0.50953E+08         0.00000E+00
    0.00000E+00         0.00000E+00        -0.46889E+08
 
   -0.49338E+08        -0.28438E+07         0.00000E+00
   -0.28438E+07        -0.51122E+08         0.00000E+00
    0.00000E+00         0.00000E+00        -0.46900E+08
 
   -0.49197E+08        -0.29495E+07         0.00000E+00
   -0.29495E+07        -0.51281E+08         0.00000E+00
    0.00000E+00         0.00000E+00        -0.46904E+08
 
   -0.49037E+08        -0.30189E+07         0.00000E+00
   -0.30189E+07        -0.51429E+08         0.00000E+00
    0.00000E+00         0.00000E+00        -0.46902E+08
 
   -0.48862E+08        -0.30567E+07         0.00000E+00
   -0.30567E+07        -0.51565E+08         0.00000E+00
    0.00000E+00         0.00000E+00        -0.46894E+08
 
   -0.48680E+08        -0.30672E+07         0.00000E+00
   -0.30672E+07        -0.51689E+08         0.00000E+00
    0.00000E+00         0.00000E+00        -0.46882E+08
 
   -0.48493E+08        -0.30541E+07         0.00000E+00
   -0.30541E+07        -0.51799E+08         0.00000E+00
    0.00000E+00         0.00000E+00        -0.46867E+08
 
   -0.48306E+08        -0.30210E+07         0.00000E+00
   -0.30210E+07        -0.51897E+08         0.00000E+00
    0.00000E+00         0.00000E+00        -0.46849E+08
 
   -0.48119E+08        -0.29709E+07         0.00000E+00
   -0.29709E+07        -0.51984E+08         0.00000E+00
    0.00000E+00         0.00000E+00        -0.46829E+08
 
   -0.47934E+08        -0.29064E+07         0.00000E+00
   -0.29064E+07        -0.52061E+08         0.00000E+00
    0.00000E+00         0.00000E+00        -0.46807E+08
 
   -0.47753E+08        -0.28299E+07         0.00000E+00
   -0.28299E+07        -0.52127E+08         0.00000E+00
    0.00000E+00         0.00000E+00        -0.46785E+08
 
   -0.47576E+08        -0.27431E+07         0.00000E+00
   -0.27431E+07        -0.52186E+08         0.00000E+00
    0.00000E+00         0.00000E+00        -0.46761E+08
 
   -0.47404E+08        -0.26477E+07         0.00000E+00
   -0.26477E+07        -0.52236E+08         0.00000E+00
    0.00000E+00         0.00000E+00        -0.46736E+08
 
   -0.47236E+08        -0.25448E+07         0.00000E+00
   -0.25448E+07        -0.52281E+08         0.00000E+00
    0.00000E+00         0.00000E+00        -0.46712E+08
 
   -0.47072E+08        -0.24355E+07         0.00000E+00
   -0.24355E+07        -0.52320E+08         0.00000E+00
    0.00000E+00         0.00000E+00        -0.46687E+08
 
   -0.46913E+08        -0.23204E+07         0.00000E+00
   -0.23204E+07        -0.52354E+08         0.00000E+00
    0.00000E+00         0.00000E+00        -0.46662E+08
 
   -0.46758E+08        -0.22001E+07         0.00000E+00
   -0.22001E+07        -0.52385E+08         0.00000E+00
    0.00000E+00         0.00000E+00        -0.46637E+08
 
   -0.46607E+08        -0.20749E+07         0.00000E+00
   -0.20749E+07        -0.52413E+08         0.00000E+00
    0.00000E+00         0.00000E+00        -0.46613E+08
 
   -0.46460E+08        -0.19449E+07         0.00000E+00
   -0.19449E+07        -0.52439E+08         0.00000E+00
    0.00000E+00         0.00000E+00        -0.46588E+08
 
   -0.46316E+08        -0.18101E+07         0.00000E+00
   -0.18101E+07        -0.52465E+08         0.00000E+00
    0.00000E+00         0.00000E+00        -0.46565E+08
 
   -0.46175E+08        -0.16702E+07         0.00000E+00
   -0.16702E+07        -0.52490E+08         0.00000E+00
    0.00000E+00         0.00000E+00        -0.46541E+08
 
   -0.46037E+08        -0.15248E+07         0.00000E+00
   -0.15248E+07        -0.52515E+08         0.00000E+00
    0.00000E+00         0.00000E+00        -0.46519E+08
 
   -0.45902E+08        -0.13734E+07         0.00000E+00
   -0.13734E+07        -0.52541E+08         0.00000E+00
    0.00000E+00         0.00000E+00        -0.46497E+08
 
   -0.45769E+08        -0.12151E+07         0.00000E+00
   -0.12151E+07        -0.52568E+08         0.00000E+00
    0.00000E+00         0.00000E+00        -0.46476E+08
 
   -0.45640E+08        -0.10492E+07         0.00000E+00
   -0.10492E+07        -0.52597E+08         0.00000E+00
    0.00000E+00         0.00000E+00        -0.46456E+08
 
   -0.45513E+08        -0.87448E+06         0.00000E+00
   -0.87448E+06        -0.52628E+08         0.00000E+00
    0.00000E+00         0.00000E+00        -0.46437E+08
 
   -0.45391E+08        -0.68971E+06         0.00000E+00
   -0.68971E+06        -0.52662E+08         0.00000E+00
    0.00000E+00         0.00000E+00        -0.46419E+08
 
   -0.45273E+08        -0.49339E+06         0.00000E+00
   -0.49339E+06        -0.52698E+08         0.00000E+00
    0.00000E+00         0.00000E+00        -0.46403E+08
 
   -0.45160E+08        -0.28385E+06         0.00000E+00
   -0.28385E+06        -0.52736E+08         0.00000E+00
    0.00000E+00         0.00000E+00        -0.46388E+08
 
   -0.45054E+08        -0.59189E+05         0.00000E+00
   -0.59189E+05        -0.52776E+08         0.00000E+00
    0.00000E+00         0.00000E+00        -0.46375E+08
 
   -0.44958E+08         0.18270E+06         0.00000E+00
    0.18270E+06        -0.52818E+08         0.00000E+00
    0.00000E+00         0.00000E+00        -0.46364E+08
 
   -0.44872E+08         0.44411E+06         0.00000E+00
    0.44411E+06        -0.52860E+08         0.00000E+00
    0.00000E+00         0.00000E+00        -0.46355E+08
 
   -0.44802E+08         0.72752E+06         0.00000E+00
    0.72752E+06        -0.52902E+08         0.00000E+00
    0.00000E+00         0.00000E+00        -0.46349E+08
 
   -0.44750E+08         0.10355E+07         0.00000E+00
    0.10355E+07        -0.52942E+08         0.00000E+00
    0.00000E+00         0.00000E+00        -0.46347E+08
 
   -0.44723E+08         0.13707E+07         0.00000E+00
    0.13707E+07        -0.52978E+08         0.00000E+00
    0.00000E+00         0.00000E+00        -0.46349E+08
 
   -0.44725E+08         0.17355E+07         0.00000E+00
    0.17355E+07        -0.53005E+08         0.00000E+00
    0.00000E+00         0.00000E+00        -0.46355E+08
 
   -0.44765E+08         0.21321E+07         0.00000E+00
    0.21321E+07        -0.53021E+08         0.00000E+00
    0.00000E+00         0.00000E+00        -0.46366E+08
 
   -0.44851E+08         0.25621E+07         0.00000E+00
    0.25621E+07        -0.53021E+08         0.00000E+00
    0.00000E+00         0.00000E+00        -0.46383E+08
 
   -0.44994E+08         0.30259E+07         0.00000E+00
    0.30259E+07        -0.52998E+08         0.00000E+00
    0.00000E+00         0.00000E+00        -0.46407E+08
 
   -0.45202E+08         0.35229E+07         0.00000E+00
    0.35229E+07        -0.52944E+08         0.00000E+00
    0.00000E+00         0.00000E+00        -0.46438E+08
 
   -0.45489E+08         0.40510E+07         0.00000E+00
    0.40510E+07        -0.52854E+08         0.00000E+00
    0.00000E+00         0.00000E+00        -0.46477E+08
 
   -0.45864E+08         0.46083E+07         0.00000E+00
    0.46083E+07        -0.52719E+08         0.00000E+00
    0.00000E+00         0.00000E+00        -0.46525E+08
 
   -0.46347E+08         0.51965E+07         0.00000E+00
    0.51965E+07        -0.52537E+08         0.00000E+00
    0.00000E+00         0.00000E+00        -0.46585E+08
 
   -0.51555E+08        -0.50992E+06         0.00000E+00
   -0.50992E+06        -0.49959E+08         0.00000E+00
    0.00000E+00         0.00000E+00        -0.44314E+08
 
   -0.51646E+08        -0.12350E+07         0.00000E+00
   -0.12350E+07        -0.50022E+08         0.00000E+00
    0.00000E+00         0.00000E+00        -0.44344E+08
 
   -0.51597E+08        -0.18582E+07         0.00000E+00
   -0.18582E+07        -0.50146E+08         0.00000E+00
    0.00000E+00         0.00000E+00        -0.44359E+08
 
   -0.51426E+08        -0.23637E+07         0.00000E+00
   -0.23637E+07        -0.50294E+08         0.00000E+00
    0.00000E+00         0.00000E+00        -0.44355E+08
 
   -0.51168E+08        -0.27556E+07         0.00000E+00
   -0.27556E+07        -0.50441E+08         0.00000E+00
    0.00000E+00         0.00000E+00        -0.44333E+08
 
   -0.50856E+08        -0.30460E+07         0.00000E+00
   -0.30460E+07        -0.50576E+08         0.00000E+00
    0.00000E+00         0.00000E+00        -0.44297E+08
 
   -0.50513E+08        -0.32499E+07         0.00000E+00
   -0.32499E+07        -0.50691E+08         0.00000E+00
    0.00000E+00         0.00000E+00        -0.44252E+08
 
   -0.50160E+08        -0.33820E+07         0.00000E+00
   -0.33820E+07        -0.50783E+08         0.00000E+00
    0.00000E+00         0.00000E+00        -0.44199E+08
 
   -0.49806E+08        -0.34556E+07         0.00000E+00
   -0.34556E+07        -0.50852E+08         0.00000E+00
    0.00000E+00         0.00000E+00        -0.44142E+08
 
   -0.49461E+08        -0.34823E+07         0.00000E+00
   -0.34823E+07        -0.50899E+08         0.00000E+00
    0.00000E+00         0.00000E+00        -0.44083E+08
 
   -0.49129E+08        -0.34718E+07         0.00000E+00
   -0.34718E+07        -0.50925E+08         0.00000E+00
    0.00000E+00         0.00000E+00        -0.44022E+08
 
   -0.48813E+08        -0.34321E+07         0.00000E+00
   -0.34321E+07        -0.50933E+08         0.00000E+00
    0.00000E+00         0.00000E+00        -0.43960E+08
 
   -0.48514E+08        -0.33697E+07         0.00000E+00
   -0.33697E+07        -0.50925E+08         0.00000E+00
    0.00000E+00         0.00000E+00        -0.43899E+08
 
   -0.48232E+08        -0.32900E+07         0.00000E+00
   -0.32900E+07        -0.50903E+08         0.00000E+00
    0.00000E+00         0.00000E+00        -0.43838E+08
 
   -0.47966E+08        -0.31970E+07         0.00000E+00
   -0.31970E+07        -0.50870E+08         0.00000E+00
    0.00000E+00         0.00000E+00        -0.43778E+08
 
   -0.47717E+08        -0.30942E+07         0.00000E+00
   -0.30942E+07        -0.50828E+08         0.00000E+00
    0.00000E+00         0.00000E+00        -0.43720E+08
 
   -0.47482E+08        -0.29843E+07         0.00000E+00
   -0.29843E+07        -0.50778E+08         0.00000E+00
    0.00000E+00         0.00000E+00        -0.43663E+08
 
   -0.47261E+08        -0.28691E+07         0.00000E+00
   -0.28691E+07        -0.50723E+08         0.00000E+00
    0.00000E+00         0.00000E+00        -0.43608E+08
 
   -0.47052E+08        -0.27505E+07         0.00000E+00
   -0.27505E+07        -0.50663E+08         0.00000E+00
    0.00000E+00         0.00000E+00        -0.43554E+08
 
   -0.46853E+08        -0.26294E+07         0.00000E+00
   -0.26294E+07        -0.50600E+08         0.00000E+00
    0.00000E+00         0.00000E+00        -0.43502E+08
 
   -0.46664E+08        -0.25067E+07         0.00000E+00
   -0.25067E+07        -0.50536E+08         0.00000E+00
    0.00000E+00         0.00000E+00        -0.43451E+08
 
   -0.46482E+08        -0.23831E+07         0.00000E+00
   -0.23831E+07        -0.50472E+08         0.00000E+00
    0.00000E+00         0.00000E+00        -0.43402E+08
 
   -0.46307E+08        -0.22588E+07         0.00000E+00
   -0.22588E+07        -0.50408E+08         0.00000E+00
    0.00000E+00         0.00000E+00        -0.43354E+08
 
   -0.46138E+08        -0.21339E+07         0.00000E+00
   -0.21339E+07        -0.50346E+08         0.00000E+00
    0.00000E+00         0.00000E+00        -0.43308E+08
 
   -0.45973E+08        -0.20086E+07         0.00000E+00
   -0.20086E+07        -0.50286E+08         0.00000E+00
    0.00000E+00         0.00000E+00        -0.43262E+08
 
   -0.45810E+08        -0.18825E+07         0.00000E+00
   -0.18825E+07        -0.50229E+08         0.00000E+00
    0.00000E+00         0.00000E+00        -0.43219E+08
 
   -0.45650E+08        -0.17553E+07         0.00000E+00
   -0.17553E+07        -0.50175E+08         0.00000E+00
    0.00000E+00         0.00000E+00        -0.43176E+08
 
   -0.45490E+08        -0.16265E+07         0.00000E+00
   -0.16265E+07        -0.50127E+08         0.00000E+00
    0.00000E+00         0.00000E+00        -0.43134E+08
 
   -0.45331E+08        -0.14955E+07         0.00000E+00
   -0.14955E+07        -0.50083E+08         0.00000E+00
    0.00000E+00         0.00000E+00        -0.43094E+08
 
   -0.45170E+08        -0.13614E+07         0.00000E+00
   -0.13614E+07        -0.50045E+08         0.00000E+00
    0.00000E+00         0.00000E+00        -0.43054E+08
 
   -0.45007E+08        -0.12233E+07         0.00000E+00
   -0.12233E+07        -0.50013E+08         0.00000E+00
    0.00000E+00         0.00000E+00        -0.43015E+08
 
   -0.44842E+08        -0.10801E+07         0.00000E+00
   -0.10801E+07        -0.49988E+08         0.00000E+00
    0.00000E+00         0.00000E+00        -0.42977E+08
 
   -0.44672E+08        -0.93020E+06         0.00000E+00
   -0.93020E+06        -0.49971E+08         0.00000E+00
    0.00000E+00         0.00000E+00        -0.42939E+08
 
   -0.44499E+08        -0.77210E+06         0.00000E+00
   -0.77210E+06        -0.49961E+08         0.00000E+00
    0.00000E+00         0.00000E+00        -0.42903E+08
 
   -0.44320E+08        -0.60382E+06         0.00000E+00
   -0.60382E+06        -0.49960E+08         0.00000E+00
    0.00000E+00         0.00000E+00        -0.42867E+08
 
   -0.44136E+08        -0.42306E+06         0.00000E+00
   -0.42306E+06        -0.49969E+08         0.00000E+00
    0.00000E+00         0.00000E+00        -0.42832E+08
 
   -0.43947E+08        -0.22711E+06         0.00000E+00
   -0.22711E+06        -0.49986E+08         0.00000E+00
    0.00000E+00         0.00000E+00        -0.42797E+08
 
   -0.43752E+08        -0.12763E+05         0.00000E+00
   -0.12763E+05        -0.50014E+08         0.00000E+00
    0.00000E+00         0.00000E+00        -0.42764E+08
 
   -0.43552E+08         0.22376E+06         0.00000E+00
    0.22376E+06        -0.50052E+08         0.00000E+00
    0.00000E+00         0.00000E+00        -0.42732E+08
 
   -0.43348E+08         0.48690E+06         0.00000E+00
    0.48690E+06        -0.50101E+08         0.00000E+00
    0.00000E+00         0.00000E+00        -0.42701E+08
 
   -0.43143E+08         0.78190E+06         0.00000E+00
    0.78190E+06        -0.50160E+08         0.00000E+00
    0.00000E+00         0.00000E+00        -0.42671E+08
 
   -0.42939E+08         0.11149E+07         0.00000E+00
    0.11149E+07        -0.50229E+08         0.00000E+00
    0.00000E+00         0.00000E+00        -0.42644E+08
 
   -0.42741E+08         0.14929E+07         0.00000E+00
    0.14929E+07        -0.50306E+08         0.00000E+00
    0.00000E+00         0.00000E+00        -0.42620E+08
 
   -0.42556E+08         0.19240E+07         0.00000E+00
    0.19240E+07        -0.50389E+08         0.00000E+00
    0.00000E+00         0.00000E+00        -0.42600E+08
 
   -0.42395E+08         0.24171E+07         0.00000E+00
    0.24171E+07        -0.50475E+08         0.00000E+00
    0.00000E+00         0.00000E+00        -0.42585E+08
 
   -0.42270E+08         0.29814E+07         0.00000E+00
    0.29814E+07        -0.50557E+08         0.00000E+00
    0.00000E+00         0.00000E+00        -0.42576E+08
 
   -0.42200E+08         0.36257E+07         0.00000E+00
    0.36257E+07        -0.50627E+08         0.00000E+00
    0.00000E+00         0.00000E+00        -0.42576E+08
 
   -0.42207E+08         0.43558E+07         0.00000E+00
    0.43558E+07        -0.50672E+08         0.00000E+00
    0.00000E+00         0.00000E+00        -0.42587E+08
 
   -0.42311E+08         0.51708E+07         0.00000E+00
    0.51708E+07        -0.50672E+08         0.00000E+00
    0.00000E+00         0.00000E+00        -0.42608E+08
 
   -0.42519E+08         0.60547E+07         0.00000E+00
    0.60547E+07        -0.50594E+08         0.00000E+00
    0.00000E+00         0.00000E+00        -0.42633E+08
 
   -0.56217E+08        -0.76134E+06         0.00000E+00
   -0.76134E+06        -0.49954E+08         0.00000E+00
    0.00000E+00         0.00000E+00        -0.41159E+08
 
   -0.55397E+08        -0.17337E+07         0.00000E+00
   -0.17337E+07        -0.50132E+08         0.00000E+00
    0.00000E+00         0.00000E+00        -0.41031E+08
 
   -0.54445E+08        -0.23828E+07         0.00000E+00
   -0.23828E+07        -0.50224E+08         0.00000E+00
    0.00000E+00         0.00000E+00        -0.40858E+08
 
   -0.53493E+08        -0.27993E+07         0.00000E+00
   -0.27993E+07        -0.50239E+08         0.00000E+00
    0.00000E+00         0.00000E+00        -0.40671E+08
 
   -0.52600E+08        -0.30501E+07         0.00000E+00
   -0.30501E+07        -0.50191E+08         0.00000E+00
    0.00000E+00         0.00000E+00        -0.40483E+08
 
   -0.51784E+08        -0.31837E+07         0.00000E+00
   -0.31837E+07        -0.50092E+08         0.00000E+00
    0.00000E+00         0.00000E+00        -0.40300E+08
 
   -0.51051E+08        -0.32345E+07         0.00000E+00
   -0.32345E+07        -0.49952E+08         0.00000E+00
    0.00000E+00         0.00000E+00        -0.40125E+08
 
   -0.50397E+08        -0.32273E+07         0.00000E+00
   -0.32273E+07        -0.49781E+08         0.00000E+00
    0.00000E+00         0.00000E+00        -0.39960E+08
 
   -0.49815E+08        -0.31798E+07         0.00000E+00
   -0.31798E+07        -0.49587E+08         0.00000E+00
    0.00000E+00         0.00000E+00        -0.39805E+08
 
   -0.49297E+08        -0.31046E+07         0.00000E+00
   -0.31046E+07        -0.49378E+08         0.00000E+00
    0.00000E+00         0.00000E+00        -0.39660E+08
 
   -0.48837E+08        -0.30109E+07         0.00000E+00
   -0.30109E+07        -0.49157E+08         0.00000E+00
    0.00000E+00         0.00000E+00        -0.39524E+08
 
   -0.48426E+08        -0.29052E+07         0.00000E+00
   -0.29052E+07        -0.48930E+08         0.00000E+00
    0.00000E+00         0.00000E+00        -0.39396E+08
 
   -0.48059E+08        -0.27922E+07         0.00000E+00
   -0.27922E+07        -0.48701E+08         0.00000E+00
    0.00000E+00         0.00000E+00        -0.39277E+08
 
   -0.47729E+08        -0.26753E+07         0.00000E+00
   -0.26753E+07        -0.48471E+08         0.00000E+00
    0.00000E+00         0.00000E+00        -0.39165E+08
 
   -0.47431E+08        -0.25570E+07         0.00000E+00
   -0.25570E+07        -0.48243E+08         0.00000E+00
    0.00000E+00         0.00000E+00        -0.39060E+08
 
   -0.47160E+08        -0.24387E+07         0.00000E+00
   -0.24387E+07        -0.48019E+08         0.00000E+00
    0.00000E+00         0.00000E+00        -0.38961E+08
 
   -0.46913E+08        -0.23219E+07         0.00000E+00
   -0.23219E+07        -0.47801E+08         0.00000E+00
    0.00000E+00         0.00000E+00        -0.38868E+08
 
   -0.46686E+08        -0.22072E+07         0.00000E+00
   -0.22072E+07        -0.47588E+08         0.00000E+00
    0.00000E+00         0.00000E+00        -0.38780E+08
 
   -0.46475E+08        -0.20950E+07         0.00000E+00
   -0.20950E+07        -0.47382E+08         0.00000E+00
    0.00000E+00         0.00000E+00        -0.38696E+08
 
   -0.46278E+08        -0.19858E+07         0.00000E+00
   -0.19858E+07        -0.47183E+08         0.00000E+00
    0.00000E+00         0.00000E+00        -0.38617E+08
 
   -0.46092E+08        -0.18795E+07         0.00000E+00
   -0.18795E+07        -0.46993E+08         0.00000E+00
    0.00000E+00         0.00000E+00        -0.38542E+08
 
   -0.45915E+08        -0.17760E+07         0.00000E+00
   -0.17760E+07        -0.46811E+08         0.00000E+00
    0.00000E+00         0.00000E+00        -0.38470E+08
 
   -0.45745E+08        -0.16753E+07         0.00000E+00
   -0.16753E+07        -0.46637E+08         0.00000E+00
    0.00000E+00         0.00000E+00        -0.38401E+08
 
   -0.45580E+08        -0.15772E+07         0.00000E+00
   -0.15772E+07        -0.46473E+08         0.00000E+00
    0.00000E+00         0.00000E+00        -0.38335E+08
 
   -0.45418E+08        -0.14811E+07         0.00000E+00
   -0.14811E+07        -0.46317E+08         0.00000E+00
    0.00000E+00         0.00000E+00        -0.38272E+08
 
   -0.45257E+08        -0.13869E+07         0.00000E+00
   -0.13869E+07        -0.46171E+08         0.00000E+00
    0.00000E+00         0.00000E+00        -0.38210E+08
 
   -0.45095E+08        -0.12940E+07         0.00000E+00
   -0.12940E+07        -0.46034E+08         0.00000E+00
    0.00000E+00         0.00000E+00        -0.38151E+08
 
   -0.44932E+08        -0.12019E+07         0.00000E+00
   -0.12019E+07        -0.45906E+08         0.00000E+00
    0.00000E+00         0.00000E+00        -0.38093E+08
 
   -0.44765E+08        -0.11100E+07         0.00000E+00
   -0.11100E+07        -0.45789E+08         0.00000E+00
    0.00000E+00         0.00000E+00        -0.38036E+08
 
   -0.44592E+08        -0.10174E+07         0.00000E+00
   -0.10174E+07        -0.45682E+08         0.00000E+00
    0.00000E+00         0.00000E+00        -0.37980E+08
 
   -0.44413E+08        -0.92355E+06         0.00000E+00
   -0.92355E+06        -0.45585E+08         0.00000E+00
    0.00000E+00         0.00000E+00        -0.37924E+08
 
   -0.44224E+08        -0.82728E+06         0.00000E+00
   -0.82728E+06        -0.45500E+08         0.00000E+00
    0.00000E+00         0.00000E+00        -0.37870E+08
 
   -0.44025E+08        -0.72751E+06         0.00000E+00
   -0.72751E+06        -0.45426E+08         0.00000E+00
    0.00000E+00         0.00000E+00        -0.37815E+08
 
   -0.43813E+08        -0.62289E+06         0.00000E+00
   -0.62289E+06        -0.45364E+08         0.00000E+00
    0.00000E+00         0.00000E+00        -0.37760E+08
 
   -0.43586E+08        -0.51179E+06         0.00000E+00
   -0.51179E+06        -0.45315E+08         0.00000E+00
    0.00000E+00         0.00000E+00        -0.37705E+08
 
   -0.43342E+08        -0.39228E+06         0.00000E+00
   -0.39228E+06        -0.45280E+08         0.00000E+00
    0.00000E+00         0.00000E+00        -0.37649E+08
 
   -0.43078E+08        -0.26198E+06         0.00000E+00
   -0.26198E+06        -0.45260E+08         0.00000E+00
    0.00000E+00         0.00000E+00        -0.37592E+08
 
   -0.42791E+08        -0.11800E+06         0.00000E+00
   -0.11800E+06        -0.45256E+08         0.00000E+00
    0.00000E+00         0.00000E+00        -0.37534E+08
 
   -0.42478E+08         0.43269E+05         0.00000E+00
    0.43269E+05        -0.45270E+08         0.00000E+00
    0.00000E+00         0.00000E+00        -0.37474E+08
 
   -0.42135E+08         0.22629E+06         0.00000E+00
    0.22629E+06        -0.45304E+08         0.00000E+00
    0.00000E+00         0.00000E+00        -0.37413E+08
 
   -0.41760E+08         0.43671E+06         0.00000E+00
    0.43671E+06        -0.45360E+08         0.00000E+00
    0.00000E+00         0.00000E+00        -0.37349E+08
 
   -0.41347E+08         0.68168E+06         0.00000E+00
    0.68168E+06        -0.45440E+08         0.00000E+00
    0.00000E+00         0.00000E+00        -0.37282E+08
 
   -0.40895E+08         0.97039E+06         0.00000E+00
    0.97039E+06        -0.45547E+08         0.00000E+00
    0.00000E+00         0.00000E+00        -0.37213E+08
 
   -0.40398E+08         0.13147E+07         0.00000E+00
    0.13147E+07        -0.45684E+08         0.00000E+00
    0.00000E+00         0.00000E+00        -0.37141E+08
 
   -0.39857E+08         0.17301E+07         0.00000E+00
    0.17301E+07        -0.45854E+08         0.00000E+00
    0.00000E+00         0.00000E+00        -0.37067E+08
 
   -0.39271E+08         0.22369E+07         0.00000E+00
    0.22369E+07        -0.46061E+08         0.00000E+00
    0.00000E+00         0.00000E+00        -0.36991E+08
 
   -0.38649E+08         0.28622E+07         0.00000E+00
    0.28622E+07        -0.46306E+08         0.00000E+00
    0.00000E+00         0.00000E+00        -0.36916E+08
 
   -0.38012E+08         0.36418E+07         0.00000E+00
    0.36418E+07        -0.46591E+08         0.00000E+00
    0.00000E+00         0.00000E+00        -0.36846E+08
 
   -0.37409E+08         0.46229E+07         0.00000E+00
    0.46229E+07        -0.46914E+08         0.00000E+00
    0.00000E+00         0.00000E+00        -0.36789E+08
 
   -0.36946E+08         0.58660E+07         0.00000E+00
    0.58660E+07        -0.47268E+08         0.00000E+00
    0.00000E+00         0.00000E+00        -0.36768E+08
 
   -0.61354E+08        -0.11451E+07         0.00000E+00
   -0.11451E+07        -0.50193E+08         0.00000E+00
    0.00000E+00         0.00000E+00        -0.37089E+08
 
   -0.58501E+08        -0.14578E+07         0.00000E+00
   -0.14578E+07        -0.49801E+08         0.00000E+00
    0.00000E+00         0.00000E+00        -0.36440E+08
 
   -0.56290E+08        -0.15910E+07         0.00000E+00
   -0.15910E+07        -0.49324E+08         0.00000E+00
    0.00000E+00         0.00000E+00        -0.35902E+08
 
   -0.54536E+08        -0.16288E+07         0.00000E+00
   -0.16288E+07        -0.48799E+08         0.00000E+00
    0.00000E+00         0.00000E+00        -0.35447E+08
 
   -0.53119E+08        -0.16149E+07         0.00000E+00
   -0.16149E+07        -0.48253E+08         0.00000E+00
    0.00000E+00         0.00000E+00        -0.35054E+08
 
   -0.51958E+08        -0.15729E+07         0.00000E+00
   -0.15729E+07        -0.47702E+08         0.00000E+00
    0.00000E+00         0.00000E+00        -0.34712E+08
 
   -0.50995E+08        -0.15156E+07         0.00000E+00
   -0.15156E+07        -0.47157E+08         0.00000E+00
    0.00000E+00         0.00000E+00        -0.34410E+08
 
   -0.50188E+08        -0.14508E+07         0.00000E+00
   -0.14508E+07        -0.46624E+08         0.00000E+00
    0.00000E+00         0.00000E+00        -0.34142E+08
 
   -0.49506E+08        -0.13827E+07         0.00000E+00
   -0.13827E+07        -0.46108E+08         0.00000E+00
    0.00000E+00         0.00000E+00        -0.33903E+08
 
   -0.48925E+08        -0.13139E+07         0.00000E+00
   -0.13139E+07        -0.45612E+08         0.00000E+00
    0.00000E+00         0.00000E+00        -0.33687E+08
 
   -0.48426E+08        -0.12461E+07         0.00000E+00
   -0.12461E+07        -0.45137E+08         0.00000E+00
    0.00000E+00         0.00000E+00        -0.33492E+08
 
   -0.47994E+08        -0.11801E+07         0.00000E+00
   -0.11801E+07        -0.44683E+08         0.00000E+00
    0.00000E+00         0.00000E+00        -0.33315E+08
 
   -0.47617E+08        -0.11165E+07         0.00000E+00
   -0.11165E+07        -0.44251E+08         0.00000E+00
    0.00000E+00         0.00000E+00        -0.33153E+08
 
   -0.47285E+08        -0.10556E+07         0.00000E+00
   -0.10556E+07        -0.43840E+08         0.00000E+00
    0.00000E+00         0.00000E+00        -0.33005E+08
 
   -0.46992E+08        -0.99740E+06         0.00000E+00
   -0.99740E+06        -0.43450E+08         0.00000E+00
    0.00000E+00         0.00000E+00        -0.32868E+08
 
   -0.46730E+08        -0.94201E+06         0.00000E+00
   -0.94201E+06        -0.43080E+08         0.00000E+00
    0.00000E+00         0.00000E+00        -0.32741E+08
 
   -0.46493E+08        -0.88933E+06         0.00000E+00
   -0.88933E+06        -0.42729E+08         0.00000E+00
    0.00000E+00         0.00000E+00        -0.32624E+08
 
   -0.46278E+08        -0.83925E+06         0.00000E+00
   -0.83925E+06        -0.42398E+08         0.00000E+00
    0.00000E+00         0.00000E+00        -0.32515E+08
 
   -0.46080E+08        -0.79165E+06         0.00000E+00
   -0.79165E+06        -0.42084E+08         0.00000E+00
    0.00000E+00         0.00000E+00        -0.32412E+08
 
   -0.45896E+08        -0.74636E+06         0.00000E+00
   -0.74636E+06        -0.41788E+08         0.00000E+00
    0.00000E+00         0.00000E+00        -0.32316E+08
 
   -0.45722E+08        -0.70321E+06         0.00000E+00
   -0.70321E+06        -0.41508E+08         0.00000E+00
    0.00000E+00         0.00000E+00        -0.32226E+08
 
   -0.45557E+08        -0.66204E+06         0.00000E+00
   -0.66204E+06        -0.41244E+08         0.00000E+00
    0.00000E+00         0.00000E+00        -0.32140E+08
 
   -0.45398E+08        -0.62264E+06         0.00000E+00
   -0.62264E+06        -0.40996E+08         0.00000E+00
    0.00000E+00         0.00000E+00        -0.32058E+08
 
   -0.45242E+08        -0.58482E+06         0.00000E+00
   -0.58482E+06        -0.40762E+08         0.00000E+00
    0.00000E+00         0.00000E+00        -0.31980E+08
 
   -0.45088E+08        -0.54839E+06         0.00000E+00
   -0.54839E+06        -0.40542E+08         0.00000E+00
    0.00000E+00         0.00000E+00        -0.31906E+08
 
   -0.44934E+08        -0.51313E+06         0.00000E+00
   -0.51313E+06        -0.40336E+08         0.00000E+00
    0.00000E+00         0.00000E+00        -0.31834E+08
 
   -0.44777E+08        -0.47881E+06         0.00000E+00
   -0.47881E+06        -0.40144E+08         0.00000E+00
    0.00000E+00         0.00000E+00        -0.31764E+08
 
   -0.44616E+08        -0.44520E+06         0.00000E+00
   -0.44520E+06        -0.39965E+08         0.00000E+00
    0.00000E+00         0.00000E+00        -0.31696E+08
 
   -0.44449E+08        -0.41204E+06         0.00000E+00
   -0.41204E+06        -0.39799E+08         0.00000E+00
    0.00000E+00         0.00000E+00        -0.31629E+08
 
   -0.44274E+08        -0.37904E+06         0.00000E+00
   -0.37904E+06        -0.39645E+08         0.00000E+00
    0.00000E+00         0.00000E+00        -0.31563E+08
 
   -0.44089E+08        -0.34586E+06         0.00000E+00
   -0.34586E+06        -0.39505E+08         0.00000E+00
    0.00000E+00         0.00000E+00        -0.31498E+08
 
   -0.43891E+08        -0.31216E+06         0.00000E+00
   -0.31216E+06        -0.39377E+08         0.00000E+00
    0.00000E+00         0.00000E+00        -0.31433E+08
 
   -0.43677E+08        -0.27748E+06         0.00000E+00
   -0.27748E+06        -0.39263E+08         0.00000E+00
    0.00000E+00         0.00000E+00        -0.31368E+08
 
   -0.43446E+08        -0.24132E+06         0.00000E+00
   -0.24132E+06        -0.39164E+08         0.00000E+00
    0.00000E+00         0.00000E+00        -0.31302E+08
 
   -0.43193E+08        -0.20308E+06         0.00000E+00
   -0.20308E+06        -0.39078E+08         0.00000E+00
    0.00000E+00         0.00000E+00        -0.31234E+08
 
   -0.42916E+08        -0.16201E+06         0.00000E+00
   -0.16201E+06        -0.39008E+08         0.00000E+00
    0.00000E+00         0.00000E+00        -0.31164E+08
 
   -0.42608E+08        -0.11720E+06         0.00000E+00
   -0.11720E+06        -0.38956E+08         0.00000E+00
    0.00000E+00         0.00000E+00        -0.31092E+08
 
   -0.42266E+08        -0.67505E+05         0.00000E+00
   -0.67505E+05        -0.38921E+08         0.00000E+00
    0.00000E+00         0.00000E+00        -0.31017E+08
 
   -0.41883E+08        -0.11479E+05         0.00000E+00
   -0.11479E+05        -0.38907E+08         0.00000E+00
    0.00000E+00         0.00000E+00        -0.30938E+08
 
   -0.41452E+08         0.52737E+05         0.00000E+00
    0.52737E+05        -0.38917E+08         0.00000E+00
    0.00000E+00         0.00000E+00        -0.30853E+08
 
   -0.40963E+08         0.12757E+06         0.00000E+00
    0.12757E+06        -0.38954E+08         0.00000E+00
    0.00000E+00         0.00000E+00        -0.30763E+08
 
   -0.40405E+08         0.21624E+06         0.00000E+00
    0.21624E+06        -0.39022E+08         0.00000E+00
    0.00000E+00         0.00000E+00        -0.30665E+08
 
   -0.39764E+08         0.32309E+06         0.00000E+00
    0.32309E+06        -0.39127E+08         0.00000E+00
    0.00000E+00         0.00000E+00        -0.30558E+08
 
   -0.39023E+08         0.45413E+06         0.00000E+00
    0.45413E+06        -0.39276E+08         0.00000E+00
    0.00000E+00         0.00000E+00        -0.30439E+08
 
   -0.38157E+08         0.61784E+06         0.00000E+00
    0.61784E+06        -0.39480E+08         0.00000E+00
    0.00000E+00         0.00000E+00        -0.30307E+08
 
   -0.37136E+08         0.82656E+06         0.00000E+00
    0.82656E+06        -0.39751E+08         0.00000E+00
    0.00000E+00         0.00000E+00        -0.30157E+08
 
   -0.35920E+08         0.10989E+07         0.00000E+00
    0.10989E+07        -0.40106E+08         0.00000E+00
    0.00000E+00         0.00000E+00        -0.29985E+08
 
   -0.34448E+08         0.14640E+07         0.00000E+00
    0.14640E+07        -0.40569E+08         0.00000E+00
    0.00000E+00         0.00000E+00        -0.29783E+08
 
   -0.32636E+08         0.19700E+07         0.00000E+00
    0.19700E+07        -0.41172E+08         0.00000E+00
    0.00000E+00         0.00000E+00        -0.29541E+08
 
   -0.30354E+08         0.27004E+07         0.00000E+00
    0.27004E+07        -0.41958E+08         0.00000E+00
    0.00000E+00         0.00000E+00        -0.29242E+08
 
SCALARS stresss double 
LOOKUP_TABLE default
  -49760715.5138050     
  -50493711.5760937     
  -51193482.2557482     
  -51843433.6436330     
  -52436131.4019094     
  -52970347.2592304     
  -53463951.5443222     
  -53901054.6881785     
  -54276113.6679066     
  -54605838.0273209     
  -54898935.1698482     
  -55161757.9089763     
  -55399142.0574423     
  -55614888.6344179     
  -55812059.8689208     
  -55993171.4165233     
  -56160323.2711361     
  -56315292.5298492     
  -56459601.3271073     
  -56594567.9818137     
  -56721346.4363364     
  -56840957.3235306     
  -56954312.9316218     
  -57062237.6616031     
  -57165485.1319545     
  -57264752.7928380     
  -57360694.7148964     
  -57453933.0855089     
  -57545068.8590873     
  -57634691.9565546     
  -57723391.3863826     
  -57811765.6630703     
  -57900433.9296010     
  -57990048.2525965     
  -58081307.6613472     
  -58174974.6597621     
  -58271895.1785270     
  -58373023.2946819     
  -58479452.5966739     
  -58592456.9338191     
  -58713544.6710653     
  -58844532.8600539     
  -58987651.6723202     
  -59145696.4778950     
  -59322258.0967965     
  -59522087.4498752     
  -59751703.4917043     
  -60020466.3445990     
  -60342591.3510462     
  -60741174.0609037     
  -51143978.0114808     
  -51160146.6057737     
  -51262091.4093712     
  -51408547.9326842     
  -51579552.3796818     
  -51765385.5154298     
  -51944894.9771513     
  -52127684.2095535     
  -52319047.4816539     
  -52507198.6620710     
  -52688089.3140595     
  -52860066.1205737     
  -53022652.5272331     
  -53175960.6453082     
  -53320395.6898162     
  -53456502.2981975     
  -53584882.6469560     
  -53706152.3507196     
  -53820916.9346597     
  -53929759.8275248     
  -54033236.9422071     
  -54131875.0724752     
  -54226172.5097166     
  -54316600.9431845     
  -54403608.0879901     
  -54487620.7100056     
  -54569047.8519896     
  -54648284.1470386     
  -54725713.1543521     
  -54801710.6797270     
  -54876648.0552274     
  -54950895.3515387     
  -55024824.4820624     
  -55098812.1260983     
  -55173242.3414359     
  -55248508.6393921     
  -55325015.1310482     
  -55403176.0740873     
  -55483412.6673360     
  -55566145.0902304     
  -55651776.2498187     
  -55740660.8486404     
  -55833047.9304537     
  -55928974.2548532     
  -56028063.6747931     
  -56129140.4653891     
  -56229460.1688081     
  -56323122.1964689     
  -56397660.1482126     
  -56426411.4463851     
  -51111811.2486387     
  -51079269.4874788     
  -51046734.0950898     
  -51030535.4642325     
  -51033352.2918085     
  -51052838.8737082     
  -51089430.7671222     
  -51136959.2989243     
  -51191595.4485756     
  -51253798.9616058     
  -51321901.4200670     
  -51394019.8905187     
  -51468525.7135712     
  -51544137.9945474     
  -51619896.0261811     
  -51695101.5183380     
  -51769261.2116655     
  -51842038.5282884     
  -51913215.2951581     
  -51982662.2351285     
  -52050316.4599553     
  -52116164.3490128     
  -52180228.4959469     
  -52242557.6961125     
  -52303219.1866493     
  -52362292.5340085     
  -52419864.6980313     
  -52476025.8965489     
  -52530865.9577556     
  -52584470.8849014     
  -52636919.3724729     
  -52688279.0060987     
  -52738601.8488934     
  -52787919.0614809     
  -52836234.1155598     
  -52883514.0325742     
  -52929677.8975753     
  -52974581.6488178     
  -53017997.8122201     
  -53059588.4356454     
  -53098869.0269447     
  -53135160.9952166     
  -53167530.4953132     
  -53194714.2340711     
  -53215041.8778139     
  -53226391.2423637     
  -53226285.7117782     
  -53212441.4249481     
  -53184605.2966877     
  -53149968.5560725     
  -51294074.1861139     
  -51132826.5933323     
  -51005948.1669835     
  -50902534.1410757     
  -50818629.0987921     
  -50752317.8450538     
  -50701070.2028608     
  -50663899.7056050     
  -50639256.0359342     
  -50624896.8341951     
  -50619428.8693586     
  -50621642.6524430     
  -50630392.9501930     
  -50644609.4194238     
  -50663321.3736396     
  -50685671.1329062     
  -50710915.2302886     
  -50738417.6882511     
  -50767639.2239111     
  -50798124.9575587     
  -50829492.1071979     
  -50861418.4195393     
  -50893631.6451344     
  -50925900.1150829     
  -50958024.3437038     
  -50989829.5160012     
  -51021158.6900553     
  -51051866.5345105     
  -51081813.4196907     
  -51110859.6817626     
  -51138859.8797845     
  -51165656.8643097     
  -51191075.4737963     
  -51214915.6734633     
  -51236944.9548579     
  -51256889.8316694     
  -51274426.3133503     
  -51289169.3393551     
  -51300661.3585617     
  -51308360.6157534     
  -51311630.3778375     
  -51309731.4632647     
  -51301822.2041420     
  -51286972.3435843     
  -51264199.3373557     
  -51232532.5368721     
  -51191086.7888656     
  -51139030.8447251     
  -51075010.2044820     
  -50994554.9932432     
  -51396011.2750429     
  -51225508.9420526     
  -51071686.7104892     
  -50935897.7059131     
  -50816869.6020455     
  -50712944.8068291     
  -50622853.5255162     
  -50545151.5091555     
  -50478671.7097521     
  -50422464.1614825     
  -50375450.4860639     
  -50336633.9169882     
  -50305112.1759597     
  -50280058.6286646     
  -50260709.5509227     
  -50246358.8811620     
  -50236356.4374081     
  -50230106.7179943     
  -50227066.9965885     
  -50226744.3962614     
  -50228692.0697409     
  -50232504.7513199     
  -50237813.9427260     
  -50244282.9402365     
  -50251601.8458708     
  -50259482.6487272     
  -50267654.4184692     
  -50275858.6215662     
  -50283844.5505025     
  -50291364.8450391     
  -50298171.0815861     
  -50304009.4114906     
  -50308616.2421762     
  -50311713.9781789     
  -50313006.8747614     
  -50312177.1081737     
  -50308881.2368733     
  -50302747.3179650     
  -50293373.0464955     
  -50280325.3784025     
  -50263142.1196123     
  -50241335.7792521     
  -50214399.3325239     
  -50181811.9878114     
  -50143040.1290566     
  -50097524.7029070     
  -50044646.5770617     
  -49983689.7479016     
  -49913968.9442992     
  -49835864.0258743     
  -51438149.6578379     
  -51284833.0450749     
  -51143858.9296095     
  -51014057.4291849     
  -50895076.3765712     
  -50786539.2022084     
  -50687892.9205197     
  -50598594.5674904     
  -50518035.7100620     
  -50445586.1026957     
  -50380671.1841970     
  -50322715.8018603     
  -50271152.2854610     
  -50225431.2906613     
  -50185026.5981160     
  -50149436.4287018     
  -50118183.5532764     
  -50090815.1134205     
  -50066902.3215925     
  -50046039.9629109     
  -50027845.6042442     
  -50011958.4679761     
  -49998037.9801832     
  -49985762.0369266     
  -49974825.0481423     
  -49964935.8219261     
  -49955815.3486138     
  -49947194.5382762     
  -49938811.9598960     
  -49930411.6272277     
  -49921740.8760731     
  -49912548.3807795     
  -49902582.3641458     
  -49891589.0640140     
  -49879311.5303097     
  -49865488.8355987     
  -49849855.7859098     
  -49832143.2095639     
  -49812078.8701298     
  -49789388.9842082     
  -49763800.2200825     
  -49735041.9291887     
  -49702848.3091696     
  -49666960.4614440     
  -49627129.3997458     
  -49583123.6926113     
  -49534749.2076288     
  -49481885.4201864     
  -49424491.1016887     
  -49362259.6119393     
  -51422895.9566196     
  -51300084.7043333     
  -51183406.9040154     
  -51073219.0464432     
  -50969499.7086694     
  -50872168.8616740     
  -50781125.1180034     
  -50696205.3395331     
  -50617213.4943337     
  -50543919.7947051     
  -50476057.1117379     
  -50413345.1227757     
  -50355492.8621021     
  -50302201.2518379     
  -50253166.8997897     
  -50208085.7323090     
  -50166655.8658492     
  -50128579.7171288     
  -50093565.5203860     
  -50061328.4040913     
  -50031591.1260696     
  -50004084.5259326     
  -49978547.7336730     
  -49954728.1669519     
  -49932381.3500444     
  -49911270.5900621     
  -49891166.5487172     
  -49871846.7497849     
  -49853095.0635342     
  -49834701.2099596     
  -49816460.3228485     
  -49798172.6165891     
  -49779643.1969664     
  -49760682.0555758     
  -49741104.2843037     
  -49720730.5409993     
  -49699387.7897914     
  -49676910.3304941     
  -49653141.1246134     
  -49627933.4281983     
  -49601152.7670741     
  -49572679.3535183     
  -49542411.1485022     
  -49510267.8652662     
  -49476196.0726403     
  -49440174.6743369     
  -49402217.7641295     
  -49362369.7380495     
  -49320701.7845127     
  -49277433.4119738     
  -51368284.5422481     
  -51272991.6423081     
  -51180905.5755881     
  -51092172.2711277     
  -51006972.5573591     
  -50925424.2334093     
  -50847588.0046858     
  -50773486.8354521     
  -50703105.7277279     
  -50636398.5653432     
  -50573293.8840410     
  -50513694.6695483     
  -50457483.7926885     
  -50404528.1334425     
  -50354681.6671815     
  -50307788.1498938     
  -50263683.5640378     
  -50222198.3048047     
  -50183159.0793303     
  -50146390.5226072     
  -50111716.5558209     
  -50078961.5207325     
  -50047951.1235893     
  -50018513.2192809     
  -49990478.4638242     
  -49963680.8616028     
  -49937958.2330173     
  -49913152.6279377     
  -49889110.7102165     
  -49865684.1382360     
  -49842729.9658351     
  -49820111.0868900     
  -49797696.7452756     
  -49775363.1299651     
  -49752994.0728333     
  -49730481.8646922     
  -49707728.2037860     
  -49684645.2910963     
  -49661157.0886757     
  -49637200.7597688     
  -49612728.3083105     
  -49587708.4204612     
  -49562128.4665605     
  -49535996.5393309     
  -49509343.3276649     
  -49482223.7626764     
  -49454719.2062529     
  -49426942.6433035     
  -49399046.6183274     
  -49371189.5220706     
  -51287645.2865170     
  -51214275.5610470     
  -51142401.9471379     
  -51072232.5831366     
  -51003920.9010961     
  -50937598.1705303     
  -50873371.0384215     
  -50811318.8263663     
  -50751496.5510379     
  -50693936.1743658     
  -50638648.4214507     
  -50585625.6974673     
  -50534843.4492912     
  -50486261.9945934     
  -50439828.4777349     
  -50395478.7153736     
  -50353138.9013306     
  -50312727.1880375     
  -50274155.1548124     
  -50237329.1644742     
  -50202151.6086756     
  -50168522.0454484     
  -50136338.2361850     
  -50105497.0920772     
  -50075895.5416841     
  -50047431.3320879     
  -50020003.7763586     
  -49993514.4600018     
  -49967867.9188075     
  -49942972.3000906     
  -49918740.0187101     
  -49895088.4184704     
  -49871940.4485692     
  -49849225.3636731     
  -49826879.4549976     
  -49804846.8184115     
  -49783080.1639020     
  -49761541.6683751     
  -49740203.8700976     
  -49719050.5974686     
  -49698077.9172254     
  -49677295.0799792     
  -49656725.4411972     
  -49636407.3554385     
  -49616395.0851998     
  -49596759.7792224     
  -49577590.3410378     
  -49558993.1963252     
  -49541089.9651023     
  -49524027.9242984     
  -51191524.9457589     
  -51134746.8237990     
  -51078647.2472749     
  -51023359.9960519     
  -50969012.6795464     
  -50915716.4175312     
  -50863567.3589252     
  -50812647.6147804     
  -50763024.9793597     
  -50714753.4504431     
  -50667873.7680303     
  -50622413.9207253     
  -50578390.1399051     
  -50535807.7783061     
  -50494662.2032319     
  -50454939.7402264     
  -50416618.6403734     
  -50379670.0448934     
  -50344058.9323356     
  -50309745.0407126     
  -50276683.7599392     
  -50244826.9914748     
  -50214123.9734296     
  -50184522.0707980     
  -50155967.5318091     
  -50128406.2124767     
  -50101784.2722288     
  -50076048.8439887     
  -50051148.6823086     
  -50027034.7931472     
  -50003661.0486764     
  -49980984.7901095     
  -49958967.4209760     
  -49937574.9925109     
  -49916778.7818523     
  -49896555.8625214     
  -49876889.6651626     
  -49857770.5247939     
  -49839196.2090342     
  -49821172.4203285     
  -49803713.2646103     
  -49786841.6792895     
  -49770589.8133722     
  -49754999.3466676     
  -49740121.7153894     
  -49726018.1836069     
  -49712759.7381378     
  -49700427.0865301     
  -49689111.3591278     
  -49678910.6968950     
  -51087658.0172306     
  -51043559.1661081     
  -50999698.5550550     
  -50956177.2512390     
  -50913087.5924121     
  -50870515.5301553     
  -50828539.4930801     
  -50787229.9288006     
  -50746649.3248037     
  -50706852.1539999     
  -50667884.9739110     
  -50629786.6444446     
  -50592588.5418620     
  -50556314.9082056     
  -50520983.2635862     
  -50486604.8586677     
  -50453185.1634221     
  -50420724.3862033     
  -50389218.0147619     
  -50358657.3710504     
  -50329030.1730476     
  -50300321.0982318     
  -50272512.3444626     
  -50245584.1849173     
  -50219515.5144669     
  -50194284.3854956     
  -50169868.5316843     
  -50146245.8786695     
  -50123395.0407568     
  -50101295.8030018     
  -50079929.5879774     
  -50059279.9064238     
  -50039332.7907446     
  -50020077.2099618     
  -50001505.4643141     
  -49983613.5571798     
  -49966401.5414917     
  -49949873.8373172     
  -49934039.5168358     
  -49918912.5525110     
  -49904512.0236189     
  -49890862.2752097     
  -49877993.0220699     
  -49865939.3898505     
  -49854741.8904020     
  -49844446.3419713     
  -49835103.7482044     
  -49826770.0557243     
  -49819505.5059367     
  -49813375.0721180     
  -50981838.2428366     
  -50947633.2959057     
  -50913419.5629836     
  -50879271.4638303     
  -50845260.3234714     
  -50811453.2393578     
  -50777913.0920360     
  -50744698.3671962     
  -50711862.9581492     
  -50679456.0873652     
  -50647522.2696609     
  -50616101.3282820     
  -50585228.4820694     
  -50554934.4621392     
  -50525245.6744753     
  -50496184.4046657     
  -50467769.0570826     
  -50440014.4228190     
  -50412931.9718620     
  -50386530.1652139     
  -50360814.7827404     
  -50335789.2627235     
  -50311455.0494112     
  -50287811.9452043     
  -50264858.4644483     
  -50242592.1860945     
  -50221010.1027460     
  -50200108.9638091     
  -50179885.6106315     
  -50160337.3016227     
  -50141462.0254167     
  -50123258.8001558     
  -50105727.9569599     
  -50088871.4055878     
  -50072692.8802328     
  -50057198.1633060     
  -50042395.2849740     
  -50028294.6961255     
  -50014909.4123425     
  -50002255.1263575     
  -49990350.2864622     
  -49979216.1385447     
  -49968876.7300746     
  -49959358.8752351     
  -49950692.0801229     
  -49942908.4227877     
  -49936042.3778689     
  -49930130.6019119     
  -49925211.7917442     
  -49921326.1686986     
  -50878326.1227559     
  -50851975.2372766     
  -50825465.6154170     
  -50798856.6011776     
  -50772205.0507362     
  -50745565.4109762     
  -50718989.4945284     
  -50692526.3689725     
  -50666222.2828969     
  -50640120.5989211     
  -50614261.7590145     
  -50588683.2771118     
  -50563419.7550321     
  -50538502.9300904     
  -50513961.7468552     
  -50489822.4520853     
  -50466108.7119793     
  -50442841.7497675     
  -50420040.5012683     
  -50397721.7859978     
  -50375900.4914446     
  -50354589.7681267     
  -50333801.2330648     
  -50313545.1793415     
  -50293830.7894784     
  -50274666.3504345     
  -50256059.4681134     
  -50238017.2793434     
  -50220546.6593706     
  -50203654.4229761     
  -50187347.5173865     
  -50171633.2052092     
  -50156519.2356714     
  -50142014.0024928     
  -50128126.6867732     
  -50114867.3833228     
  -50102247.2089293     
  -50090278.3911223     
  -50078974.3360993     
  -50068349.6746159     
  -50058420.2848230     
  -50049203.2912218     
  -50040717.0390037     
  -50032981.0429919     
  -50026015.9105506     
  -50019843.2393834     
  -50014485.4944738     
  -50009965.8631056     
  -50006308.0488141     
  -50003536.1373342     
  -50780115.4489205     
  -50760036.9406529     
  -50739709.8846151     
  -50719182.9941653     
  -50698503.3845899     
  -50677716.4388298     
  -50656865.7732597     
  -50635993.1801485     
  -50615138.5798988     
  -50594339.9903980     
  -50573633.5070116     
  -50553053.2959644     
  -50532631.6021526     
  -50512398.7694140     
  -50492383.2749680     
  -50472611.7772596     
  -50453109.1763472     
  -50433898.6860727     
  -50415001.9171151     
  -50396438.9698438     
  -50378228.5357533     
  -50360388.0061760     
  -50342933.5869082     
  -50325880.4173457     
  -50309242.6927013     
  -50293033.7878636     
  -50277266.3814643     
  -50261952.5787315     
  -50247104.0317360     
  -50232732.0556651     
  -50218847.7398045     
  -50205462.0519515     
  -50192585.9350368     
  -50180230.3947942     
  -50168406.5773834     
  -50157125.8359465     
  -50146399.7851685     
  -50136240.3430020     
  -50126659.7588301     
  -50117670.6274466     
  -50109285.8883482     
  -50101518.8099502     
  -50094382.9584878     
  -50087892.1516076     
  -50082060.3969280     
  -50076901.8157359     
  -50072430.5509141     
  -50068660.6590981     
  -50065606.0012906     
  -50063280.0948049     
  -50689128.3308266     
  -50674042.5714632     
  -50658659.4314359     
  -50643019.5748069     
  -50627162.4785215     
  -50611126.4129959     
  -50594948.4003418     
  -50578664.1877858     
  -50562308.2255661     
  -50545913.6491589     
  -50529512.2685044     
  -50513134.5638705     
  -50496809.6885412     
  -50480565.4789547     
  -50464428.4718176     
  -50448423.9282638     
  -50432575.8649043     
  -50416907.0914121     
  -50401439.2541932     
  -50386192.8856133     
  -50371187.4581718     
  -50356441.4429394     
  -50341972.3715094     
  -50327796.9006687     
  -50313930.8789502     
  -50300389.4142083     
  -50287186.9413381     
  -50274337.2892581     
  -50261853.7462766     
  -50249749.1229759     
  -50238035.8117718     
  -50226725.8423320     
  -50215830.9320773     
  -50205362.5310322     
  -50195331.8603440     
  -50185749.9438467     
  -50176627.6321106     
  -50167975.6184880     
  -50159804.4467371     
  -50152124.5098872     
  -50144946.0400926     
  -50138279.0893140     
  -50132133.5007600     
  -50126518.8710816     
  -50121444.5033449     
  -50116919.3509125     
  -50112951.9528616     
  -50109550.3617530     
  -50106722.0597592     
  -50104473.8743194     
  -50606409.0734418     
  -50595259.7289920     
  -50583793.5334916     
  -50572044.3335013     
  -50560045.1528060     
  -50547828.1614707     
  -50535424.6551109     
  -50522865.0339559     
  -50510178.7857614     
  -50497394.4726492     
  -50484539.7214375     
  -50471641.2178584     
  -50458724.7047524     
  -50445814.9841760     
  -50432935.9235450     
  -50420110.4656832     
  -50407360.6426496     
  -50394707.5931713     
  -50382171.5834545     
  -50369772.0310840     
  -50357527.5316750     
  -50345455.8878985     
  -50333574.1404610     
  -50321898.6005892     
  -50310444.8835406     
  -50299227.9426426     
  -50288262.1033459     
  -50277561.0967741     
  -50267138.0922455     
  -50257005.7282533     
  -50247176.1413976     
  -50237660.9927814     
  -50228471.4914057     
  -50219618.4141250     
  -50211112.1217591     
  -50202962.5709918     
  -50195179.3217293     
  -50187771.5396347     
  -50180747.9936036     
  -50174117.0479926     
  -50167886.6494678     
  -50162064.3083861     
  -50156657.0746747     
  -50151671.5082268     
  -50147113.6439051     
  -50142988.9513063     
  -50139302.2893610     
  -50136057.8557453     
  -50133259.1327318     
  -50130908.8268020     
  -50532320.4462777     
  -50524233.9664344     
  -50515831.7517972     
  -50507141.6742009     
  -50498191.0555451     
  -50489006.6442837     
  -50479614.5923991     
  -50470040.4359073     
  -50460309.0776798     
  -50450444.7727326     
  -50440471.1161540     
  -50430411.0335822     
  -50420286.7742230     
  -50410119.9063975     
  -50399931.3155288     
  -50389741.2045083     
  -50379569.0963366     
  -50369433.8389049     
  -50359353.6117612     
  -50349345.9346811     
  -50339427.6778383     
  -50329615.0733485     
  -50319923.7279392     
  -50310368.6364807     
  -50300964.1960991     
  -50291724.2205815     
  -50282661.9547743     
  -50273790.0886723     
  -50265120.7708952     
  -50256665.6212515     
  -50248435.7420951     
  -50240441.7281924     
  -50232693.6748284     
  -50225201.1838999     
  -50217973.3677612     
  -50211018.8506105     
  -50204345.7672328     
  -50197961.7589366     
  -50191873.9665565     
  -50186089.0204179     
  -50180613.0271953     
  -50175451.5536257     
  -50170609.6070720     
  -50166091.6129654     
  -50161901.3891792     
  -50158042.1174126     
  -50154516.3117237     
  -50151325.7844601     
  -50148471.6093512     
  -50145954.0827892     
  -50466730.3229742     
  -50460990.6233685     
  -50454949.9699320     
  -50448630.9698712     
  -50442055.8949309     
  -50435246.6556359     
  -50428224.7782326     
  -50421011.3834319     
  -50413627.1672944     
  -50406092.3841395     
  -50398426.8313928     
  -50390649.8363444     
  -50382780.2447547     
  -50374836.4112376     
  -50366836.1913525     
  -50358796.9353175     
  -50350735.4832505     
  -50342668.1618334     
  -50334610.7822855     
  -50326578.6395189     
  -50318586.5123387     
  -50310648.6645433     
  -50302778.8467675     
  -50294990.2989077     
  -50287295.7529574     
  -50279707.4360824     
  -50272237.0737549     
  -50264895.8927725     
  -50257694.6239813     
  -50250643.5045320     
  -50243752.2794955     
  -50237030.2026796     
  -50230486.0364882     
  -50224128.0506818     
  -50217964.0199077     
  -50212001.2198792     
  -50206246.4221055     
  -50200705.8870822     
  -50195385.3558754     
  -50190290.0400496     
  -50185424.6099072     
  -50180793.1810302     
  -50176399.2991302     
  -50172245.9232375     
  -50168335.4072777     
  -50164669.4801104     
  -50161249.2241169     
  -50158075.0524099     
  -50155146.6849165     
  -50152463.1232581     
  -50409175.2455950     
  -50405203.4777695     
  -50400953.7946642     
  -50396444.2302942     
  -50391692.6419544     
  -50386716.6846233     
  -50381533.7870102     
  -50376161.1294238     
  -50370615.6232864     
  -50364913.8922616     
  -50359072.2549449     
  -50353106.7090456     
  -50347032.9169984     
  -50340866.1929381     
  -50334621.4909660     
  -50328313.3946344     
  -50321956.1075716     
  -50315563.4451644     
  -50309148.8272118     
  -50302725.2714586     
  -50296305.3879155     
  -50289901.3738658     
  -50283525.0094587     
  -50277187.6537829     
  -50270900.2413171     
  -50264673.2786478     
  -50258516.8413481     
  -50252440.5709113     
  -50246453.6716329     
  -50240564.9073402     
  -50234782.5978703     
  -50229114.6152033     
  -50223568.3791637     
  -50218150.8526083     
  -50212868.5360292     
  -50207727.4615070     
  -50202733.1859612     
  -50197890.7836525     
  -50193204.8379061     
  -50188679.4320327     
  -50184318.1394404     
  -50180124.0129390     
  -50176099.5732533     
  -50172246.7967761     
  -50168567.1025998     
  -50165061.3388829     
  -50161729.7686169     
  -50158572.0548874     
  -50155587.2456842     
  -50152773.7584280     
  -50358993.6473418     
  -50356329.4362103     
  -50353414.5562740     
  -50350263.1471870     
  -50346889.2848887     
  -50343306.9567544     
  -50339530.0382111     
  -50335572.2707112     
  -50331447.2410501     
  -50327168.3619695     
  -50322748.8539964     
  -50318201.7284677     
  -50313539.7716879     
  -50308775.5301649     
  -50303921.2968689     
  -50298989.0984554     
  -50293990.6833950     
  -50288937.5109461     
  -50283840.7409119     
  -50278711.2241130     
  -50273559.4935150     
  -50268395.7559408     
  -50263229.8843031     
  -50258071.4102882     
  -50252929.5174244     
  -50247813.0344672     
  -50242730.4290361     
  -50237689.8014371     
  -50232698.8786084     
  -50227765.0081308     
  -50222895.1522424     
  -50218095.8818074     
  -50213373.3701880     
  -50208733.3869752     
  -50204181.2915402     
  -50199722.0263730     
  -50195360.1101800     
  -50191099.6307236     
  -50186944.2373865     
  -50182897.1334592     
  -50178961.0681502     
  -50175138.3283300     
  -50171430.7300265     
  -50167839.6096991     
  -50164365.8153239     
  -50161009.6973358     
  -50157771.0994758     
  -50154649.3496007     
  -50151643.2505299     
  -50148751.0709894     
  -50315427.4363841     
  -50313710.8673449     
  -50311772.2003059     
  -50309622.3287644     
  -50307272.1583953     
  -50304732.5840861     
  -50302014.4680525     
  -50299128.6190241     
  -50296085.7724598     
  -50292896.5717642     
  -50289571.5504716     
  -50286121.1153617     
  -50282555.5304698     
  -50278884.9019552     
  -50275119.1637874     
  -50271268.0642103     
  -50267341.1529444     
  -50263347.7690832     
  -50259297.0296431     
  -50255197.8187228     
  -50251058.7772288     
  -50246888.2931243     
  -50242694.4921576     
  -50238485.2290258     
  -50234268.0789340     
  -50230050.3295057     
  -50225838.9730048     
  -50221640.6988315     
  -50217461.8862524     
  -50213308.5973314     
  -50209186.5700281     
  -50205101.2114336     
  -50201057.5911164     
  -50197060.4345558     
  -50193114.1166415     
  -50189222.6552245     
  -50185389.7047059     
  -50181618.5496588     
  -50177912.0984769     
  -50174272.8770557     
  -50170703.0225096     
  -50167204.2769393     
  -50163777.9812656     
  -50160425.0691528     
  -50157146.0610469     
  -50153941.0583648     
  -50150809.7378681     
  -50147751.3462677     
  -50144764.6951033     
  -50141848.1559532     
  -50277694.6897321     
  -50276649.3191751     
  -50275409.8137848     
  -50273984.4168612     
  -50272381.4313085     
  -50270609.1991744     
  -50268676.0819930     
  -50266590.4419151     
  -50264360.6236130     
  -50261994.9369424     
  -50259501.6403422     
  -50256888.9249534     
  -50254164.8994338     
  -50251337.5754472     
  -50248414.8538028     
  -50245404.5112197     
  -50242314.1876921     
  -50239151.3744273     
  -50235923.4023321     
  -50232637.4310197     
  -50229300.4383095     
  -50225919.2101946     
  -50222500.3312498     
  -50219050.1754521     
  -50215574.8973917     
  -50212080.4238447     
  -50208572.4456864     
  -50205056.4101217     
  -50201537.5132104     
  -50198020.6926691     
  -50194510.6209302     
  -50191011.6984430     
  -50187528.0472025     
  -50184063.5044937     
  -50180621.6168437     
  -50177205.6341728     
  -50173818.5041429     
  -50170462.8667010     
  -50167141.0488202     
  -50163855.0594433     
  -50160606.5846375     
  -50157396.9829709     
  -50154227.2811274     
  -50151098.1697752     
  -50148009.9997125     
  -50144962.7783135     
  -50141956.1663027     
  -50138989.4748869     
  -50136061.6632802     
  -50133171.3366552     
  -50245038.1882174     
  -50244455.5295523     
  -50243704.8966657     
  -50242792.4116307     
  -50241724.2825742     
  -50240506.7860301     
  -50239146.2498562     
  -50237649.0367172     
  -50236021.5281259     
  -50234270.1090419     
  -50232401.1530178     
  -50230421.0078862     
  -50228335.9819778     
  -50226152.3308592     
  -50223876.2445792     
  -50221513.8354107     
  -50219071.1260748     
  -50216554.0384337     
  -50213968.3826368     
  -50211319.8467062     
  -50208613.9865471     
  -50205856.2163672     
  -50203051.7994906     
  -50200205.8395525     
  -50197323.2720599     
  -50194408.8563044     
  -50191467.1676150     
  -50188502.5899389     
  -50185519.3087376     
  -50182521.3041904     
  -50179512.3446943     
  -50176495.9806542     
  -50173475.5385562     
  -50170454.1153196     
  -50167434.5729250     
  -50164419.5333154     
  -50161411.3735735     
  -50158412.2213740     
  -50155423.9507181     
  -50152448.1779535     
  -50149486.2580911     
  -50146539.2814244     
  -50143608.0704673     
  -50140693.1772222     
  -50137794.8807945     
  -50134913.1853720     
  -50132047.8185882     
  -50129198.2302917     
  -50126363.5917430     
  -50123542.7952661     
  -50216755.0428808     
  -50216480.8590920     
  -50216062.4083117     
  -50215504.1466113     
  -50214810.6277922     
  -50213986.4885739     
  -50213036.4341622     
  -50211965.2242041     
  -50210777.6591338     
  -50209478.5669133     
  -50208072.7901686     
  -50206565.1737208     
  -50204960.5525132     
  -50203263.7399298     
  -50201479.5165033     
  -50199612.6190090     
  -50197667.7299385     
  -50195649.4673496     
  -50193562.3750851     
  -50191410.9133557     
  -50189199.4496797     
  -50186932.2501731     
  -50184613.4711845     
  -50182247.1512667     
  -50179837.2034798     
  -50177387.4080204     
  -50174901.4051688     
  -50172382.6885522     
  -50169834.5987163     
  -50167260.3170037     
  -50164662.8597338     
  -50162045.0726835     
  -50159409.6258655     
  -50156759.0086048     
  -50154095.5249131     
  -50151421.2891617     
  -50148738.2220573     
  -50146048.0469225     
  -50143352.2862857     
  -50140652.2587880     
  -50137949.0764123     
  -50135243.6420433     
  -50132536.6473692     
  -50129828.5711328     
  -50127119.6777471     
  -50124410.0162856     
  -50121699.4198621     
  -50118987.5054148     
  -50116273.6739105     
  -50113557.1109853     
  -50192212.3247144     
  -50192134.8724582     
  -50191934.1389725     
  -50191613.2957557     
  -50191175.6138094     
  -50190624.4514962     
  -50189963.2426393     
  -50189195.4848746     
  -50188324.7282630     
  -50187354.5641729     
  -50186288.6144375     
  -50185130.5207934     
  -50183883.9346046     
  -50182552.5068752     
  -50181139.8785537     
  -50179649.6711298     
  -50178085.4775265     
  -50176450.8532860     
  -50174749.3080507     
  -50172984.2973392     
  -50171159.2146150     
  -50169277.3836492     
  -50167342.0511738     
  -50165356.3798262     
  -50163323.4413829     
  -50161246.2102811     
  -50159127.5574280     
  -50156970.2442961     
  -50154776.9173048     
  -50152550.1024870     
  -50150292.2004428     
  -50148005.4815780     
  -50145692.0816322     
  -50143353.9974939     
  -50140993.0833089     
  -50138611.0468814     
  -50136209.4463732     
  -50133789.6873040     
  -50131353.0198578     
  -50128900.5365008     
  -50126433.1699163     
  -50123951.6912633     
  -50121456.7087667     
  -50118948.6666458     
  -50116427.8443903     
  -50113894.3563932     
  -50111348.1519483     
  -50108789.0156250     
  -50106216.5680284     
  -50103630.2669570     
  -50170852.8711652     
  -50170893.0793963     
  -50170828.2577859     
  -50170660.6054470     
  -50170392.4165358     
  -50170026.0705078     
  -50169564.0225128     
  -50169008.7939443     
  -50168362.9631528     
  -50167629.1563338     
  -50166810.0386002     
  -50165908.3052472     
  -50164926.6732167     
  -50163867.8727687     
  -50162734.6393649     
  -50161529.7057705     
  -50160255.7943781     
  -50158915.6097579     
  -50157511.8314388     
  -50156047.1069223     
  -50154524.0449323     
  -50152945.2089046     
  -50151313.1107166     
  -50149630.2046601     
  -50147898.8816602     
  -50146121.4637401     
  -50144300.1987358     
  -50142437.2552608     
  -50140534.7179245     
  -50138594.5828050     
  -50136618.7531786     
  -50134609.0355098     
  -50132567.1357026     
  -50130494.6556164     
  -50128393.0898510     
  -50126263.8228018     
  -50124108.1259902     
  -50121927.1556732     
  -50119721.9507357     
  -50117493.4308706     
  -50115242.3950515     
  -50112969.5203030     
  -50110675.3607736     
  -50108360.3471188     
  -50106024.7861974     
  -50103668.8610899     
  -50101292.6314439     
  -50098896.0341540     
  -50096478.8843815     
  -50094040.8769226     
  -50152194.5904271     
  -50152298.0435230     
  -50152312.1297177     
  -50152238.3259227     
  -50152078.1960662     
  -50151833.3834226     
  -50151505.6030129     
  -50151096.6340870     
  -50150608.3127014     
  -50150042.5244022     
  -50149401.1970251     
  -50148686.2936204     
  -50147899.8055136     
  -50147043.7455080     
  -50146120.1412389     
  -50145131.0286847     
  -50144078.4458422     
  -50142964.4265725     
  -50141790.9946222     
  -50140560.1578256     
  -50139273.9024929     
  -50137934.1879883     
  -50136542.9415030     
  -50135102.0530263     
  -50133613.3705195     
  -50132078.6952949     
  -50130499.7776054     
  -50128878.3124460     
  -50127215.9355718     
  -50125514.2197357     
  -50123774.6711485     
  -50121998.7261656     
  -50120187.7482020     
  -50118343.0248813     
  -50116465.7654202     
  -50114557.0982525     
  -50112618.0688961     
  -50110649.6380681     
  -50108652.6800488     
  -50106627.9813009     
  -50104576.2393473     
  -50102498.0619107     
  -50100393.9663196     
  -50098264.3791850     
  -50096109.6363517     
  -50093929.9831280     
  -50091725.5747991     
  -50089496.4774270     
  -50087242.6689418     
  -50084964.0405286     
  -50135825.7750612     
  -50135956.3048954     
  -50136010.7772464     
  -50135990.1434450     
  -50135895.4321036     
  -50135727.7431899     
  -50135488.2421235     
  -50135178.1539072     
  -50134798.7573044     
  -50134351.3790732     
  -50133837.3882691     
  -50133258.1906232     
  -50132615.2230078     
  -50131909.9479966     
  -50131143.8485277     
  -50130318.4226775     
  -50129435.1785527     
  -50128495.6293064     
  -50127501.2882860     
  -50126453.6643181     
  -50125354.2571360     
  -50124204.5529560     
  -50123006.0202072     
  -50121760.1054190     
  -50120468.2292725     
  -50119131.7828187     
  -50117752.1238692     
  -50116330.5735616     
  -50114868.4131060     
  -50113366.8807145     
  -50111827.1687175     
  -50110250.4208723     
  -50108637.7298655     
  -50106990.1350127     
  -50105308.6201613     
  -50103594.1117967     
  -50101847.4773568     
  -50100069.5237589     
  -50098260.9961392     
  -50096422.5768120     
  -50094554.8844487     
  -50092658.4734804     
  -50090733.8337283     
  -50088781.3902629     
  -50086801.5034965     
  -50084794.4695108     
  -50082760.5206222     
  -50080699.8261874     
  -50078612.4936526     
  -50076498.5698460     
  -50121398.2411225     
  -50121532.9042970     
  -50121602.7412601     
  -50121608.3294278     
  -50121550.3132962     
  -50121429.3999459     
  -50121246.3545391     
  -50121001.9958204     
  -50120697.1916301     
  -50120332.8544423     
  -50119909.9369363     
  -50119429.4276094     
  -50118892.3464422     
  -50118299.7406226     
  -50117652.6803371     
  -50116952.2546374     
  -50116199.5673894     
  -50115395.7333098     
  -50114541.8740999     
  -50113639.1146799     
  -50112688.5795310     
  -50111691.3891508     
  -50110648.6566272     
  -50109561.4843359     
  -50108430.9607663     
  -50107258.1574809     
  -50106044.1262120     
  -50104789.8961006     
  -50103496.4710809     
  -50102164.8274153     
  -50100795.9113825     
  -50099390.6371231     
  -50097949.8846464     
  -50096474.4980001     
  -50094965.2836088     
  -50093423.0087817     
  -50091848.4003942     
  -50090242.1437454     
  -50088604.8815944     
  -50086937.2133783     
  -50085239.6946138     
  -50083512.8364851     
  -50081757.1056200     
  -50079972.9240564     
  -50078160.6694012     
  -50076320.6751831     
  -50074453.2314002     
  -50072558.5852654     
  -50070636.9421489     
  -50068688.4667195     
  -50108619.5487525     
  -50108744.7628527     
  -50108814.5875016     
  -50108829.3410430     
  -50108789.3990168     
  -50108695.1908118     
  -50108547.1962947     
  -50108345.9424213     
  -50108091.9998422     
  -50107785.9795096     
  -50107428.5292953     
  -50107020.3306264     
  -50106562.0951484     
  -50106054.5614216     
  -50105498.4916594     
  -50104894.6685148     
  -50104243.8919212     
  -50103546.9759957     
  -50102804.7460094     
  -50102018.0354304     
  -50101187.6830473     
  -50100314.5301759     
  -50099399.4179560     
  -50098443.1847425     
  -50097446.6635957     
  -50096410.6798755     
  -50095336.0489433     
  -50094223.5739758     
  -50093074.0438957     
  -50091888.2314205     
  -50090666.8912364     
  -50089410.7582973     
  -50088120.5462545     
  -50086796.9460190     
  -50085440.6244595     
  -50084052.2232390     
  -50082632.3577926     
  -50081181.6164484     
  -50079700.5596941     
  -50078189.7195918     
  -50076649.5993418     
  -50075080.6729982     
  -50073483.3853376     
  -50071858.1518813     
  -50070205.3590740     
  -50068525.3646183     
  -50066818.4979666     
  -50065085.0609707     
  -50063325.3286901     
  -50061539.5503576     
  -50097245.1297038     
  -50097353.7562556     
  -50097414.9074168     
  -50097428.7277784     
  -50097395.4100145     
  -50097315.1924409     
  -50097188.3565389     
  -50097015.2244516     
  -50096796.1564623     
  -50096531.5484608     
  -50096221.8294059     
  -50095867.4587904     
  -50095468.9241164     
  -50095026.7383864     
  -50094541.4376178     
  -50094013.5783858     
  -50093443.7354018     
  -50092832.4991315     
  -50092180.4734606     
  -50091488.2734102     
  -50090756.5229102     
  -50089985.8526339     
  -50089176.8978974     
  -50088330.2966318     
  -50087446.6874284     
  -50086526.7076642     
  -50085570.9917094     
  -50084580.1692224     
  -50083554.8635343     
  -50082495.6901278     
  -50081403.2552121     
  -50080278.1543982     
  -50079120.9714767     
  -50077932.2773008     
  -50076712.6287776     
  -50075462.5679691     
  -50074182.6213063     
  -50072873.2989168     
  -50071535.0940695     
  -50070168.4827364     
  -50068773.9232742     
  -50067351.8562263     
  -50065902.7042467     
  -50064426.8721464     
  -50062924.7470624     
  -50061396.6987521     
  -50059843.0800105     
  -50058264.2272116     
  -50056660.4609746     
  -50055032.0869534     
  -50087070.8292013     
  -50087160.0136302     
  -50087208.3626105     
  -50087215.9090854     
  -50087182.7259668     
  -50087108.9243937     
  -50086994.6519511     
  -50086840.0908587     
  -50086645.4561333     
  -50086410.9937337     
  -50086136.9786908     
  -50085823.7132329     
  -50085471.5249089     
  -50085080.7647159     
  -50084651.8052374     
  -50084185.0387963     
  -50083680.8756287     
  -50083139.7420826     
  -50082562.0788475     
  -50081948.3392178     
  -50081298.9873961     
  -50080614.4968400     
  -50079895.3486559     
  -50079142.0300452     
  -50078355.0328050     
  -50077534.8518882     
  -50076681.9840261     
  -50075796.9264158     
  -50074880.1754778     
  -50073932.2256838     
  -50072953.5684604     
  -50071944.6911686     
  -50070906.0761639     
  -50069838.1999381     
  -50068741.5323447     
  -50067616.5359106     
  -50066463.6652361     
  -50065283.3664829     
  -50064076.0769551     
  -50062842.2247701     
  -50061582.2286247     
  -50060296.4976541     
  -50058985.4313870     
  -50057649.4197953     
  -50056288.8434400     
  -50054904.0737142     
  -50053495.4731805     
  -50052063.3960060     
  -50050608.1884913     
  -50049130.1896961     
  -50077926.1430135     
  -50077995.7482158     
  -50078030.1037114     
  -50078029.1749841     
  -50077992.9604449     
  -50077921.4902204     
  -50077814.8249037     
  -50077673.0542728     
  -50077496.2959817     
  -50077284.6942288     
  -50077038.4184087     
  -50076757.6617509     
  -50076442.6399516     
  -50076093.5898018     
  -50075710.7678176     
  -50075294.4488757     
  -50074844.9248600     
  -50074362.5033218     
  -50073847.5061592     
  -50073300.2683182     
  -50072721.1365205     
  -50072110.4680201     
  -50071468.6293946     
  -50070795.9953719     
  -50070092.9476970     
  -50069359.8740422     
  -50068597.1669622     
  -50067805.2228992     
  -50066984.4412379     
  -50066135.2234150     
  -50065257.9720855     
  -50064353.0903455     
  -50063420.9810178     
  -50062462.0459982     
  -50061476.6856665     
  -50060465.2983636     
  -50059428.2799354     
  -50058366.0233454     
  -50057278.9183573     
  -50056167.3512876     
  -50055031.7048310     
  -50053872.3579564     
  -50052689.6858774     
  -50051484.0600945     
  -50050255.8485112     
  -50049005.4156233     
  -50047733.1227812     
  -50046439.3285249     
  -50045124.3889910     
  -50043788.6583918     
  -50069668.2753516     
  -50069719.7721569     
  -50069740.7405783     
  -50069731.1092527     
  -50069690.8337525     
  -50069619.8957695     
  -50069518.3022640     
  -50069386.0845825     
  -50069223.2975485     
  -50069030.0185304     
  -50068806.3464902     
  -50068552.4010177     
  -50068268.3213527     
  -50067954.2654006     
  -50067610.4087433     
  -50067236.9436512     
  -50066834.0780971     
  -50066402.0347782     
  -50065941.0501471     
  -50065451.3734572     
  -50064933.2658235     
  -50064386.9993036     
  -50063812.8560008     
  -50063211.1271923     
  -50062582.1124853     
  -50061926.1190031     
  -50061243.4606053     
  -50060534.4571415     
  -50059799.4337435     
  -50059038.7201565     
  -50058252.6501122     
  -50057441.5607445     
  -50056605.7920505     
  -50055745.6863984     
  -50054861.5880827     
  -50053953.8429293     
  -50053022.7979506     
  -50052068.8010525     
  -50051092.2007937     
  -50050093.3461981     
  -50049072.5866214     
  -50048030.2716709     
  -50046966.7511819     
  -50045882.3752466     
  -50044777.4942996     
  -50043652.4592573     
  -50042507.6217120     
  -50041343.3341798     
  -50040159.9504021     
  -50038957.8257001     
  -50062177.0415410     
  -50062212.7443796     
  -50062221.9363810     
  -50062204.5298525     
  -50062160.4590166     
  -50062089.6794841     
  -50061992.1676955     
  -50061867.9203343     
  -50061716.9537147     
  -50061539.3031478     
  -50061335.0222887     
  -50061104.1824679     
  -50060846.8720096     
  -50060563.1955413     
  -50060253.2732950     
  -50059917.2404064     
  -50059555.2462111     
  -50059167.4535438     
  -50058754.0380415     
  -50058315.1874530     
  -50057851.1009592     
  -50057361.9885039     
  -50056848.0701395     
  -50056309.5753896     
  -50055746.7426298     
  -50055159.8184895     
  -50054549.0572763     
  -50053914.7204257     
  -50053257.0759770     
  -50052576.3980767     
  -50051872.9665133     
  -50051147.0662818     
  -50050398.9871818     
  -50049629.0234493     
  -50048837.4734235     
  -50048024.6392498     
  -50047190.8266205     
  -50046336.3445516     
  -50045461.5052007     
  -50044566.6237219     
  -50043652.0181616     
  -50042718.0093936     
  -50041764.9210947     
  -50040793.0797603     
  -50039802.8147605     
  -50038794.4584359     
  -50037768.3462330     
  -50036724.8168796     
  -50035664.2125977     
  -50034586.8793558     
  -50055350.5767436     
  -50055373.1351890     
  -50055372.6304937     
  -50055348.9717957     
  -50055302.0859924     
  -50055231.9174199     
  -50055138.4275046     
  -50055021.5943908     
  -50054881.4125447     
  -50054717.8923394     
  -50054531.0596215     
  -50054320.9552624     
  -50054087.6346970     
  -50053831.1674521     
  -50053551.6366655     
  -50053249.1386007     
  -50052923.7821559     
  -50052575.6883728     
  -50052204.9899458     
  -50051811.8307327     
  -50051396.3652714     
  -50050958.7583021     
  -50050499.1842985     
  -50050017.8270087     
  -50049514.8790090     
  -50048990.5412698     
  -50048445.0227386     
  -50047878.5399383     
  -50047291.3165846     
  -50046683.5832224     
  -50046055.5768832     
  -50045407.5407652     
  -50044739.7239346     
  -50044052.3810538     
  -50043345.7721322     
  -50042620.1623039     
  -50041875.8216320     
  -50041113.0249401     
  -50040332.0516711     
  -50039533.1857746     
  -50038716.7156224     
  -50037882.9339534     
  -50037032.1378461     
  -50036164.6287215     
  -50035280.7123734     
  -50034380.6990279     
  -50033464.9034311     
  -50032533.6449645     
  -50031587.2477879     
  -50030626.0410090     
  -50049101.7768959     
  -50049113.8529969     
  -50049105.8541308     
  -50049077.6941858     
  -50049029.3013994     
  -50048960.6181816     
  -50048871.6009142     
  -50048762.2197297     
  -50048632.4582701     
  -50048482.3134280     
  -50048311.7950719     
  -50048120.9257576     
  -50047909.7404270     
  -50047678.2860964     
  -50047426.6215371     
  -50047154.8169473     
  -50046862.9536201     
  -50046551.1236077     
  -50046219.4293835     
  -50045867.9835038     
  -50045496.9082711     
  -50045106.3354002     
  -50044696.4056883     
  -50044267.2686910     
  -50043819.0824055     
  -50043352.0129620     
  -50042866.2343245     
  -50042361.9280033     
  -50041839.2827787     
  -50041298.4944377     
  -50040739.7655255     
  -50040163.3051113     
  -50039569.3285699     
  -50038958.0573804     
  -50038329.7189419     
  -50037684.5464070     
  -50037022.7785341     
  -50036344.6595586     
  -50035650.4390833     
  -50034940.3719888     
  -50034214.7183634     
  -50033473.7434534     
  -50032717.7176333     
  -50031946.9163963     
  -50031161.6203647     
  -50030362.1153200     
  -50029548.6922526     
  -50028721.6474307     
  -50027881.2824879     
  -50027027.9045287     
  -50043355.3817091     
  -50043359.4591231     
  -50043346.0802894     
  -50043315.1681293     
  -50043266.6571329     
  -50043200.4932779     
  -50043116.6339313     
  -50043015.0477316     
  -50042895.7144549     
  -50042758.6248662     
  -50042603.7805557     
  -50042431.1937642     
  -50042240.8871960     
  -50042032.8938224     
  -50041807.2566772     
  -50041564.0286443     
  -50041303.2722404     
  -50041025.0593919     
  -50040729.4712099     
  -50040416.5977621     
  -50040086.5378447     
  -50039739.3987536     
  -50039375.2960583     
  -50038994.3533773     
  -50038596.7021581     
  -50038182.4814606     
  -50037751.8377477     
  -50037304.9246809     
  -50036841.9029246     
  -50036362.9399576     
  -50035868.2098945     
  -50035357.8933158     
  -50034832.1771099     
  -50034291.2543242     
  -50033735.3240293     
  -50033164.5911944     
  -50032579.2665754     
  -50031979.5666155     
  -50031365.7133592     
  -50030737.9343797     
  -50030096.4627190     
  -50029441.5368424     
  -50028773.4006061     
  -50028092.3032383     
  -50027398.4993344     
  -50026692.2488642     
  -50025973.8171931     
  -50025243.4751158     
  -50024501.4989018     
  -50023748.1703533     
  -50038045.6055492     
  -50038043.8896376     
  -50038027.0398148     
  -50037994.9898769     
  -50037947.6829276     
  -50037885.0713608     
  -50037807.1168271     
  -50037713.7901861     
  -50037605.0714449     
  -50037480.9496827     
  -50037341.4229656     
  -50037186.4982487     
  -50037016.1912691     
  -50036830.5264306     
  -50036629.5366796     
  -50036413.2633749     
  -50036181.7561514     
  -50035935.0727786     
  -50035673.2790163     
  -50035396.4484651     
  -50035104.6624174     
  -50034798.0097053     
  -50034476.5865489     
  -50034140.4964052     
  -50033789.8498178     
  -50033424.7642690     
  -50033045.3640345     
  -50032651.7800420     
  -50032244.1497336     
  -50031822.6169330     
  -50031387.3317180     
  -50030938.4502995     
  -50030476.1349063     
  -50030000.5536768     
  -50029511.8805583     
  -50029010.2952138     
  -50028495.9829367     
  -50027969.1345737     
  -50027429.9464562     
  -50026878.6203401     
  -50026315.3633546     
  -50025740.3879594     
  -50025153.9119109     
  -50024556.1582367     
  -50023947.3552195     
  -50023327.7363882     
  -50022697.5405186     
  -50022057.0116407     
  -50021406.3990547     
  -50020745.9573539     
  -50033114.2255940     
  -50033108.6041614     
  -50033089.9338521     
  -50033058.1596100     
  -50033013.2338486     
  -50032955.1164713     
  -50032883.7748800     
  -50032799.1839703     
  -50032701.3261173     
  -50032590.1911490     
  -50032465.7763110     
  -50032328.0862218     
  -50032177.1328192     
  -50032012.9353000     
  -50031835.5200513     
  -50031644.9205773     
  -50031441.1774189     
  -50031224.3380693     
  -50030994.4568858     
  -50030751.5949975     
  -50030495.8202103     
  -50030227.2069103     
  -50029945.8359654     
  -50029651.7946262     
  -50029345.1764262     
  -50029026.0810836     
  -50028694.6144018     
  -50028350.8881744     
  -50027995.0200887     
  -50027627.1336345     
  -50027247.3580140     
  -50026855.8280559     
  -50026452.6841317     
  -50026038.0720780     
  -50025612.1431215     
  -50025175.0538089     
  -50024726.9659417     
  -50024268.0465156     
  -50023798.4676656     
  -50023318.4066155     
  -50022828.0456332     
  -50022327.5719909     
  -50021817.1779312     
  -50021297.0606377     
  -50020767.4222106     
  -50020228.4696489     
  -50019680.4148348     
  -50019123.4745251     
  -50018557.8703456     
  -50017983.8287900     
  -50028509.0445438     
  -50028501.0871533     
  -50028481.9763774     
  -50028451.6676361     
  -50028410.1223192     
  -50028357.3078278     
  -50028293.1976059     
  -50028217.7711625     
  -50028131.0140847     
  -50028032.9180418     
  -50027923.4807818     
  -50027802.7061204     
  -50027670.6039220     
  -50027527.1900754     
  -50027372.4864625     
  -50027206.5209221     
  -50027029.3272083     
  -50026840.9449442     
  -50026641.4195725     
  -50026430.8023019     
  -50026209.1500504     
  -50025976.5253869     
  -50025732.9964698     
  -50025478.6369847     
  -50025213.5260805     
  -50024937.7483054     
  -50024651.3935421     
  -50024354.5569431     
  -50024047.3388663     
  -50023729.8448123     
  -50023402.1853616     
  -50023064.4761140     
  -50022716.8376296     
  -50022359.3953712     
  -50021992.2796495     
  -50021615.6255704     
  -50021229.5729845     
  -50020834.2664397     
  -50020429.8551365     
  -50020016.4928856     
  -50019594.3380690     
  -50019163.5536035     
  -50018724.3069074     
  -50018276.7698696     
  -50017821.1188220     
  -50017357.5345141     
  -50016886.2020898     
  -50016407.3110671     
  -50015921.0553202     
  -50015427.6330617     
  -50024182.6550939     
  -50024173.6352469     
  -50024155.2066968     
  -50024127.3341586     
  -50024089.9870840     
  -50024043.1397126     
  -50023986.7711148     
  -50023920.8652274     
  -50023845.4108819     
  -50023760.4018261     
  -50023665.8367392     
  -50023561.7192404     
  -50023448.0578920     
  -50023324.8661971     
  -50023192.1625916     
  -50023049.9704322     
  -50022898.3179798     
  -50022737.2383786     
  -50022566.7696315     
  -50022386.9545732     
  -50022197.8408389     
  -50021999.4808317     
  -50021791.9316868     
  -50021575.2552342     
  -50021349.5179600     
  -50021114.7909661     
  -50020871.1499289     
  -50020618.6750574     
  -50020357.4510504     
  -50020087.5670547     
  -50019809.1166216     
  -50019522.1976652     
  -50019226.9124204     
  -50018923.3674008     
  -50018611.6733592     
  -50018291.9452475     
  -50017964.3021775     
  -50017628.8673845     
  -50017285.7681901     
  -50016935.1359672     
  -50016577.1061062     
  -50016211.8179827     
  -50015839.4149256     
  -50015460.0441872     
  -50015073.8569141     
  -50014681.0081191     
  -50014281.6566545     
  -50013875.9651850     
  -50013464.1001630     
  -50013046.2318025     
  -50020091.4438748     
  -50020082.3731452     
  -50020065.5192302     
  -50020040.8547438     
  -50020008.3560120     
  -50019968.0031246     
  -50019919.7799819     
  -50019863.6743353     
  -50019799.6778226     
  -50019727.7859972     
  -50019647.9983531     
  -50019560.3183439     
  -50019464.7533983     
  -50019361.3149297     
  -50019250.0183433     
  -50019130.8830374     
  -50019003.9324028     
  -50018869.1938173     
  -50018726.6986377     
  -50018576.4821887     
  -50018418.5837494     
  -50018253.0465367     
  -50018079.9176870     
  -50017899.2482359     
  -50017711.0930957     
  -50017515.5110318     
  -50017312.5646377     
  -50017102.3203087     
  -50016884.8482148     
  -50016660.2222726     
  -50016428.5201168     
  -50016189.8230715     
  -50015944.2161204     
  -50015691.7878776     
  -50015432.6305579     
  -50015166.8399471     
  -50014894.5153730     
  -50014615.7596754     
  -50014330.6791772     
  -50014039.3836557     
  -50013741.9863136     
  -50013438.6037508     
  -50013129.3559362     
  -50012814.3661796     
  -50012493.7611036     
  -50012167.6706163     
  -50011836.2278829     
  -50011499.5692982     
  -50011157.8344579     
  -50010811.1661303     
  -50016194.7827254     
  -50016186.4494941     
  -50016171.8655827     
  -50016151.0100884     
  -50016123.8649534     
  -50016090.4150145     
  -50016050.6480476     
  -50016004.5548075     
  -50015952.1290647     
  -50015893.3676362     
  -50015828.2704142     
  -50015756.8403894     
  -50015679.0836716     
  -50015595.0095061     
  -50015504.6302872     
  -50015407.9615682     
  -50015305.0220685     
  -50015195.8336778     
  -50015080.4214575     
  -50014958.8136396     
  -50014831.0416233     
  -50014697.1399699     
  -50014557.1463944     
  -50014411.1017566     
  -50014259.0500499     
  -50014101.0383879     
  -50013937.1169914     
  -50013767.3391718     
  -50013591.7613157     
  -50013410.4428663     
  -50013223.4463056     
  -50013030.8371348     
  -50012832.6838546     
  -50012629.0579444     
  -50012420.0338412     
  -50012205.6889183     
  -50011986.1034627     
  -50011761.3606533     
  -50011531.5465377     
  -50011296.7500094     
  -50011057.0627843     
  -50010812.5793770     
  -50010563.3970765     
  -50010309.6159219     
  -50010051.3386777     
  -50009788.6708080     
  -50009521.7204509     
  -50009250.5983918     
  -50008975.4180362     
  -50008696.2953816     
  -50012454.3644430     
  -50012447.3724474     
  -50012435.5912286     
  -50012419.0050511     
  -50012397.6002778     
  -50012371.3654128     
  -50012340.2911412     
  -50012304.3703654     
  -50012263.5982384     
  -50012217.9721937     
  -50012167.4919723     
  -50012112.1596469     
  -50012051.9796432     
  -50011986.9587584     
  -50011917.1061770     
  -50011842.4334842     
  -50011762.9546771     
  -50011678.6861732     
  -50011589.6468170     
  -50011495.8578845     
  -50011397.3430854     
  -50011294.1285646     
  -50011186.2429001     
  -50011073.7171012     
  -50010956.5846039     
  -50010834.8812658     
  -50010708.6453587     
  -50010577.9175609     
  -50010442.7409480     
  -50010303.1609824     
  -50010159.2255028     
  -50010010.9847113     
  -50009858.4911613     
  -50009701.7997432     
  -50009540.9676707     
  -50009376.0544651     
  -50009207.1219403     
  -50009034.2341861     
  -50008857.4575514     
  -50008676.8606271     
  -50008492.5142275     
  -50008304.4913723     
  -50008112.8672671     
  -50007917.7192835     
  -50007719.1269387     
  -50007517.1718747     
  -50007311.9378356     
  -50007103.5106455     
  -50006891.9781845     
  -50006677.4303641     
  -50008833.6482807     
  -50008828.4520075     
  -50008819.8757448     
  -50008807.9077817     
  -50008792.5378466     
  -50008773.7571430     
  -50008751.5583808     
  -50008725.9358076     
  -50008696.8852368     
  -50008664.4040736     
  -50008628.4913379     
  -50008589.1476866     
  -50008546.3754332     
  -50008500.1785647     
  -50008450.5627573     
  -50008397.5353903     
  -50008341.1055577     
  -50008281.2840785     
  -50008218.0835050     
  -50008151.5181302     
  -50008081.6039925     
  -50008008.3588801     
  -50007931.8023338     
  -50007851.9556481     
  -50007768.8418712     
  -50007682.4858046     
  -50007592.9140004     
  -50007500.1547584     
  -50007404.2381224     
  -50007305.1958751     
  -50007203.0615320     
  -50007097.8703355     
  -50006989.6592470     
  -50006878.4669393     
  -50006764.3337873     
  -50006647.3018595     
  -50006527.4149071     
  -50006404.7183541     
  -50006279.2592857     
  -50006151.0864363     
  -50006020.2501776     
  -50005886.8025049     
  -50005750.7970242     
  -50005612.2889371     
  -50005471.3350263     
  -50005327.9936398     
  -50005182.3246743     
  -50005034.3895584     
  -50004884.2512343     
  -50004731.9741384     
  -50005297.3873619     
  -50005294.3225420     
  -50005289.2512694     
  -50005282.1649292     
  -50005273.0557489     
  -50005261.9168252     
  -50005248.7421479     
  -50005233.5266237     
  -50005216.2660981     
  -50005196.9573751     
  -50005175.5982363     
  -50005152.1874581     
  -50005126.7248276     
  -50005099.2111572     
  -50005069.6482978     
  -50005038.0391506     
  -50005004.3876779     
  -50004968.6989132     
  -50004930.9789686     
  -50004891.2350429     
  -50004849.4754278     
  -50004805.7095126     
  -50004759.9477895     
  -50004712.2018564     
  -50004662.4844198     
  -50004610.8092963     
  -50004557.1914141     
  -50004501.6468128     
  -50004444.1926435     
  -50004384.8471679     
  -50004323.6297559     
  -50004260.5608842     
  -50004195.6621331     
  -50004128.9561837     
  -50004060.4668129     
  -50003990.2188908     
  -50003918.2383743     
  -50003844.5523030     
  -50003769.1887928     
  -50003692.1770298     
  -50003613.5472639     
  -50003533.3308012     
  -50003451.5599968     
  -50003368.2682461     
  -50003283.4899770     
  -50003197.2606396     
  -50003109.6166975     
  -50003020.5956162     
  -50002930.2358534     
  -50002838.5768462     
  -50001811.2158507     
  -50001810.5241054     
  -50001809.1786511     
  -50001807.1732744     
  -50001804.5020490     
  -50001801.1593524     
  -50001797.1398823     
  -50001792.4386722     
  -50001787.0511054     
  -50001780.9729290     
  -50001774.2002670     
  -50001766.7296316     
  -50001758.5579350     
  -50001749.6824995     
  -50001740.1010674     
  -50001729.8118101     
  -50001718.8133358     
  -50001707.1046982     
  -50001694.6854024     
  -50001681.5554123     
  -50001667.7151557     
  -50001653.1655300     
  -50001637.9079072     
  -50001621.9441378     
  -50001605.2765550     
  -50001587.9079778     
  -50001569.8417149     
  -50001551.0815663     
  -50001531.6318264     
  -50001511.4972857     
  -50001490.6832326     
  -50001469.1954549     
  -50001447.0402406     
  -50001424.2243793     
  -50001400.7551623     
  -50001376.6403834     
  -50001351.8883387     
  -50001326.5078269     
  -50001300.5081485     
  -50001273.8991060     
  -50001246.6910024     
  -50001218.8946404     
  -50001190.5213218     
  -50001161.5828448     
  -50001132.0915035     
  -50001102.0600849     
  -50001071.5018672     
  -50001040.4306166     
  -50001008.8605847     
  -50000976.8065049     
  -49998341.2782165     
  -49998343.1253835     
  -49998345.6646191     
  -49998348.8916628     
  -49998352.8020089     
  -49998357.3909143     
  -49998362.6534054     
  -49998368.5842859     
  -49998375.1781434     
  -49998382.4293551     
  -49998390.3320954     
  -49998398.8803411     
  -49998408.0678774     
  -49998417.8883035     
  -49998428.3350382     
  -49998439.4013251     
  -49998451.0802373     
  -49998463.3646831     
  -49998476.2474101     
  -49998489.7210104     
  -49998503.7779248     
  -49998518.4104481     
  -49998533.6107325     
  -49998549.3707930     
  -49998565.6825118     
  -49998582.5376417     
  -49998599.9278119     
  -49998617.8445314     
  -49998636.2791939     
  -49998655.2230821     
  -49998674.6673727     
  -49998694.6031405     
  -49998715.0213630     
  -49998735.9129258     
  -49998757.2686265     
  -49998779.0791805     
  -49998801.3352252     
  -49998824.0273258     
  -49998847.1459795     
  -49998870.6816216     
  -49998894.6246307     
  -49998918.9653333     
  -49998943.6940102     
  -49998968.8009013     
  -49998994.2762120     
  -49999020.1101177     
  -49999046.2927704     
  -49999072.8143037     
  -49999099.6648391     
  -49999126.8344910     
  -49994853.8863699     
  -49994858.3742793     
  -49994864.9062767     
  -49994873.4798575     
  -49994884.0917479     
  -49994896.7379030     
  -49994911.4135051     
  -49994928.1129624     
  -49994946.8299069     
  -49994967.5571943     
  -49994990.2869029     
  -49995015.0103335     
  -49995041.7180092     
  -49995070.3996761     
  -49995101.0443034     
  -49995133.6400850     
  -49995168.1744408     
  -49995204.6340182     
  -49995243.0046947     
  -49995283.2715802     
  -49995325.4190198     
  -49995369.4305976     
  -49995415.2891400     
  -49995462.9767203     
  -49995512.4746628     
  -49995563.7635482     
  -49995616.8232190     
  -49995671.6327850     
  -49995728.1706300     
  -49995786.4144181     
  -49995846.3411012     
  -49995907.9269268     
  -49995971.1474448     
  -49996035.9775177     
  -49996102.3913279     
  -49996170.3623882     
  -49996239.8635507     
  -49996310.8670177     
  -49996383.3443516     
  -49996457.2664864     
  -49996532.6037394     
  -49996609.3258224     
  -49996687.4018546     
  -49996766.8003752     
  -49996847.4893563     
  -49996929.4362170     
  -49997012.6078366     
  -49997096.9705696     
  -49997182.4902606     
  -49997269.1322584     
  -49991315.1928969     
  -49991322.3644571     
  -49991332.9513539     
  -49991346.9528999     
  -49991364.3671082     
  -49991385.1906809     
  -49991409.4189975     
  -49991437.0461041     
  -49991468.0647046     
  -49991502.4661511     
  -49991540.2404364     
  -49991581.3761876     
  -49991625.8606591     
  -49991673.6797280     
  -49991724.8178899     
  -49991779.2582553     
  -49991836.9825472     
  -49991897.9710997     
  -49991962.2028572     
  -49992029.6553745     
  -49992100.3048185     
  -49992174.1259695     
  -49992251.0922244     
  -49992331.1756008     
  -49992414.3467410     
  -49992500.5749180     
  -49992589.8280417     
  -49992682.0726659     
  -49992777.2739966     
  -49992875.3959009     
  -49992976.4009165     
  -49993080.2502623     
  -49993186.9038499     
  -49993296.3202956     
  -49993408.4569333     
  -49993523.2698286     
  -49993640.7137928     
  -49993760.7423989     
  -49993883.3079974     
  -49994008.3617330     
  -49994135.8535629     
  -49994265.7322748     
  -49994397.9455066     
  -49994532.4397661     
  -49994669.1604520     
  -49994808.0518756     
  -49994949.0572832     
  -49995092.1188794     
  -49995237.1778508     
  -49995384.1743911     
  -49987690.8701571     
  -49987700.7075967     
  -49987715.3639920     
  -49987734.8408010     
  -49987759.1376311     
  -49987788.2522166     
  -49987822.1803975     
  -49987860.9160996     
  -49987904.4513168     
  -49987952.7760942     
  -49988005.8785128     
  -49988063.7446761     
  -49988126.3586977     
  -49988193.7026909     
  -49988265.7567591     
  -49988342.4989886     
  -49988423.9054420     
  -49988509.9501535     
  -49988600.6051255     
  -49988695.8403268     
  -49988795.6236919     
  -49988899.9211220     
  -49989008.6964871     
  -49989121.9116295     
  -49989239.5263688     
  -49989361.4985082     
  -49989487.7838416     
  -49989618.3361627     
  -49989753.1072750     
  -49989892.0470025     
  -49990035.1032030     
  -49990182.2217810     
  -49990333.3467030     
  -49990488.4200132     
  -49990647.3818510     
  -49990810.1704690     
  -49990976.7222527     
  -49991146.9717409     
  -49991320.8516478     
  -49991498.2928855     
  -49991679.2245881     
  -49991863.5741368     
  -49992051.2671866     
  -49992242.2276928     
  -49992436.3779405     
  -49992633.6385735     
  -49992833.9286254     
  -49993037.1655519     
  -49993243.2652634     
  -49993452.1421600     
  -49983945.7856870     
  -49983958.2017360     
  -49983976.8864074     
  -49984001.8439103     
  -49984033.0760139     
  -49984070.5820147     
  -49984114.3587049     
  -49984164.4003434     
  -49984220.6986291     
  -49984283.2426762     
  -49984352.0189918     
  -49984427.0114554     
  -49984508.2013014     
  -49984595.5671028     
  -49984689.0847575     
  -49984788.7274764     
  -49984894.4657743     
  -49985006.2674619     
  -49985124.0976402     
  -49985247.9186971     
  -49985377.6903059     
  -49985513.3694249     
  -49985654.9103000     
  -49985802.2644685     
  -49985955.3807647     
  -49986114.2053272     
  -49986278.6816083     
  -49986448.7503845     
  -49986624.3497693     
  -49986805.4152268     
  -49986991.8795877     
  -49987183.6730662     
  -49987380.7232789     
  -49987582.9552648     
  -49987790.2915069     
  -49988002.6519556     
  -49988219.9540533     
  -49988442.1127599     
  -49988669.0405808     
  -49988900.6475952     
  -49989136.8414871     
  -49989377.5275761     
  -49989622.6088513     
  -49989871.9860054     
  -49990125.5574708     
  -49990383.2194570     
  -49990644.8659898     
  -49990910.3889514     
  -49991179.6781224     
  -49991452.6212257     
  -49980043.6641775     
  -49980058.4859020     
  -49980081.0865972     
  -49980111.4741161     
  -49980149.6532271     
  -49980195.6255684     
  -49980249.3896076     
  -49980310.9406024     
  -49980380.2705661     
  -49980457.3682347     
  -49980542.2190382     
  -49980634.8050740     
  -49980735.1050836     
  -49980843.0944325     
  -49980958.7450923     
  -49981082.0256258     
  -49981212.9011756     
  -49981351.3334537     
  -49981497.2807357     
  -49981650.6978559     
  -49981811.5362059     
  -49981979.7437348     
  -49982155.2649530     
  -49982338.0409365     
  -49982528.0093353     
  -49982725.1043823     
  -49982929.2569056     
  -49983140.3943420     
  -49983358.4407527     
  -49983583.3168413     
  -49983814.9399729     
  -49984053.2241959     
  -49984298.0802652     
  -49984549.4156665     
  -49984807.1346434     
  -49985071.1382260     
  -49985341.3242603     
  -49985617.5874400     
  -49985899.8193399     
  -49986187.9084508     
  -49986481.7402155     
  -49986781.1970678     
  -49987086.1584711     
  -49987396.5009610     
  -49987712.0981875     
  -49988032.8209598     
  -49988358.5372934     
  -49988689.1124575     
  -49989024.4090257     
  -49989364.2869273     
  -49975946.7252430     
  -49975963.6702190     
  -49975989.9812807     
  -49976025.6711148     
  -49976070.7485974     
  -49976125.2187384     
  -49976189.0826300     
  -49976262.3374000     
  -49976344.9761686     
  -49976436.9880096     
  -49976538.3579147     
  -49976649.0667638     
  -49976769.0912964     
  -49976898.4040890     
  -49977036.9735349     
  -49977184.7638279     
  -49977341.7349497     
  -49977507.8426604     
  -49977683.0384918     
  -49977867.2697453     
  -49978060.4794907     
  -49978262.6065700     
  -49978473.5856028     
  -49978693.3469947     
  -49978921.8169482     
  -49979158.9174765     
  -49979404.5664195     
  -49979658.6774617     
  -49979921.1601532     
  -49980191.9199321     
  -49980470.8581493     
  -49980757.8720952     
  -49981052.8550288     
  -49981355.6962073     
  -49981666.2809195     
  -49981984.4905195     
  -49982310.2024623     
  -49982643.2903420     
  -49982983.6239306     
  -49983331.0692193     
  -49983685.4884610     
  -49984046.7402144     
  -49984414.6793903     
  -49984789.1572994     
  -49985170.0217011     
  -49985557.1168556     
  -49985950.2835763     
  -49986349.3592848     
  -49986754.1780680     
  -49987164.5707367     
  -49971615.2842166     
  -49971633.9287889     
  -49971663.6214759     
  -49971704.3812807     
  -49971756.2225611     
  -49971819.1549639     
  -49971893.1833650     
  -49971978.3078153     
  -49972074.5234910     
  -49972181.8206506     
  -49972300.1845957     
  -49972429.5956378     
  -49972570.0290693     
  -49972721.4551395     
  -49972883.8390355     
  -49973057.1408669     
  -49973241.3156549     
  -49973436.3133262     
  -49973642.0787097     
  -49973858.5515377     
  -49974085.6664508     
  -49974323.3530053     
  -49974571.5356851     
  -49974830.1339155     
  -49975099.0620809     
  -49975378.2295448     
  -49975667.5406722     
  -49975966.8948551     
  -49976276.1865401     
  -49976595.3052577     
  -49976924.1356548     
  -49977262.5575281     
  -49977610.4458602     
  -49977967.6708567     
  -49978334.0979864     
  -49978709.5880213     
  -49979093.9970798     
  -49979487.1766707     
  -49979888.9737389     
  -49980299.2307125     
  -49980717.7855514     
  -49981144.4717979     
  -49981579.1186278     
  -49982021.5509042     
  -49982471.5892318     
  -49982929.0500140     
  -49983393.7455105     
  -49983865.4838976     
  -49984344.0693299     
  -49984829.3020042     
  -49967007.3001803     
  -49967027.0397780     
  -49967059.6254056     
  -49967105.0841386     
  -49967163.4374267     
  -49967234.7010202     
  -49967318.8849044     
  -49967415.9932404     
  -49967526.0243133     
  -49967648.9704873     
  -49967784.8181665     
  -49967933.5477633     
  -49968095.1336716     
  -49968269.5442470     
  -49968456.7417920     
  -49968656.6825462     
  -49968869.3166827     
  -49969094.5883087     
  -49969332.4354702     
  -49969582.7901621     
  -49969845.5783420     
  -49970120.7199473     
  -49970408.1289168     
  -49970707.7132148     
  -49971019.3748590     
  -49971343.0099511     
  -49971678.5087097     
  -49972025.7555060     
  -49972384.6289020     
  -49972755.0016904     
  -49973136.7409363     
  -49973529.7080211     
  -49973933.7586879     
  -49974348.7430876     
  -49974774.5058278     
  -49975210.8860217     
  -49975657.7173383     
  -49976114.8280549     
  -49976582.0411085     
  -49977059.1741507     
  -49977546.0396013     
  -49978042.4447045     
  -49978548.1915856     
  -49979063.0773082     
  -49979586.8939334     
  -49980119.4285800     
  -49980660.4634853     
  -49981209.7760679     
  -49981767.1389919     
  -49982332.3202331     
  -49962077.8512640     
  -49962097.8531950     
  -49962132.6397244     
  -49962182.2479764     
  -49962246.7082766     
  -49962326.0440752     
  -49962420.2718798     
  -49962529.4011970     
  -49962653.4344831     
  -49962792.3671030     
  -49962946.1872979     
  -49963114.8761603     
  -49963298.4076168     
  -49963496.7484183     
  -49963709.8581363     
  -49963937.6891665     
  -49964180.1867374     
  -49964437.2889254     
  -49964708.9266751     
  -49964995.0238236     
  -49965295.4971307     
  -49965610.2563120     
  -49965939.2040766     
  -49966282.2361680     
  -49966639.2414078     
  -49967010.1017428     
  -49967394.6922938     
  -49967792.8814074     
  -49968204.5307091     
  -49968629.4951580     
  -49969067.6231029     
  -49969518.7563402     
  -49969982.7301716     
  -49970459.3734632     
  -49970948.5087051     
  -49971449.9520713     
  -49971963.5134798     
  -49972488.9966529     
  -49973026.1991783     
  -49973574.9125685     
  -49974134.9223227     
  -49974706.0079860     
  -49975287.9432112     
  -49975880.4958189     
  -49976483.4278583     
  -49977096.4956688     
  -49977719.4499411     
  -49978352.0357794     
  -49978993.9927641     
  -49979645.0550158     
  -49956778.5117342     
  -49956797.6616796     
  -49956833.7052371     
  -49956886.6916711     
  -49956956.6620250     
  -49957043.6490483     
  -49957147.6771354     
  -49957268.7622759     
  -49957406.9120166     
  -49957562.1254337     
  -49957734.3931155     
  -49957923.6971550     
  -49958130.0111508     
  -49958353.3002176     
  -49958593.5210038     
  -49958850.6217178     
  -49959124.5421599     
  -49959415.2137615     
  -49959722.5596298     
  -49960046.4945983     
  -49960386.9252812     
  -49960743.7501327     
  -49961116.8595101     
  -49961506.1357399     
  -49961911.4531866     
  -49962332.6783240     
  -49962769.6698086     
  -49963222.2785535     
  -49963690.3478047     
  -49964173.7132167     
  -49964672.2029297     
  -49965185.6376457     
  -49965713.8307048     
  -49966256.5881607     
  -49966813.7088560     
  -49967384.9844954     
  -49967970.1997184     
  -49968569.1321708     
  -49969181.5525740     
  -49969807.2247934     
  -49970445.9059048     
  -49971097.3462597     
  -49971761.2895481     
  -49972437.4728610     
  -49973125.6267503     
  -49973825.4752880     
  -49974536.7361241     
  -49975259.1205442     
  -49975992.3335248     
  -49976736.0737894     
  -49951056.5983932     
  -49951073.4431002     
  -49951109.4972405     
  -49951164.8242455     
  -49951239.4775818     
  -49951333.5006929     
  -49951446.9269567     
  -49951579.7796575     
  -49951732.0719718     
  -49951903.8069678     
  -49952094.9776171     
  -49952305.5668178     
  -49952535.5474292     
  -49952784.8823164     
  -49953053.5244038     
  -49953341.4167383     
  -49953648.4925589     
  -49953974.6753749     
  -49954319.8790492     
  -49954684.0078872     
  -49955066.9567315     
  -49955468.6110593     
  -49955888.8470841     
  -49956327.5318596     
  -49956784.5233857     
  -49957259.6707161     
  -49957752.8140657     
  -49958263.7849193     
  -49958792.4061394     
  -49959338.4920727     
  -49959901.8486556     
  -49960482.2735181     
  -49961079.5560840     
  -49961693.4776710     
  -49962323.8115848     
  -49962970.3232122     
  -49963632.7701094     
  -49964310.9020873     
  -49965004.4612923     
  -49965713.1822834     
  -49966436.7921050     
  -49967175.0103560     
  -49967927.5492539     
  -49968694.1136960     
  -49969474.4013157     
  -49970268.1025354     
  -49971074.9006162     
  -49971894.4717036     
  -49972726.4848703     
  -49973570.6021571     
  -49944854.2451741     
  -49944866.9357626     
  -49944901.4032762     
  -49944957.7269838     
  -49945035.9740357     
  -49945136.1994377     
  -49945258.4460461     
  -49945402.7445795     
  -49945569.1136485     
  -49945757.5598018     
  -49945968.0775866     
  -49946200.6496239     
  -49946455.2466958     
  -49946731.8278452     
  -49947030.3404864     
  -49947350.7205247     
  -49947692.8924845     
  -49948056.7696462     
  -49948442.2541873     
  -49948849.2373310     
  -49949277.5994976     
  -49949727.2104603     
  -49950197.9295025     
  -49950689.6055775     
  -49951202.0774675     
  -49951735.1739434     
  -49952288.7139229     
  -49952862.5066266     
  -49953456.3517315     
  -49954070.0395210     
  -49954703.3510307     
  -49955356.0581898     
  -49956027.9239571     
  -49956718.7024509     
  -49957428.1390729     
  -49958155.9706257     
  -49958901.9254230     
  -49959665.7233924     
  -49960447.0761710     
  -49961245.6871935     
  -49962061.2517715     
  -49962893.4571662     
  -49963741.9826524     
  -49964606.4995756     
  -49965486.6713999     
  -49966382.1537504     
  -49967292.5944470     
  -49968217.6335319     
  -49969156.9032905     
  -49970110.0282664     
  -49938107.2544047     
  -49938113.4974958     
  -49938144.3924117     
  -49938200.0351260     
  -49938280.5068234     
  -49938385.8739338     
  -49938516.1881901     
  -49938671.4867077     
  -49938851.7920858     
  -49939057.1125277     
  -49939287.4419792     
  -49939542.7602831     
  -49939823.0333491     
  -49940128.2133367     
  -49940458.2388503     
  -49940813.0351446     
  -49941192.5143388     
  -49941596.5756385     
  -49942025.1055635     
  -49942477.9781803     
  -49942955.0553382     
  -49943456.1869064     
  -49943981.2110129     
  -49944529.9542819     
  -49945102.2320701     
  -49945697.8486986     
  -49946316.5976829     
  -49946958.2619556     
  -49947622.6140841     
  -49948309.4164809     
  -49949018.4216057     
  -49949749.3721591     
  -49950502.0012659     
  -49951276.0326493     
  -49952071.1807930     
  -49952887.1510929     
  -49953723.6399961     
  -49954580.3351281     
  -49955456.9154072     
  -49956353.0511458     
  -49957268.4041393     
  -49958202.6277409     
  -49959155.3669245     
  -49960126.2583331     
  -49961114.9303157     
  -49962121.0029503     
  -49963144.0880551     
  -49964183.7891884     
  -49965239.7016349     
  -49966311.4123837     
  -49930743.6610262     
  -49930740.6888301     
  -49930765.6202507     
  -49930818.5673703     
  -49930899.6241715     
  -49931008.8666676     
  -49931146.3530615     
  -49931312.1239313     
  -49931506.2024416     
  -49931728.5945773     
  -49931979.2893989     
  -49932258.2593158     
  -49932565.4603771     
  -49932900.8325773     
  -49933264.3001740     
  -49933655.7720173     
  -49934075.1418874     
  -49934522.2888390     
  -49934997.0775514     
  -49935499.3586807     
  -49936028.9692142     
  -49936585.7328233     
  -49937169.4602156     
  -49937779.9494814     
  -49938416.9864366     
  -49939080.3449571     
  -49939769.7873054     
  -49940485.0644475     
  -49941225.9163584     
  -49941992.0723154     
  -49942783.2511775     
  -49943599.1616504     
  -49944439.5025359     
  -49945303.9629649     
  -49946192.2226125     
  -49947103.9518958     
  -49948038.8121523     
  -49948996.4557992     
  -49949976.5264735     
  -49950978.6591515     
  -49952002.4802480     
  -49953047.6076957     
  -49954113.6510032     
  -49955200.2112934     
  -49956306.8813213     
  -49957433.2454714     
  -49958578.8797363     
  -49959743.3516756     
  -49960926.2203562     
  -49962127.0362746     
  -49922681.9322403     
  -49922666.5081378     
  -49922682.7029789     
  -49922730.6419508     
  -49922810.4280457     
  -49922922.1423385     
  -49923065.8442991     
  -49923241.5721371     
  -49923449.3431761     
  -49923689.1542543     
  -49923960.9821489     
  -49924264.7840218     
  -49924600.4978836     
  -49924968.0430734     
  -49925367.3207516     
  -49925798.2144030     
  -49926260.5903477     
  -49926754.2982575     
  -49927279.1716747     
  -49927835.0285318     
  -49928421.6716684     
  -49929038.8893449     
  -49929686.4557484     
  -49930364.1314913     
  -49931071.6640980     
  -49931808.7884792     
  -49932575.2273926     
  -49933370.6918857     
  -49934194.8817213     
  -49935047.4857837     
  -49935928.1824625     
  -49936836.6400153     
  -49937772.5169054     
  -49938735.4621146     
  -49939725.1154309     
  -49940741.1077071     
  -49941783.0610939     
  -49942850.5892422     
  -49943943.2974778     
  -49945060.7829452     
  -49946202.6347222     
  -49947368.4339036     
  -49948557.7536548     
  -49949770.1592349     
  -49951005.2079900     
  -49952262.4493155     
  -49953541.4245902     
  -49954841.6670805     
  -49956162.7018167     
  -49957504.0454416     
  -49913828.7100087     
  -49913797.1934277     
  -49913801.5824071     
  -49913842.0085083     
  -49913918.5760555     
  -49914031.3626326     
  -49914180.4196197     
  -49914365.7727679     
  -49914587.4228077     
  -49914845.3460867     
  -49915139.4952346     
  -49915469.7998504     
  -49915836.1672089     
  -49916238.4829837     
  -49916676.6119812     
  -49917150.3988839     
  -49917659.6690004     
  -49918204.2290151     
  -49918783.8677402     
  -49919398.3568604     
  -49920047.4516731     
  -49920730.8918173     
  -49921448.4019897     
  -49922199.6926462     
  -49922984.4606836     
  -49923802.3901026     
  -49924653.1526461     
  -49925536.4084130     
  -49926451.8064439     
  -49927398.9852778     
  -49928377.5734775     
  -49929387.1901207     
  -49930427.4452572     
  -49931497.9403294     
  -49932598.2685550     
  -49933728.0152704     
  -49934886.7582343     
  -49936074.0678908     
  -49937289.5075892     
  -49938532.6337626     
  -49939802.9960631     
  -49941100.1374535     
  -49942423.5942554     
  -49943772.8961542     
  -49945147.5661601     
  -49946547.1205265     
  -49947971.0686251     
  -49949418.9127792     
  -49950890.1480556     
  -49952384.2620163     
  -49904075.9883872     
  -49904024.4923601     
  -49904013.8931153     
  -49904044.3163242     
  -49904115.8542612     
  -49904228.5666140     
  -49904382.4813385     
  -49904577.5955582     
  -49904813.8764998     
  -49905091.2624622     
  -49905409.6638125     
  -49905768.9640071     
  -49906169.0206296     
  -49906609.6664446     
  -49907090.7104609     
  -49907611.9389994     
  -49908173.1167639     
  -49908773.9879077     
  -49909414.2770942     
  -49910093.6905466     
  -49910811.9170830     
  -49911568.6291334     
  -49912363.4837347     
  -49913196.1235010     
  -49914066.1775653     
  -49914973.2624898     
  -49915916.9831414     
  -49916896.9335303     
  -49917912.6976070     
  -49918963.8500196     
  -49920049.9568235     
  -49921170.5761448     
  -49922325.2587942     
  -49923513.5488302     
  -49924734.9840688     
  -49925989.0965385     
  -49927275.4128807     
  -49928593.4546906     
  -49929942.7388024     
  -49931322.7775138     
  -49932733.0787511     
  -49934173.1461744     
  -49935642.4792218     
  -49937140.5730930     
  -49938666.9186727     
  -49940221.0023922     
  -49941802.3060327     
  -49943410.3064684     
  -49945044.4753508     
  -49946704.2787367     
  -49893297.6032371     
  -49893222.2904474     
  -49893193.7339437     
  -49893212.0332904     
  -49893277.2472055     
  -49893389.3948064     
  -49893548.4569092     
  -49893754.3773731     
  -49894007.0644858     
  -49894306.3923824     
  -49894652.2024920     
  -49895044.3050069     
  -49895482.4803677     
  -49895966.4807596     
  -49896496.0316130     
  -49897070.8331048     
  -49897690.5616535     
  -49898354.8714039     
  -49899063.3956960     
  -49899815.7485142     
  -49900611.5259103     
  -49901450.3073976     
  -49902331.6573109     
  -49903255.1261283     
  -49904220.2517510     
  -49905226.5607368     
  -49906273.5694841     
  -49907360.7853636     
  -49908487.7077913     
  -49909653.8292447     
  -49910858.6362152     
  -49912101.6100943     
  -49913382.2279941     
  -49914699.9634958     
  -49916054.2873270     
  -49917444.6679642     
  -49918870.5721590     
  -49920331.4653879     
  -49921826.8122212     
  -49923356.0766133     
  -49924918.7221112     
  -49926514.2119815     
  -49928142.0092546     
  -49929801.5766866     
  -49931492.3766389     
  -49933213.8708744     
  -49934965.5202723     
  -49936746.7844607     
  -49938557.1213692     
  -49940395.9867020     
  -49881344.9006864     
  -49881242.4796086     
  -49881193.7415284     
  -49881198.7285486     
  -49881257.4330299     
  -49881369.7994347     
  -49881535.7262267     
  -49881755.0678193     
  -49882027.6365627     
  -49882353.2047660     
  -49882731.5067415     
  -49883162.2408690     
  -49883645.0716704     
  -49884179.6318873     
  -49884765.5245567     
  -49885402.3250757     
  -49886089.5832517     
  -49886826.8253293     
  -49887613.5559884     
  -49888449.2603102     
  -49889333.4057016     
  -49890265.4437745     
  -49891244.8121764     
  -49892270.9363628     
  -49893343.2313129     
  -49894461.1031768     
  -49895623.9508556     
  -49896831.1675088     
  -49898082.1419818     
  -49899376.2601548     
  -49900712.9062058     
  -49902091.4637855     
  -49903511.3171018     
  -49904971.8519102     
  -49906472.4564075     
  -49908012.5220262     
  -49909591.4441280     
  -49911208.6225946     
  -49912863.4623130     
  -49914555.3735537     
  -49916283.7722427     
  -49918048.0801235     
  -49919847.7248107     
  -49921682.1397322     
  -49923550.7639624     
  -49925453.0419446     
  -49927388.4231027     
  -49929356.3613444     
  -49931356.3144545     
  -49933387.7433824     
  -49868041.4462381     
  -49867909.9486834     
  -49867840.3667336     
  -49867832.6384193     
  -49867886.6415789     
  -49868002.1965028     
  -49868179.0686344     
  -49868416.9713162     
  -49868715.5685736     
  -49869074.4779252     
  -49869493.2732111     
  -49869971.4874309     
  -49870508.6155815     
  -49871104.1174882     
  -49871757.4206184     
  -49872467.9228726     
  -49873234.9953432     
  -49874057.9850349     
  -49874936.2175383     
  -49875868.9996517     
  -49876855.6219421     
  -49877895.3612415     
  -49878987.4830703     
  -49880131.2439829     
  -49881325.8938304     
  -49882570.6779338     
  -49883864.8391631     
  -49885207.6199178     
  -49886598.2640042     
  -49888036.0184037     
  -49889520.1349299     
  -49891049.8717692     
  -49892624.4949023     
  -49894243.2794015     
  -49895905.5106028     
  -49897610.4851482     
  -49899357.5118957     
  -49901145.9126961     
  -49902975.0230319     
  -49904844.1925185     
  -49906752.7852642     
  -49908700.1800904     
  -49910685.7706069     
  -49912708.9651451     
  -49914769.1865457     
  -49916865.8718035     
  -49918998.4715654     
  -49921166.4494860     
  -49923369.2814380     
  -49925606.4545813     
  -49853176.6436420     
  -49853016.5891009     
  -49852928.2705216     
  -49852911.4547724     
  -49852965.8365025     
  -49853091.0418393     
  -49853286.6321367     
  -49853552.1077617     
  -49853886.9119070     
  -49854290.4344203     
  -49854762.0156376     
  -49855300.9502107     
  -49855906.4909189     
  -49856577.8524542     
  -49857314.2151718     
  -49858114.7287950     
  -49858978.5160678     
  -49859904.6763442     
  -49860892.2891082     
  -49861940.4174154     
  -49863048.1112483     
  -49864214.4107802     
  -49865438.3495373     
  -49866718.9574558     
  -49868055.2638250     
  -49869446.3001120     
  -49870891.1026614     
  -49872388.7152641     
  -49873938.1915916     
  -49875538.5974880     
  -49877189.0131179     
  -49878888.5349640     
  -49880636.2776702     
  -49882431.3757264     
  -49884272.9849922     
  -49886160.2840546     
  -49888092.4754170     
  -49890068.7865165     
  -49892088.4705678     
  -49894150.8072285     
  -49896255.1030875     
  -49898400.6919703     
  -49900586.9350634     
  -49902813.2208539     
  -49905078.9648836     
  -49907383.6093181     
  -49909726.6223288     
  -49912107.4972890     
  -49914525.7517825     
  -49916980.9264274     
  -49836498.1587013     
  -49836314.2395853     
  -49836213.7907571     
  -49836196.3138505     
  -49836261.2248024     
  -49836407.8589106     
  -49836635.4759278     
  -49836943.2651763     
  -49837330.3506715     
  -49837795.7962402     
  -49838338.6106211     
  -49838957.7525353     
  -49839652.1357150     
  -49840420.6338797     
  -49841262.0856489     
  -49842175.2993800     
  -49843159.0579235     
  -49844212.1232834     
  -49845333.2411766     
  -49846521.1454799     
  -49847774.5625583     
  -49849092.2154653     
  -49850472.8280086     
  -49851915.1286732     
  -49853417.8543951     
  -49854979.7541792     
  -49856599.5925553     
  -49858276.1528647     
  -49860008.2403742     
  -49861794.6852092     
  -49863634.3451025     
  -49865526.1079530     
  -49867468.8941905     
  -49869461.6589400     
  -49871503.3939839     
  -49873593.1295162     
  -49875729.9356853     
  -49877912.9239220     
  -49880141.2480500     
  -49882414.1051738     
  -49884730.7363437     
  -49887090.4269934     
  -49889492.5071487     
  -49891936.3514045     
  -49894421.3786699     
  -49896947.0516774     
  -49899512.8762575     
  -49902118.4003757     
  -49904763.2129328     
  -49907446.9423274     
  -49817703.0978501     
  -49817506.5530010     
  -49817407.4947141     
  -49817405.0304133     
  -49817498.1672562     
  -49817685.8189161     
  -49817966.8123716     
  -49818339.8946895     
  -49818803.7397826     
  -49819356.9551300     
  -49819998.0884442     
  -49820725.6342723     
  -49821538.0405177     
  -49822433.7148703     
  -49823411.0311345     
  -49824468.3354415     
  -49825603.9523378     
  -49826816.1907386     
  -49828103.3497360     
  -49829463.7242543     
  -49830895.6105429     
  -49832397.3114981     
  -49833967.1418068     
  -49835603.4329043     
  -49837304.5377389     
  -49839068.8353360     
  -49840894.7351565     
  -49842780.6812420     
  -49844725.1561409     
  -49846726.6846107     
  -49848783.8370893     
  -49850895.2329316     
  -49853059.5434055     
  -49855275.4944419     
  -49857541.8691352     
  -49859857.5099890     
  -49862221.3209018     
  -49864632.2688912     
  -49867089.3855484     
  -49869591.7682241     
  -49872138.5809372     
  -49874729.0550067     
  -49877362.4894016     
  -49880038.2508055     
  -49882755.7733948     
  -49885514.5583258     
  -49888314.1729297     
  -49891154.2496130     
  -49894034.4844617     
  -49896954.6355477     
  -49796427.9878486     
  -49796239.8688067     
  -49796165.9356362     
  -49796204.7282599     
  -49796354.6713781     
  -49796614.0833939     
  -49796981.1853006     
  -49797454.1095128     
  -49798030.9086236     
  -49798709.5640735     
  -49799487.9947136     
  -49800364.0652507     
  -49801335.5945596     
  -49802400.3638504     
  -49803556.1246789     
  -49804800.6067888     
  -49806131.5257741     
  -49807546.5905542     
  -49809043.5106499     
  -49810620.0032522     
  -49812273.8000764     
  -49814002.6539924     
  -49815804.3454246     
  -49817676.6885137     
  -49819617.5370341     
  -49821624.7900603     
  -49823696.3973755     
  -49825830.3646180     
  -49828024.7581578     
  -49830277.7096984     
  -49832587.4206000     
  -49834952.1659160     
  -49837370.2981398     
  -49839840.2506554     
  -49842360.5408891     
  -49844929.7731532     
  -49847546.6411816     
  -49850209.9303486     
  -49852918.5195691     
  -49855671.3828728     
  -49858467.5906497     
  -49861306.3105621     
  -49864186.8081172     
  -49867108.4468976     
  -49870070.6884437     
  -49873073.0917870     
  -49876115.3126244     
  -49879197.1021377     
  -49882318.3054466     
  -49885478.8596979     
  -49772237.7585284     
  -49772093.3324034     
  -49772082.8909289     
  -49772204.1780589     
  -49772454.8083872     
  -49772832.2786810     
  -49773333.9793034     
  -49773957.2055064     
  -49774699.1685765     
  -49775557.0068172     
  -49776527.7963520     
  -49777608.5617348     
  -49778796.2863556     
  -49780087.9226266     
  -49781480.4019406     
  -49782970.6443906     
  -49784555.5682403     
  -49786232.0991376     
  -49787997.1790635     
  -49789847.7750076     
  -49791780.8873651     
  -49793793.5580472     
  -49795882.8782996     
  -49798045.9962242     
  -49800280.1239965     
  -49802582.5447760     
  -49804950.6193038     
  -49807381.7921799     
  -49809873.5978212     
  -49812423.6660893     
  -49815029.7275876     
  -49817689.6186217     
  -49820401.2858169     
  -49823162.7903910     
  -49825972.3120753     
  -49828828.1526771     
  -49831728.7392839     
  -49834672.6270975     
  -49837658.5018969     
  -49840685.1821229     
  -49843751.6205778     
  -49846856.9057359     
  -49850000.2626564     
  -49853181.0534951     
  -49856398.7776064     
  -49859653.0712312     
  -49862943.7067610     
  -49866270.5915775     
  -49869633.7664546     
  -49873033.4035220     
  -49744614.1670774     
  -49744568.7383869     
  -49744680.5934616     
  -49744946.3845853     
  -49745362.6232618     
  -49745925.6948430     
  -49746631.8729401     
  -49747477.3335972     
  -49748458.1692128     
  -49749570.4021915     
  -49750809.9983166     
  -49752172.8798264     
  -49753654.9381895     
  -49755252.0465622     
  -49756960.0719279     
  -49758774.8869036     
  -49760692.3812124     
  -49762708.4728134     
  -49764819.1186852     
  -49767020.3252579     
  -49769308.1584912     
  -49771678.7535939     
  -49774128.3243819     
  -49776653.1722729     
  -49779249.6949150     
  -49781914.3944446     
  -49784643.8853754     
  -49787434.9021118     
  -49790284.3060864     
  -49793189.0925190     
  -49796146.3967925     
  -49799153.5004438     
  -49802207.8367657     
  -49805306.9960158     
  -49808448.7302281     
  -49811630.9576219     
  -49814851.7666046     
  -49818109.4193593     
  -49821402.3550138     
  -49824729.1923848     
  -49828088.7322859     
  -49831479.9593973     
  -49834902.0436829     
  -49838354.3413521     
  -49841836.3953547     
  -49845347.9353957     
  -49848888.8774681     
  -49852459.3228876     
  -49856059.5568198     
  -49859690.0462924     
  -49712944.4463812     
  -49713080.9128524     
  -49713401.7985742     
  -49713902.2885227     
  -49714577.4210232     
  -49715422.1059453     
  -49716431.1425277     
  -49717599.2368166     
  -49718921.0187030     
  -49720391.0585508     
  -49722003.8834042     
  -49723753.9927680     
  -49725635.8739547     
  -49727644.0169935     
  -49729772.9290989     
  -49732017.1486965     
  -49734371.2590042     
  -49736829.9011702     
  -49739387.7869672     
  -49742039.7110442     
  -49744780.5627380     
  -49747605.3374462     
  -49750509.1475638     
  -49753487.2329858     
  -49756534.9711790     
  -49759647.8868230     
  -49762821.6610259     
  -49766052.1401129     
  -49769335.3439909     
  -49772667.4740905     
  -49776044.9208835     
  -49779464.2709771     
  -49782922.3137834     
  -49786416.0477607     
  -49789942.6862261     
  -49793499.6627331     
  -49797084.6360116     
  -49800695.4944625     
  -49804330.3602017     
  -49807987.5926458     
  -49811665.7916283     
  -49815363.8000406     
  -49819080.7059822     
  -49822815.8444121     
  -49826568.7982882     
  -49830339.3991774     
  -49834127.7273271     
  -49837934.1111794     
  -49841759.1263135     
  -49845603.5937993     
  -49676511.4417296     
  -49676949.9180430     
  -49677603.9826894     
  -49678466.8854046     
  -49679531.7329971     
  -49680791.5115046     
  -49682239.1077693     
  -49683867.3304218     
  -49685668.9302697     
  -49687636.6200851     
  -49689763.0937925     
  -49692041.0450549     
  -49694463.1852627     
  -49697022.2609290     
  -49699711.0704959     
  -49702522.4805607     
  -49705449.4415271     
  -49708485.0026934     
  -49711622.3267837     
  -49714854.7039359     
  -49718175.5651531     
  -49721578.4952319     
  -49725057.2451771     
  -49728605.7441127     
  -49732218.1107005     
  -49735888.6640761     
  -49739611.9343101     
  -49743382.6724048     
  -49747195.8598332     
  -49751046.7176260     
  -49754930.7150148     
  -49758843.5776323     
  -49762781.2952759     
  -49766740.1292337     
  -49770716.6191737     
  -49774707.5895960     
  -49778710.1558416     
  -49782721.7296567     
  -49786740.0243018     
  -49790763.0592006     
  -49794789.1641151     
  -49798816.9828373     
  -49802845.4763814     
  -49806873.9256620     
  -49810901.9336404     
  -49814929.4269190     
  -49818956.6567631     
  -49822984.1995294     
  -49827012.9564743     
  -49831044.1529190     
  -49634487.1509432     
  -49635396.9886414     
  -49636557.5696848     
  -49637959.6378890     
  -49639593.8130244     
  -49641450.6171589     
  -49643520.5001405     
  -49645793.8642200     
  -49648261.0878235     
  -49650912.5484800     
  -49653738.6449180     
  -49656729.8183431     
  -49659876.5729127     
  -49663169.4954248     
  -49666599.2742403     
  -49670156.7174575     
  -49673832.7703618     
  -49677618.5321709     
  -49681505.2720997     
  -49685484.4447668     
  -49689547.7049669     
  -49693686.9218318     
  -49697894.1924038     
  -49702161.8546435     
  -49706482.4998949     
  -49710848.9848291     
  -49715254.4428861     
  -49719692.2952349     
  -49724156.2612690     
  -49728640.3686533     
  -49733138.9629366     
  -49737646.7167425     
  -49742158.6385486     
  -49746670.0810606     
  -49751176.7491895     
  -49755674.7076307     
  -49760160.3880490     
  -49764630.5958639     
  -49769082.5166300     
  -49773513.7220054     
  -49777922.1752945     
  -49782306.2365506     
  -49786664.6672221     
  -49790996.6343193     
  -49795301.7140798     
  -49799579.8951039     
  -49803831.5809319     
  -49808057.5920305     
  -49812259.1671520     
  -49816437.9640312     
  -49585932.4283356     
  -49587546.9150358     
  -49589450.8474197     
  -49591631.7836626     
  -49594077.1993017     
  -49596774.5177042     
  -49599711.1393170     
  -49602874.4697184     
  -49606251.9464962     
  -49609831.0649788     
  -49613599.4028477     
  -49617544.6436642     
  -49621654.5993427     
  -49625917.2316076     
  -49630320.6724693     
  -49634853.2437590     
  -49639503.4757609     
  -49644260.1249837     
  -49649112.1911110     
  -49654048.9331727     
  -49659059.8849799     
  -49664134.8698642     
  -49669264.0147622     
  -49674437.7636875     
  -49679646.8906286     
  -49684882.5119113     
  -49690136.0980639     
  -49695399.4852190     
  -49700664.8860865     
  -49705924.9005278     
  -49711172.5257596     
  -49716401.1662128     
  -49721604.6430682     
  -49726777.2034880     
  -49731913.5295572     
  -49737008.7469459     
  -49742058.4332995     
  -49747058.6263585     
  -49752005.8318049     
  -49756897.0308297     
  -49761729.6874076     
  -49766501.7552635     
  -49771211.6845083     
  -49775858.4279173     
  -49780441.4468199     
  -49784960.7165634     
  -49789416.7315102     
  -49793810.5095231     
  -49798143.5958858     
  -49802418.0666083     
  -49529806.6608667     
  -49532440.5804788     
  -49535405.1728692     
  -49538684.0225687     
  -49542260.7047689     
  -49546118.8194295     
  -49550242.0237322     
  -49554614.0629217     
  -49559218.7995828     
  -49564040.2414030     
  -49569062.5674720     
  -49574270.1531732     
  -49579647.5937238     
  -49585179.7264213     
  -49590851.6516579     
  -49596648.7527633     
  -49602556.7147396     
  -49608561.5419545     
  -49614649.5748546     
  -49620807.5057697     
  -49627022.3938710     
  -49633281.6793532     
  -49639573.1969047     
  -49645885.1885347     
  -49652206.3158213     
  -49658525.6716447     
  -49664832.7914694     
  -49671117.6642337     
  -49677370.7429056     
  -49683582.9547585     
  -49689745.7114183     
  -49695850.9187280     
  -49701890.9864707     
  -49707858.8379906     
  -49713747.9197407     
  -49719552.2107826     
  -49725266.2322600     
  -49730885.0568547     
  -49736404.3182324     
  -49741820.2204764     
  -49747129.5474974     
  -49752329.6724050     
  -49757418.5668130     
  -49762394.8100479     
  -49767257.5982178     
  -49772006.7530937     
  -49776642.7307477     
  -49781166.6298809     
  -49785580.1997759     
  -49789885.8477864     
  -49464992.4439230     
  -49469062.5066910     
  -49473505.1436448     
  -49478299.0803112     
  -49483423.1494101     
  -49488856.3275889     
  -49494577.7699829     
  -49500566.8426920     
  -49506803.1532303     
  -49513266.5790332     
  -49519937.2940940     
  -49526795.7938093     
  -49533822.9181147     
  -49540999.8729943     
  -49548308.2504496     
  -49555730.0470167     
  -49563247.6809231     
  -49570844.0079765     
  -49578502.3362840     
  -49586206.4398979     
  -49593940.5714892     
  -49601689.4741514     
  -49609438.3924356     
  -49617173.0827229     
  -49624879.8230356     
  -49632545.4223916     
  -49640157.2298022     
  -49647703.1430145     
  -49655171.6170927     
  -49662551.6729324     
  -49669832.9057944     
  -49677005.4939423     
  -49684060.2074557     
  -49690988.4172926     
  -49697782.1046571     
  -49704433.8707254     
  -49710936.9467733     
  -49717285.2047342     
  -49723473.1682115     
  -49729496.0239520     
  -49735349.6337824     
  -49741030.5469887     
  -49746536.0131200     
  -49751863.9951709     
  -49757013.1830960     
  -49761983.0075906     
  -49766773.6540613     
  -49771386.0767043     
  -49775822.0125773     
  -49780083.9955758     
  -49390341.5686144     
  -49396389.4736438     
  -49402849.5585266     
  -49409694.7301887     
  -49416898.1754725     
  -49424433.3989208     
  -49432274.2578842     
  -49440394.9949765     
  -49448770.2680060     
  -49457375.1774632     
  -49466185.2916511     
  -49475176.6695612     
  -49484325.8815884     
  -49493610.0281938     
  -49503006.7566167     
  -49512494.2757548     
  -49522051.3693310     
  -49531657.4074718     
  -49541292.3568327     
  -49550936.7894071     
  -49560571.8901658     
  -49570179.4636766     
  -49579741.9398598     
  -49589242.3790391     
  -49598664.4764495     
  -49607992.5663676     
  -49617211.6260259     
  -49626307.2794770     
  -49635265.8015659     
  -49644074.1221676     
  -49652719.8308402     
  -49661191.1820360     
  -49669477.1010051     
  -49677567.1905143     
  -49685451.7384928     
  -49693121.7267032     
  -49700568.8405213     
  -49707785.4798907     
  -49714764.7715072     
  -49721500.5822612     
  -49727987.5339595     
  -49734221.0193160     
  -49740197.2191976     
  -49745913.1210724     
  -49751366.5386076     
  -49756556.1323320     
  -49761481.4312649     
  -49766142.8553752     
  -49770541.7387809     
  -49774680.3534477     
  -49304749.7506637     
  -49313467.3621664     
  -49322630.0490845     
  -49332203.8990338     
  -49342155.5220195     
  -49352452.0876893     
  -49363061.3591729     
  -49373951.7238399     
  -49385092.2208902     
  -49396452.5659077     
  -49408003.1724545     
  -49419715.1707804     
  -49431560.4237416     
  -49443511.5400319     
  -49455541.8848400     
  -49467625.5880652     
  -49479737.5502330     
  -49491853.4462729     
  -49503949.7273360     
  -49516003.6208434     
  -49527993.1289784     
  -49539897.0258420     
  -49551694.8535125     
  -49563366.9172553     
  -49574894.2801422     
  -49586258.7573443     
  -49597442.9103693     
  -49608430.0415122     
  -49619204.1887905     
  -49629750.1216288     
  -49640053.3375511     
  -49650100.0601283     
  -49659877.2384162     
  -49669372.5481019     
  -49678574.3945609     
  -49687471.9180027     
  -49696055.0008630     
  -49704314.2775743     
  -49712241.1468197     
  -49719827.7863486     
  -49727067.1704025     
  -49733953.0897694     
  -49740480.1744574     
  -49746643.9189450     
  -49752440.7099371     
  -49757867.8565155     
  -49762923.6225560     
  -49767607.2613038     
  -49771919.0517315     
  -49775860.3367945     
  -49207268.0610001     
  -49219523.9975710     
  -49232245.0091281     
  -49245389.3513895     
  -49258916.1281595     
  -49272785.3268785     
  -49286957.8509445     
  -49301395.5478236     
  -49316061.2334602     
  -49330918.7128070     
  -49345932.7964436     
  -49361069.3133104     
  -49376295.1195927     
  -49391578.1038108     
  -49406887.1881997     
  -49422192.3265080     
  -49437464.4983763     
  -49452675.7004993     
  -49467798.9348080     
  -49482808.1939523     
  -49497678.4443947     
  -49512385.6074634     
  -49526906.5387409     
  -49541219.0061907     
  -49555301.6674477     
  -49569134.0467109     
  -49582696.5116961     
  -49595970.2511022     
  -49608937.2530548     
  -49621580.2849815     
  -49633882.8753622     
  -49645829.2977862     
  -49657404.5577231     
  -49668594.3823908     
  -49679385.2140780     
  -49689764.2072352     
  -49699719.2296219     
  -49709238.8677501     
  -49718312.4368232     
  -49726929.9953245     
  -49735082.3643648     
  -49742761.1518466     
  -49749958.7814559     
  -49756668.5264407     
  -49762884.5481005     
  -49768601.9388720     
  -49773816.7698036     
  -49778526.1420499     
  -49782728.2427427     
  -49786422.4037007     
  -49097258.2933677     
  -49114125.4964269     
  -49131456.6276485     
  -49149201.0735674     
  -49167309.4892306     
  -49185733.8372049     
  -49204427.4199901     
  -49223344.9090322     
  -49242442.3681656     
  -49261677.2716225     
  -49281008.5164685     
  -49300396.4292073     
  -49319802.7663971     
  -49339190.7092330     
  -49358524.8521258     
  -49377771.1853855     
  -49396897.0722046     
  -49415871.2202150     
  -49434663.6479839     
  -49453245.6468843     
  -49471589.7388563     
  -49489669.6306364     
  -49507460.1650905     
  -49524937.2703374     
  -49542077.9073877     
  -49558860.0170518     
  -49575262.4668964     
  -49591264.9990342     
  -49606848.1795348     
  -49621993.3502380     
  -49636682.5837299     
  -49650898.6422187     
  -49664624.9410118     
  -49677845.5172518     
  -49690545.0045252     
  -49702708.6138950     
  -49714322.1218501     
  -49725371.8656016     
  -49735844.7460778     
  -49745728.2388992     
  -49755010.4135406     
  -49763679.9608069     
  -49771726.2286806     
  -49779139.2665155     
  -49785909.8774408     
  -49792029.6787537     
  -49797491.1701884     
  -49802287.8101058     
  -49806414.0971637     
  -49809865.6614952     
  -48974596.6449671     
  -48997381.9908944     
  -49020598.3916211     
  -49044185.1514143     
  -49068083.3822204     
  -49092236.0520544     
  -49116588.0355395     
  -49141086.1525962     
  -49165679.2004230     
  -49190317.9768803     
  -49214955.2940546     
  -49239545.9815634     
  -49264046.8793170     
  -49288416.8195228     
  -49312616.5978875     
  -49336608.9341616     
  -49360358.4223706     
  -49383831.4712461     
  -49406996.2355254     
  -49429822.5389317     
  -49452281.7897699     
  -49474346.8901827     
  -49495992.1402031     
  -49517193.1378138     
  -49537926.6762762     
  -49558170.6400332     
  -49577903.9005118     
  -49597106.2131541     
  -49615758.1170050     
  -49633840.8381563     
  -49651336.1983177     
  -49668226.5297378     
  -49684494.5976423     
  -49700123.5312850     
  -49715096.7646345     
  -49729397.9876269     
  -49743011.1088195     
  -49755920.2301801     
  -49768109.6346291     
  -49779563.7868419     
  -49790267.3476853     
  -49800205.2025284     
  -49809362.5035294     
  -49817724.7259080     
  -49825277.7381687     
  -49832007.8860852     
  -49837902.0895048     
  -49842947.9507647     
  -49847133.8807118     
  -49850449.2255889     
  -48839924.2889146     
  -48870205.6290841     
  -48900840.0181764     
  -48931754.8328773     
  -48962879.9523816     
  -48994147.8796767     
  -49025493.8211344     
  -49056855.7687857     
  -49088174.5634316     
  -49119393.9386757     
  -49150460.5463740     
  -49181323.9623973     
  -49211936.6717760     
  -49242254.0329878     
  -49272234.2216767     
  -49301838.1544551     
  -49331029.3937349     
  -49359774.0348001     
  -49388040.5765848     
  -49415799.7778314     
  -49443024.5004751     
  -49469689.5422311     
  -49495771.4604546     
  -49521248.3894037     
  -49546099.8530695     
  -49570306.5757490     
  -49593850.2925250     
  -49616713.5617913     
  -49638879.5819234     
  -49660332.0141350     
  -49681054.8135060     
  -49701032.0700852     
  -49720247.8618945     
  -49738686.1215618     
  -49756330.5182158     
  -49773164.3561467     
  -49789170.4916224     
  -49804331.2690900     
  -49818628.4778459     
  -49832043.3300823     
  -49844556.4610574     
  -49856147.9519586     
  -49866797.3758064     
  -49876483.8663854     
  -49885186.2097821     
  -49892882.9582790     
  -49899552.5679696     
  -49905173.5601062     
  -49909724.6848506     
  -49913185.1431410     
  -48694934.9139264     
  -48734620.7790629     
  -48774518.5818549     
  -48814540.1469550     
  -48854600.9206332     
  -48894620.1259214     
  -48934521.0025922     
  -48974230.9601915     
  -49013681.7012897     
  -49052809.3113401     
  -49091554.3071772     
  -49129861.6427891     
  -49167680.6735826     
  -49204965.0806944     
  -49241672.7570816     
  -49277765.6575741     
  -49313209.6155989     
  -49347974.1297102     
  -49382032.1233479     
  -49415359.6814015     
  -49447935.7672251     
  -49479741.9237584     
  -49510761.9623607     
  -49540981.6428947     
  -49570388.3484883     
  -49598970.7582902     
  -49626718.5214027     
  -49653621.9350542     
  -49679671.6299469     
  -49704858.2656059     
  -49729172.2384517     
  -49752603.4052248     
  -49775140.8243090     
  -49796772.5174160     
  -49817485.2540230     
  -49837264.3608644     
  -49856093.5587004     
  -49873954.8284631     
  -49890828.3087436     
  -49906692.2263678     
  -49921522.8615460     
  -49935294.5488056     
  -49947979.7147735     
  -49959548.9539609     
  -49969971.1434855     
  -49979213.5953420     
  -49987242.2398393     
  -49994021.8418130     
  -49999516.3083513     
  -50003688.8884673     
  -48542681.3976294     
  -48594127.4039941     
  -48645552.1685190     
  -48696844.6761962     
  -48747899.3699443     
  -48798616.8760574     
  -48848904.2390023     
  -48898675.2449487     
  -48947850.6523223     
  -48996358.3147982     
  -49044133.2163262     
  -49091117.4268885     
  -49137259.9819498     
  -49182516.6894917     
  -49226849.8707207     
  -49270228.0418211     
  -49312625.5444711     
  -49354022.1327067     
  -49394402.5234233     
  -49433755.9174456     
  -49472075.4976905     
  -49509357.9105079     
  -49545602.7357890     
  -49580811.9509408     
  -49614989.3933307     
  -49648140.2253518     
  -49680270.4058543     
  -49711386.1713535     
  -49741493.5301566     
  -49770597.7723654     
  -49798702.9985961     
  -49825811.6702126     
  -49851924.1838913     
  -49877038.4733971     
  -49901149.6415560     
  -49924249.6255260     
  -49946326.8986039     
  -49967366.2119423     
  -49987348.3797057     
  -50006250.1113407     
  -50024043.8946713     
  -50040697.9332215     
  -50056176.1402209     
  -50070438.1904342     
  -50083439.6313999     
  -50095132.0618908     
  -50105463.3929516     
  -50114378.1673970     
  -50121817.7692201     
  -50127721.1937691     
  -48387886.8335427     
  -48454129.0608133     
  -48519966.1176626     
  -48585249.6585441     
  -48649842.1170220     
  -48713616.4844353     
  -48776457.3756424     
  -48838261.3792415     
  -48898937.1858735     
  -48958405.5996942     
  -49016599.4052295     
  -49073463.0815141     
  -49128952.3804215     
  -49183033.7926431     
  -49235683.9225526     
  -49286888.7898457     
  -49336643.0735707     
  -49384949.3126856     
  -49431817.0759939     
  -49477262.1129032     
  -49521305.4948798     
  -49563972.7558609     
  -49605293.0383102     
  -49645298.2501819     
  -49684022.2368095     
  -49721499.9707068     
  -49757766.7614279     
  -49792857.4870209     
  -49826805.8481777     
  -49859643.6459607     
  -49891400.0839512     
  -49922101.0958114     
  -49951768.6995895     
  -49980420.3805936     
  -50008068.5053034     
  -50034719.7695397     
  -50060374.6848913     
  -50085027.1081625     
  -50108663.8192734     
  -50131264.1537384     
  -50152799.6968114     
  -50173234.0480461     
  -50192522.6673114     
  -50210612.8139163     
  -50227443.5832267     
  -50242946.0247382     
  -50257043.3206700     
  -50269651.1454188     
  -50280678.6324150     
  -50290027.7118310     
  -48237278.0116963     
  -48322455.6855062     
  -48406554.6855723     
  -48489370.2505003     
  -48570716.0827787     
  -48650428.8762393     
  -48728367.1837716     
  -48804411.3484609     
  -48878463.3619561     
  -48950446.2802967     
  -49020303.3052040     
  -49087996.6626839     
  -49153506.3487954     
  -49216828.7778638     
  -49277975.3599533     
  -49336971.0345118     
  -49393852.7866013     
  -49448668.1691385     
  -49501473.8500073     
  -49552334.1980231     
  -49601319.9172525     
  -49648506.7354326     
  -49693974.1491567     
  -49737804.2260291     
  -49780080.4620238     
  -49820886.6907447     
  -49860306.0401250     
  -49898419.9313103     
  -49935307.1140115     
  -49971042.7325068     
  -50005697.4166690     
  -50039336.3929226     
  -50072018.6108558     
  -50103795.8823739     
  -50134712.0317713     
  -50164802.0570056     
  -50194091.3047607     
  -50222594.6645624     
  -50250315.7899410     
  -50277246.3568782     
  -50303365.3706948     
  -50328638.5319038     
  -50353017.6717200     
  -50376440.2767105     
  -50398829.1515685     
  -50420092.3107888     
  -50440123.1328257     
  -50458800.3572424     
  -50475987.0233592     
  -50491535.5778857     
  -48100047.7440174     
  -48209990.0624019     
  -48317578.7713849     
  -48422528.7691898     
  -48524607.2771605     
  -48623619.7605838     
  -48719413.0226729     
  -48811874.0795632     
  -48900927.2769922     
  -48986531.2906071     
  -49068676.2228637     
  -49147380.6889274     
  -49222688.8522389     
  -49294667.4528599     
  -49363402.8972536     
  -49428998.4678744     
  -49491571.6905065     
  -49551251.8793426     
  -49608177.8673864     
  -49662495.9219364     
  -49714357.8398570     
  -49763919.2137245     
  -49811337.8569908     
  -49856772.3737584     
  -49900380.8565916     
  -49942319.6940425     
  -49982742.4683444     
  -50021798.9230421     
  -50059633.9802188     
  -50096386.7874175     
  -50132189.7752708     
  -50167167.7082114     
  -50201436.7123054     
  -50235103.2661734     
  -50268263.1430542     
  -50301000.2943643     
  -50333385.6678420     
  -50365475.9570847     
  -50397312.2849101     
  -50428918.8314945     
  -50460301.4296726     
  -50491446.1606164     
  -50522317.9828032     
  -50552859.3976218     
  -50582989.0896335     
  -50612600.4592351     
  -50641560.3165437     
  -50669709.2236051     
  -50696864.9758227     
  -50722806.8941835     
  -47988665.2138996     
  -48131228.1455725     
  -48268898.2335198     
  -48401379.3435196     
  -48528424.2366761     
  -48649876.1721890     
  -48765650.6616159     
  -48875724.1864265     
  -48980127.7933041     
  -49078941.2189960     
  -49172286.5538446     
  -49260321.7901367     
  -49343234.6945363     
  -49421237.2306025     
  -49494560.5859222     
  -49563450.7787390     
  -49628164.7980417     
  -49688967.2339587     
  -49746127.3623929     
  -49799916.6517951     
  -49850606.6598915     
  -49898467.2854481     
  -49943765.3364608     
  -49986763.3727061     
  -50027718.7780506     
  -50066883.0164819     
  -50104501.0254703     
  -50140810.7008188     
  -50176042.4284520     
  -50210418.6204907     
  -50244153.2153826     
  -50277451.1047839     
  -50310507.4532774     
  -50343506.8807737     
  -50376622.4813049     
  -50410014.6553603     
  -50443829.7350856     
  -50478198.3815966     
  -50513233.7308866     
  -50549029.2609586     
  -50585656.3545045     
  -50623161.5537507     
  -50661563.5703975     
  -50700850.2372922     
  -50740975.7030975     
  -50781857.9650775     
  -50823375.5846732     
  -50865359.8939818     
  -50907583.0820020     
  -50949808.7516846     
  -47920290.2976412     
  -48103945.0464266     
  -48277938.8773123     
  -48442036.0385456     
  -48596257.3087163     
  -48740698.0512489     
  -48875534.5040630     
  -49001024.2903293     
  -49117493.2408746     
  -49225319.2652714     
  -49324918.3352323     
  -49416733.3534587     
  -49501225.2829359     
  -49578865.8475541     
  -49650131.3833569     
  -49715497.6490461     
  -49775435.5243957     
  -49830407.5628181     
  -49880865.3592151     
  -49927247.6746487     
  -49969979.2402661     
  -50009470.1501567     
  -50046115.7472284     
  -50080296.9064102     
  -50112380.6235349     
  -50142720.8242718     
  -50171659.3140184     
  -50199526.7957251     
  -50226643.8876476     
  -50253322.0767810     
  -50279864.5463312     
  -50306566.8174298     
  -50333717.1470576     
  -50361596.6267973     
  -50390478.9316582     
  -50420629.6759015     
  -50452305.3438676     
  -50485751.7768981     
  -50521202.2073982     
  -50558874.8265972     
  -50598969.8342527     
  -50641665.8229383     
  -50687115.1916704     
  -50735438.1459049     
  -50786715.0467360     
  -50840978.1951870     
  -50898207.5517539     
  -50958338.0693340     
  -51021264.9578047     
  -51086661.3902916     
  -47918430.5140141     
  -48146395.6210810     
  -48356250.9079983     
  -48548847.6983844     
  -48724726.0624213     
  -48884614.4737644     
  -49029377.3469755     
  -49159936.9835451     
  -49277233.8125976     
  -49382209.6006683     
  -49475798.5082250     
  -49558919.5207443     
  -49632468.8553068     
  -49697312.7845851     
  -49754281.5902832     
  -49804165.1024382     
  -49847709.9625265     
  -49885618.5166249     
  -49918549.1175365     
  -49947117.5673048     
  -49971899.4338735     
  -49993433.0040823     
  -50012222.6738946     
  -50028742.6164231     
  -50043440.6039807     
  -50056741.8898513     
  -50069053.0780102     
  -50080765.9246893     
  -50092261.0248061     
  -50103911.3392789     
  -50116085.5165081     
  -50129150.9532359     
  -50143476.5271726     
  -50159434.9172785     
  -50177404.4094694     
  -50197770.0696079     
  -50220924.1585724     
  -50247265.6764935     
  -50277198.9697443     
  -50311131.4316733     
  -50349470.4845220     
  -50392620.2156760     
  -50440978.1208685     
  -50494932.0104524     
  -50554855.4943794     
  -50621096.5215651     
  -50693947.7719080     
  -50773592.2066885     
  -50860094.5545395     
  -50953918.3953827     
  -48013473.7202498     
  -48268704.6278864     
  -48495257.1818400     
  -48693971.9616324     
  -48867267.1527356     
  -49017467.2016132     
  -49146656.9648031     
  -49256772.4005710     
  -49349661.6080622     
  -49427098.3743751     
  -49490771.4437267     
  -49542267.9604654     
  -49583060.1363076     
  -49614498.0233031     
  -49637808.2588152     
  -49654097.5292556     
  -49664359.3097666     
  -49669482.6252383     
  -49670261.8720569     
  -49667407.0232295     
  -49661553.7720135     
  -49653273.3450466     
  -49643081.8423019     
  -49631449.0485027     
  -49618806.7188634     
  -49605556.3792890     
  -49592076.7035161     
  -49578730.5413218     
  -49565871.6755311     
  -49553851.3824493     
  -49543024.8607298     
  -49533757.5766187     
  -49526431.5469432     
  -49521451.5418427     
  -49519251.1326357     
  -49520298.4310444     
  -49525101.2592891     
  -49534211.3548168     
  -49548227.0578719     
  -49567793.7901313     
  -49593601.5999843     
  -49626379.3268499     
  -49666885.9156304     
  -49715901.7389856     
  -49774227.1705601     
  -49842701.5047545     
  -49922254.9333768     
  -50013963.7621696     
  -50118859.0470656     
  -50236375.0530186     
  -48237200.4487969     
  -48463050.3234105     
  -48644600.7303847     
  -48791014.7984168     
  -48906227.3984384     
  -48993418.9438901     
  -49055878.7165078     
  -49096951.6059968     
  -49119850.4733493     
  -49127521.2922889     
  -49122579.0118525     
  -49107294.2304303     
  -49083609.4175954     
  -49053169.5993826     
  -49017358.2963766     
  -48977333.6103216     
  -48934061.9060087     
  -48888348.0157596     
  -48840861.7067887     
  -48792160.5702923     
  -48742709.6856390     
  -48692898.4850979     
  -48643055.2530324     
  -48593459.6717950     
  -48544353.7932148     
  -48495951.7795587     
  -48448448.7263626     
  -48402028.8540695     
  -48356873.3369977     
  -48313168.0269534     
  -48271111.3243345     
  -48230922.4507209     
  -48192850.3815654     
  -48157183.7017400     
  -48124261.6432021     
  -48094486.5400719     
  -48068337.8691624     
  -48046387.8937318     
  -48029318.6270002     
  -48017939.2672286     
  -48013202.2510188     
  -48016214.3762403     
  -48028236.7977592     
  -48050664.1403010     
  -48084970.0236871     
  -48132610.7842891     
  -48194915.0898078     
  -48273131.3585196     
  -48369293.5468131     
  -48490109.4102011     
  -48609527.3654727     
  -48670574.3519495     
  -48700671.9303847     
  -48691337.1966600     
  -48647273.8540580     
  -48576148.5680927     
  -48485241.9920328     
  -48380559.2119868     
  -48266776.1402379     
  -48147431.9058657     
  -48025160.9343060     
  -47901899.7084892     
  -47779053.7535855     
  -47657627.1127397     
  -47538320.9773545     
  -47421608.2998696     
  -47307790.1485467     
  -47197038.3221259     
  -47089427.6586221     
  -46984960.6149271     
  -46883586.0434989     
  -46785213.6091084     
  -46689724.9330137     
  -46596982.2919109     
  -46506835.5100615     
  -46419127.5472731     
  -46333699.1902196     
  -46250393.1912627     
  -46169058.1619363     
  -46089552.5145774     
  -46011748.7545066     
  -45935538.4581181     
  -45860838.3331075     
  -45787597.8525157     
  -45715809.0944258     
  -45645519.6183932     
  -45576849.4870121     
  -45510013.9191951     
  -45445353.5618159     
  -45383374.9898870     
  -45324804.7237262     
  -45270660.5096918     
  -45222343.0113229     
  -45181747.0709743     
  -45151378.0812428     
  -45134419.1936831     
  -45134585.1955608     
  -45155301.7467811     
  -45196948.3787317     
  -45248738.2336285     
  -49110175.7786491     
  -48853259.2415247     
  -48508866.7302416     
  -48134601.2077359     
  -47757899.2512558     
  -47391889.4890181     
  -47042638.0611585     
  -46712608.7313339     
  -46402387.5508247     
  -46111576.7425660     
  -45839273.6026812     
  -45584333.6185048     
  -45345517.2301853     
  -45121571.8499028     
  -44911276.9241374     
  -44713467.4921892     
  -44527045.0814029     
  -44350981.1165716     
  -44184315.9319172     
  -44026155.2517219     
  -43875665.2745970     
  -43732067.0510139     
  -43594630.5684037     
  -43462668.7861119     
  -43335531.7543897     
  -43212600.8837784     
  -43093283.3893615     
  -42977006.9097649     
  -42863214.2884410     
  -42751358.5021831     
  -42640897.7284885     
  -42531290.5608365     
  -42421991.4131391     
  -42312446.2091260     
  -42202088.5425622     
  -42090336.6431939     
  -41976591.7317707     
  -41860238.7678700     
  -41740651.3185771     
  -41617203.5514622     
  -41489294.6575612     
  -41356395.2841817     
  -41218133.7420197     
  -41074455.9600117     
  -40925926.4268908     
  -40774308.1968755     
  -40623716.6122504     
  -40483000.3810034     
  -40370856.0701042     
  -40327273.6177934     
  -49545390.8281039     
  -48247601.8380528     
  -47172061.9060398     
  -46260530.7417101     
  -45475307.8608404     
  -44790444.3720426     
  -44187189.4491867     
  -43651471.0827157     
  -43172413.0982743     
  -42741411.9906389     
  -42351533.6719877     
  -41997102.7317710     
  -41673412.9865955     
  -41376517.5556465     
  -41103072.8858961     
  -40850220.4494551     
  -40615495.3961574     
  -40396754.8930953     
  -40192121.0915629     
  -39999935.1169572     
  -39818719.4594430     
  -39647146.8201086     
  -39484013.9418029     
  -39328219.2906462     
  -39178743.6949957     
  -39034633.2206888     
  -38894983.6825761     
  -38758926.2743806     
  -38625613.8490668     
  -38494207.4041471     
  -38363862.3218276     
  -38233713.8810223     
  -38102861.4922849     
  -37970350.9988009     
  -37835154.2220421     
  -37696144.6857738     
  -37552068.0885869     
  -37401505.5505580     
  -37242826.8297356     
  -37074129.4100041     
  -36893157.2866791     
  -36697189.8392218     
  -36482885.2766885     
  -36246052.5841235     
  -35981306.1806407     
  -35681518.9504315     
  -35336910.3225736     
  -34933436.5198585     
  -34449769.3983751     
  -33851258.8495677     
SCALARS 2waySource double 
LOOKUP_TABLE default
  0.000000000000000E+000
  0.000000000000000E+000
  0.000000000000000E+000
  0.000000000000000E+000
  0.000000000000000E+000
  0.000000000000000E+000
  0.000000000000000E+000
  0.000000000000000E+000
  0.000000000000000E+000
  0.000000000000000E+000
  0.000000000000000E+000
  0.000000000000000E+000
  0.000000000000000E+000
  0.000000000000000E+000
  0.000000000000000E+000
  0.000000000000000E+000
  0.000000000000000E+000
  0.000000000000000E+000
  0.000000000000000E+000
  0.000000000000000E+000
  0.000000000000000E+000
  0.000000000000000E+000
  0.000000000000000E+000
  0.000000000000000E+000
  0.000000000000000E+000
  0.000000000000000E+000
  0.000000000000000E+000
  0.000000000000000E+000
  0.000000000000000E+000
  0.000000000000000E+000
  0.000000000000000E+000
  0.000000000000000E+000
  0.000000000000000E+000
  0.000000000000000E+000
  0.000000000000000E+000
  0.000000000000000E+000
  0.000000000000000E+000
  0.000000000000000E+000
  0.000000000000000E+000
  0.000000000000000E+000
  0.000000000000000E+000
  0.000000000000000E+000
  0.000000000000000E+000
  0.000000000000000E+000
  0.000000000000000E+000
  0.000000000000000E+000
  0.000000000000000E+000
  0.000000000000000E+000
  0.000000000000000E+000
  0.000000000000000E+000
  0.000000000000000E+000
  0.000000000000000E+000
  0.000000000000000E+000
  0.000000000000000E+000
  0.000000000000000E+000
  0.000000000000000E+000
  0.000000000000000E+000
  0.000000000000000E+000
  0.000000000000000E+000
  0.000000000000000E+000
  0.000000000000000E+000
  0.000000000000000E+000
  0.000000000000000E+000
  0.000000000000000E+000
  0.000000000000000E+000
  0.000000000000000E+000
  0.000000000000000E+000
  0.000000000000000E+000
  0.000000000000000E+000
  0.000000000000000E+000
  0.000000000000000E+000
  0.000000000000000E+000
  0.000000000000000E+000
  0.000000000000000E+000
  0.000000000000000E+000
  0.000000000000000E+000
  0.000000000000000E+000
  0.000000000000000E+000
  0.000000000000000E+000
  0.000000000000000E+000
  0.000000000000000E+000
  0.000000000000000E+000
  0.000000000000000E+000
  0.000000000000000E+000
  0.000000000000000E+000
  0.000000000000000E+000
  0.000000000000000E+000
  0.000000000000000E+000
  0.000000000000000E+000
  0.000000000000000E+000
  0.000000000000000E+000
  0.000000000000000E+000
  0.000000000000000E+000
  0.000000000000000E+000
  0.000000000000000E+000
  0.000000000000000E+000
  0.000000000000000E+000
  0.000000000000000E+000
  0.000000000000000E+000
  0.000000000000000E+000
  0.000000000000000E+000
  0.000000000000000E+000
  0.000000000000000E+000
  0.000000000000000E+000
  0.000000000000000E+000
  0.000000000000000E+000
  0.000000000000000E+000
  0.000000000000000E+000
  0.000000000000000E+000
  0.000000000000000E+000
  0.000000000000000E+000
  0.000000000000000E+000
  0.000000000000000E+000
  0.000000000000000E+000
  0.000000000000000E+000
  0.000000000000000E+000
  0.000000000000000E+000
  0.000000000000000E+000
  0.000000000000000E+000
  0.000000000000000E+000
  0.000000000000000E+000
  0.000000000000000E+000
  0.000000000000000E+000
  0.000000000000000E+000
  0.000000000000000E+000
  0.000000000000000E+000
  0.000000000000000E+000
  0.000000000000000E+000
  0.000000000000000E+000
  0.000000000000000E+000
  0.000000000000000E+000
  0.000000000000000E+000
  0.000000000000000E+000
  0.000000000000000E+000
  0.000000000000000E+000
  0.000000000000000E+000
  0.000000000000000E+000
  0.000000000000000E+000
  0.000000000000000E+000
  0.000000000000000E+000
  0.000000000000000E+000
  0.000000000000000E+000
  0.000000000000000E+000
  0.000000000000000E+000
  0.000000000000000E+000
  0.000000000000000E+000
  0.000000000000000E+000
  0.000000000000000E+000
  0.000000000000000E+000
  0.000000000000000E+000
  0.000000000000000E+000
  0.000000000000000E+000
  0.000000000000000E+000
  0.000000000000000E+000
  0.000000000000000E+000
  0.000000000000000E+000
  0.000000000000000E+000
  0.000000000000000E+000
  0.000000000000000E+000
  0.000000000000000E+000
  0.000000000000000E+000
  0.000000000000000E+000
  0.000000000000000E+000
  0.000000000000000E+000
  0.000000000000000E+000
  0.000000000000000E+000
  0.000000000000000E+000
  0.000000000000000E+000
  0.000000000000000E+000
  0.000000000000000E+000
  0.000000000000000E+000
  0.000000000000000E+000
  0.000000000000000E+000
  0.000000000000000E+000
  0.000000000000000E+000
  0.000000000000000E+000
  0.000000000000000E+000
  0.000000000000000E+000
  0.000000000000000E+000
  0.000000000000000E+000
  0.000000000000000E+000
  0.000000000000000E+000
  0.000000000000000E+000
  0.000000000000000E+000
  0.000000000000000E+000
  0.000000000000000E+000
  0.000000000000000E+000
  0.000000000000000E+000
  0.000000000000000E+000
  0.000000000000000E+000
  0.000000000000000E+000
  0.000000000000000E+000
  0.000000000000000E+000
  0.000000000000000E+000
  0.000000000000000E+000
  0.000000000000000E+000
  0.000000000000000E+000
  0.000000000000000E+000
  0.000000000000000E+000
  0.000000000000000E+000
  0.000000000000000E+000
  0.000000000000000E+000
  0.000000000000000E+000
  0.000000000000000E+000
  0.000000000000000E+000
  0.000000000000000E+000
  0.000000000000000E+000
  0.000000000000000E+000
  0.000000000000000E+000
  0.000000000000000E+000
  0.000000000000000E+000
  0.000000000000000E+000
  0.000000000000000E+000
  0.000000000000000E+000
  0.000000000000000E+000
  0.000000000000000E+000
  0.000000000000000E+000
  0.000000000000000E+000
  0.000000000000000E+000
  0.000000000000000E+000
  0.000000000000000E+000
  0.000000000000000E+000
  0.000000000000000E+000
  0.000000000000000E+000
  0.000000000000000E+000
  0.000000000000000E+000
  0.000000000000000E+000
  0.000000000000000E+000
  0.000000000000000E+000
  0.000000000000000E+000
  0.000000000000000E+000
  0.000000000000000E+000
  0.000000000000000E+000
  0.000000000000000E+000
  0.000000000000000E+000
  0.000000000000000E+000
  0.000000000000000E+000
  0.000000000000000E+000
  0.000000000000000E+000
  0.000000000000000E+000
  0.000000000000000E+000
  0.000000000000000E+000
  0.000000000000000E+000
  0.000000000000000E+000
  0.000000000000000E+000
  0.000000000000000E+000
  0.000000000000000E+000
  0.000000000000000E+000
  0.000000000000000E+000
  0.000000000000000E+000
  0.000000000000000E+000
  0.000000000000000E+000
  0.000000000000000E+000
  0.000000000000000E+000
  0.000000000000000E+000
  0.000000000000000E+000
  0.000000000000000E+000
  0.000000000000000E+000
  0.000000000000000E+000
  0.000000000000000E+000
  0.000000000000000E+000
  0.000000000000000E+000
  0.000000000000000E+000
  0.000000000000000E+000
  0.000000000000000E+000
  0.000000000000000E+000
  0.000000000000000E+000
  0.000000000000000E+000
  0.000000000000000E+000
  0.000000000000000E+000
  0.000000000000000E+000
  0.000000000000000E+000
  0.000000000000000E+000
  0.000000000000000E+000
  0.000000000000000E+000
  0.000000000000000E+000
  0.000000000000000E+000
  0.000000000000000E+000
  0.000000000000000E+000
  0.000000000000000E+000
  0.000000000000000E+000
  0.000000000000000E+000
  0.000000000000000E+000
  0.000000000000000E+000
  0.000000000000000E+000
  0.000000000000000E+000
  0.000000000000000E+000
  0.000000000000000E+000
  0.000000000000000E+000
  0.000000000000000E+000
  0.000000000000000E+000
  0.000000000000000E+000
  0.000000000000000E+000
  0.000000000000000E+000
  0.000000000000000E+000
  0.000000000000000E+000
  0.000000000000000E+000
  0.000000000000000E+000
  0.000000000000000E+000
  0.000000000000000E+000
  0.000000000000000E+000
  0.000000000000000E+000
  0.000000000000000E+000
  0.000000000000000E+000
  0.000000000000000E+000
  0.000000000000000E+000
  0.000000000000000E+000
  0.000000000000000E+000
  0.000000000000000E+000
  0.000000000000000E+000
  0.000000000000000E+000
  0.000000000000000E+000
  0.000000000000000E+000
  0.000000000000000E+000
  0.000000000000000E+000
  0.000000000000000E+000
  0.000000000000000E+000
  0.000000000000000E+000
  0.000000000000000E+000
  0.000000000000000E+000
  0.000000000000000E+000
  0.000000000000000E+000
  0.000000000000000E+000
  0.000000000000000E+000
  0.000000000000000E+000
  0.000000000000000E+000
  0.000000000000000E+000
  0.000000000000000E+000
  0.000000000000000E+000
  0.000000000000000E+000
  0.000000000000000E+000
  0.000000000000000E+000
  0.000000000000000E+000
  0.000000000000000E+000
  0.000000000000000E+000
  0.000000000000000E+000
  0.000000000000000E+000
  0.000000000000000E+000
  0.000000000000000E+000
  0.000000000000000E+000
  0.000000000000000E+000
  0.000000000000000E+000
  0.000000000000000E+000
  0.000000000000000E+000
  0.000000000000000E+000
  0.000000000000000E+000
  0.000000000000000E+000
  0.000000000000000E+000
  0.000000000000000E+000
  0.000000000000000E+000
  0.000000000000000E+000
  0.000000000000000E+000
  0.000000000000000E+000
  0.000000000000000E+000
  0.000000000000000E+000
  0.000000000000000E+000
  0.000000000000000E+000
  0.000000000000000E+000
  0.000000000000000E+000
  0.000000000000000E+000
  0.000000000000000E+000
  0.000000000000000E+000
  0.000000000000000E+000
  0.000000000000000E+000
  0.000000000000000E+000
  0.000000000000000E+000
  0.000000000000000E+000
  0.000000000000000E+000
  0.000000000000000E+000
  0.000000000000000E+000
  0.000000000000000E+000
  0.000000000000000E+000
  0.000000000000000E+000
  0.000000000000000E+000
  0.000000000000000E+000
  0.000000000000000E+000
  0.000000000000000E+000
  0.000000000000000E+000
  0.000000000000000E+000
  0.000000000000000E+000
  0.000000000000000E+000
  0.000000000000000E+000
  0.000000000000000E+000
  0.000000000000000E+000
  0.000000000000000E+000
  0.000000000000000E+000
  0.000000000000000E+000
  0.000000000000000E+000
  0.000000000000000E+000
  0.000000000000000E+000
  0.000000000000000E+000
  0.000000000000000E+000
  0.000000000000000E+000
  0.000000000000000E+000
  0.000000000000000E+000
  0.000000000000000E+000
  0.000000000000000E+000
  0.000000000000000E+000
  0.000000000000000E+000
  0.000000000000000E+000
  0.000000000000000E+000
  0.000000000000000E+000
  0.000000000000000E+000
  0.000000000000000E+000
  0.000000000000000E+000
  0.000000000000000E+000
  0.000000000000000E+000
  0.000000000000000E+000
  0.000000000000000E+000
  0.000000000000000E+000
  0.000000000000000E+000
  0.000000000000000E+000
  0.000000000000000E+000
  0.000000000000000E+000
  0.000000000000000E+000
  0.000000000000000E+000
  0.000000000000000E+000
  0.000000000000000E+000
  0.000000000000000E+000
  0.000000000000000E+000
  0.000000000000000E+000
  0.000000000000000E+000
  0.000000000000000E+000
  0.000000000000000E+000
  0.000000000000000E+000
  0.000000000000000E+000
  0.000000000000000E+000
  0.000000000000000E+000
  0.000000000000000E+000
  0.000000000000000E+000
  0.000000000000000E+000
  0.000000000000000E+000
  0.000000000000000E+000
  0.000000000000000E+000
  0.000000000000000E+000
  0.000000000000000E+000
  0.000000000000000E+000
  0.000000000000000E+000
  0.000000000000000E+000
  0.000000000000000E+000
  0.000000000000000E+000
  0.000000000000000E+000
  0.000000000000000E+000
  0.000000000000000E+000
  0.000000000000000E+000
  0.000000000000000E+000
  0.000000000000000E+000
  0.000000000000000E+000
  0.000000000000000E+000
  0.000000000000000E+000
  0.000000000000000E+000
  0.000000000000000E+000
  0.000000000000000E+000
  0.000000000000000E+000
  0.000000000000000E+000
  0.000000000000000E+000
  0.000000000000000E+000
  0.000000000000000E+000
  0.000000000000000E+000
  0.000000000000000E+000
  0.000000000000000E+000
  0.000000000000000E+000
  0.000000000000000E+000
  0.000000000000000E+000
  0.000000000000000E+000
  0.000000000000000E+000
  0.000000000000000E+000
  0.000000000000000E+000
  0.000000000000000E+000
  0.000000000000000E+000
  0.000000000000000E+000
  0.000000000000000E+000
  0.000000000000000E+000
  0.000000000000000E+000
  0.000000000000000E+000
  0.000000000000000E+000
  0.000000000000000E+000
  0.000000000000000E+000
  0.000000000000000E+000
  0.000000000000000E+000
  0.000000000000000E+000
  0.000000000000000E+000
  0.000000000000000E+000
  0.000000000000000E+000
  0.000000000000000E+000
  0.000000000000000E+000
  0.000000000000000E+000
  0.000000000000000E+000
  0.000000000000000E+000
  0.000000000000000E+000
  0.000000000000000E+000
  0.000000000000000E+000
  0.000000000000000E+000
  0.000000000000000E+000
  0.000000000000000E+000
  0.000000000000000E+000
  0.000000000000000E+000
  0.000000000000000E+000
  0.000000000000000E+000
  0.000000000000000E+000
  0.000000000000000E+000
  0.000000000000000E+000
  0.000000000000000E+000
  0.000000000000000E+000
  0.000000000000000E+000
  0.000000000000000E+000
  0.000000000000000E+000
  0.000000000000000E+000
  0.000000000000000E+000
  0.000000000000000E+000
  0.000000000000000E+000
  0.000000000000000E+000
  0.000000000000000E+000
  0.000000000000000E+000
  0.000000000000000E+000
  0.000000000000000E+000
  0.000000000000000E+000
  0.000000000000000E+000
  0.000000000000000E+000
  0.000000000000000E+000
  0.000000000000000E+000
  0.000000000000000E+000
  0.000000000000000E+000
  0.000000000000000E+000
  0.000000000000000E+000
  0.000000000000000E+000
  0.000000000000000E+000
  0.000000000000000E+000
  0.000000000000000E+000
  0.000000000000000E+000
  0.000000000000000E+000
  0.000000000000000E+000
  0.000000000000000E+000
  0.000000000000000E+000
  0.000000000000000E+000
  0.000000000000000E+000
  0.000000000000000E+000
  0.000000000000000E+000
  0.000000000000000E+000
  0.000000000000000E+000
  0.000000000000000E+000
  0.000000000000000E+000
  0.000000000000000E+000
  0.000000000000000E+000
  0.000000000000000E+000
  0.000000000000000E+000
  0.000000000000000E+000
  0.000000000000000E+000
  0.000000000000000E+000
  0.000000000000000E+000
  0.000000000000000E+000
  0.000000000000000E+000
  0.000000000000000E+000
  0.000000000000000E+000
  0.000000000000000E+000
  0.000000000000000E+000
  0.000000000000000E+000
  0.000000000000000E+000
  0.000000000000000E+000
  0.000000000000000E+000
  0.000000000000000E+000
  0.000000000000000E+000
  0.000000000000000E+000
  0.000000000000000E+000
  0.000000000000000E+000
  0.000000000000000E+000
  0.000000000000000E+000
  0.000000000000000E+000
  0.000000000000000E+000
  0.000000000000000E+000
  0.000000000000000E+000
  0.000000000000000E+000
  0.000000000000000E+000
  0.000000000000000E+000
  0.000000000000000E+000
  0.000000000000000E+000
  0.000000000000000E+000
  0.000000000000000E+000
  0.000000000000000E+000
  0.000000000000000E+000
  0.000000000000000E+000
  0.000000000000000E+000
  0.000000000000000E+000
  0.000000000000000E+000
  0.000000000000000E+000
  0.000000000000000E+000
  0.000000000000000E+000
  0.000000000000000E+000
  0.000000000000000E+000
  0.000000000000000E+000
  0.000000000000000E+000
  0.000000000000000E+000
  0.000000000000000E+000
  0.000000000000000E+000
  0.000000000000000E+000
  0.000000000000000E+000
  0.000000000000000E+000
  0.000000000000000E+000
  0.000000000000000E+000
  0.000000000000000E+000
  0.000000000000000E+000
  0.000000000000000E+000
  0.000000000000000E+000
  0.000000000000000E+000
  0.000000000000000E+000
  0.000000000000000E+000
  0.000000000000000E+000
  0.000000000000000E+000
  0.000000000000000E+000
  0.000000000000000E+000
  0.000000000000000E+000
  0.000000000000000E+000
  0.000000000000000E+000
  0.000000000000000E+000
  0.000000000000000E+000
  0.000000000000000E+000
  0.000000000000000E+000
  0.000000000000000E+000
  0.000000000000000E+000
  0.000000000000000E+000
  0.000000000000000E+000
  0.000000000000000E+000
  0.000000000000000E+000
  0.000000000000000E+000
  0.000000000000000E+000
  0.000000000000000E+000
  0.000000000000000E+000
  0.000000000000000E+000
  0.000000000000000E+000
  0.000000000000000E+000
  0.000000000000000E+000
  0.000000000000000E+000
  0.000000000000000E+000
  0.000000000000000E+000
  0.000000000000000E+000
  0.000000000000000E+000
  0.000000000000000E+000
  0.000000000000000E+000
  0.000000000000000E+000
  0.000000000000000E+000
  0.000000000000000E+000
  0.000000000000000E+000
  0.000000000000000E+000
  0.000000000000000E+000
  0.000000000000000E+000
  0.000000000000000E+000
  0.000000000000000E+000
  0.000000000000000E+000
  0.000000000000000E+000
  0.000000000000000E+000
  0.000000000000000E+000
  0.000000000000000E+000
  0.000000000000000E+000
  0.000000000000000E+000
  0.000000000000000E+000
  0.000000000000000E+000
  0.000000000000000E+000
  0.000000000000000E+000
  0.000000000000000E+000
  0.000000000000000E+000
  0.000000000000000E+000
  0.000000000000000E+000
  0.000000000000000E+000
  0.000000000000000E+000
  0.000000000000000E+000
  0.000000000000000E+000
  0.000000000000000E+000
  0.000000000000000E+000
  0.000000000000000E+000
  0.000000000000000E+000
  0.000000000000000E+000
  0.000000000000000E+000
  0.000000000000000E+000
  0.000000000000000E+000
  0.000000000000000E+000
  0.000000000000000E+000
  0.000000000000000E+000
  0.000000000000000E+000
  0.000000000000000E+000
  0.000000000000000E+000
  0.000000000000000E+000
  0.000000000000000E+000
  0.000000000000000E+000
  0.000000000000000E+000
  0.000000000000000E+000
  0.000000000000000E+000
  0.000000000000000E+000
  0.000000000000000E+000
  0.000000000000000E+000
  0.000000000000000E+000
  0.000000000000000E+000
  0.000000000000000E+000
  0.000000000000000E+000
  0.000000000000000E+000
  0.000000000000000E+000
  0.000000000000000E+000
  0.000000000000000E+000
  0.000000000000000E+000
  0.000000000000000E+000
  0.000000000000000E+000
  0.000000000000000E+000
  0.000000000000000E+000
  0.000000000000000E+000
  0.000000000000000E+000
  0.000000000000000E+000
  0.000000000000000E+000
  0.000000000000000E+000
  0.000000000000000E+000
  0.000000000000000E+000
  0.000000000000000E+000
  0.000000000000000E+000
  0.000000000000000E+000
  0.000000000000000E+000
  0.000000000000000E+000
  0.000000000000000E+000
  0.000000000000000E+000
  0.000000000000000E+000
  0.000000000000000E+000
  0.000000000000000E+000
  0.000000000000000E+000
  0.000000000000000E+000
  0.000000000000000E+000
  0.000000000000000E+000
  0.000000000000000E+000
  0.000000000000000E+000
  0.000000000000000E+000
  0.000000000000000E+000
  0.000000000000000E+000
  0.000000000000000E+000
  0.000000000000000E+000
  0.000000000000000E+000
  0.000000000000000E+000
  0.000000000000000E+000
  0.000000000000000E+000
  0.000000000000000E+000
  0.000000000000000E+000
  0.000000000000000E+000
  0.000000000000000E+000
  0.000000000000000E+000
  0.000000000000000E+000
  0.000000000000000E+000
  0.000000000000000E+000
  0.000000000000000E+000
  0.000000000000000E+000
  0.000000000000000E+000
  0.000000000000000E+000
  0.000000000000000E+000
  0.000000000000000E+000
  0.000000000000000E+000
  0.000000000000000E+000
  0.000000000000000E+000
  0.000000000000000E+000
  0.000000000000000E+000
  0.000000000000000E+000
  0.000000000000000E+000
  0.000000000000000E+000
  0.000000000000000E+000
  0.000000000000000E+000
  0.000000000000000E+000
  0.000000000000000E+000
  0.000000000000000E+000
  0.000000000000000E+000
  0.000000000000000E+000
  0.000000000000000E+000
  0.000000000000000E+000
  0.000000000000000E+000
  0.000000000000000E+000
  0.000000000000000E+000
  0.000000000000000E+000
  0.000000000000000E+000
  0.000000000000000E+000
  0.000000000000000E+000
  0.000000000000000E+000
  0.000000000000000E+000
  0.000000000000000E+000
  0.000000000000000E+000
  0.000000000000000E+000
  0.000000000000000E+000
  0.000000000000000E+000
  0.000000000000000E+000
  0.000000000000000E+000
  0.000000000000000E+000
  0.000000000000000E+000
  0.000000000000000E+000
  0.000000000000000E+000
  0.000000000000000E+000
  0.000000000000000E+000
  0.000000000000000E+000
  0.000000000000000E+000
  0.000000000000000E+000
  0.000000000000000E+000
  0.000000000000000E+000
  0.000000000000000E+000
  0.000000000000000E+000
  0.000000000000000E+000
  0.000000000000000E+000
  0.000000000000000E+000
  0.000000000000000E+000
  0.000000000000000E+000
  0.000000000000000E+000
  0.000000000000000E+000
  0.000000000000000E+000
  0.000000000000000E+000
  0.000000000000000E+000
  0.000000000000000E+000
  0.000000000000000E+000
  0.000000000000000E+000
  0.000000000000000E+000
  0.000000000000000E+000
  0.000000000000000E+000
  0.000000000000000E+000
  0.000000000000000E+000
  0.000000000000000E+000
  0.000000000000000E+000
  0.000000000000000E+000
  0.000000000000000E+000
  0.000000000000000E+000
  0.000000000000000E+000
  0.000000000000000E+000
  0.000000000000000E+000
  0.000000000000000E+000
  0.000000000000000E+000
  0.000000000000000E+000
  0.000000000000000E+000
  0.000000000000000E+000
  0.000000000000000E+000
  0.000000000000000E+000
  0.000000000000000E+000
  0.000000000000000E+000
  0.000000000000000E+000
  0.000000000000000E+000
  0.000000000000000E+000
  0.000000000000000E+000
  0.000000000000000E+000
  0.000000000000000E+000
  0.000000000000000E+000
  0.000000000000000E+000
  0.000000000000000E+000
  0.000000000000000E+000
  0.000000000000000E+000
  0.000000000000000E+000
  0.000000000000000E+000
  0.000000000000000E+000
  0.000000000000000E+000
  0.000000000000000E+000
  0.000000000000000E+000
  0.000000000000000E+000
  0.000000000000000E+000
  0.000000000000000E+000
  0.000000000000000E+000
  0.000000000000000E+000
  0.000000000000000E+000
  0.000000000000000E+000
  0.000000000000000E+000
  0.000000000000000E+000
  0.000000000000000E+000
  0.000000000000000E+000
  0.000000000000000E+000
  0.000000000000000E+000
  0.000000000000000E+000
  0.000000000000000E+000
  0.000000000000000E+000
  0.000000000000000E+000
  0.000000000000000E+000
  0.000000000000000E+000
  0.000000000000000E+000
  0.000000000000000E+000
  0.000000000000000E+000
  0.000000000000000E+000
  0.000000000000000E+000
  0.000000000000000E+000
  0.000000000000000E+000
  0.000000000000000E+000
  0.000000000000000E+000
  0.000000000000000E+000
  0.000000000000000E+000
  0.000000000000000E+000
  0.000000000000000E+000
  0.000000000000000E+000
  0.000000000000000E+000
  0.000000000000000E+000
  0.000000000000000E+000
  0.000000000000000E+000
  0.000000000000000E+000
  0.000000000000000E+000
  0.000000000000000E+000
  0.000000000000000E+000
  0.000000000000000E+000
  0.000000000000000E+000
  0.000000000000000E+000
  0.000000000000000E+000
  0.000000000000000E+000
  0.000000000000000E+000
  0.000000000000000E+000
  0.000000000000000E+000
  0.000000000000000E+000
  0.000000000000000E+000
  0.000000000000000E+000
  0.000000000000000E+000
  0.000000000000000E+000
  0.000000000000000E+000
  0.000000000000000E+000
  0.000000000000000E+000
  0.000000000000000E+000
  0.000000000000000E+000
  0.000000000000000E+000
  0.000000000000000E+000
  0.000000000000000E+000
  0.000000000000000E+000
  0.000000000000000E+000
  0.000000000000000E+000
  0.000000000000000E+000
  0.000000000000000E+000
  0.000000000000000E+000
  0.000000000000000E+000
  0.000000000000000E+000
  0.000000000000000E+000
  0.000000000000000E+000
  0.000000000000000E+000
  0.000000000000000E+000
  0.000000000000000E+000
  0.000000000000000E+000
  0.000000000000000E+000
  0.000000000000000E+000
  0.000000000000000E+000
  0.000000000000000E+000
  0.000000000000000E+000
  0.000000000000000E+000
  0.000000000000000E+000
  0.000000000000000E+000
  0.000000000000000E+000
  0.000000000000000E+000
  0.000000000000000E+000
  0.000000000000000E+000
  0.000000000000000E+000
  0.000000000000000E+000
  0.000000000000000E+000
  0.000000000000000E+000
  0.000000000000000E+000
  0.000000000000000E+000
  0.000000000000000E+000
  0.000000000000000E+000
  0.000000000000000E+000
  0.000000000000000E+000
  0.000000000000000E+000
  0.000000000000000E+000
  0.000000000000000E+000
  0.000000000000000E+000
  0.000000000000000E+000
  0.000000000000000E+000
  0.000000000000000E+000
  0.000000000000000E+000
  0.000000000000000E+000
  0.000000000000000E+000
  0.000000000000000E+000
  0.000000000000000E+000
  0.000000000000000E+000
  0.000000000000000E+000
  0.000000000000000E+000
  0.000000000000000E+000
  0.000000000000000E+000
  0.000000000000000E+000
  0.000000000000000E+000
  0.000000000000000E+000
  0.000000000000000E+000
  0.000000000000000E+000
  0.000000000000000E+000
  0.000000000000000E+000
  0.000000000000000E+000
  0.000000000000000E+000
  0.000000000000000E+000
  0.000000000000000E+000
  0.000000000000000E+000
  0.000000000000000E+000
  0.000000000000000E+000
  0.000000000000000E+000
  0.000000000000000E+000
  0.000000000000000E+000
  0.000000000000000E+000
  0.000000000000000E+000
  0.000000000000000E+000
  0.000000000000000E+000
  0.000000000000000E+000
  0.000000000000000E+000
  0.000000000000000E+000
  0.000000000000000E+000
  0.000000000000000E+000
  0.000000000000000E+000
  0.000000000000000E+000
  0.000000000000000E+000
  0.000000000000000E+000
  0.000000000000000E+000
  0.000000000000000E+000
  0.000000000000000E+000
  0.000000000000000E+000
  0.000000000000000E+000
  0.000000000000000E+000
  0.000000000000000E+000
  0.000000000000000E+000
  0.000000000000000E+000
  0.000000000000000E+000
  0.000000000000000E+000
  0.000000000000000E+000
  0.000000000000000E+000
  0.000000000000000E+000
  0.000000000000000E+000
  0.000000000000000E+000
  0.000000000000000E+000
  0.000000000000000E+000
  0.000000000000000E+000
  0.000000000000000E+000
  0.000000000000000E+000
  0.000000000000000E+000
  0.000000000000000E+000
  0.000000000000000E+000
  0.000000000000000E+000
  0.000000000000000E+000
  0.000000000000000E+000
  0.000000000000000E+000
  0.000000000000000E+000
  0.000000000000000E+000
  0.000000000000000E+000
  0.000000000000000E+000
  0.000000000000000E+000
  0.000000000000000E+000
  0.000000000000000E+000
  0.000000000000000E+000
  0.000000000000000E+000
  0.000000000000000E+000
  0.000000000000000E+000
  0.000000000000000E+000
  0.000000000000000E+000
  0.000000000000000E+000
  0.000000000000000E+000
  0.000000000000000E+000
  0.000000000000000E+000
  0.000000000000000E+000
  0.000000000000000E+000
  0.000000000000000E+000
  0.000000000000000E+000
  0.000000000000000E+000
  0.000000000000000E+000
  0.000000000000000E+000
  0.000000000000000E+000
  0.000000000000000E+000
  0.000000000000000E+000
  0.000000000000000E+000
  0.000000000000000E+000
  0.000000000000000E+000
  0.000000000000000E+000
  0.000000000000000E+000
  0.000000000000000E+000
  0.000000000000000E+000
  0.000000000000000E+000
  0.000000000000000E+000
  0.000000000000000E+000
  0.000000000000000E+000
  0.000000000000000E+000
  0.000000000000000E+000
  0.000000000000000E+000
  0.000000000000000E+000
  0.000000000000000E+000
  0.000000000000000E+000
  0.000000000000000E+000
  0.000000000000000E+000
  0.000000000000000E+000
  0.000000000000000E+000
  0.000000000000000E+000
  0.000000000000000E+000
  0.000000000000000E+000
  0.000000000000000E+000
  0.000000000000000E+000
  0.000000000000000E+000
  0.000000000000000E+000
  0.000000000000000E+000
  0.000000000000000E+000
  0.000000000000000E+000
  0.000000000000000E+000
  0.000000000000000E+000
  0.000000000000000E+000
  0.000000000000000E+000
  0.000000000000000E+000
  0.000000000000000E+000
  0.000000000000000E+000
  0.000000000000000E+000
  0.000000000000000E+000
  0.000000000000000E+000
  0.000000000000000E+000
  0.000000000000000E+000
  0.000000000000000E+000
  0.000000000000000E+000
  0.000000000000000E+000
  0.000000000000000E+000
  0.000000000000000E+000
  0.000000000000000E+000
  0.000000000000000E+000
  0.000000000000000E+000
  0.000000000000000E+000
  0.000000000000000E+000
  0.000000000000000E+000
  0.000000000000000E+000
  0.000000000000000E+000
  0.000000000000000E+000
  0.000000000000000E+000
  0.000000000000000E+000
  0.000000000000000E+000
  0.000000000000000E+000
  0.000000000000000E+000
  0.000000000000000E+000
  0.000000000000000E+000
  0.000000000000000E+000
  0.000000000000000E+000
  0.000000000000000E+000
  0.000000000000000E+000
  0.000000000000000E+000
  0.000000000000000E+000
  0.000000000000000E+000
  0.000000000000000E+000
  0.000000000000000E+000
  0.000000000000000E+000
  0.000000000000000E+000
  0.000000000000000E+000
  0.000000000000000E+000
  0.000000000000000E+000
  0.000000000000000E+000
  0.000000000000000E+000
  0.000000000000000E+000
  0.000000000000000E+000
  0.000000000000000E+000
  0.000000000000000E+000
  0.000000000000000E+000
  0.000000000000000E+000
  0.000000000000000E+000
  0.000000000000000E+000
  0.000000000000000E+000
  0.000000000000000E+000
  0.000000000000000E+000
  0.000000000000000E+000
  0.000000000000000E+000
  0.000000000000000E+000
  0.000000000000000E+000
  0.000000000000000E+000
  0.000000000000000E+000
  0.000000000000000E+000
  0.000000000000000E+000
  0.000000000000000E+000
  0.000000000000000E+000
  0.000000000000000E+000
  0.000000000000000E+000
  0.000000000000000E+000
  0.000000000000000E+000
  0.000000000000000E+000
  0.000000000000000E+000
  0.000000000000000E+000
  0.000000000000000E+000
  0.000000000000000E+000
  0.000000000000000E+000
  0.000000000000000E+000
  0.000000000000000E+000
  0.000000000000000E+000
  0.000000000000000E+000
  0.000000000000000E+000
  0.000000000000000E+000
  0.000000000000000E+000
  0.000000000000000E+000
  0.000000000000000E+000
  0.000000000000000E+000
  0.000000000000000E+000
  0.000000000000000E+000
  0.000000000000000E+000
  0.000000000000000E+000
  0.000000000000000E+000
  0.000000000000000E+000
  0.000000000000000E+000
  0.000000000000000E+000
  0.000000000000000E+000
  0.000000000000000E+000
  0.000000000000000E+000
  0.000000000000000E+000
  0.000000000000000E+000
  0.000000000000000E+000
  0.000000000000000E+000
  0.000000000000000E+000
  0.000000000000000E+000
  0.000000000000000E+000
  0.000000000000000E+000
  0.000000000000000E+000
  0.000000000000000E+000
  0.000000000000000E+000
  0.000000000000000E+000
  0.000000000000000E+000
  0.000000000000000E+000
  0.000000000000000E+000
  0.000000000000000E+000
  0.000000000000000E+000
  0.000000000000000E+000
  0.000000000000000E+000
  0.000000000000000E+000
  0.000000000000000E+000
  0.000000000000000E+000
  0.000000000000000E+000
  0.000000000000000E+000
  0.000000000000000E+000
  0.000000000000000E+000
  0.000000000000000E+000
  0.000000000000000E+000
  0.000000000000000E+000
  0.000000000000000E+000
  0.000000000000000E+000
  0.000000000000000E+000
  0.000000000000000E+000
  0.000000000000000E+000
  0.000000000000000E+000
  0.000000000000000E+000
  0.000000000000000E+000
  0.000000000000000E+000
  0.000000000000000E+000
  0.000000000000000E+000
  0.000000000000000E+000
  0.000000000000000E+000
  0.000000000000000E+000
  0.000000000000000E+000
  0.000000000000000E+000
  0.000000000000000E+000
  0.000000000000000E+000
  0.000000000000000E+000
  0.000000000000000E+000
  0.000000000000000E+000
  0.000000000000000E+000
  0.000000000000000E+000
  0.000000000000000E+000
  0.000000000000000E+000
  0.000000000000000E+000
  0.000000000000000E+000
  0.000000000000000E+000
  0.000000000000000E+000
  0.000000000000000E+000
  0.000000000000000E+000
  0.000000000000000E+000
  0.000000000000000E+000
  0.000000000000000E+000
  0.000000000000000E+000
  0.000000000000000E+000
  0.000000000000000E+000
  0.000000000000000E+000
  0.000000000000000E+000
  0.000000000000000E+000
  0.000000000000000E+000
  0.000000000000000E+000
  0.000000000000000E+000
  0.000000000000000E+000
  0.000000000000000E+000
  0.000000000000000E+000
  0.000000000000000E+000
  0.000000000000000E+000
  0.000000000000000E+000
  0.000000000000000E+000
  0.000000000000000E+000
  0.000000000000000E+000
  0.000000000000000E+000
  0.000000000000000E+000
  0.000000000000000E+000
  0.000000000000000E+000
  0.000000000000000E+000
  0.000000000000000E+000
  0.000000000000000E+000
  0.000000000000000E+000
  0.000000000000000E+000
  0.000000000000000E+000
  0.000000000000000E+000
  0.000000000000000E+000
  0.000000000000000E+000
  0.000000000000000E+000
  0.000000000000000E+000
  0.000000000000000E+000
  0.000000000000000E+000
  0.000000000000000E+000
  0.000000000000000E+000
  0.000000000000000E+000
  0.000000000000000E+000
  0.000000000000000E+000
  0.000000000000000E+000
  0.000000000000000E+000
  0.000000000000000E+000
  0.000000000000000E+000
  0.000000000000000E+000
  0.000000000000000E+000
  0.000000000000000E+000
  0.000000000000000E+000
  0.000000000000000E+000
  0.000000000000000E+000
  0.000000000000000E+000
  0.000000000000000E+000
  0.000000000000000E+000
  0.000000000000000E+000
  0.000000000000000E+000
  0.000000000000000E+000
  0.000000000000000E+000
  0.000000000000000E+000
  0.000000000000000E+000
  0.000000000000000E+000
  0.000000000000000E+000
  0.000000000000000E+000
  0.000000000000000E+000
  0.000000000000000E+000
  0.000000000000000E+000
  0.000000000000000E+000
  0.000000000000000E+000
  0.000000000000000E+000
  0.000000000000000E+000
  0.000000000000000E+000
  0.000000000000000E+000
  0.000000000000000E+000
  0.000000000000000E+000
  0.000000000000000E+000
  0.000000000000000E+000
  0.000000000000000E+000
  0.000000000000000E+000
  0.000000000000000E+000
  0.000000000000000E+000
  0.000000000000000E+000
  0.000000000000000E+000
  0.000000000000000E+000
  0.000000000000000E+000
  0.000000000000000E+000
  0.000000000000000E+000
  0.000000000000000E+000
  0.000000000000000E+000
  0.000000000000000E+000
  0.000000000000000E+000
  0.000000000000000E+000
  0.000000000000000E+000
  0.000000000000000E+000
  0.000000000000000E+000
  0.000000000000000E+000
  0.000000000000000E+000
  0.000000000000000E+000
  0.000000000000000E+000
  0.000000000000000E+000
  0.000000000000000E+000
  0.000000000000000E+000
  0.000000000000000E+000
  0.000000000000000E+000
  0.000000000000000E+000
  0.000000000000000E+000
  0.000000000000000E+000
  0.000000000000000E+000
  0.000000000000000E+000
  0.000000000000000E+000
  0.000000000000000E+000
  0.000000000000000E+000
  0.000000000000000E+000
  0.000000000000000E+000
  0.000000000000000E+000
  0.000000000000000E+000
  0.000000000000000E+000
  0.000000000000000E+000
  0.000000000000000E+000
  0.000000000000000E+000
  0.000000000000000E+000
  0.000000000000000E+000
  0.000000000000000E+000
  0.000000000000000E+000
  0.000000000000000E+000
  0.000000000000000E+000
  0.000000000000000E+000
  0.000000000000000E+000
  0.000000000000000E+000
  0.000000000000000E+000
  0.000000000000000E+000
  0.000000000000000E+000
  0.000000000000000E+000
  0.000000000000000E+000
  0.000000000000000E+000
  0.000000000000000E+000
  0.000000000000000E+000
  0.000000000000000E+000
  0.000000000000000E+000
  0.000000000000000E+000
  0.000000000000000E+000
  0.000000000000000E+000
  0.000000000000000E+000
  0.000000000000000E+000
  0.000000000000000E+000
  0.000000000000000E+000
  0.000000000000000E+000
  0.000000000000000E+000
  0.000000000000000E+000
  0.000000000000000E+000
  0.000000000000000E+000
  0.000000000000000E+000
  0.000000000000000E+000
  0.000000000000000E+000
  0.000000000000000E+000
  0.000000000000000E+000
  0.000000000000000E+000
  0.000000000000000E+000
  0.000000000000000E+000
  0.000000000000000E+000
  0.000000000000000E+000
  0.000000000000000E+000
  0.000000000000000E+000
  0.000000000000000E+000
  0.000000000000000E+000
  0.000000000000000E+000
  0.000000000000000E+000
  0.000000000000000E+000
  0.000000000000000E+000
  0.000000000000000E+000
  0.000000000000000E+000
  0.000000000000000E+000
  0.000000000000000E+000
  0.000000000000000E+000
  0.000000000000000E+000
  0.000000000000000E+000
  0.000000000000000E+000
  0.000000000000000E+000
  0.000000000000000E+000
  0.000000000000000E+000
  0.000000000000000E+000
  0.000000000000000E+000
  0.000000000000000E+000
  0.000000000000000E+000
  0.000000000000000E+000
  0.000000000000000E+000
  0.000000000000000E+000
  0.000000000000000E+000
  0.000000000000000E+000
  0.000000000000000E+000
  0.000000000000000E+000
  0.000000000000000E+000
  0.000000000000000E+000
  0.000000000000000E+000
  0.000000000000000E+000
  0.000000000000000E+000
  0.000000000000000E+000
  0.000000000000000E+000
  0.000000000000000E+000
  0.000000000000000E+000
  0.000000000000000E+000
  0.000000000000000E+000
  0.000000000000000E+000
  0.000000000000000E+000
  0.000000000000000E+000
  0.000000000000000E+000
  0.000000000000000E+000
  0.000000000000000E+000
  0.000000000000000E+000
  0.000000000000000E+000
  0.000000000000000E+000
  0.000000000000000E+000
  0.000000000000000E+000
  0.000000000000000E+000
  0.000000000000000E+000
  0.000000000000000E+000
  0.000000000000000E+000
  0.000000000000000E+000
  0.000000000000000E+000
  0.000000000000000E+000
  0.000000000000000E+000
  0.000000000000000E+000
  0.000000000000000E+000
  0.000000000000000E+000
  0.000000000000000E+000
  0.000000000000000E+000
  0.000000000000000E+000
  0.000000000000000E+000
  0.000000000000000E+000
  0.000000000000000E+000
  0.000000000000000E+000
  0.000000000000000E+000
  0.000000000000000E+000
  0.000000000000000E+000
  0.000000000000000E+000
  0.000000000000000E+000
  0.000000000000000E+000
  0.000000000000000E+000
  0.000000000000000E+000
  0.000000000000000E+000
  0.000000000000000E+000
  0.000000000000000E+000
  0.000000000000000E+000
  0.000000000000000E+000
  0.000000000000000E+000
  0.000000000000000E+000
  0.000000000000000E+000
  0.000000000000000E+000
  0.000000000000000E+000
  0.000000000000000E+000
  0.000000000000000E+000
  0.000000000000000E+000
  0.000000000000000E+000
  0.000000000000000E+000
  0.000000000000000E+000
  0.000000000000000E+000
  0.000000000000000E+000
  0.000000000000000E+000
  0.000000000000000E+000
  0.000000000000000E+000
  0.000000000000000E+000
  0.000000000000000E+000
  0.000000000000000E+000
  0.000000000000000E+000
  0.000000000000000E+000
  0.000000000000000E+000
  0.000000000000000E+000
  0.000000000000000E+000
  0.000000000000000E+000
  0.000000000000000E+000
  0.000000000000000E+000
  0.000000000000000E+000
  0.000000000000000E+000
  0.000000000000000E+000
  0.000000000000000E+000
  0.000000000000000E+000
  0.000000000000000E+000
  0.000000000000000E+000
  0.000000000000000E+000
  0.000000000000000E+000
  0.000000000000000E+000
  0.000000000000000E+000
  0.000000000000000E+000
  0.000000000000000E+000
  0.000000000000000E+000
  0.000000000000000E+000
  0.000000000000000E+000
  0.000000000000000E+000
  0.000000000000000E+000
  0.000000000000000E+000
  0.000000000000000E+000
  0.000000000000000E+000
  0.000000000000000E+000
  0.000000000000000E+000
  0.000000000000000E+000
  0.000000000000000E+000
  0.000000000000000E+000
  0.000000000000000E+000
  0.000000000000000E+000
  0.000000000000000E+000
  0.000000000000000E+000
  0.000000000000000E+000
  0.000000000000000E+000
  0.000000000000000E+000
  0.000000000000000E+000
  0.000000000000000E+000
  0.000000000000000E+000
  0.000000000000000E+000
  0.000000000000000E+000
  0.000000000000000E+000
  0.000000000000000E+000
  0.000000000000000E+000
  0.000000000000000E+000
  0.000000000000000E+000
  0.000000000000000E+000
  0.000000000000000E+000
  0.000000000000000E+000
  0.000000000000000E+000
  0.000000000000000E+000
  0.000000000000000E+000
  0.000000000000000E+000
  0.000000000000000E+000
  0.000000000000000E+000
  0.000000000000000E+000
  0.000000000000000E+000
  0.000000000000000E+000
  0.000000000000000E+000
  0.000000000000000E+000
  0.000000000000000E+000
  0.000000000000000E+000
  0.000000000000000E+000
  0.000000000000000E+000
  0.000000000000000E+000
  0.000000000000000E+000
  0.000000000000000E+000
  0.000000000000000E+000
  0.000000000000000E+000
  0.000000000000000E+000
  0.000000000000000E+000
  0.000000000000000E+000
  0.000000000000000E+000
  0.000000000000000E+000
  0.000000000000000E+000
  0.000000000000000E+000
  0.000000000000000E+000
  0.000000000000000E+000
  0.000000000000000E+000
  0.000000000000000E+000
  0.000000000000000E+000
  0.000000000000000E+000
  0.000000000000000E+000
  0.000000000000000E+000
  0.000000000000000E+000
  0.000000000000000E+000
  0.000000000000000E+000
  0.000000000000000E+000
  0.000000000000000E+000
  0.000000000000000E+000
  0.000000000000000E+000
  0.000000000000000E+000
  0.000000000000000E+000
  0.000000000000000E+000
  0.000000000000000E+000
  0.000000000000000E+000
  0.000000000000000E+000
  0.000000000000000E+000
  0.000000000000000E+000
  0.000000000000000E+000
  0.000000000000000E+000
  0.000000000000000E+000
  0.000000000000000E+000
  0.000000000000000E+000
  0.000000000000000E+000
  0.000000000000000E+000
  0.000000000000000E+000
  0.000000000000000E+000
  0.000000000000000E+000
  0.000000000000000E+000
  0.000000000000000E+000
  0.000000000000000E+000
  0.000000000000000E+000
  0.000000000000000E+000
  0.000000000000000E+000
  0.000000000000000E+000
  0.000000000000000E+000
  0.000000000000000E+000
  0.000000000000000E+000
  0.000000000000000E+000
  0.000000000000000E+000
  0.000000000000000E+000
  0.000000000000000E+000
  0.000000000000000E+000
  0.000000000000000E+000
  0.000000000000000E+000
  0.000000000000000E+000
  0.000000000000000E+000
  0.000000000000000E+000
  0.000000000000000E+000
  0.000000000000000E+000
  0.000000000000000E+000
  0.000000000000000E+000
  0.000000000000000E+000
  0.000000000000000E+000
  0.000000000000000E+000
  0.000000000000000E+000
  0.000000000000000E+000
  0.000000000000000E+000
  0.000000000000000E+000
  0.000000000000000E+000
  0.000000000000000E+000
  0.000000000000000E+000
  0.000000000000000E+000
  0.000000000000000E+000
  0.000000000000000E+000
  0.000000000000000E+000
  0.000000000000000E+000
  0.000000000000000E+000
  0.000000000000000E+000
  0.000000000000000E+000
  0.000000000000000E+000
  0.000000000000000E+000
  0.000000000000000E+000
  0.000000000000000E+000
  0.000000000000000E+000
  0.000000000000000E+000
  0.000000000000000E+000
  0.000000000000000E+000
  0.000000000000000E+000
  0.000000000000000E+000
  0.000000000000000E+000
  0.000000000000000E+000
  0.000000000000000E+000
  0.000000000000000E+000
  0.000000000000000E+000
  0.000000000000000E+000
  0.000000000000000E+000
  0.000000000000000E+000
  0.000000000000000E+000
  0.000000000000000E+000
  0.000000000000000E+000
  0.000000000000000E+000
  0.000000000000000E+000
  0.000000000000000E+000
  0.000000000000000E+000
  0.000000000000000E+000
  0.000000000000000E+000
  0.000000000000000E+000
  0.000000000000000E+000
  0.000000000000000E+000
  0.000000000000000E+000
  0.000000000000000E+000
  0.000000000000000E+000
  0.000000000000000E+000
  0.000000000000000E+000
  0.000000000000000E+000
  0.000000000000000E+000
  0.000000000000000E+000
  0.000000000000000E+000
  0.000000000000000E+000
  0.000000000000000E+000
  0.000000000000000E+000
  0.000000000000000E+000
  0.000000000000000E+000
  0.000000000000000E+000
  0.000000000000000E+000
  0.000000000000000E+000
  0.000000000000000E+000
  0.000000000000000E+000
  0.000000000000000E+000
  0.000000000000000E+000
  0.000000000000000E+000
  0.000000000000000E+000
  0.000000000000000E+000
  0.000000000000000E+000
  0.000000000000000E+000
  0.000000000000000E+000
  0.000000000000000E+000
  0.000000000000000E+000
  0.000000000000000E+000
  0.000000000000000E+000
  0.000000000000000E+000
  0.000000000000000E+000
  0.000000000000000E+000
  0.000000000000000E+000
  0.000000000000000E+000
  0.000000000000000E+000
  0.000000000000000E+000
  0.000000000000000E+000
  0.000000000000000E+000
  0.000000000000000E+000
  0.000000000000000E+000
  0.000000000000000E+000
  0.000000000000000E+000
  0.000000000000000E+000
  0.000000000000000E+000
  0.000000000000000E+000
  0.000000000000000E+000
  0.000000000000000E+000
  0.000000000000000E+000
  0.000000000000000E+000
  0.000000000000000E+000
  0.000000000000000E+000
  0.000000000000000E+000
  0.000000000000000E+000
  0.000000000000000E+000
  0.000000000000000E+000
  0.000000000000000E+000
  0.000000000000000E+000
  0.000000000000000E+000
  0.000000000000000E+000
  0.000000000000000E+000
  0.000000000000000E+000
  0.000000000000000E+000
  0.000000000000000E+000
  0.000000000000000E+000
  0.000000000000000E+000
  0.000000000000000E+000
  0.000000000000000E+000
  0.000000000000000E+000
  0.000000000000000E+000
  0.000000000000000E+000
  0.000000000000000E+000
  0.000000000000000E+000
  0.000000000000000E+000
  0.000000000000000E+000
  0.000000000000000E+000
  0.000000000000000E+000
  0.000000000000000E+000
  0.000000000000000E+000
  0.000000000000000E+000
  0.000000000000000E+000
  0.000000000000000E+000
  0.000000000000000E+000
  0.000000000000000E+000
  0.000000000000000E+000
  0.000000000000000E+000
  0.000000000000000E+000
  0.000000000000000E+000
  0.000000000000000E+000
  0.000000000000000E+000
  0.000000000000000E+000
  0.000000000000000E+000
  0.000000000000000E+000
  0.000000000000000E+000
  0.000000000000000E+000
  0.000000000000000E+000
  0.000000000000000E+000
  0.000000000000000E+000
  0.000000000000000E+000
  0.000000000000000E+000
  0.000000000000000E+000
  0.000000000000000E+000
  0.000000000000000E+000
  0.000000000000000E+000
  0.000000000000000E+000
  0.000000000000000E+000
  0.000000000000000E+000
  0.000000000000000E+000
  0.000000000000000E+000
  0.000000000000000E+000
  0.000000000000000E+000
  0.000000000000000E+000
  0.000000000000000E+000
  0.000000000000000E+000
  0.000000000000000E+000
  0.000000000000000E+000
  0.000000000000000E+000
  0.000000000000000E+000
  0.000000000000000E+000
  0.000000000000000E+000
  0.000000000000000E+000
  0.000000000000000E+000
  0.000000000000000E+000
  0.000000000000000E+000
  0.000000000000000E+000
  0.000000000000000E+000
  0.000000000000000E+000
  0.000000000000000E+000
  0.000000000000000E+000
  0.000000000000000E+000
  0.000000000000000E+000
  0.000000000000000E+000
  0.000000000000000E+000
  0.000000000000000E+000
  0.000000000000000E+000
  0.000000000000000E+000
  0.000000000000000E+000
  0.000000000000000E+000
  0.000000000000000E+000
  0.000000000000000E+000
  0.000000000000000E+000
  0.000000000000000E+000
  0.000000000000000E+000
  0.000000000000000E+000
  0.000000000000000E+000
  0.000000000000000E+000
  0.000000000000000E+000
  0.000000000000000E+000
  0.000000000000000E+000
  0.000000000000000E+000
  0.000000000000000E+000
  0.000000000000000E+000
  0.000000000000000E+000
  0.000000000000000E+000
  0.000000000000000E+000
  0.000000000000000E+000
  0.000000000000000E+000
  0.000000000000000E+000
  0.000000000000000E+000
  0.000000000000000E+000
  0.000000000000000E+000
  0.000000000000000E+000
  0.000000000000000E+000
  0.000000000000000E+000
  0.000000000000000E+000
  0.000000000000000E+000
  0.000000000000000E+000
  0.000000000000000E+000
  0.000000000000000E+000
  0.000000000000000E+000
  0.000000000000000E+000
  0.000000000000000E+000
  0.000000000000000E+000
  0.000000000000000E+000
  0.000000000000000E+000
  0.000000000000000E+000
  0.000000000000000E+000
  0.000000000000000E+000
  0.000000000000000E+000
  0.000000000000000E+000
  0.000000000000000E+000
  0.000000000000000E+000
  0.000000000000000E+000
  0.000000000000000E+000
  0.000000000000000E+000
  0.000000000000000E+000
  0.000000000000000E+000
  0.000000000000000E+000
  0.000000000000000E+000
  0.000000000000000E+000
  0.000000000000000E+000
  0.000000000000000E+000
  0.000000000000000E+000
  0.000000000000000E+000
  0.000000000000000E+000
  0.000000000000000E+000
  0.000000000000000E+000
  0.000000000000000E+000
  0.000000000000000E+000
  0.000000000000000E+000
  0.000000000000000E+000
  0.000000000000000E+000
  0.000000000000000E+000
  0.000000000000000E+000
  0.000000000000000E+000
  0.000000000000000E+000
  0.000000000000000E+000
  0.000000000000000E+000
  0.000000000000000E+000
  0.000000000000000E+000
  0.000000000000000E+000
  0.000000000000000E+000
  0.000000000000000E+000
  0.000000000000000E+000
  0.000000000000000E+000
  0.000000000000000E+000
  0.000000000000000E+000
  0.000000000000000E+000
  0.000000000000000E+000
  0.000000000000000E+000
  0.000000000000000E+000
  0.000000000000000E+000
  0.000000000000000E+000
  0.000000000000000E+000
  0.000000000000000E+000
  0.000000000000000E+000
  0.000000000000000E+000
  0.000000000000000E+000
  0.000000000000000E+000
  0.000000000000000E+000
  0.000000000000000E+000
  0.000000000000000E+000
  0.000000000000000E+000
  0.000000000000000E+000
  0.000000000000000E+000
  0.000000000000000E+000
  0.000000000000000E+000
  0.000000000000000E+000
  0.000000000000000E+000
  0.000000000000000E+000
  0.000000000000000E+000
  0.000000000000000E+000
  0.000000000000000E+000
  0.000000000000000E+000
  0.000000000000000E+000
  0.000000000000000E+000
  0.000000000000000E+000
  0.000000000000000E+000
  0.000000000000000E+000
  0.000000000000000E+000
  0.000000000000000E+000
  0.000000000000000E+000
  0.000000000000000E+000
  0.000000000000000E+000
  0.000000000000000E+000
  0.000000000000000E+000
  0.000000000000000E+000
  0.000000000000000E+000
  0.000000000000000E+000
  0.000000000000000E+000
  0.000000000000000E+000
  0.000000000000000E+000
  0.000000000000000E+000
  0.000000000000000E+000
  0.000000000000000E+000
  0.000000000000000E+000
  0.000000000000000E+000
  0.000000000000000E+000
  0.000000000000000E+000
  0.000000000000000E+000
  0.000000000000000E+000
  0.000000000000000E+000
  0.000000000000000E+000
  0.000000000000000E+000
  0.000000000000000E+000
  0.000000000000000E+000
  0.000000000000000E+000
  0.000000000000000E+000
  0.000000000000000E+000
  0.000000000000000E+000
  0.000000000000000E+000
  0.000000000000000E+000
  0.000000000000000E+000
  0.000000000000000E+000
  0.000000000000000E+000
  0.000000000000000E+000
  0.000000000000000E+000
  0.000000000000000E+000
  0.000000000000000E+000
  0.000000000000000E+000
  0.000000000000000E+000
  0.000000000000000E+000
  0.000000000000000E+000
  0.000000000000000E+000
  0.000000000000000E+000
  0.000000000000000E+000
  0.000000000000000E+000
  0.000000000000000E+000
  0.000000000000000E+000
  0.000000000000000E+000
  0.000000000000000E+000
  0.000000000000000E+000
  0.000000000000000E+000
  0.000000000000000E+000
  0.000000000000000E+000
  0.000000000000000E+000
  0.000000000000000E+000
  0.000000000000000E+000
  0.000000000000000E+000
  0.000000000000000E+000
  0.000000000000000E+000
  0.000000000000000E+000
  0.000000000000000E+000
  0.000000000000000E+000
  0.000000000000000E+000
  0.000000000000000E+000
  0.000000000000000E+000
  0.000000000000000E+000
  0.000000000000000E+000
  0.000000000000000E+000
  0.000000000000000E+000
  0.000000000000000E+000
  0.000000000000000E+000
  0.000000000000000E+000
  0.000000000000000E+000
  0.000000000000000E+000
  0.000000000000000E+000
  0.000000000000000E+000
  0.000000000000000E+000
  0.000000000000000E+000
  0.000000000000000E+000
  0.000000000000000E+000
  0.000000000000000E+000
  0.000000000000000E+000
  0.000000000000000E+000
  0.000000000000000E+000
  0.000000000000000E+000
  0.000000000000000E+000
  0.000000000000000E+000
  0.000000000000000E+000
  0.000000000000000E+000
  0.000000000000000E+000
  0.000000000000000E+000
  0.000000000000000E+000
  0.000000000000000E+000
  0.000000000000000E+000
  0.000000000000000E+000
  0.000000000000000E+000
  0.000000000000000E+000
  0.000000000000000E+000
  0.000000000000000E+000
  0.000000000000000E+000
  0.000000000000000E+000
  0.000000000000000E+000
  0.000000000000000E+000
  0.000000000000000E+000
  0.000000000000000E+000
  0.000000000000000E+000
  0.000000000000000E+000
  0.000000000000000E+000
  0.000000000000000E+000
  0.000000000000000E+000
  0.000000000000000E+000
  0.000000000000000E+000
  0.000000000000000E+000
  0.000000000000000E+000
  0.000000000000000E+000
  0.000000000000000E+000
  0.000000000000000E+000
  0.000000000000000E+000
  0.000000000000000E+000
  0.000000000000000E+000
  0.000000000000000E+000
  0.000000000000000E+000
  0.000000000000000E+000
  0.000000000000000E+000
  0.000000000000000E+000
  0.000000000000000E+000
  0.000000000000000E+000
  0.000000000000000E+000
  0.000000000000000E+000
  0.000000000000000E+000
  0.000000000000000E+000
  0.000000000000000E+000
  0.000000000000000E+000
  0.000000000000000E+000
  0.000000000000000E+000
  0.000000000000000E+000
  0.000000000000000E+000
  0.000000000000000E+000
  0.000000000000000E+000
  0.000000000000000E+000
  0.000000000000000E+000
  0.000000000000000E+000
  0.000000000000000E+000
  0.000000000000000E+000
  0.000000000000000E+000
  0.000000000000000E+000
  0.000000000000000E+000
  0.000000000000000E+000
  0.000000000000000E+000
  0.000000000000000E+000
  0.000000000000000E+000
  0.000000000000000E+000
  0.000000000000000E+000
  0.000000000000000E+000
  0.000000000000000E+000
  0.000000000000000E+000
  0.000000000000000E+000
  0.000000000000000E+000
  0.000000000000000E+000
  0.000000000000000E+000
  0.000000000000000E+000
  0.000000000000000E+000
  0.000000000000000E+000
  0.000000000000000E+000
  0.000000000000000E+000
  0.000000000000000E+000
  0.000000000000000E+000
  0.000000000000000E+000
  0.000000000000000E+000
  0.000000000000000E+000
  0.000000000000000E+000
  0.000000000000000E+000
  0.000000000000000E+000
  0.000000000000000E+000
  0.000000000000000E+000
  0.000000000000000E+000
  0.000000000000000E+000
  0.000000000000000E+000
  0.000000000000000E+000
  0.000000000000000E+000
  0.000000000000000E+000
  0.000000000000000E+000
  0.000000000000000E+000
  0.000000000000000E+000
  0.000000000000000E+000
  0.000000000000000E+000
  0.000000000000000E+000
  0.000000000000000E+000
  0.000000000000000E+000
  0.000000000000000E+000
  0.000000000000000E+000
  0.000000000000000E+000
  0.000000000000000E+000
  0.000000000000000E+000
  0.000000000000000E+000
  0.000000000000000E+000
  0.000000000000000E+000
  0.000000000000000E+000
  0.000000000000000E+000
  0.000000000000000E+000
  0.000000000000000E+000
  0.000000000000000E+000
  0.000000000000000E+000
  0.000000000000000E+000
  0.000000000000000E+000
  0.000000000000000E+000
  0.000000000000000E+000
  0.000000000000000E+000
  0.000000000000000E+000
  0.000000000000000E+000
  0.000000000000000E+000
  0.000000000000000E+000
  0.000000000000000E+000
  0.000000000000000E+000
  0.000000000000000E+000
  0.000000000000000E+000
  0.000000000000000E+000
  0.000000000000000E+000
  0.000000000000000E+000
  0.000000000000000E+000
  0.000000000000000E+000
  0.000000000000000E+000
  0.000000000000000E+000
  0.000000000000000E+000
  0.000000000000000E+000
  0.000000000000000E+000
  0.000000000000000E+000
  0.000000000000000E+000
  0.000000000000000E+000
  0.000000000000000E+000
  0.000000000000000E+000
  0.000000000000000E+000
  0.000000000000000E+000
  0.000000000000000E+000
  0.000000000000000E+000
  0.000000000000000E+000
  0.000000000000000E+000
  0.000000000000000E+000
  0.000000000000000E+000
  0.000000000000000E+000
  0.000000000000000E+000
  0.000000000000000E+000
  0.000000000000000E+000
  0.000000000000000E+000
  0.000000000000000E+000
  0.000000000000000E+000
  0.000000000000000E+000
  0.000000000000000E+000
  0.000000000000000E+000
  0.000000000000000E+000
  0.000000000000000E+000
  0.000000000000000E+000
  0.000000000000000E+000
  0.000000000000000E+000
  0.000000000000000E+000
  0.000000000000000E+000
  0.000000000000000E+000
  0.000000000000000E+000
  0.000000000000000E+000
  0.000000000000000E+000
  0.000000000000000E+000
  0.000000000000000E+000
  0.000000000000000E+000
  0.000000000000000E+000
  0.000000000000000E+000
  0.000000000000000E+000
  0.000000000000000E+000
  0.000000000000000E+000
  0.000000000000000E+000
  0.000000000000000E+000
  0.000000000000000E+000
  0.000000000000000E+000
  0.000000000000000E+000
  0.000000000000000E+000
  0.000000000000000E+000
  0.000000000000000E+000
  0.000000000000000E+000
  0.000000000000000E+000
  0.000000000000000E+000
  0.000000000000000E+000
  0.000000000000000E+000
  0.000000000000000E+000
  0.000000000000000E+000
  0.000000000000000E+000
  0.000000000000000E+000
  0.000000000000000E+000
  0.000000000000000E+000
  0.000000000000000E+000
  0.000000000000000E+000
  0.000000000000000E+000
  0.000000000000000E+000
  0.000000000000000E+000
  0.000000000000000E+000
  0.000000000000000E+000
  0.000000000000000E+000
  0.000000000000000E+000
  0.000000000000000E+000
  0.000000000000000E+000
  0.000000000000000E+000
  0.000000000000000E+000
  0.000000000000000E+000
  0.000000000000000E+000
  0.000000000000000E+000
  0.000000000000000E+000
  0.000000000000000E+000
  0.000000000000000E+000
  0.000000000000000E+000
  0.000000000000000E+000
  0.000000000000000E+000
  0.000000000000000E+000
  0.000000000000000E+000
  0.000000000000000E+000
  0.000000000000000E+000
  0.000000000000000E+000
  0.000000000000000E+000
  0.000000000000000E+000
  0.000000000000000E+000
  0.000000000000000E+000
  0.000000000000000E+000
  0.000000000000000E+000
  0.000000000000000E+000
  0.000000000000000E+000
  0.000000000000000E+000
  0.000000000000000E+000
  0.000000000000000E+000
  0.000000000000000E+000
  0.000000000000000E+000
  0.000000000000000E+000
  0.000000000000000E+000
  0.000000000000000E+000
  0.000000000000000E+000
  0.000000000000000E+000
  0.000000000000000E+000
  0.000000000000000E+000
  0.000000000000000E+000
  0.000000000000000E+000
  0.000000000000000E+000
  0.000000000000000E+000
  0.000000000000000E+000
  0.000000000000000E+000
  0.000000000000000E+000
  0.000000000000000E+000
  0.000000000000000E+000
  0.000000000000000E+000
  0.000000000000000E+000
  0.000000000000000E+000
  0.000000000000000E+000
  0.000000000000000E+000
  0.000000000000000E+000
  0.000000000000000E+000
  0.000000000000000E+000
  0.000000000000000E+000
  0.000000000000000E+000
  0.000000000000000E+000
  0.000000000000000E+000
  0.000000000000000E+000
  0.000000000000000E+000
  0.000000000000000E+000
  0.000000000000000E+000
  0.000000000000000E+000
  0.000000000000000E+000
  0.000000000000000E+000
  0.000000000000000E+000
  0.000000000000000E+000
  0.000000000000000E+000
  0.000000000000000E+000
  0.000000000000000E+000
  0.000000000000000E+000
  0.000000000000000E+000
  0.000000000000000E+000
  0.000000000000000E+000
  0.000000000000000E+000
  0.000000000000000E+000
  0.000000000000000E+000
  0.000000000000000E+000
  0.000000000000000E+000
  0.000000000000000E+000
  0.000000000000000E+000
  0.000000000000000E+000
  0.000000000000000E+000
  0.000000000000000E+000
  0.000000000000000E+000
  0.000000000000000E+000
  0.000000000000000E+000
  0.000000000000000E+000
  0.000000000000000E+000
  0.000000000000000E+000
  0.000000000000000E+000
  0.000000000000000E+000
  0.000000000000000E+000
  0.000000000000000E+000
  0.000000000000000E+000
  0.000000000000000E+000
  0.000000000000000E+000
  0.000000000000000E+000
  0.000000000000000E+000
  0.000000000000000E+000
  0.000000000000000E+000
  0.000000000000000E+000
  0.000000000000000E+000
  0.000000000000000E+000
  0.000000000000000E+000
  0.000000000000000E+000
  0.000000000000000E+000
  0.000000000000000E+000
  0.000000000000000E+000
  0.000000000000000E+000
  0.000000000000000E+000
  0.000000000000000E+000
  0.000000000000000E+000
  0.000000000000000E+000
  0.000000000000000E+000
  0.000000000000000E+000
  0.000000000000000E+000
  0.000000000000000E+000
  0.000000000000000E+000
  0.000000000000000E+000
  0.000000000000000E+000
  0.000000000000000E+000
  0.000000000000000E+000
  0.000000000000000E+000
  0.000000000000000E+000
  0.000000000000000E+000
  0.000000000000000E+000
  0.000000000000000E+000
  0.000000000000000E+000
  0.000000000000000E+000
  0.000000000000000E+000
  0.000000000000000E+000
  0.000000000000000E+000
  0.000000000000000E+000
  0.000000000000000E+000
  0.000000000000000E+000
  0.000000000000000E+000
  0.000000000000000E+000
  0.000000000000000E+000
  0.000000000000000E+000
  0.000000000000000E+000
  0.000000000000000E+000
  0.000000000000000E+000
  0.000000000000000E+000
  0.000000000000000E+000
  0.000000000000000E+000
  0.000000000000000E+000
  0.000000000000000E+000
  0.000000000000000E+000
  0.000000000000000E+000
  0.000000000000000E+000
  0.000000000000000E+000
  0.000000000000000E+000
  0.000000000000000E+000
  0.000000000000000E+000
  0.000000000000000E+000
  0.000000000000000E+000
  0.000000000000000E+000
  0.000000000000000E+000
  0.000000000000000E+000
  0.000000000000000E+000
  0.000000000000000E+000
  0.000000000000000E+000
  0.000000000000000E+000
  0.000000000000000E+000
  0.000000000000000E+000
  0.000000000000000E+000
  0.000000000000000E+000
  0.000000000000000E+000
  0.000000000000000E+000
  0.000000000000000E+000
  0.000000000000000E+000
  0.000000000000000E+000
  0.000000000000000E+000
  0.000000000000000E+000
  0.000000000000000E+000
  0.000000000000000E+000
  0.000000000000000E+000
  0.000000000000000E+000
  0.000000000000000E+000
  0.000000000000000E+000
  0.000000000000000E+000
  0.000000000000000E+000
  0.000000000000000E+000
  0.000000000000000E+000
  0.000000000000000E+000
  0.000000000000000E+000
  0.000000000000000E+000
  0.000000000000000E+000
  0.000000000000000E+000
  0.000000000000000E+000
  0.000000000000000E+000
  0.000000000000000E+000
  0.000000000000000E+000
  0.000000000000000E+000
  0.000000000000000E+000
  0.000000000000000E+000
  0.000000000000000E+000
  0.000000000000000E+000
  0.000000000000000E+000
  0.000000000000000E+000
  0.000000000000000E+000
  0.000000000000000E+000
  0.000000000000000E+000
  0.000000000000000E+000
  0.000000000000000E+000
  0.000000000000000E+000
  0.000000000000000E+000
  0.000000000000000E+000
  0.000000000000000E+000
  0.000000000000000E+000
  0.000000000000000E+000
  0.000000000000000E+000
  0.000000000000000E+000
  0.000000000000000E+000
  0.000000000000000E+000
  0.000000000000000E+000
  0.000000000000000E+000
  0.000000000000000E+000
  0.000000000000000E+000
  0.000000000000000E+000
  0.000000000000000E+000
  0.000000000000000E+000
  0.000000000000000E+000
  0.000000000000000E+000
  0.000000000000000E+000
  0.000000000000000E+000
  0.000000000000000E+000
  0.000000000000000E+000
  0.000000000000000E+000
  0.000000000000000E+000
  0.000000000000000E+000
  0.000000000000000E+000
  0.000000000000000E+000
  0.000000000000000E+000
  0.000000000000000E+000
  0.000000000000000E+000
  0.000000000000000E+000
  0.000000000000000E+000
  0.000000000000000E+000
  0.000000000000000E+000
  0.000000000000000E+000
  0.000000000000000E+000
  0.000000000000000E+000
  0.000000000000000E+000
  0.000000000000000E+000
  0.000000000000000E+000
  0.000000000000000E+000
  0.000000000000000E+000
  0.000000000000000E+000
  0.000000000000000E+000
  0.000000000000000E+000
  0.000000000000000E+000
  0.000000000000000E+000
  0.000000000000000E+000
  0.000000000000000E+000
  0.000000000000000E+000
  0.000000000000000E+000
  0.000000000000000E+000
  0.000000000000000E+000
  0.000000000000000E+000
  0.000000000000000E+000
  0.000000000000000E+000
  0.000000000000000E+000
  0.000000000000000E+000
  0.000000000000000E+000
  0.000000000000000E+000
  0.000000000000000E+000
  0.000000000000000E+000
  0.000000000000000E+000
  0.000000000000000E+000
  0.000000000000000E+000
  0.000000000000000E+000
  0.000000000000000E+000
  0.000000000000000E+000
  0.000000000000000E+000
  0.000000000000000E+000
  0.000000000000000E+000
  0.000000000000000E+000
  0.000000000000000E+000
  0.000000000000000E+000
  0.000000000000000E+000
  0.000000000000000E+000
  0.000000000000000E+000
  0.000000000000000E+000
  0.000000000000000E+000
  0.000000000000000E+000
  0.000000000000000E+000
  0.000000000000000E+000
  0.000000000000000E+000
  0.000000000000000E+000
  0.000000000000000E+000
  0.000000000000000E+000
  0.000000000000000E+000
  0.000000000000000E+000
  0.000000000000000E+000
  0.000000000000000E+000
  0.000000000000000E+000
  0.000000000000000E+000
  0.000000000000000E+000
  0.000000000000000E+000
  0.000000000000000E+000
  0.000000000000000E+000
  0.000000000000000E+000
  0.000000000000000E+000
  0.000000000000000E+000
  0.000000000000000E+000
  0.000000000000000E+000
  0.000000000000000E+000
  0.000000000000000E+000
  0.000000000000000E+000
  0.000000000000000E+000
  0.000000000000000E+000
  0.000000000000000E+000
  0.000000000000000E+000
  0.000000000000000E+000
  0.000000000000000E+000
  0.000000000000000E+000
  0.000000000000000E+000
  0.000000000000000E+000
  0.000000000000000E+000
  0.000000000000000E+000
  0.000000000000000E+000
  0.000000000000000E+000
  0.000000000000000E+000
  0.000000000000000E+000
  0.000000000000000E+000
  0.000000000000000E+000
  0.000000000000000E+000
  0.000000000000000E+000
  0.000000000000000E+000
  0.000000000000000E+000
  0.000000000000000E+000
  0.000000000000000E+000
  0.000000000000000E+000
  0.000000000000000E+000
  0.000000000000000E+000
  0.000000000000000E+000
  0.000000000000000E+000
  0.000000000000000E+000
  0.000000000000000E+000
  0.000000000000000E+000
  0.000000000000000E+000
  0.000000000000000E+000
  0.000000000000000E+000
  0.000000000000000E+000
  0.000000000000000E+000
  0.000000000000000E+000
  0.000000000000000E+000
  0.000000000000000E+000
  0.000000000000000E+000
  0.000000000000000E+000
  0.000000000000000E+000
  0.000000000000000E+000
  0.000000000000000E+000
  0.000000000000000E+000
  0.000000000000000E+000
  0.000000000000000E+000
  0.000000000000000E+000
  0.000000000000000E+000
  0.000000000000000E+000
  0.000000000000000E+000
  0.000000000000000E+000
  0.000000000000000E+000
  0.000000000000000E+000
  0.000000000000000E+000
  0.000000000000000E+000
  0.000000000000000E+000
  0.000000000000000E+000
  0.000000000000000E+000
  0.000000000000000E+000
  0.000000000000000E+000
  0.000000000000000E+000
  0.000000000000000E+000
  0.000000000000000E+000
  0.000000000000000E+000
  0.000000000000000E+000
  0.000000000000000E+000
  0.000000000000000E+000
  0.000000000000000E+000
  0.000000000000000E+000
  0.000000000000000E+000
  0.000000000000000E+000
  0.000000000000000E+000
  0.000000000000000E+000
  0.000000000000000E+000
  0.000000000000000E+000
  0.000000000000000E+000
  0.000000000000000E+000
  0.000000000000000E+000
  0.000000000000000E+000
  0.000000000000000E+000
  0.000000000000000E+000
  0.000000000000000E+000
  0.000000000000000E+000
  0.000000000000000E+000
  0.000000000000000E+000
  0.000000000000000E+000
  0.000000000000000E+000
  0.000000000000000E+000
  0.000000000000000E+000
  0.000000000000000E+000
  0.000000000000000E+000
  0.000000000000000E+000
  0.000000000000000E+000
  0.000000000000000E+000
  0.000000000000000E+000
  0.000000000000000E+000
  0.000000000000000E+000
  0.000000000000000E+000
  0.000000000000000E+000
  0.000000000000000E+000
  0.000000000000000E+000
  0.000000000000000E+000
  0.000000000000000E+000
  0.000000000000000E+000
  0.000000000000000E+000
  0.000000000000000E+000
  0.000000000000000E+000
  0.000000000000000E+000
  0.000000000000000E+000
  0.000000000000000E+000
  0.000000000000000E+000
  0.000000000000000E+000
  0.000000000000000E+000
  0.000000000000000E+000
  0.000000000000000E+000
  0.000000000000000E+000
  0.000000000000000E+000
  0.000000000000000E+000
  0.000000000000000E+000
  0.000000000000000E+000
  0.000000000000000E+000
  0.000000000000000E+000
  0.000000000000000E+000
  0.000000000000000E+000
  0.000000000000000E+000
  0.000000000000000E+000
  0.000000000000000E+000
  0.000000000000000E+000
  0.000000000000000E+000
  0.000000000000000E+000
  0.000000000000000E+000
  0.000000000000000E+000
  0.000000000000000E+000
  0.000000000000000E+000
  0.000000000000000E+000
  0.000000000000000E+000
  0.000000000000000E+000
  0.000000000000000E+000
  0.000000000000000E+000
  0.000000000000000E+000
  0.000000000000000E+000
  0.000000000000000E+000
  0.000000000000000E+000
  0.000000000000000E+000
  0.000000000000000E+000
  0.000000000000000E+000
  0.000000000000000E+000
  0.000000000000000E+000
  0.000000000000000E+000
  0.000000000000000E+000
  0.000000000000000E+000
  0.000000000000000E+000
  0.000000000000000E+000
  0.000000000000000E+000
  0.000000000000000E+000
  0.000000000000000E+000
  0.000000000000000E+000
  0.000000000000000E+000
  0.000000000000000E+000
  0.000000000000000E+000
  0.000000000000000E+000
  0.000000000000000E+000
  0.000000000000000E+000
  0.000000000000000E+000
  0.000000000000000E+000
  0.000000000000000E+000
  0.000000000000000E+000
  0.000000000000000E+000
  0.000000000000000E+000
  0.000000000000000E+000
  0.000000000000000E+000
  0.000000000000000E+000
  0.000000000000000E+000
  0.000000000000000E+000
  0.000000000000000E+000
  0.000000000000000E+000
  0.000000000000000E+000
  0.000000000000000E+000
  0.000000000000000E+000
  0.000000000000000E+000
  0.000000000000000E+000
  0.000000000000000E+000
  0.000000000000000E+000
  0.000000000000000E+000
  0.000000000000000E+000
  0.000000000000000E+000
  0.000000000000000E+000
  0.000000000000000E+000
  0.000000000000000E+000
  0.000000000000000E+000
  0.000000000000000E+000
  0.000000000000000E+000
  0.000000000000000E+000
  0.000000000000000E+000
  0.000000000000000E+000
  0.000000000000000E+000
  0.000000000000000E+000
  0.000000000000000E+000
  0.000000000000000E+000
  0.000000000000000E+000
  0.000000000000000E+000
  0.000000000000000E+000
  0.000000000000000E+000
  0.000000000000000E+000
  0.000000000000000E+000
  0.000000000000000E+000
  0.000000000000000E+000
  0.000000000000000E+000
  0.000000000000000E+000
  0.000000000000000E+000
  0.000000000000000E+000
  0.000000000000000E+000
  0.000000000000000E+000
  0.000000000000000E+000
  0.000000000000000E+000
  0.000000000000000E+000
  0.000000000000000E+000
  0.000000000000000E+000
  0.000000000000000E+000
  0.000000000000000E+000
  0.000000000000000E+000
  0.000000000000000E+000
  0.000000000000000E+000
  0.000000000000000E+000
  0.000000000000000E+000
  0.000000000000000E+000
  0.000000000000000E+000
  0.000000000000000E+000
  0.000000000000000E+000
  0.000000000000000E+000
  0.000000000000000E+000
  0.000000000000000E+000
  0.000000000000000E+000
  0.000000000000000E+000
  0.000000000000000E+000
  0.000000000000000E+000
  0.000000000000000E+000
  0.000000000000000E+000
  0.000000000000000E+000
  0.000000000000000E+000
  0.000000000000000E+000
  0.000000000000000E+000
  0.000000000000000E+000
  0.000000000000000E+000
  0.000000000000000E+000
  0.000000000000000E+000
  0.000000000000000E+000
  0.000000000000000E+000
  0.000000000000000E+000
  0.000000000000000E+000
  0.000000000000000E+000
  0.000000000000000E+000
  0.000000000000000E+000
  0.000000000000000E+000
  0.000000000000000E+000
  0.000000000000000E+000
  0.000000000000000E+000
  0.000000000000000E+000
  0.000000000000000E+000
  0.000000000000000E+000
  0.000000000000000E+000
  0.000000000000000E+000
  0.000000000000000E+000
  0.000000000000000E+000
  0.000000000000000E+000
  0.000000000000000E+000
  0.000000000000000E+000
  0.000000000000000E+000
  0.000000000000000E+000
  0.000000000000000E+000
  0.000000000000000E+000
  0.000000000000000E+000
  0.000000000000000E+000
  0.000000000000000E+000
  0.000000000000000E+000
  0.000000000000000E+000
  0.000000000000000E+000
  0.000000000000000E+000
  0.000000000000000E+000
  0.000000000000000E+000
  0.000000000000000E+000
  0.000000000000000E+000
  0.000000000000000E+000
  0.000000000000000E+000
  0.000000000000000E+000
  0.000000000000000E+000
  0.000000000000000E+000
  0.000000000000000E+000
  0.000000000000000E+000
  0.000000000000000E+000
  0.000000000000000E+000
  0.000000000000000E+000
  0.000000000000000E+000
  0.000000000000000E+000
  0.000000000000000E+000
  0.000000000000000E+000
  0.000000000000000E+000
  0.000000000000000E+000
  0.000000000000000E+000
  0.000000000000000E+000
  0.000000000000000E+000
  0.000000000000000E+000
  0.000000000000000E+000
  0.000000000000000E+000
  0.000000000000000E+000
  0.000000000000000E+000
  0.000000000000000E+000
  0.000000000000000E+000
  0.000000000000000E+000
  0.000000000000000E+000
  0.000000000000000E+000
  0.000000000000000E+000
  0.000000000000000E+000
  0.000000000000000E+000
  0.000000000000000E+000
  0.000000000000000E+000
  0.000000000000000E+000
  0.000000000000000E+000
  0.000000000000000E+000
  0.000000000000000E+000
  0.000000000000000E+000
  0.000000000000000E+000
  0.000000000000000E+000
  0.000000000000000E+000
  0.000000000000000E+000
  0.000000000000000E+000
  0.000000000000000E+000
  0.000000000000000E+000
  0.000000000000000E+000
  0.000000000000000E+000
  0.000000000000000E+000
  0.000000000000000E+000
  0.000000000000000E+000
  0.000000000000000E+000
  0.000000000000000E+000
  0.000000000000000E+000
  0.000000000000000E+000
  0.000000000000000E+000
  0.000000000000000E+000
  0.000000000000000E+000
  0.000000000000000E+000
  0.000000000000000E+000
  0.000000000000000E+000
  0.000000000000000E+000
  0.000000000000000E+000
  0.000000000000000E+000
  0.000000000000000E+000
  0.000000000000000E+000
  0.000000000000000E+000
  0.000000000000000E+000
  0.000000000000000E+000
  0.000000000000000E+000
  0.000000000000000E+000
  0.000000000000000E+000
  0.000000000000000E+000
  0.000000000000000E+000
  0.000000000000000E+000
  0.000000000000000E+000
  0.000000000000000E+000
  0.000000000000000E+000
  0.000000000000000E+000
  0.000000000000000E+000
  0.000000000000000E+000
  0.000000000000000E+000
  0.000000000000000E+000
  0.000000000000000E+000
  0.000000000000000E+000
  0.000000000000000E+000
  0.000000000000000E+000
  0.000000000000000E+000
  0.000000000000000E+000
  0.000000000000000E+000
  0.000000000000000E+000
  0.000000000000000E+000
  0.000000000000000E+000
  0.000000000000000E+000
  0.000000000000000E+000
  0.000000000000000E+000
  0.000000000000000E+000
  0.000000000000000E+000
  0.000000000000000E+000
  0.000000000000000E+000
  0.000000000000000E+000
  0.000000000000000E+000
  0.000000000000000E+000
  0.000000000000000E+000
  0.000000000000000E+000
  0.000000000000000E+000
  0.000000000000000E+000
  0.000000000000000E+000
  0.000000000000000E+000
  0.000000000000000E+000
  0.000000000000000E+000
  0.000000000000000E+000
  0.000000000000000E+000
  0.000000000000000E+000
  0.000000000000000E+000
  0.000000000000000E+000
  0.000000000000000E+000
  0.000000000000000E+000
  0.000000000000000E+000
  0.000000000000000E+000
  0.000000000000000E+000
  0.000000000000000E+000
  0.000000000000000E+000
  0.000000000000000E+000
  0.000000000000000E+000
  0.000000000000000E+000
  0.000000000000000E+000
  0.000000000000000E+000
  0.000000000000000E+000
  0.000000000000000E+000
  0.000000000000000E+000
  0.000000000000000E+000
  0.000000000000000E+000
  0.000000000000000E+000
  0.000000000000000E+000
  0.000000000000000E+000
  0.000000000000000E+000
  0.000000000000000E+000
  0.000000000000000E+000
  0.000000000000000E+000
  0.000000000000000E+000
  0.000000000000000E+000
  0.000000000000000E+000
  0.000000000000000E+000
  0.000000000000000E+000
  0.000000000000000E+000
  0.000000000000000E+000
  0.000000000000000E+000
  0.000000000000000E+000
  0.000000000000000E+000
  0.000000000000000E+000
  0.000000000000000E+000
  0.000000000000000E+000
  0.000000000000000E+000
  0.000000000000000E+000
  0.000000000000000E+000
  0.000000000000000E+000
  0.000000000000000E+000
  0.000000000000000E+000
  0.000000000000000E+000
  0.000000000000000E+000
  0.000000000000000E+000
  0.000000000000000E+000
  0.000000000000000E+000
  0.000000000000000E+000
  0.000000000000000E+000
  0.000000000000000E+000
  0.000000000000000E+000
  0.000000000000000E+000
  0.000000000000000E+000
  0.000000000000000E+000
  0.000000000000000E+000
  0.000000000000000E+000
  0.000000000000000E+000
  0.000000000000000E+000
  0.000000000000000E+000
  0.000000000000000E+000
  0.000000000000000E+000
  0.000000000000000E+000
  0.000000000000000E+000
  0.000000000000000E+000
  0.000000000000000E+000
  0.000000000000000E+000
  0.000000000000000E+000
  0.000000000000000E+000
  0.000000000000000E+000
  0.000000000000000E+000
  0.000000000000000E+000
  0.000000000000000E+000
  0.000000000000000E+000
  0.000000000000000E+000
  0.000000000000000E+000
  0.000000000000000E+000
  0.000000000000000E+000
  0.000000000000000E+000
  0.000000000000000E+000
  0.000000000000000E+000
  0.000000000000000E+000
  0.000000000000000E+000
  0.000000000000000E+000
  0.000000000000000E+000
  0.000000000000000E+000
  0.000000000000000E+000
  0.000000000000000E+000
  0.000000000000000E+000
  0.000000000000000E+000
  0.000000000000000E+000
  0.000000000000000E+000
  0.000000000000000E+000
  0.000000000000000E+000
  0.000000000000000E+000
  0.000000000000000E+000
  0.000000000000000E+000
  0.000000000000000E+000
  0.000000000000000E+000
  0.000000000000000E+000
  0.000000000000000E+000
  0.000000000000000E+000
  0.000000000000000E+000
  0.000000000000000E+000
  0.000000000000000E+000
  0.000000000000000E+000
  0.000000000000000E+000
  0.000000000000000E+000
  0.000000000000000E+000
  0.000000000000000E+000
  0.000000000000000E+000
  0.000000000000000E+000
  0.000000000000000E+000
  0.000000000000000E+000
  0.000000000000000E+000
  0.000000000000000E+000
  0.000000000000000E+000
  0.000000000000000E+000
  0.000000000000000E+000
  0.000000000000000E+000
  0.000000000000000E+000
  0.000000000000000E+000
  0.000000000000000E+000
  0.000000000000000E+000
  0.000000000000000E+000
  0.000000000000000E+000
  0.000000000000000E+000
  0.000000000000000E+000
  0.000000000000000E+000
  0.000000000000000E+000
  0.000000000000000E+000
  0.000000000000000E+000
  0.000000000000000E+000
  0.000000000000000E+000
  0.000000000000000E+000
  0.000000000000000E+000
  0.000000000000000E+000
  0.000000000000000E+000
  0.000000000000000E+000
  0.000000000000000E+000
  0.000000000000000E+000
  0.000000000000000E+000
  0.000000000000000E+000
  0.000000000000000E+000
  0.000000000000000E+000
  0.000000000000000E+000
  0.000000000000000E+000
  0.000000000000000E+000
  0.000000000000000E+000
  0.000000000000000E+000
  0.000000000000000E+000
  0.000000000000000E+000
  0.000000000000000E+000
  0.000000000000000E+000
  0.000000000000000E+000
  0.000000000000000E+000
  0.000000000000000E+000
  0.000000000000000E+000
  0.000000000000000E+000
  0.000000000000000E+000
  0.000000000000000E+000
  0.000000000000000E+000
  0.000000000000000E+000
  0.000000000000000E+000
  0.000000000000000E+000
  0.000000000000000E+000
  0.000000000000000E+000
  0.000000000000000E+000
  0.000000000000000E+000
  0.000000000000000E+000
  0.000000000000000E+000
  0.000000000000000E+000
  0.000000000000000E+000
  0.000000000000000E+000
  0.000000000000000E+000
  0.000000000000000E+000
  0.000000000000000E+000
  0.000000000000000E+000
  0.000000000000000E+000
  0.000000000000000E+000
  0.000000000000000E+000
  0.000000000000000E+000
  0.000000000000000E+000
  0.000000000000000E+000
  0.000000000000000E+000
  0.000000000000000E+000
  0.000000000000000E+000
  0.000000000000000E+000
  0.000000000000000E+000
  0.000000000000000E+000
  0.000000000000000E+000
  0.000000000000000E+000
  0.000000000000000E+000
  0.000000000000000E+000
  0.000000000000000E+000
  0.000000000000000E+000
  0.000000000000000E+000
  0.000000000000000E+000
  0.000000000000000E+000
  0.000000000000000E+000
  0.000000000000000E+000
  0.000000000000000E+000
  0.000000000000000E+000
  0.000000000000000E+000
  0.000000000000000E+000
  0.000000000000000E+000
  0.000000000000000E+000
  0.000000000000000E+000
  0.000000000000000E+000
  0.000000000000000E+000
  0.000000000000000E+000
  0.000000000000000E+000
  0.000000000000000E+000
  0.000000000000000E+000
  0.000000000000000E+000
  0.000000000000000E+000
  0.000000000000000E+000
  0.000000000000000E+000
  0.000000000000000E+000
  0.000000000000000E+000
  0.000000000000000E+000
  0.000000000000000E+000
  0.000000000000000E+000
  0.000000000000000E+000
  0.000000000000000E+000
  0.000000000000000E+000
  0.000000000000000E+000
  0.000000000000000E+000
  0.000000000000000E+000
  0.000000000000000E+000
  0.000000000000000E+000
  0.000000000000000E+000
  0.000000000000000E+000
  0.000000000000000E+000
  0.000000000000000E+000
  0.000000000000000E+000
  0.000000000000000E+000
  0.000000000000000E+000
  0.000000000000000E+000
  0.000000000000000E+000
  0.000000000000000E+000
  0.000000000000000E+000
  0.000000000000000E+000
  0.000000000000000E+000
  0.000000000000000E+000
  0.000000000000000E+000
  0.000000000000000E+000
  0.000000000000000E+000
  0.000000000000000E+000
  0.000000000000000E+000
  0.000000000000000E+000
  0.000000000000000E+000
  0.000000000000000E+000
  0.000000000000000E+000
  0.000000000000000E+000
  0.000000000000000E+000
  0.000000000000000E+000
  0.000000000000000E+000
  0.000000000000000E+000
  0.000000000000000E+000
  0.000000000000000E+000
  0.000000000000000E+000
  0.000000000000000E+000
  0.000000000000000E+000
  0.000000000000000E+000
  0.000000000000000E+000
  0.000000000000000E+000
  0.000000000000000E+000
  0.000000000000000E+000
  0.000000000000000E+000
  0.000000000000000E+000
  0.000000000000000E+000
  0.000000000000000E+000
  0.000000000000000E+000
  0.000000000000000E+000
  0.000000000000000E+000
  0.000000000000000E+000
  0.000000000000000E+000
  0.000000000000000E+000
  0.000000000000000E+000
  0.000000000000000E+000
  0.000000000000000E+000
  0.000000000000000E+000
  0.000000000000000E+000
  0.000000000000000E+000
  0.000000000000000E+000
  0.000000000000000E+000
  0.000000000000000E+000
  0.000000000000000E+000
  0.000000000000000E+000
  0.000000000000000E+000
  0.000000000000000E+000
  0.000000000000000E+000
  0.000000000000000E+000
  0.000000000000000E+000
  0.000000000000000E+000
  0.000000000000000E+000
  0.000000000000000E+000
  0.000000000000000E+000
  0.000000000000000E+000
  0.000000000000000E+000
  0.000000000000000E+000
  0.000000000000000E+000
  0.000000000000000E+000
  0.000000000000000E+000
  0.000000000000000E+000
  0.000000000000000E+000
  0.000000000000000E+000
  0.000000000000000E+000
  0.000000000000000E+000
  0.000000000000000E+000
  0.000000000000000E+000
  0.000000000000000E+000
  0.000000000000000E+000
  0.000000000000000E+000
  0.000000000000000E+000
  0.000000000000000E+000
  0.000000000000000E+000
  0.000000000000000E+000
  0.000000000000000E+000
  0.000000000000000E+000
  0.000000000000000E+000
  0.000000000000000E+000
  0.000000000000000E+000
  0.000000000000000E+000
  0.000000000000000E+000
  0.000000000000000E+000
  0.000000000000000E+000
  0.000000000000000E+000
  0.000000000000000E+000
  0.000000000000000E+000
  0.000000000000000E+000
  0.000000000000000E+000
  0.000000000000000E+000
  0.000000000000000E+000
  0.000000000000000E+000
  0.000000000000000E+000
  0.000000000000000E+000
  0.000000000000000E+000
  0.000000000000000E+000
  0.000000000000000E+000
  0.000000000000000E+000
  0.000000000000000E+000
  0.000000000000000E+000
  0.000000000000000E+000
  0.000000000000000E+000
  0.000000000000000E+000
  0.000000000000000E+000
  0.000000000000000E+000
  0.000000000000000E+000
  0.000000000000000E+000
  0.000000000000000E+000
  0.000000000000000E+000
  0.000000000000000E+000
  0.000000000000000E+000
  0.000000000000000E+000
  0.000000000000000E+000
  0.000000000000000E+000
  0.000000000000000E+000
  0.000000000000000E+000
  0.000000000000000E+000
  0.000000000000000E+000
  0.000000000000000E+000
  0.000000000000000E+000
  0.000000000000000E+000
  0.000000000000000E+000
  0.000000000000000E+000
  0.000000000000000E+000
  0.000000000000000E+000
  0.000000000000000E+000
  0.000000000000000E+000
  0.000000000000000E+000
  0.000000000000000E+000
  0.000000000000000E+000
  0.000000000000000E+000
  0.000000000000000E+000
  0.000000000000000E+000
  0.000000000000000E+000
  0.000000000000000E+000
  0.000000000000000E+000
  0.000000000000000E+000
  0.000000000000000E+000
  0.000000000000000E+000
  0.000000000000000E+000
  0.000000000000000E+000
  0.000000000000000E+000
  0.000000000000000E+000
  0.000000000000000E+000
  0.000000000000000E+000
  0.000000000000000E+000
  0.000000000000000E+000
  0.000000000000000E+000
  0.000000000000000E+000
  0.000000000000000E+000
  0.000000000000000E+000
  0.000000000000000E+000
  0.000000000000000E+000
  0.000000000000000E+000
  0.000000000000000E+000
  0.000000000000000E+000
  0.000000000000000E+000
  0.000000000000000E+000
  0.000000000000000E+000
  0.000000000000000E+000
  0.000000000000000E+000
  0.000000000000000E+000
  0.000000000000000E+000
  0.000000000000000E+000
  0.000000000000000E+000
  0.000000000000000E+000
  0.000000000000000E+000
  0.000000000000000E+000
  0.000000000000000E+000
  0.000000000000000E+000
  0.000000000000000E+000
  0.000000000000000E+000
  0.000000000000000E+000
  0.000000000000000E+000
  0.000000000000000E+000
  0.000000000000000E+000
  0.000000000000000E+000
  0.000000000000000E+000
  0.000000000000000E+000
  0.000000000000000E+000
  0.000000000000000E+000
  0.000000000000000E+000
  0.000000000000000E+000
  0.000000000000000E+000
  0.000000000000000E+000
  0.000000000000000E+000
  0.000000000000000E+000
  0.000000000000000E+000
  0.000000000000000E+000
  0.000000000000000E+000
  0.000000000000000E+000
  0.000000000000000E+000
  0.000000000000000E+000
  0.000000000000000E+000
  0.000000000000000E+000
  0.000000000000000E+000
  0.000000000000000E+000
  0.000000000000000E+000
  0.000000000000000E+000
  0.000000000000000E+000
  0.000000000000000E+000
  0.000000000000000E+000
  0.000000000000000E+000
  0.000000000000000E+000
  0.000000000000000E+000
  0.000000000000000E+000
  0.000000000000000E+000
  0.000000000000000E+000
  0.000000000000000E+000
  0.000000000000000E+000
  0.000000000000000E+000
  0.000000000000000E+000
  0.000000000000000E+000
  0.000000000000000E+000
  0.000000000000000E+000
  0.000000000000000E+000
  0.000000000000000E+000
  0.000000000000000E+000
  0.000000000000000E+000
  0.000000000000000E+000
  0.000000000000000E+000
  0.000000000000000E+000
  0.000000000000000E+000
  0.000000000000000E+000
  0.000000000000000E+000
  0.000000000000000E+000
  0.000000000000000E+000
  0.000000000000000E+000
  0.000000000000000E+000
  0.000000000000000E+000
  0.000000000000000E+000
  0.000000000000000E+000
  0.000000000000000E+000
  0.000000000000000E+000
  0.000000000000000E+000
  0.000000000000000E+000
  0.000000000000000E+000
  0.000000000000000E+000
  0.000000000000000E+000
  0.000000000000000E+000
  0.000000000000000E+000
  0.000000000000000E+000
  0.000000000000000E+000
  0.000000000000000E+000
  0.000000000000000E+000
  0.000000000000000E+000
  0.000000000000000E+000
  0.000000000000000E+000
  0.000000000000000E+000
  0.000000000000000E+000
  0.000000000000000E+000
  0.000000000000000E+000
  0.000000000000000E+000
  0.000000000000000E+000
  0.000000000000000E+000
  0.000000000000000E+000
  0.000000000000000E+000
  0.000000000000000E+000
  0.000000000000000E+000
  0.000000000000000E+000
  0.000000000000000E+000
  0.000000000000000E+000
  0.000000000000000E+000
  0.000000000000000E+000
  0.000000000000000E+000
  0.000000000000000E+000
  0.000000000000000E+000
  0.000000000000000E+000
  0.000000000000000E+000
  0.000000000000000E+000
  0.000000000000000E+000
  0.000000000000000E+000
  0.000000000000000E+000
  0.000000000000000E+000
  0.000000000000000E+000
  0.000000000000000E+000
  0.000000000000000E+000
  0.000000000000000E+000
  0.000000000000000E+000
  0.000000000000000E+000
  0.000000000000000E+000
  0.000000000000000E+000
  0.000000000000000E+000
  0.000000000000000E+000
  0.000000000000000E+000
  0.000000000000000E+000
  0.000000000000000E+000
  0.000000000000000E+000
  0.000000000000000E+000
  0.000000000000000E+000
  0.000000000000000E+000
  0.000000000000000E+000
  0.000000000000000E+000
  0.000000000000000E+000
  0.000000000000000E+000
  0.000000000000000E+000
  0.000000000000000E+000
  0.000000000000000E+000
  0.000000000000000E+000
  0.000000000000000E+000
  0.000000000000000E+000
  0.000000000000000E+000
  0.000000000000000E+000
  0.000000000000000E+000
  0.000000000000000E+000
  0.000000000000000E+000
  0.000000000000000E+000
  0.000000000000000E+000
  0.000000000000000E+000
  0.000000000000000E+000
  0.000000000000000E+000
  0.000000000000000E+000
  0.000000000000000E+000
  0.000000000000000E+000
  0.000000000000000E+000
  0.000000000000000E+000
  0.000000000000000E+000
  0.000000000000000E+000
  0.000000000000000E+000
  0.000000000000000E+000
  0.000000000000000E+000
  0.000000000000000E+000
  0.000000000000000E+000
  0.000000000000000E+000
  0.000000000000000E+000
  0.000000000000000E+000
  0.000000000000000E+000
  0.000000000000000E+000
  0.000000000000000E+000
  0.000000000000000E+000
  0.000000000000000E+000
  0.000000000000000E+000
  0.000000000000000E+000
  0.000000000000000E+000
  0.000000000000000E+000
  0.000000000000000E+000
  0.000000000000000E+000
  0.000000000000000E+000
  0.000000000000000E+000
  0.000000000000000E+000
  0.000000000000000E+000
  0.000000000000000E+000
  0.000000000000000E+000
  0.000000000000000E+000
  0.000000000000000E+000
  0.000000000000000E+000
  0.000000000000000E+000
  0.000000000000000E+000
  0.000000000000000E+000
  0.000000000000000E+000
  0.000000000000000E+000
  0.000000000000000E+000
  0.000000000000000E+000
  0.000000000000000E+000
  0.000000000000000E+000
  0.000000000000000E+000
  0.000000000000000E+000
  0.000000000000000E+000
  0.000000000000000E+000
  0.000000000000000E+000
  0.000000000000000E+000
  0.000000000000000E+000
  0.000000000000000E+000
  0.000000000000000E+000
  0.000000000000000E+000
  0.000000000000000E+000
  0.000000000000000E+000
  0.000000000000000E+000
  0.000000000000000E+000
  0.000000000000000E+000
  0.000000000000000E+000
  0.000000000000000E+000
  0.000000000000000E+000
  0.000000000000000E+000
  0.000000000000000E+000
  0.000000000000000E+000
  0.000000000000000E+000
  0.000000000000000E+000
  0.000000000000000E+000
  0.000000000000000E+000
  0.000000000000000E+000
  0.000000000000000E+000
  0.000000000000000E+000
  0.000000000000000E+000
  0.000000000000000E+000
  0.000000000000000E+000
  0.000000000000000E+000
  0.000000000000000E+000
  0.000000000000000E+000
  0.000000000000000E+000
  0.000000000000000E+000
  0.000000000000000E+000
  0.000000000000000E+000
  0.000000000000000E+000
  0.000000000000000E+000
  0.000000000000000E+000
  0.000000000000000E+000
  0.000000000000000E+000
  0.000000000000000E+000
  0.000000000000000E+000
  0.000000000000000E+000
  0.000000000000000E+000
  0.000000000000000E+000
  0.000000000000000E+000
  0.000000000000000E+000
  0.000000000000000E+000
  0.000000000000000E+000
  0.000000000000000E+000
  0.000000000000000E+000
  0.000000000000000E+000
  0.000000000000000E+000
  0.000000000000000E+000
  0.000000000000000E+000
  0.000000000000000E+000
  0.000000000000000E+000
  0.000000000000000E+000
  0.000000000000000E+000
  0.000000000000000E+000
  0.000000000000000E+000
  0.000000000000000E+000
  0.000000000000000E+000
  0.000000000000000E+000
  0.000000000000000E+000
  0.000000000000000E+000
  0.000000000000000E+000
  0.000000000000000E+000
  0.000000000000000E+000
  0.000000000000000E+000
  0.000000000000000E+000
  0.000000000000000E+000
  0.000000000000000E+000
  0.000000000000000E+000
  0.000000000000000E+000
  0.000000000000000E+000
  0.000000000000000E+000
  0.000000000000000E+000
  0.000000000000000E+000
  0.000000000000000E+000
  0.000000000000000E+000
  0.000000000000000E+000
  0.000000000000000E+000
  0.000000000000000E+000
  0.000000000000000E+000
  0.000000000000000E+000
  0.000000000000000E+000
  0.000000000000000E+000
  0.000000000000000E+000
  0.000000000000000E+000
  0.000000000000000E+000
  0.000000000000000E+000
  0.000000000000000E+000
  0.000000000000000E+000
  0.000000000000000E+000
  0.000000000000000E+000
  0.000000000000000E+000
  0.000000000000000E+000
  0.000000000000000E+000
  0.000000000000000E+000
  0.000000000000000E+000
  0.000000000000000E+000
  0.000000000000000E+000
  0.000000000000000E+000
  0.000000000000000E+000
  0.000000000000000E+000
  0.000000000000000E+000
  0.000000000000000E+000
  0.000000000000000E+000
  0.000000000000000E+000
  0.000000000000000E+000
  0.000000000000000E+000
  0.000000000000000E+000
  0.000000000000000E+000
  0.000000000000000E+000
  0.000000000000000E+000
  0.000000000000000E+000
  0.000000000000000E+000
  0.000000000000000E+000
  0.000000000000000E+000
  0.000000000000000E+000
  0.000000000000000E+000
  0.000000000000000E+000
  0.000000000000000E+000
  0.000000000000000E+000
  0.000000000000000E+000
  0.000000000000000E+000
  0.000000000000000E+000
  0.000000000000000E+000
  0.000000000000000E+000
  0.000000000000000E+000
  0.000000000000000E+000
  0.000000000000000E+000
  0.000000000000000E+000
  0.000000000000000E+000
  0.000000000000000E+000
  0.000000000000000E+000
  0.000000000000000E+000
  0.000000000000000E+000
  0.000000000000000E+000
  0.000000000000000E+000
  0.000000000000000E+000
  0.000000000000000E+000
  0.000000000000000E+000
  0.000000000000000E+000
  0.000000000000000E+000
  0.000000000000000E+000
  0.000000000000000E+000
  0.000000000000000E+000
  0.000000000000000E+000
  0.000000000000000E+000
  0.000000000000000E+000
  0.000000000000000E+000
  0.000000000000000E+000
  0.000000000000000E+000
  0.000000000000000E+000
  0.000000000000000E+000
  0.000000000000000E+000
  0.000000000000000E+000
  0.000000000000000E+000
  0.000000000000000E+000
  0.000000000000000E+000
  0.000000000000000E+000
  0.000000000000000E+000
  0.000000000000000E+000
  0.000000000000000E+000
  0.000000000000000E+000
  0.000000000000000E+000
  0.000000000000000E+000
  0.000000000000000E+000
  0.000000000000000E+000
  0.000000000000000E+000
  0.000000000000000E+000
  0.000000000000000E+000
  0.000000000000000E+000
  0.000000000000000E+000
  0.000000000000000E+000
  0.000000000000000E+000
  0.000000000000000E+000
  0.000000000000000E+000
  0.000000000000000E+000
  0.000000000000000E+000
  0.000000000000000E+000
  0.000000000000000E+000
  0.000000000000000E+000
  0.000000000000000E+000
  0.000000000000000E+000
  0.000000000000000E+000
  0.000000000000000E+000
  0.000000000000000E+000
  0.000000000000000E+000
  0.000000000000000E+000
  0.000000000000000E+000
  0.000000000000000E+000
  0.000000000000000E+000
  0.000000000000000E+000
  0.000000000000000E+000
  0.000000000000000E+000
  0.000000000000000E+000
  0.000000000000000E+000
  0.000000000000000E+000
  0.000000000000000E+000
  0.000000000000000E+000
  0.000000000000000E+000
  0.000000000000000E+000
  0.000000000000000E+000
  0.000000000000000E+000
  0.000000000000000E+000
  0.000000000000000E+000
  0.000000000000000E+000
  0.000000000000000E+000
  0.000000000000000E+000
  0.000000000000000E+000
  0.000000000000000E+000
  0.000000000000000E+000
  0.000000000000000E+000
  0.000000000000000E+000
  0.000000000000000E+000
  0.000000000000000E+000
  0.000000000000000E+000
  0.000000000000000E+000
  0.000000000000000E+000
  0.000000000000000E+000
  0.000000000000000E+000
  0.000000000000000E+000
  0.000000000000000E+000
  0.000000000000000E+000
  0.000000000000000E+000
  0.000000000000000E+000
  0.000000000000000E+000
  0.000000000000000E+000
  0.000000000000000E+000
  0.000000000000000E+000
  0.000000000000000E+000
  0.000000000000000E+000
  0.000000000000000E+000
  0.000000000000000E+000
  0.000000000000000E+000
  0.000000000000000E+000
  0.000000000000000E+000
  0.000000000000000E+000
  0.000000000000000E+000
  0.000000000000000E+000
  0.000000000000000E+000
  0.000000000000000E+000
  0.000000000000000E+000
  0.000000000000000E+000
  0.000000000000000E+000
  0.000000000000000E+000
  0.000000000000000E+000
  0.000000000000000E+000
  0.000000000000000E+000
  0.000000000000000E+000
  0.000000000000000E+000
  0.000000000000000E+000
  0.000000000000000E+000
  0.000000000000000E+000
  0.000000000000000E+000
  0.000000000000000E+000
  0.000000000000000E+000
  0.000000000000000E+000
  0.000000000000000E+000
  0.000000000000000E+000
  0.000000000000000E+000
  0.000000000000000E+000
  0.000000000000000E+000
  0.000000000000000E+000
  0.000000000000000E+000
  0.000000000000000E+000
  0.000000000000000E+000
  0.000000000000000E+000
  0.000000000000000E+000
  0.000000000000000E+000
  0.000000000000000E+000
  0.000000000000000E+000
  0.000000000000000E+000
  0.000000000000000E+000
  0.000000000000000E+000
  0.000000000000000E+000
  0.000000000000000E+000
  0.000000000000000E+000
  0.000000000000000E+000
  0.000000000000000E+000
  0.000000000000000E+000
  0.000000000000000E+000
  0.000000000000000E+000
  0.000000000000000E+000
  0.000000000000000E+000
  0.000000000000000E+000
  0.000000000000000E+000
  0.000000000000000E+000
  0.000000000000000E+000
  0.000000000000000E+000
  0.000000000000000E+000
  0.000000000000000E+000
  0.000000000000000E+000
  0.000000000000000E+000
  0.000000000000000E+000
  0.000000000000000E+000
  0.000000000000000E+000
  0.000000000000000E+000
  0.000000000000000E+000
  0.000000000000000E+000
  0.000000000000000E+000
  0.000000000000000E+000
  0.000000000000000E+000
  0.000000000000000E+000
  0.000000000000000E+000
  0.000000000000000E+000
  0.000000000000000E+000
  0.000000000000000E+000
  0.000000000000000E+000
  0.000000000000000E+000
  0.000000000000000E+000
  0.000000000000000E+000
  0.000000000000000E+000
  0.000000000000000E+000
  0.000000000000000E+000
  0.000000000000000E+000
  0.000000000000000E+000
  0.000000000000000E+000
  0.000000000000000E+000
  0.000000000000000E+000
  0.000000000000000E+000
  0.000000000000000E+000
  0.000000000000000E+000
  0.000000000000000E+000
  0.000000000000000E+000
  0.000000000000000E+000
  0.000000000000000E+000
  0.000000000000000E+000
  0.000000000000000E+000
  0.000000000000000E+000
  0.000000000000000E+000
  0.000000000000000E+000
  0.000000000000000E+000
  0.000000000000000E+000
  0.000000000000000E+000
  0.000000000000000E+000
  0.000000000000000E+000
  0.000000000000000E+000
  0.000000000000000E+000
  0.000000000000000E+000
  0.000000000000000E+000
  0.000000000000000E+000
  0.000000000000000E+000
  0.000000000000000E+000
  0.000000000000000E+000
  0.000000000000000E+000
  0.000000000000000E+000
  0.000000000000000E+000
  0.000000000000000E+000
  0.000000000000000E+000
  0.000000000000000E+000
  0.000000000000000E+000
  0.000000000000000E+000
  0.000000000000000E+000
  0.000000000000000E+000
  0.000000000000000E+000
  0.000000000000000E+000
  0.000000000000000E+000
  0.000000000000000E+000
  0.000000000000000E+000
  0.000000000000000E+000
  0.000000000000000E+000
  0.000000000000000E+000
  0.000000000000000E+000
  0.000000000000000E+000
  0.000000000000000E+000
  0.000000000000000E+000
  0.000000000000000E+000
  0.000000000000000E+000
  0.000000000000000E+000
  0.000000000000000E+000
  0.000000000000000E+000
  0.000000000000000E+000
  0.000000000000000E+000
  0.000000000000000E+000
  0.000000000000000E+000
  0.000000000000000E+000
  0.000000000000000E+000
  0.000000000000000E+000
  0.000000000000000E+000
  0.000000000000000E+000
  0.000000000000000E+000
  0.000000000000000E+000
  0.000000000000000E+000
  0.000000000000000E+000
  0.000000000000000E+000
  0.000000000000000E+000
  0.000000000000000E+000
  0.000000000000000E+000
  0.000000000000000E+000
  0.000000000000000E+000
  0.000000000000000E+000
  0.000000000000000E+000
  0.000000000000000E+000
  0.000000000000000E+000
  0.000000000000000E+000
  0.000000000000000E+000
  0.000000000000000E+000
  0.000000000000000E+000
  0.000000000000000E+000
  0.000000000000000E+000
  0.000000000000000E+000
  0.000000000000000E+000
  0.000000000000000E+000
  0.000000000000000E+000
  0.000000000000000E+000
  0.000000000000000E+000
  0.000000000000000E+000
  0.000000000000000E+000
  0.000000000000000E+000
  0.000000000000000E+000
  0.000000000000000E+000
  0.000000000000000E+000
  0.000000000000000E+000
  0.000000000000000E+000
  0.000000000000000E+000
  0.000000000000000E+000
  0.000000000000000E+000
  0.000000000000000E+000
  0.000000000000000E+000
  0.000000000000000E+000
  0.000000000000000E+000
  0.000000000000000E+000
  0.000000000000000E+000
  0.000000000000000E+000
  0.000000000000000E+000
  0.000000000000000E+000
  0.000000000000000E+000
  0.000000000000000E+000
  0.000000000000000E+000
  0.000000000000000E+000
  0.000000000000000E+000
  0.000000000000000E+000
  0.000000000000000E+000
  0.000000000000000E+000
  0.000000000000000E+000
  0.000000000000000E+000
  0.000000000000000E+000
  0.000000000000000E+000
  0.000000000000000E+000
  0.000000000000000E+000
  0.000000000000000E+000
  0.000000000000000E+000
  0.000000000000000E+000
  0.000000000000000E+000
  0.000000000000000E+000
  0.000000000000000E+000
  0.000000000000000E+000
  0.000000000000000E+000
  0.000000000000000E+000
  0.000000000000000E+000
  0.000000000000000E+000
  0.000000000000000E+000
  0.000000000000000E+000
  0.000000000000000E+000
  0.000000000000000E+000
  0.000000000000000E+000
  0.000000000000000E+000
  0.000000000000000E+000
  0.000000000000000E+000
  0.000000000000000E+000
  0.000000000000000E+000
  0.000000000000000E+000
  0.000000000000000E+000
  0.000000000000000E+000
  0.000000000000000E+000
  0.000000000000000E+000
  0.000000000000000E+000
  0.000000000000000E+000
  0.000000000000000E+000
  0.000000000000000E+000
  0.000000000000000E+000
  0.000000000000000E+000
  0.000000000000000E+000
  0.000000000000000E+000
  0.000000000000000E+000
  0.000000000000000E+000
  0.000000000000000E+000
  0.000000000000000E+000
  0.000000000000000E+000
  0.000000000000000E+000
  0.000000000000000E+000
  0.000000000000000E+000
  0.000000000000000E+000
  0.000000000000000E+000
  0.000000000000000E+000
  0.000000000000000E+000
  0.000000000000000E+000
  0.000000000000000E+000
  0.000000000000000E+000
  0.000000000000000E+000
  0.000000000000000E+000
  0.000000000000000E+000
  0.000000000000000E+000
  0.000000000000000E+000
  0.000000000000000E+000
  0.000000000000000E+000
  0.000000000000000E+000
  0.000000000000000E+000
  0.000000000000000E+000
  0.000000000000000E+000
  0.000000000000000E+000
  0.000000000000000E+000
  0.000000000000000E+000
  0.000000000000000E+000
  0.000000000000000E+000
  0.000000000000000E+000
  0.000000000000000E+000
  0.000000000000000E+000
  0.000000000000000E+000
  0.000000000000000E+000
  0.000000000000000E+000
  0.000000000000000E+000
  0.000000000000000E+000
  0.000000000000000E+000
  0.000000000000000E+000
  0.000000000000000E+000
  0.000000000000000E+000
  0.000000000000000E+000
  0.000000000000000E+000
  0.000000000000000E+000
  0.000000000000000E+000
  0.000000000000000E+000
  0.000000000000000E+000
  0.000000000000000E+000
  0.000000000000000E+000
  0.000000000000000E+000
  0.000000000000000E+000
  0.000000000000000E+000
  0.000000000000000E+000
  0.000000000000000E+000
  0.000000000000000E+000
  0.000000000000000E+000
  0.000000000000000E+000
  0.000000000000000E+000
  0.000000000000000E+000
  0.000000000000000E+000
  0.000000000000000E+000
  0.000000000000000E+000
  0.000000000000000E+000
  0.000000000000000E+000
  0.000000000000000E+000
  0.000000000000000E+000
  0.000000000000000E+000
  0.000000000000000E+000
  0.000000000000000E+000
  0.000000000000000E+000
  0.000000000000000E+000
  0.000000000000000E+000
  0.000000000000000E+000
  0.000000000000000E+000
  0.000000000000000E+000
  0.000000000000000E+000
  0.000000000000000E+000
  0.000000000000000E+000
  0.000000000000000E+000
  0.000000000000000E+000
  0.000000000000000E+000
  0.000000000000000E+000
  0.000000000000000E+000
  0.000000000000000E+000
  0.000000000000000E+000
  0.000000000000000E+000
  0.000000000000000E+000
  0.000000000000000E+000
  0.000000000000000E+000
  0.000000000000000E+000
  0.000000000000000E+000
  0.000000000000000E+000
  0.000000000000000E+000
  0.000000000000000E+000
  0.000000000000000E+000
  0.000000000000000E+000
  0.000000000000000E+000
  0.000000000000000E+000
  0.000000000000000E+000
  0.000000000000000E+000
  0.000000000000000E+000
  0.000000000000000E+000
  0.000000000000000E+000
  0.000000000000000E+000
  0.000000000000000E+000
  0.000000000000000E+000
  0.000000000000000E+000
  0.000000000000000E+000
  0.000000000000000E+000
  0.000000000000000E+000
  0.000000000000000E+000
  0.000000000000000E+000
  0.000000000000000E+000
  0.000000000000000E+000
  0.000000000000000E+000
  0.000000000000000E+000
  0.000000000000000E+000
  0.000000000000000E+000
  0.000000000000000E+000
  0.000000000000000E+000
  0.000000000000000E+000
  0.000000000000000E+000
  0.000000000000000E+000
  0.000000000000000E+000
  0.000000000000000E+000
  0.000000000000000E+000
  0.000000000000000E+000
  0.000000000000000E+000
  0.000000000000000E+000
  0.000000000000000E+000
  0.000000000000000E+000
  0.000000000000000E+000
  0.000000000000000E+000
  0.000000000000000E+000
  0.000000000000000E+000
  0.000000000000000E+000
  0.000000000000000E+000
  0.000000000000000E+000
  0.000000000000000E+000
  0.000000000000000E+000
  0.000000000000000E+000
  0.000000000000000E+000
  0.000000000000000E+000
  0.000000000000000E+000
  0.000000000000000E+000
  0.000000000000000E+000
  0.000000000000000E+000
  0.000000000000000E+000
  0.000000000000000E+000
  0.000000000000000E+000
  0.000000000000000E+000
  0.000000000000000E+000
  0.000000000000000E+000
  0.000000000000000E+000
  0.000000000000000E+000
  0.000000000000000E+000
  0.000000000000000E+000
  0.000000000000000E+000
  0.000000000000000E+000
  0.000000000000000E+000
  0.000000000000000E+000
  0.000000000000000E+000
  0.000000000000000E+000
  0.000000000000000E+000
  0.000000000000000E+000
  0.000000000000000E+000
  0.000000000000000E+000
  0.000000000000000E+000
  0.000000000000000E+000
  0.000000000000000E+000
  0.000000000000000E+000
  0.000000000000000E+000
  0.000000000000000E+000
  0.000000000000000E+000
  0.000000000000000E+000
  0.000000000000000E+000
  0.000000000000000E+000
  0.000000000000000E+000
  0.000000000000000E+000
  0.000000000000000E+000
  0.000000000000000E+000
  0.000000000000000E+000
  0.000000000000000E+000
  0.000000000000000E+000
  0.000000000000000E+000
  0.000000000000000E+000
  0.000000000000000E+000
  0.000000000000000E+000
  0.000000000000000E+000
  0.000000000000000E+000
  0.000000000000000E+000
  0.000000000000000E+000
  0.000000000000000E+000
  0.000000000000000E+000
  0.000000000000000E+000
  0.000000000000000E+000
  0.000000000000000E+000
  0.000000000000000E+000
  0.000000000000000E+000
  0.000000000000000E+000
  0.000000000000000E+000
  0.000000000000000E+000
  0.000000000000000E+000
  0.000000000000000E+000
  0.000000000000000E+000
  0.000000000000000E+000
  0.000000000000000E+000
  0.000000000000000E+000
  0.000000000000000E+000
  0.000000000000000E+000
  0.000000000000000E+000
  0.000000000000000E+000
  0.000000000000000E+000
  0.000000000000000E+000
  0.000000000000000E+000
  0.000000000000000E+000
  0.000000000000000E+000
  0.000000000000000E+000
  0.000000000000000E+000
  0.000000000000000E+000
  0.000000000000000E+000
  0.000000000000000E+000
  0.000000000000000E+000
  0.000000000000000E+000
  0.000000000000000E+000
  0.000000000000000E+000
  0.000000000000000E+000
  0.000000000000000E+000
  0.000000000000000E+000
  0.000000000000000E+000
  0.000000000000000E+000
  0.000000000000000E+000
  0.000000000000000E+000
  0.000000000000000E+000
  0.000000000000000E+000
  0.000000000000000E+000
  0.000000000000000E+000
  0.000000000000000E+000
  0.000000000000000E+000
  0.000000000000000E+000
  0.000000000000000E+000
  0.000000000000000E+000
  0.000000000000000E+000
  0.000000000000000E+000
  0.000000000000000E+000
  0.000000000000000E+000
  0.000000000000000E+000
  0.000000000000000E+000
  0.000000000000000E+000
  0.000000000000000E+000
  0.000000000000000E+000
  0.000000000000000E+000
  0.000000000000000E+000
  0.000000000000000E+000
  0.000000000000000E+000
  0.000000000000000E+000
  0.000000000000000E+000
  0.000000000000000E+000
  0.000000000000000E+000
  0.000000000000000E+000
  0.000000000000000E+000
  0.000000000000000E+000
  0.000000000000000E+000
  0.000000000000000E+000
  0.000000000000000E+000
  0.000000000000000E+000
  0.000000000000000E+000
  0.000000000000000E+000
  0.000000000000000E+000
  0.000000000000000E+000
  0.000000000000000E+000
  0.000000000000000E+000
  0.000000000000000E+000
  0.000000000000000E+000
  0.000000000000000E+000
  0.000000000000000E+000
  0.000000000000000E+000
  0.000000000000000E+000
  0.000000000000000E+000
  0.000000000000000E+000
  0.000000000000000E+000
  0.000000000000000E+000
  0.000000000000000E+000
  0.000000000000000E+000
  0.000000000000000E+000
  0.000000000000000E+000
  0.000000000000000E+000
  0.000000000000000E+000
  0.000000000000000E+000
  0.000000000000000E+000
  0.000000000000000E+000
  0.000000000000000E+000
  0.000000000000000E+000
  0.000000000000000E+000
  0.000000000000000E+000
  0.000000000000000E+000
  0.000000000000000E+000
  0.000000000000000E+000
  0.000000000000000E+000
  0.000000000000000E+000
  0.000000000000000E+000
  0.000000000000000E+000
  0.000000000000000E+000
  0.000000000000000E+000
  0.000000000000000E+000
  0.000000000000000E+000
  0.000000000000000E+000
  0.000000000000000E+000
  0.000000000000000E+000
  0.000000000000000E+000
  0.000000000000000E+000
  0.000000000000000E+000
  0.000000000000000E+000
  0.000000000000000E+000
  0.000000000000000E+000
  0.000000000000000E+000
  0.000000000000000E+000
  0.000000000000000E+000
  0.000000000000000E+000
  0.000000000000000E+000
  0.000000000000000E+000
  0.000000000000000E+000
  0.000000000000000E+000
  0.000000000000000E+000
  0.000000000000000E+000
  0.000000000000000E+000
  0.000000000000000E+000
  0.000000000000000E+000
  0.000000000000000E+000
  0.000000000000000E+000
  0.000000000000000E+000
  0.000000000000000E+000
  0.000000000000000E+000
  0.000000000000000E+000
  0.000000000000000E+000
  0.000000000000000E+000
  0.000000000000000E+000
  0.000000000000000E+000
  0.000000000000000E+000
  0.000000000000000E+000
  0.000000000000000E+000
  0.000000000000000E+000
  0.000000000000000E+000
  0.000000000000000E+000
  0.000000000000000E+000
  0.000000000000000E+000
  0.000000000000000E+000
  0.000000000000000E+000
  0.000000000000000E+000
  0.000000000000000E+000
  0.000000000000000E+000
  0.000000000000000E+000
  0.000000000000000E+000
  0.000000000000000E+000
  0.000000000000000E+000
  0.000000000000000E+000
  0.000000000000000E+000
  0.000000000000000E+000
  0.000000000000000E+000
  0.000000000000000E+000
  0.000000000000000E+000
  0.000000000000000E+000
  0.000000000000000E+000
  0.000000000000000E+000
  0.000000000000000E+000
  0.000000000000000E+000
  0.000000000000000E+000
  0.000000000000000E+000
  0.000000000000000E+000
  0.000000000000000E+000
  0.000000000000000E+000
  0.000000000000000E+000
  0.000000000000000E+000
  0.000000000000000E+000
  0.000000000000000E+000
  0.000000000000000E+000
  0.000000000000000E+000
  0.000000000000000E+000
  0.000000000000000E+000
  0.000000000000000E+000
  0.000000000000000E+000
  0.000000000000000E+000
  0.000000000000000E+000
  0.000000000000000E+000
  0.000000000000000E+000
  0.000000000000000E+000
  0.000000000000000E+000
  0.000000000000000E+000
  0.000000000000000E+000
  0.000000000000000E+000
  0.000000000000000E+000
  0.000000000000000E+000
  0.000000000000000E+000
  0.000000000000000E+000
  0.000000000000000E+000
  0.000000000000000E+000
  0.000000000000000E+000
  0.000000000000000E+000
  0.000000000000000E+000
  0.000000000000000E+000
  0.000000000000000E+000
  0.000000000000000E+000
  0.000000000000000E+000
  0.000000000000000E+000
  0.000000000000000E+000
  0.000000000000000E+000
  0.000000000000000E+000
  0.000000000000000E+000
  0.000000000000000E+000
  0.000000000000000E+000
  0.000000000000000E+000
  0.000000000000000E+000
  0.000000000000000E+000
  0.000000000000000E+000
  0.000000000000000E+000
  0.000000000000000E+000
  0.000000000000000E+000
  0.000000000000000E+000
  0.000000000000000E+000
  0.000000000000000E+000
  0.000000000000000E+000
  0.000000000000000E+000
  0.000000000000000E+000
  0.000000000000000E+000
  0.000000000000000E+000
  0.000000000000000E+000
  0.000000000000000E+000
  0.000000000000000E+000
  0.000000000000000E+000
  0.000000000000000E+000
  0.000000000000000E+000
  0.000000000000000E+000
  0.000000000000000E+000
  0.000000000000000E+000
  0.000000000000000E+000
  0.000000000000000E+000
  0.000000000000000E+000
  0.000000000000000E+000
  0.000000000000000E+000
  0.000000000000000E+000
  0.000000000000000E+000
  0.000000000000000E+000
  0.000000000000000E+000
  0.000000000000000E+000
  0.000000000000000E+000
  0.000000000000000E+000
  0.000000000000000E+000
  0.000000000000000E+000
  0.000000000000000E+000
  0.000000000000000E+000
  0.000000000000000E+000
  0.000000000000000E+000
  0.000000000000000E+000
  0.000000000000000E+000
  0.000000000000000E+000
  0.000000000000000E+000
  0.000000000000000E+000
  0.000000000000000E+000
  0.000000000000000E+000
  0.000000000000000E+000
  0.000000000000000E+000
  0.000000000000000E+000
  0.000000000000000E+000
  0.000000000000000E+000
  0.000000000000000E+000
  0.000000000000000E+000
  0.000000000000000E+000
  0.000000000000000E+000
  0.000000000000000E+000
  0.000000000000000E+000
  0.000000000000000E+000
  0.000000000000000E+000
  0.000000000000000E+000
  0.000000000000000E+000
  0.000000000000000E+000
  0.000000000000000E+000
  0.000000000000000E+000
  0.000000000000000E+000
  0.000000000000000E+000
  0.000000000000000E+000
  0.000000000000000E+000
  0.000000000000000E+000
  0.000000000000000E+000
  0.000000000000000E+000
  0.000000000000000E+000
  0.000000000000000E+000
  0.000000000000000E+000
  0.000000000000000E+000
  0.000000000000000E+000
  0.000000000000000E+000
  0.000000000000000E+000
  0.000000000000000E+000
  0.000000000000000E+000
  0.000000000000000E+000
  0.000000000000000E+000
  0.000000000000000E+000
  0.000000000000000E+000
  0.000000000000000E+000
  0.000000000000000E+000
  0.000000000000000E+000
  0.000000000000000E+000
  0.000000000000000E+000
  0.000000000000000E+000
  0.000000000000000E+000
  0.000000000000000E+000
  0.000000000000000E+000
  0.000000000000000E+000
  0.000000000000000E+000
  0.000000000000000E+000
  0.000000000000000E+000
  0.000000000000000E+000
  0.000000000000000E+000
  0.000000000000000E+000
  0.000000000000000E+000
  0.000000000000000E+000
  0.000000000000000E+000
  0.000000000000000E+000
  0.000000000000000E+000
  0.000000000000000E+000
  0.000000000000000E+000
  0.000000000000000E+000
  0.000000000000000E+000
  0.000000000000000E+000
  0.000000000000000E+000
  0.000000000000000E+000
  0.000000000000000E+000
  0.000000000000000E+000
  0.000000000000000E+000
  0.000000000000000E+000
  0.000000000000000E+000
  0.000000000000000E+000
  0.000000000000000E+000
  0.000000000000000E+000
  0.000000000000000E+000
  0.000000000000000E+000
  0.000000000000000E+000
  0.000000000000000E+000
  0.000000000000000E+000
  0.000000000000000E+000
  0.000000000000000E+000
  0.000000000000000E+000
  0.000000000000000E+000
  0.000000000000000E+000
  0.000000000000000E+000
  0.000000000000000E+000
  0.000000000000000E+000
  0.000000000000000E+000
  0.000000000000000E+000
  0.000000000000000E+000
  0.000000000000000E+000
  0.000000000000000E+000
  0.000000000000000E+000
  0.000000000000000E+000
  0.000000000000000E+000
  0.000000000000000E+000
  0.000000000000000E+000
  0.000000000000000E+000
  0.000000000000000E+000
  0.000000000000000E+000
  0.000000000000000E+000
  0.000000000000000E+000
  0.000000000000000E+000
  0.000000000000000E+000
  0.000000000000000E+000
  0.000000000000000E+000
  0.000000000000000E+000
  0.000000000000000E+000
  0.000000000000000E+000
  0.000000000000000E+000
  0.000000000000000E+000
  0.000000000000000E+000
  0.000000000000000E+000
  0.000000000000000E+000
  0.000000000000000E+000
  0.000000000000000E+000
  0.000000000000000E+000
  0.000000000000000E+000
  0.000000000000000E+000
  0.000000000000000E+000
  0.000000000000000E+000
  0.000000000000000E+000
  0.000000000000000E+000
  0.000000000000000E+000
  0.000000000000000E+000
  0.000000000000000E+000
  0.000000000000000E+000
  0.000000000000000E+000
  0.000000000000000E+000
  0.000000000000000E+000
  0.000000000000000E+000
  0.000000000000000E+000
  0.000000000000000E+000
  0.000000000000000E+000
  0.000000000000000E+000
  0.000000000000000E+000
  0.000000000000000E+000
  0.000000000000000E+000
  0.000000000000000E+000
  0.000000000000000E+000
  0.000000000000000E+000
  0.000000000000000E+000
  0.000000000000000E+000
  0.000000000000000E+000
  0.000000000000000E+000
  0.000000000000000E+000
  0.000000000000000E+000
  0.000000000000000E+000
  0.000000000000000E+000
  0.000000000000000E+000
  0.000000000000000E+000
  0.000000000000000E+000
  0.000000000000000E+000
  0.000000000000000E+000
  0.000000000000000E+000
  0.000000000000000E+000
  0.000000000000000E+000
  0.000000000000000E+000
  0.000000000000000E+000
  0.000000000000000E+000
  0.000000000000000E+000
  0.000000000000000E+000
  0.000000000000000E+000
  0.000000000000000E+000
  0.000000000000000E+000
  0.000000000000000E+000
  0.000000000000000E+000
  0.000000000000000E+000
  0.000000000000000E+000
  0.000000000000000E+000
  0.000000000000000E+000
  0.000000000000000E+000
  0.000000000000000E+000
  0.000000000000000E+000
  0.000000000000000E+000
  0.000000000000000E+000
  0.000000000000000E+000
  0.000000000000000E+000
  0.000000000000000E+000
  0.000000000000000E+000
  0.000000000000000E+000
  0.000000000000000E+000
  0.000000000000000E+000
  0.000000000000000E+000
  0.000000000000000E+000
  0.000000000000000E+000
  0.000000000000000E+000
  0.000000000000000E+000
  0.000000000000000E+000
  0.000000000000000E+000
  0.000000000000000E+000
  0.000000000000000E+000
  0.000000000000000E+000
  0.000000000000000E+000
  0.000000000000000E+000
  0.000000000000000E+000
  0.000000000000000E+000
  0.000000000000000E+000
  0.000000000000000E+000
  0.000000000000000E+000
  0.000000000000000E+000
  0.000000000000000E+000
  0.000000000000000E+000
  0.000000000000000E+000
  0.000000000000000E+000
  0.000000000000000E+000
  0.000000000000000E+000
  0.000000000000000E+000
  0.000000000000000E+000
  0.000000000000000E+000
  0.000000000000000E+000
  0.000000000000000E+000
  0.000000000000000E+000
  0.000000000000000E+000
  0.000000000000000E+000
  0.000000000000000E+000
  0.000000000000000E+000
  0.000000000000000E+000
  0.000000000000000E+000
  0.000000000000000E+000
  0.000000000000000E+000
  0.000000000000000E+000
  0.000000000000000E+000
  0.000000000000000E+000
  0.000000000000000E+000
  0.000000000000000E+000
  0.000000000000000E+000
  0.000000000000000E+000
  0.000000000000000E+000
  0.000000000000000E+000
  0.000000000000000E+000
  0.000000000000000E+000
  0.000000000000000E+000
  0.000000000000000E+000
  0.000000000000000E+000
  0.000000000000000E+000
  0.000000000000000E+000
  0.000000000000000E+000
  0.000000000000000E+000
  0.000000000000000E+000
  0.000000000000000E+000
  0.000000000000000E+000
  0.000000000000000E+000
  0.000000000000000E+000
  0.000000000000000E+000
  0.000000000000000E+000
  0.000000000000000E+000
  0.000000000000000E+000
  0.000000000000000E+000
  0.000000000000000E+000
  0.000000000000000E+000
  0.000000000000000E+000
  0.000000000000000E+000
  0.000000000000000E+000
  0.000000000000000E+000
  0.000000000000000E+000
  0.000000000000000E+000
  0.000000000000000E+000
  0.000000000000000E+000
  0.000000000000000E+000
  0.000000000000000E+000
  0.000000000000000E+000
  0.000000000000000E+000
  0.000000000000000E+000
  0.000000000000000E+000
  0.000000000000000E+000
  0.000000000000000E+000
  0.000000000000000E+000
  0.000000000000000E+000
  0.000000000000000E+000
  0.000000000000000E+000
  0.000000000000000E+000
  0.000000000000000E+000
  0.000000000000000E+000
  0.000000000000000E+000
  0.000000000000000E+000
  0.000000000000000E+000
  0.000000000000000E+000
  0.000000000000000E+000
  0.000000000000000E+000
  0.000000000000000E+000
  0.000000000000000E+000
  0.000000000000000E+000
  0.000000000000000E+000
  0.000000000000000E+000
  0.000000000000000E+000
  0.000000000000000E+000
  0.000000000000000E+000
  0.000000000000000E+000
  0.000000000000000E+000
  0.000000000000000E+000
  0.000000000000000E+000
  0.000000000000000E+000
  0.000000000000000E+000
  0.000000000000000E+000
  0.000000000000000E+000
  0.000000000000000E+000
  0.000000000000000E+000
  0.000000000000000E+000
  0.000000000000000E+000
  0.000000000000000E+000
  0.000000000000000E+000
  0.000000000000000E+000
  0.000000000000000E+000
  0.000000000000000E+000
  0.000000000000000E+000
  0.000000000000000E+000
  0.000000000000000E+000
  0.000000000000000E+000
  0.000000000000000E+000
  0.000000000000000E+000
  0.000000000000000E+000
  0.000000000000000E+000
  0.000000000000000E+000
  0.000000000000000E+000
  0.000000000000000E+000
  0.000000000000000E+000
  0.000000000000000E+000
  0.000000000000000E+000
  0.000000000000000E+000
  0.000000000000000E+000
  0.000000000000000E+000
  0.000000000000000E+000
  0.000000000000000E+000
  0.000000000000000E+000
  0.000000000000000E+000
  0.000000000000000E+000
  0.000000000000000E+000
  0.000000000000000E+000
  0.000000000000000E+000
  0.000000000000000E+000
  0.000000000000000E+000
  0.000000000000000E+000
  0.000000000000000E+000
  0.000000000000000E+000
  0.000000000000000E+000
  0.000000000000000E+000
  0.000000000000000E+000
  0.000000000000000E+000
  0.000000000000000E+000
  0.000000000000000E+000
  0.000000000000000E+000
  0.000000000000000E+000
  0.000000000000000E+000
  0.000000000000000E+000
  0.000000000000000E+000
  0.000000000000000E+000
  0.000000000000000E+000
  0.000000000000000E+000
  0.000000000000000E+000
  0.000000000000000E+000
  0.000000000000000E+000
  0.000000000000000E+000
  0.000000000000000E+000
  0.000000000000000E+000
  0.000000000000000E+000
  0.000000000000000E+000
  0.000000000000000E+000
  0.000000000000000E+000
  0.000000000000000E+000
  0.000000000000000E+000
  0.000000000000000E+000
  0.000000000000000E+000
  0.000000000000000E+000
  0.000000000000000E+000
  0.000000000000000E+000
  0.000000000000000E+000
  0.000000000000000E+000
  0.000000000000000E+000
  0.000000000000000E+000
  0.000000000000000E+000
  0.000000000000000E+000
  0.000000000000000E+000
  0.000000000000000E+000
  0.000000000000000E+000
  0.000000000000000E+000
  0.000000000000000E+000
  0.000000000000000E+000
  0.000000000000000E+000
  0.000000000000000E+000
  0.000000000000000E+000
  0.000000000000000E+000
  0.000000000000000E+000
  0.000000000000000E+000
  0.000000000000000E+000
  0.000000000000000E+000
  0.000000000000000E+000
  0.000000000000000E+000
  0.000000000000000E+000
  0.000000000000000E+000
  0.000000000000000E+000
  0.000000000000000E+000
  0.000000000000000E+000
  0.000000000000000E+000
  0.000000000000000E+000
  0.000000000000000E+000
  0.000000000000000E+000
  0.000000000000000E+000
  0.000000000000000E+000
  0.000000000000000E+000
  0.000000000000000E+000
  0.000000000000000E+000
  0.000000000000000E+000
  0.000000000000000E+000
  0.000000000000000E+000
  0.000000000000000E+000
  0.000000000000000E+000
  0.000000000000000E+000
  0.000000000000000E+000
  0.000000000000000E+000
  0.000000000000000E+000
  0.000000000000000E+000
  0.000000000000000E+000
  0.000000000000000E+000
  0.000000000000000E+000
  0.000000000000000E+000
  0.000000000000000E+000
  0.000000000000000E+000
  0.000000000000000E+000
  0.000000000000000E+000
  0.000000000000000E+000
  0.000000000000000E+000
  0.000000000000000E+000
  0.000000000000000E+000
  0.000000000000000E+000
  0.000000000000000E+000
  0.000000000000000E+000
  0.000000000000000E+000
  0.000000000000000E+000
  0.000000000000000E+000
  0.000000000000000E+000
  0.000000000000000E+000
  0.000000000000000E+000
  0.000000000000000E+000
  0.000000000000000E+000
  0.000000000000000E+000
  0.000000000000000E+000
  0.000000000000000E+000
  0.000000000000000E+000
  0.000000000000000E+000
  0.000000000000000E+000
  0.000000000000000E+000
  0.000000000000000E+000
  0.000000000000000E+000
  0.000000000000000E+000
  0.000000000000000E+000
  0.000000000000000E+000
  0.000000000000000E+000
  0.000000000000000E+000
  0.000000000000000E+000
  0.000000000000000E+000
  0.000000000000000E+000
  0.000000000000000E+000
  0.000000000000000E+000
  0.000000000000000E+000
  0.000000000000000E+000
  0.000000000000000E+000
  0.000000000000000E+000
  0.000000000000000E+000
  0.000000000000000E+000
  0.000000000000000E+000
  0.000000000000000E+000
  0.000000000000000E+000
  0.000000000000000E+000
  0.000000000000000E+000
  0.000000000000000E+000
  0.000000000000000E+000
  0.000000000000000E+000
  0.000000000000000E+000
  0.000000000000000E+000
  0.000000000000000E+000
  0.000000000000000E+000
  0.000000000000000E+000
  0.000000000000000E+000
  0.000000000000000E+000
  0.000000000000000E+000
  0.000000000000000E+000
  0.000000000000000E+000
  0.000000000000000E+000
  0.000000000000000E+000
  0.000000000000000E+000
  0.000000000000000E+000
  0.000000000000000E+000
  0.000000000000000E+000
  0.000000000000000E+000
  0.000000000000000E+000
  0.000000000000000E+000
  0.000000000000000E+000
  0.000000000000000E+000
  0.000000000000000E+000
  0.000000000000000E+000
  0.000000000000000E+000
  0.000000000000000E+000
  0.000000000000000E+000
  0.000000000000000E+000
  0.000000000000000E+000
  0.000000000000000E+000
  0.000000000000000E+000
  0.000000000000000E+000
  0.000000000000000E+000
  0.000000000000000E+000
  0.000000000000000E+000
  0.000000000000000E+000
  0.000000000000000E+000
  0.000000000000000E+000
  0.000000000000000E+000
  0.000000000000000E+000
  0.000000000000000E+000
  0.000000000000000E+000
  0.000000000000000E+000
  0.000000000000000E+000
SCALARS elementIsPlast double 
LOOKUP_TABLE default
   1.00000000000000     
   1.00000000000000     
   1.00000000000000     
   1.00000000000000     
   1.00000000000000     
   1.00000000000000     
   1.00000000000000     
  0.000000000000000E+000
  0.000000000000000E+000
  0.000000000000000E+000
  0.000000000000000E+000
  0.000000000000000E+000
  0.000000000000000E+000
  0.000000000000000E+000
  0.000000000000000E+000
  0.000000000000000E+000
  0.000000000000000E+000
  0.000000000000000E+000
  0.000000000000000E+000
  0.000000000000000E+000
  0.000000000000000E+000
  0.000000000000000E+000
  0.000000000000000E+000
  0.000000000000000E+000
  0.000000000000000E+000
  0.000000000000000E+000
  0.000000000000000E+000
  0.000000000000000E+000
  0.000000000000000E+000
  0.000000000000000E+000
  0.000000000000000E+000
  0.000000000000000E+000
  0.000000000000000E+000
  0.000000000000000E+000
  0.000000000000000E+000
  0.000000000000000E+000
  0.000000000000000E+000
  0.000000000000000E+000
  0.000000000000000E+000
  0.000000000000000E+000
  0.000000000000000E+000
  0.000000000000000E+000
  0.000000000000000E+000
  0.000000000000000E+000
  0.000000000000000E+000
  0.000000000000000E+000
  0.000000000000000E+000
  0.000000000000000E+000
  0.000000000000000E+000
  0.000000000000000E+000
  0.000000000000000E+000
  0.000000000000000E+000
  0.000000000000000E+000
  0.000000000000000E+000
  0.000000000000000E+000
  0.000000000000000E+000
  0.000000000000000E+000
  0.000000000000000E+000
  0.000000000000000E+000
  0.000000000000000E+000
  0.000000000000000E+000
  0.000000000000000E+000
  0.000000000000000E+000
  0.000000000000000E+000
  0.000000000000000E+000
  0.000000000000000E+000
  0.000000000000000E+000
  0.000000000000000E+000
  0.000000000000000E+000
  0.000000000000000E+000
  0.000000000000000E+000
  0.000000000000000E+000
  0.000000000000000E+000
  0.000000000000000E+000
  0.000000000000000E+000
  0.000000000000000E+000
  0.000000000000000E+000
  0.000000000000000E+000
  0.000000000000000E+000
  0.000000000000000E+000
  0.000000000000000E+000
  0.000000000000000E+000
  0.000000000000000E+000
  0.000000000000000E+000
  0.000000000000000E+000
  0.000000000000000E+000
  0.000000000000000E+000
  0.000000000000000E+000
  0.000000000000000E+000
  0.000000000000000E+000
  0.000000000000000E+000
  0.000000000000000E+000
  0.000000000000000E+000
  0.000000000000000E+000
  0.000000000000000E+000
  0.000000000000000E+000
  0.000000000000000E+000
  0.000000000000000E+000
  0.000000000000000E+000
  0.000000000000000E+000
  0.000000000000000E+000
  0.000000000000000E+000
  0.000000000000000E+000
  0.000000000000000E+000
  0.000000000000000E+000
  0.000000000000000E+000
  0.000000000000000E+000
  0.000000000000000E+000
  0.000000000000000E+000
  0.000000000000000E+000
  0.000000000000000E+000
  0.000000000000000E+000
  0.000000000000000E+000
  0.000000000000000E+000
  0.000000000000000E+000
  0.000000000000000E+000
  0.000000000000000E+000
  0.000000000000000E+000
  0.000000000000000E+000
  0.000000000000000E+000
  0.000000000000000E+000
  0.000000000000000E+000
  0.000000000000000E+000
  0.000000000000000E+000
  0.000000000000000E+000
  0.000000000000000E+000
  0.000000000000000E+000
  0.000000000000000E+000
  0.000000000000000E+000
  0.000000000000000E+000
  0.000000000000000E+000
  0.000000000000000E+000
  0.000000000000000E+000
  0.000000000000000E+000
  0.000000000000000E+000
  0.000000000000000E+000
  0.000000000000000E+000
  0.000000000000000E+000
  0.000000000000000E+000
  0.000000000000000E+000
  0.000000000000000E+000
  0.000000000000000E+000
  0.000000000000000E+000
  0.000000000000000E+000
  0.000000000000000E+000
  0.000000000000000E+000
  0.000000000000000E+000
  0.000000000000000E+000
  0.000000000000000E+000
  0.000000000000000E+000
  0.000000000000000E+000
  0.000000000000000E+000
  0.000000000000000E+000
  0.000000000000000E+000
  0.000000000000000E+000
  0.000000000000000E+000
  0.000000000000000E+000
  0.000000000000000E+000
  0.000000000000000E+000
  0.000000000000000E+000
  0.000000000000000E+000
  0.000000000000000E+000
  0.000000000000000E+000
  0.000000000000000E+000
  0.000000000000000E+000
  0.000000000000000E+000
  0.000000000000000E+000
  0.000000000000000E+000
  0.000000000000000E+000
  0.000000000000000E+000
  0.000000000000000E+000
  0.000000000000000E+000
  0.000000000000000E+000
  0.000000000000000E+000
  0.000000000000000E+000
  0.000000000000000E+000
  0.000000000000000E+000
  0.000000000000000E+000
  0.000000000000000E+000
  0.000000000000000E+000
  0.000000000000000E+000
  0.000000000000000E+000
  0.000000000000000E+000
  0.000000000000000E+000
  0.000000000000000E+000
  0.000000000000000E+000
  0.000000000000000E+000
  0.000000000000000E+000
  0.000000000000000E+000
  0.000000000000000E+000
  0.000000000000000E+000
  0.000000000000000E+000
  0.000000000000000E+000
  0.000000000000000E+000
  0.000000000000000E+000
  0.000000000000000E+000
  0.000000000000000E+000
  0.000000000000000E+000
  0.000000000000000E+000
  0.000000000000000E+000
  0.000000000000000E+000
  0.000000000000000E+000
  0.000000000000000E+000
  0.000000000000000E+000
  0.000000000000000E+000
  0.000000000000000E+000
  0.000000000000000E+000
  0.000000000000000E+000
  0.000000000000000E+000
  0.000000000000000E+000
  0.000000000000000E+000
  0.000000000000000E+000
  0.000000000000000E+000
  0.000000000000000E+000
  0.000000000000000E+000
  0.000000000000000E+000
  0.000000000000000E+000
  0.000000000000000E+000
  0.000000000000000E+000
  0.000000000000000E+000
  0.000000000000000E+000
  0.000000000000000E+000
  0.000000000000000E+000
  0.000000000000000E+000
  0.000000000000000E+000
  0.000000000000000E+000
  0.000000000000000E+000
  0.000000000000000E+000
  0.000000000000000E+000
  0.000000000000000E+000
  0.000000000000000E+000
  0.000000000000000E+000
  0.000000000000000E+000
  0.000000000000000E+000
  0.000000000000000E+000
  0.000000000000000E+000
  0.000000000000000E+000
  0.000000000000000E+000
  0.000000000000000E+000
  0.000000000000000E+000
  0.000000000000000E+000
  0.000000000000000E+000
  0.000000000000000E+000
  0.000000000000000E+000
  0.000000000000000E+000
  0.000000000000000E+000
  0.000000000000000E+000
  0.000000000000000E+000
  0.000000000000000E+000
  0.000000000000000E+000
  0.000000000000000E+000
  0.000000000000000E+000
  0.000000000000000E+000
  0.000000000000000E+000
  0.000000000000000E+000
  0.000000000000000E+000
  0.000000000000000E+000
  0.000000000000000E+000
  0.000000000000000E+000
  0.000000000000000E+000
  0.000000000000000E+000
  0.000000000000000E+000
  0.000000000000000E+000
  0.000000000000000E+000
  0.000000000000000E+000
  0.000000000000000E+000
  0.000000000000000E+000
  0.000000000000000E+000
  0.000000000000000E+000
  0.000000000000000E+000
  0.000000000000000E+000
  0.000000000000000E+000
  0.000000000000000E+000
  0.000000000000000E+000
  0.000000000000000E+000
  0.000000000000000E+000
  0.000000000000000E+000
  0.000000000000000E+000
  0.000000000000000E+000
  0.000000000000000E+000
  0.000000000000000E+000
  0.000000000000000E+000
  0.000000000000000E+000
  0.000000000000000E+000
  0.000000000000000E+000
  0.000000000000000E+000
  0.000000000000000E+000
  0.000000000000000E+000
  0.000000000000000E+000
  0.000000000000000E+000
  0.000000000000000E+000
  0.000000000000000E+000
  0.000000000000000E+000
  0.000000000000000E+000
  0.000000000000000E+000
  0.000000000000000E+000
  0.000000000000000E+000
  0.000000000000000E+000
  0.000000000000000E+000
  0.000000000000000E+000
  0.000000000000000E+000
  0.000000000000000E+000
  0.000000000000000E+000
  0.000000000000000E+000
  0.000000000000000E+000
  0.000000000000000E+000
  0.000000000000000E+000
  0.000000000000000E+000
  0.000000000000000E+000
  0.000000000000000E+000
  0.000000000000000E+000
  0.000000000000000E+000
  0.000000000000000E+000
  0.000000000000000E+000
  0.000000000000000E+000
  0.000000000000000E+000
  0.000000000000000E+000
  0.000000000000000E+000
  0.000000000000000E+000
  0.000000000000000E+000
  0.000000000000000E+000
  0.000000000000000E+000
  0.000000000000000E+000
  0.000000000000000E+000
  0.000000000000000E+000
  0.000000000000000E+000
  0.000000000000000E+000
  0.000000000000000E+000
  0.000000000000000E+000
  0.000000000000000E+000
  0.000000000000000E+000
  0.000000000000000E+000
  0.000000000000000E+000
  0.000000000000000E+000
  0.000000000000000E+000
  0.000000000000000E+000
  0.000000000000000E+000
  0.000000000000000E+000
  0.000000000000000E+000
  0.000000000000000E+000
  0.000000000000000E+000
  0.000000000000000E+000
  0.000000000000000E+000
  0.000000000000000E+000
  0.000000000000000E+000
  0.000000000000000E+000
  0.000000000000000E+000
  0.000000000000000E+000
  0.000000000000000E+000
  0.000000000000000E+000
  0.000000000000000E+000
  0.000000000000000E+000
  0.000000000000000E+000
  0.000000000000000E+000
  0.000000000000000E+000
  0.000000000000000E+000
  0.000000000000000E+000
  0.000000000000000E+000
  0.000000000000000E+000
  0.000000000000000E+000
  0.000000000000000E+000
  0.000000000000000E+000
  0.000000000000000E+000
  0.000000000000000E+000
  0.000000000000000E+000
  0.000000000000000E+000
  0.000000000000000E+000
  0.000000000000000E+000
  0.000000000000000E+000
  0.000000000000000E+000
  0.000000000000000E+000
  0.000000000000000E+000
  0.000000000000000E+000
  0.000000000000000E+000
  0.000000000000000E+000
  0.000000000000000E+000
  0.000000000000000E+000
  0.000000000000000E+000
  0.000000000000000E+000
  0.000000000000000E+000
  0.000000000000000E+000
  0.000000000000000E+000
  0.000000000000000E+000
  0.000000000000000E+000
  0.000000000000000E+000
  0.000000000000000E+000
  0.000000000000000E+000
  0.000000000000000E+000
  0.000000000000000E+000
  0.000000000000000E+000
  0.000000000000000E+000
  0.000000000000000E+000
  0.000000000000000E+000
  0.000000000000000E+000
  0.000000000000000E+000
  0.000000000000000E+000
  0.000000000000000E+000
  0.000000000000000E+000
  0.000000000000000E+000
  0.000000000000000E+000
  0.000000000000000E+000
  0.000000000000000E+000
  0.000000000000000E+000
  0.000000000000000E+000
  0.000000000000000E+000
  0.000000000000000E+000
  0.000000000000000E+000
  0.000000000000000E+000
  0.000000000000000E+000
  0.000000000000000E+000
  0.000000000000000E+000
  0.000000000000000E+000
  0.000000000000000E+000
  0.000000000000000E+000
  0.000000000000000E+000
  0.000000000000000E+000
  0.000000000000000E+000
  0.000000000000000E+000
  0.000000000000000E+000
  0.000000000000000E+000
  0.000000000000000E+000
  0.000000000000000E+000
  0.000000000000000E+000
  0.000000000000000E+000
  0.000000000000000E+000
  0.000000000000000E+000
  0.000000000000000E+000
  0.000000000000000E+000
  0.000000000000000E+000
  0.000000000000000E+000
  0.000000000000000E+000
  0.000000000000000E+000
  0.000000000000000E+000
  0.000000000000000E+000
  0.000000000000000E+000
  0.000000000000000E+000
  0.000000000000000E+000
  0.000000000000000E+000
  0.000000000000000E+000
  0.000000000000000E+000
  0.000000000000000E+000
  0.000000000000000E+000
  0.000000000000000E+000
  0.000000000000000E+000
  0.000000000000000E+000
  0.000000000000000E+000
  0.000000000000000E+000
  0.000000000000000E+000
  0.000000000000000E+000
  0.000000000000000E+000
  0.000000000000000E+000
  0.000000000000000E+000
  0.000000000000000E+000
  0.000000000000000E+000
  0.000000000000000E+000
  0.000000000000000E+000
  0.000000000000000E+000
  0.000000000000000E+000
  0.000000000000000E+000
  0.000000000000000E+000
  0.000000000000000E+000
  0.000000000000000E+000
  0.000000000000000E+000
  0.000000000000000E+000
  0.000000000000000E+000
  0.000000000000000E+000
  0.000000000000000E+000
  0.000000000000000E+000
  0.000000000000000E+000
  0.000000000000000E+000
  0.000000000000000E+000
  0.000000000000000E+000
  0.000000000000000E+000
  0.000000000000000E+000
  0.000000000000000E+000
  0.000000000000000E+000
  0.000000000000000E+000
  0.000000000000000E+000
  0.000000000000000E+000
  0.000000000000000E+000
  0.000000000000000E+000
  0.000000000000000E+000
  0.000000000000000E+000
  0.000000000000000E+000
  0.000000000000000E+000
  0.000000000000000E+000
  0.000000000000000E+000
  0.000000000000000E+000
  0.000000000000000E+000
  0.000000000000000E+000
  0.000000000000000E+000
  0.000000000000000E+000
  0.000000000000000E+000
  0.000000000000000E+000
  0.000000000000000E+000
  0.000000000000000E+000
  0.000000000000000E+000
  0.000000000000000E+000
  0.000000000000000E+000
  0.000000000000000E+000
  0.000000000000000E+000
  0.000000000000000E+000
  0.000000000000000E+000
  0.000000000000000E+000
  0.000000000000000E+000
  0.000000000000000E+000
  0.000000000000000E+000
  0.000000000000000E+000
  0.000000000000000E+000
  0.000000000000000E+000
  0.000000000000000E+000
  0.000000000000000E+000
  0.000000000000000E+000
  0.000000000000000E+000
  0.000000000000000E+000
  0.000000000000000E+000
  0.000000000000000E+000
  0.000000000000000E+000
  0.000000000000000E+000
  0.000000000000000E+000
  0.000000000000000E+000
  0.000000000000000E+000
  0.000000000000000E+000
  0.000000000000000E+000
  0.000000000000000E+000
  0.000000000000000E+000
  0.000000000000000E+000
  0.000000000000000E+000
  0.000000000000000E+000
  0.000000000000000E+000
  0.000000000000000E+000
  0.000000000000000E+000
  0.000000000000000E+000
  0.000000000000000E+000
  0.000000000000000E+000
  0.000000000000000E+000
  0.000000000000000E+000
  0.000000000000000E+000
  0.000000000000000E+000
  0.000000000000000E+000
  0.000000000000000E+000
  0.000000000000000E+000
  0.000000000000000E+000
  0.000000000000000E+000
  0.000000000000000E+000
  0.000000000000000E+000
  0.000000000000000E+000
  0.000000000000000E+000
  0.000000000000000E+000
  0.000000000000000E+000
  0.000000000000000E+000
  0.000000000000000E+000
  0.000000000000000E+000
  0.000000000000000E+000
  0.000000000000000E+000
  0.000000000000000E+000
  0.000000000000000E+000
  0.000000000000000E+000
  0.000000000000000E+000
  0.000000000000000E+000
  0.000000000000000E+000
  0.000000000000000E+000
  0.000000000000000E+000
  0.000000000000000E+000
  0.000000000000000E+000
  0.000000000000000E+000
  0.000000000000000E+000
  0.000000000000000E+000
  0.000000000000000E+000
  0.000000000000000E+000
  0.000000000000000E+000
  0.000000000000000E+000
  0.000000000000000E+000
  0.000000000000000E+000
  0.000000000000000E+000
  0.000000000000000E+000
  0.000000000000000E+000
  0.000000000000000E+000
  0.000000000000000E+000
  0.000000000000000E+000
  0.000000000000000E+000
  0.000000000000000E+000
  0.000000000000000E+000
  0.000000000000000E+000
  0.000000000000000E+000
  0.000000000000000E+000
  0.000000000000000E+000
  0.000000000000000E+000
  0.000000000000000E+000
  0.000000000000000E+000
  0.000000000000000E+000
  0.000000000000000E+000
  0.000000000000000E+000
  0.000000000000000E+000
  0.000000000000000E+000
  0.000000000000000E+000
  0.000000000000000E+000
  0.000000000000000E+000
  0.000000000000000E+000
  0.000000000000000E+000
  0.000000000000000E+000
  0.000000000000000E+000
  0.000000000000000E+000
  0.000000000000000E+000
  0.000000000000000E+000
  0.000000000000000E+000
  0.000000000000000E+000
  0.000000000000000E+000
  0.000000000000000E+000
  0.000000000000000E+000
  0.000000000000000E+000
  0.000000000000000E+000
  0.000000000000000E+000
  0.000000000000000E+000
  0.000000000000000E+000
  0.000000000000000E+000
  0.000000000000000E+000
  0.000000000000000E+000
  0.000000000000000E+000
  0.000000000000000E+000
  0.000000000000000E+000
  0.000000000000000E+000
  0.000000000000000E+000
  0.000000000000000E+000
  0.000000000000000E+000
  0.000000000000000E+000
  0.000000000000000E+000
  0.000000000000000E+000
  0.000000000000000E+000
  0.000000000000000E+000
  0.000000000000000E+000
  0.000000000000000E+000
  0.000000000000000E+000
  0.000000000000000E+000
  0.000000000000000E+000
  0.000000000000000E+000
  0.000000000000000E+000
  0.000000000000000E+000
  0.000000000000000E+000
  0.000000000000000E+000
  0.000000000000000E+000
  0.000000000000000E+000
  0.000000000000000E+000
  0.000000000000000E+000
  0.000000000000000E+000
  0.000000000000000E+000
  0.000000000000000E+000
  0.000000000000000E+000
  0.000000000000000E+000
  0.000000000000000E+000
  0.000000000000000E+000
  0.000000000000000E+000
  0.000000000000000E+000
  0.000000000000000E+000
  0.000000000000000E+000
  0.000000000000000E+000
  0.000000000000000E+000
  0.000000000000000E+000
  0.000000000000000E+000
  0.000000000000000E+000
  0.000000000000000E+000
  0.000000000000000E+000
  0.000000000000000E+000
  0.000000000000000E+000
  0.000000000000000E+000
  0.000000000000000E+000
  0.000000000000000E+000
  0.000000000000000E+000
  0.000000000000000E+000
  0.000000000000000E+000
  0.000000000000000E+000
  0.000000000000000E+000
  0.000000000000000E+000
  0.000000000000000E+000
  0.000000000000000E+000
  0.000000000000000E+000
  0.000000000000000E+000
  0.000000000000000E+000
  0.000000000000000E+000
  0.000000000000000E+000
  0.000000000000000E+000
  0.000000000000000E+000
  0.000000000000000E+000
  0.000000000000000E+000
  0.000000000000000E+000
  0.000000000000000E+000
  0.000000000000000E+000
  0.000000000000000E+000
  0.000000000000000E+000
  0.000000000000000E+000
  0.000000000000000E+000
  0.000000000000000E+000
  0.000000000000000E+000
  0.000000000000000E+000
  0.000000000000000E+000
  0.000000000000000E+000
  0.000000000000000E+000
  0.000000000000000E+000
  0.000000000000000E+000
  0.000000000000000E+000
  0.000000000000000E+000
  0.000000000000000E+000
  0.000000000000000E+000
  0.000000000000000E+000
  0.000000000000000E+000
  0.000000000000000E+000
  0.000000000000000E+000
  0.000000000000000E+000
  0.000000000000000E+000
  0.000000000000000E+000
  0.000000000000000E+000
  0.000000000000000E+000
  0.000000000000000E+000
  0.000000000000000E+000
  0.000000000000000E+000
  0.000000000000000E+000
  0.000000000000000E+000
  0.000000000000000E+000
  0.000000000000000E+000
  0.000000000000000E+000
  0.000000000000000E+000
  0.000000000000000E+000
  0.000000000000000E+000
  0.000000000000000E+000
  0.000000000000000E+000
  0.000000000000000E+000
  0.000000000000000E+000
  0.000000000000000E+000
  0.000000000000000E+000
  0.000000000000000E+000
  0.000000000000000E+000
  0.000000000000000E+000
  0.000000000000000E+000
  0.000000000000000E+000
  0.000000000000000E+000
  0.000000000000000E+000
  0.000000000000000E+000
  0.000000000000000E+000
  0.000000000000000E+000
  0.000000000000000E+000
  0.000000000000000E+000
  0.000000000000000E+000
  0.000000000000000E+000
  0.000000000000000E+000
  0.000000000000000E+000
  0.000000000000000E+000
  0.000000000000000E+000
  0.000000000000000E+000
  0.000000000000000E+000
  0.000000000000000E+000
  0.000000000000000E+000
  0.000000000000000E+000
  0.000000000000000E+000
  0.000000000000000E+000
  0.000000000000000E+000
  0.000000000000000E+000
  0.000000000000000E+000
  0.000000000000000E+000
  0.000000000000000E+000
  0.000000000000000E+000
  0.000000000000000E+000
  0.000000000000000E+000
  0.000000000000000E+000
  0.000000000000000E+000
  0.000000000000000E+000
  0.000000000000000E+000
  0.000000000000000E+000
  0.000000000000000E+000
  0.000000000000000E+000
  0.000000000000000E+000
  0.000000000000000E+000
  0.000000000000000E+000
  0.000000000000000E+000
  0.000000000000000E+000
  0.000000000000000E+000
  0.000000000000000E+000
  0.000000000000000E+000
  0.000000000000000E+000
  0.000000000000000E+000
  0.000000000000000E+000
  0.000000000000000E+000
  0.000000000000000E+000
  0.000000000000000E+000
  0.000000000000000E+000
  0.000000000000000E+000
  0.000000000000000E+000
  0.000000000000000E+000
  0.000000000000000E+000
  0.000000000000000E+000
  0.000000000000000E+000
  0.000000000000000E+000
  0.000000000000000E+000
  0.000000000000000E+000
  0.000000000000000E+000
  0.000000000000000E+000
  0.000000000000000E+000
  0.000000000000000E+000
  0.000000000000000E+000
  0.000000000000000E+000
  0.000000000000000E+000
  0.000000000000000E+000
  0.000000000000000E+000
  0.000000000000000E+000
  0.000000000000000E+000
  0.000000000000000E+000
  0.000000000000000E+000
  0.000000000000000E+000
  0.000000000000000E+000
  0.000000000000000E+000
  0.000000000000000E+000
  0.000000000000000E+000
  0.000000000000000E+000
  0.000000000000000E+000
  0.000000000000000E+000
  0.000000000000000E+000
  0.000000000000000E+000
  0.000000000000000E+000
  0.000000000000000E+000
  0.000000000000000E+000
  0.000000000000000E+000
  0.000000000000000E+000
  0.000000000000000E+000
  0.000000000000000E+000
  0.000000000000000E+000
  0.000000000000000E+000
  0.000000000000000E+000
  0.000000000000000E+000
  0.000000000000000E+000
  0.000000000000000E+000
  0.000000000000000E+000
  0.000000000000000E+000
  0.000000000000000E+000
  0.000000000000000E+000
  0.000000000000000E+000
  0.000000000000000E+000
  0.000000000000000E+000
  0.000000000000000E+000
  0.000000000000000E+000
  0.000000000000000E+000
  0.000000000000000E+000
  0.000000000000000E+000
  0.000000000000000E+000
  0.000000000000000E+000
  0.000000000000000E+000
  0.000000000000000E+000
  0.000000000000000E+000
  0.000000000000000E+000
  0.000000000000000E+000
  0.000000000000000E+000
  0.000000000000000E+000
  0.000000000000000E+000
  0.000000000000000E+000
  0.000000000000000E+000
  0.000000000000000E+000
  0.000000000000000E+000
  0.000000000000000E+000
  0.000000000000000E+000
  0.000000000000000E+000
  0.000000000000000E+000
  0.000000000000000E+000
  0.000000000000000E+000
  0.000000000000000E+000
  0.000000000000000E+000
  0.000000000000000E+000
  0.000000000000000E+000
  0.000000000000000E+000
  0.000000000000000E+000
  0.000000000000000E+000
  0.000000000000000E+000
  0.000000000000000E+000
  0.000000000000000E+000
  0.000000000000000E+000
  0.000000000000000E+000
  0.000000000000000E+000
  0.000000000000000E+000
  0.000000000000000E+000
  0.000000000000000E+000
  0.000000000000000E+000
  0.000000000000000E+000
  0.000000000000000E+000
  0.000000000000000E+000
  0.000000000000000E+000
  0.000000000000000E+000
  0.000000000000000E+000
  0.000000000000000E+000
  0.000000000000000E+000
  0.000000000000000E+000
  0.000000000000000E+000
  0.000000000000000E+000
  0.000000000000000E+000
  0.000000000000000E+000
  0.000000000000000E+000
  0.000000000000000E+000
  0.000000000000000E+000
  0.000000000000000E+000
  0.000000000000000E+000
  0.000000000000000E+000
  0.000000000000000E+000
  0.000000000000000E+000
  0.000000000000000E+000
  0.000000000000000E+000
  0.000000000000000E+000
  0.000000000000000E+000
  0.000000000000000E+000
  0.000000000000000E+000
  0.000000000000000E+000
  0.000000000000000E+000
  0.000000000000000E+000
  0.000000000000000E+000
  0.000000000000000E+000
  0.000000000000000E+000
  0.000000000000000E+000
  0.000000000000000E+000
  0.000000000000000E+000
  0.000000000000000E+000
  0.000000000000000E+000
  0.000000000000000E+000
  0.000000000000000E+000
  0.000000000000000E+000
  0.000000000000000E+000
  0.000000000000000E+000
  0.000000000000000E+000
  0.000000000000000E+000
  0.000000000000000E+000
  0.000000000000000E+000
  0.000000000000000E+000
  0.000000000000000E+000
  0.000000000000000E+000
  0.000000000000000E+000
  0.000000000000000E+000
  0.000000000000000E+000
  0.000000000000000E+000
  0.000000000000000E+000
  0.000000000000000E+000
  0.000000000000000E+000
  0.000000000000000E+000
  0.000000000000000E+000
  0.000000000000000E+000
  0.000000000000000E+000
  0.000000000000000E+000
  0.000000000000000E+000
  0.000000000000000E+000
  0.000000000000000E+000
  0.000000000000000E+000
  0.000000000000000E+000
  0.000000000000000E+000
  0.000000000000000E+000
  0.000000000000000E+000
  0.000000000000000E+000
  0.000000000000000E+000
  0.000000000000000E+000
  0.000000000000000E+000
  0.000000000000000E+000
  0.000000000000000E+000
  0.000000000000000E+000
  0.000000000000000E+000
  0.000000000000000E+000
  0.000000000000000E+000
  0.000000000000000E+000
  0.000000000000000E+000
  0.000000000000000E+000
  0.000000000000000E+000
  0.000000000000000E+000
  0.000000000000000E+000
  0.000000000000000E+000
  0.000000000000000E+000
  0.000000000000000E+000
  0.000000000000000E+000
  0.000000000000000E+000
  0.000000000000000E+000
  0.000000000000000E+000
  0.000000000000000E+000
  0.000000000000000E+000
  0.000000000000000E+000
  0.000000000000000E+000
  0.000000000000000E+000
  0.000000000000000E+000
  0.000000000000000E+000
  0.000000000000000E+000
  0.000000000000000E+000
  0.000000000000000E+000
  0.000000000000000E+000
  0.000000000000000E+000
  0.000000000000000E+000
  0.000000000000000E+000
  0.000000000000000E+000
  0.000000000000000E+000
  0.000000000000000E+000
  0.000000000000000E+000
  0.000000000000000E+000
  0.000000000000000E+000
  0.000000000000000E+000
  0.000000000000000E+000
  0.000000000000000E+000
  0.000000000000000E+000
  0.000000000000000E+000
  0.000000000000000E+000
  0.000000000000000E+000
  0.000000000000000E+000
  0.000000000000000E+000
  0.000000000000000E+000
  0.000000000000000E+000
  0.000000000000000E+000
  0.000000000000000E+000
  0.000000000000000E+000
  0.000000000000000E+000
  0.000000000000000E+000
  0.000000000000000E+000
  0.000000000000000E+000
  0.000000000000000E+000
  0.000000000000000E+000
  0.000000000000000E+000
  0.000000000000000E+000
  0.000000000000000E+000
  0.000000000000000E+000
  0.000000000000000E+000
  0.000000000000000E+000
  0.000000000000000E+000
  0.000000000000000E+000
  0.000000000000000E+000
  0.000000000000000E+000
  0.000000000000000E+000
  0.000000000000000E+000
  0.000000000000000E+000
  0.000000000000000E+000
  0.000000000000000E+000
  0.000000000000000E+000
  0.000000000000000E+000
  0.000000000000000E+000
  0.000000000000000E+000
  0.000000000000000E+000
  0.000000000000000E+000
  0.000000000000000E+000
  0.000000000000000E+000
  0.000000000000000E+000
  0.000000000000000E+000
  0.000000000000000E+000
  0.000000000000000E+000
  0.000000000000000E+000
  0.000000000000000E+000
  0.000000000000000E+000
  0.000000000000000E+000
  0.000000000000000E+000
  0.000000000000000E+000
  0.000000000000000E+000
  0.000000000000000E+000
  0.000000000000000E+000
  0.000000000000000E+000
  0.000000000000000E+000
  0.000000000000000E+000
  0.000000000000000E+000
  0.000000000000000E+000
  0.000000000000000E+000
  0.000000000000000E+000
  0.000000000000000E+000
  0.000000000000000E+000
  0.000000000000000E+000
  0.000000000000000E+000
  0.000000000000000E+000
  0.000000000000000E+000
  0.000000000000000E+000
  0.000000000000000E+000
  0.000000000000000E+000
  0.000000000000000E+000
  0.000000000000000E+000
  0.000000000000000E+000
  0.000000000000000E+000
  0.000000000000000E+000
  0.000000000000000E+000
  0.000000000000000E+000
  0.000000000000000E+000
  0.000000000000000E+000
  0.000000000000000E+000
  0.000000000000000E+000
  0.000000000000000E+000
  0.000000000000000E+000
  0.000000000000000E+000
  0.000000000000000E+000
  0.000000000000000E+000
  0.000000000000000E+000
  0.000000000000000E+000
  0.000000000000000E+000
  0.000000000000000E+000
  0.000000000000000E+000
  0.000000000000000E+000
  0.000000000000000E+000
  0.000000000000000E+000
  0.000000000000000E+000
  0.000000000000000E+000
  0.000000000000000E+000
  0.000000000000000E+000
  0.000000000000000E+000
  0.000000000000000E+000
  0.000000000000000E+000
  0.000000000000000E+000
  0.000000000000000E+000
  0.000000000000000E+000
  0.000000000000000E+000
  0.000000000000000E+000
  0.000000000000000E+000
  0.000000000000000E+000
  0.000000000000000E+000
  0.000000000000000E+000
  0.000000000000000E+000
  0.000000000000000E+000
  0.000000000000000E+000
  0.000000000000000E+000
  0.000000000000000E+000
  0.000000000000000E+000
  0.000000000000000E+000
  0.000000000000000E+000
  0.000000000000000E+000
  0.000000000000000E+000
  0.000000000000000E+000
  0.000000000000000E+000
  0.000000000000000E+000
  0.000000000000000E+000
  0.000000000000000E+000
  0.000000000000000E+000
  0.000000000000000E+000
  0.000000000000000E+000
  0.000000000000000E+000
  0.000000000000000E+000
  0.000000000000000E+000
  0.000000000000000E+000
  0.000000000000000E+000
  0.000000000000000E+000
  0.000000000000000E+000
  0.000000000000000E+000
  0.000000000000000E+000
  0.000000000000000E+000
  0.000000000000000E+000
  0.000000000000000E+000
  0.000000000000000E+000
  0.000000000000000E+000
  0.000000000000000E+000
  0.000000000000000E+000
  0.000000000000000E+000
  0.000000000000000E+000
  0.000000000000000E+000
  0.000000000000000E+000
  0.000000000000000E+000
  0.000000000000000E+000
  0.000000000000000E+000
  0.000000000000000E+000
  0.000000000000000E+000
  0.000000000000000E+000
  0.000000000000000E+000
  0.000000000000000E+000
  0.000000000000000E+000
  0.000000000000000E+000
  0.000000000000000E+000
  0.000000000000000E+000
  0.000000000000000E+000
  0.000000000000000E+000
  0.000000000000000E+000
  0.000000000000000E+000
  0.000000000000000E+000
  0.000000000000000E+000
  0.000000000000000E+000
  0.000000000000000E+000
  0.000000000000000E+000
  0.000000000000000E+000
  0.000000000000000E+000
  0.000000000000000E+000
  0.000000000000000E+000
  0.000000000000000E+000
  0.000000000000000E+000
  0.000000000000000E+000
  0.000000000000000E+000
  0.000000000000000E+000
  0.000000000000000E+000
  0.000000000000000E+000
  0.000000000000000E+000
  0.000000000000000E+000
  0.000000000000000E+000
  0.000000000000000E+000
  0.000000000000000E+000
  0.000000000000000E+000
  0.000000000000000E+000
  0.000000000000000E+000
  0.000000000000000E+000
  0.000000000000000E+000
  0.000000000000000E+000
  0.000000000000000E+000
  0.000000000000000E+000
  0.000000000000000E+000
  0.000000000000000E+000
  0.000000000000000E+000
  0.000000000000000E+000
  0.000000000000000E+000
  0.000000000000000E+000
  0.000000000000000E+000
  0.000000000000000E+000
  0.000000000000000E+000
  0.000000000000000E+000
  0.000000000000000E+000
  0.000000000000000E+000
  0.000000000000000E+000
  0.000000000000000E+000
  0.000000000000000E+000
  0.000000000000000E+000
  0.000000000000000E+000
  0.000000000000000E+000
  0.000000000000000E+000
  0.000000000000000E+000
  0.000000000000000E+000
  0.000000000000000E+000
  0.000000000000000E+000
  0.000000000000000E+000
  0.000000000000000E+000
  0.000000000000000E+000
  0.000000000000000E+000
  0.000000000000000E+000
  0.000000000000000E+000
  0.000000000000000E+000
  0.000000000000000E+000
  0.000000000000000E+000
  0.000000000000000E+000
  0.000000000000000E+000
  0.000000000000000E+000
  0.000000000000000E+000
  0.000000000000000E+000
  0.000000000000000E+000
  0.000000000000000E+000
  0.000000000000000E+000
  0.000000000000000E+000
  0.000000000000000E+000
  0.000000000000000E+000
  0.000000000000000E+000
  0.000000000000000E+000
  0.000000000000000E+000
  0.000000000000000E+000
  0.000000000000000E+000
  0.000000000000000E+000
  0.000000000000000E+000
  0.000000000000000E+000
  0.000000000000000E+000
  0.000000000000000E+000
  0.000000000000000E+000
  0.000000000000000E+000
  0.000000000000000E+000
  0.000000000000000E+000
  0.000000000000000E+000
  0.000000000000000E+000
  0.000000000000000E+000
  0.000000000000000E+000
  0.000000000000000E+000
  0.000000000000000E+000
  0.000000000000000E+000
  0.000000000000000E+000
  0.000000000000000E+000
  0.000000000000000E+000
  0.000000000000000E+000
  0.000000000000000E+000
  0.000000000000000E+000
  0.000000000000000E+000
  0.000000000000000E+000
  0.000000000000000E+000
  0.000000000000000E+000
  0.000000000000000E+000
  0.000000000000000E+000
  0.000000000000000E+000
  0.000000000000000E+000
  0.000000000000000E+000
  0.000000000000000E+000
  0.000000000000000E+000
  0.000000000000000E+000
  0.000000000000000E+000
  0.000000000000000E+000
  0.000000000000000E+000
  0.000000000000000E+000
  0.000000000000000E+000
  0.000000000000000E+000
  0.000000000000000E+000
  0.000000000000000E+000
  0.000000000000000E+000
  0.000000000000000E+000
  0.000000000000000E+000
  0.000000000000000E+000
  0.000000000000000E+000
  0.000000000000000E+000
  0.000000000000000E+000
  0.000000000000000E+000
  0.000000000000000E+000
  0.000000000000000E+000
  0.000000000000000E+000
  0.000000000000000E+000
  0.000000000000000E+000
  0.000000000000000E+000
  0.000000000000000E+000
  0.000000000000000E+000
  0.000000000000000E+000
  0.000000000000000E+000
  0.000000000000000E+000
  0.000000000000000E+000
  0.000000000000000E+000
  0.000000000000000E+000
  0.000000000000000E+000
  0.000000000000000E+000
  0.000000000000000E+000
  0.000000000000000E+000
  0.000000000000000E+000
  0.000000000000000E+000
  0.000000000000000E+000
  0.000000000000000E+000
  0.000000000000000E+000
  0.000000000000000E+000
  0.000000000000000E+000
  0.000000000000000E+000
  0.000000000000000E+000
  0.000000000000000E+000
  0.000000000000000E+000
  0.000000000000000E+000
  0.000000000000000E+000
  0.000000000000000E+000
  0.000000000000000E+000
  0.000000000000000E+000
  0.000000000000000E+000
  0.000000000000000E+000
  0.000000000000000E+000
  0.000000000000000E+000
  0.000000000000000E+000
  0.000000000000000E+000
  0.000000000000000E+000
  0.000000000000000E+000
  0.000000000000000E+000
  0.000000000000000E+000
  0.000000000000000E+000
  0.000000000000000E+000
  0.000000000000000E+000
  0.000000000000000E+000
  0.000000000000000E+000
  0.000000000000000E+000
  0.000000000000000E+000
  0.000000000000000E+000
  0.000000000000000E+000
  0.000000000000000E+000
  0.000000000000000E+000
  0.000000000000000E+000
  0.000000000000000E+000
  0.000000000000000E+000
  0.000000000000000E+000
  0.000000000000000E+000
  0.000000000000000E+000
  0.000000000000000E+000
  0.000000000000000E+000
  0.000000000000000E+000
  0.000000000000000E+000
  0.000000000000000E+000
  0.000000000000000E+000
  0.000000000000000E+000
  0.000000000000000E+000
  0.000000000000000E+000
  0.000000000000000E+000
  0.000000000000000E+000
  0.000000000000000E+000
  0.000000000000000E+000
  0.000000000000000E+000
  0.000000000000000E+000
  0.000000000000000E+000
  0.000000000000000E+000
  0.000000000000000E+000
  0.000000000000000E+000
  0.000000000000000E+000
  0.000000000000000E+000
  0.000000000000000E+000
  0.000000000000000E+000
  0.000000000000000E+000
  0.000000000000000E+000
  0.000000000000000E+000
  0.000000000000000E+000
  0.000000000000000E+000
  0.000000000000000E+000
  0.000000000000000E+000
  0.000000000000000E+000
  0.000000000000000E+000
  0.000000000000000E+000
  0.000000000000000E+000
  0.000000000000000E+000
  0.000000000000000E+000
  0.000000000000000E+000
  0.000000000000000E+000
  0.000000000000000E+000
  0.000000000000000E+000
  0.000000000000000E+000
  0.000000000000000E+000
  0.000000000000000E+000
  0.000000000000000E+000
  0.000000000000000E+000
  0.000000000000000E+000
  0.000000000000000E+000
  0.000000000000000E+000
  0.000000000000000E+000
  0.000000000000000E+000
  0.000000000000000E+000
  0.000000000000000E+000
  0.000000000000000E+000
  0.000000000000000E+000
  0.000000000000000E+000
  0.000000000000000E+000
  0.000000000000000E+000
  0.000000000000000E+000
  0.000000000000000E+000
  0.000000000000000E+000
  0.000000000000000E+000
  0.000000000000000E+000
  0.000000000000000E+000
  0.000000000000000E+000
  0.000000000000000E+000
  0.000000000000000E+000
  0.000000000000000E+000
  0.000000000000000E+000
  0.000000000000000E+000
  0.000000000000000E+000
  0.000000000000000E+000
  0.000000000000000E+000
  0.000000000000000E+000
  0.000000000000000E+000
  0.000000000000000E+000
  0.000000000000000E+000
  0.000000000000000E+000
  0.000000000000000E+000
  0.000000000000000E+000
  0.000000000000000E+000
  0.000000000000000E+000
  0.000000000000000E+000
  0.000000000000000E+000
  0.000000000000000E+000
  0.000000000000000E+000
  0.000000000000000E+000
  0.000000000000000E+000
  0.000000000000000E+000
  0.000000000000000E+000
  0.000000000000000E+000
  0.000000000000000E+000
  0.000000000000000E+000
  0.000000000000000E+000
  0.000000000000000E+000
  0.000000000000000E+000
  0.000000000000000E+000
  0.000000000000000E+000
  0.000000000000000E+000
  0.000000000000000E+000
  0.000000000000000E+000
  0.000000000000000E+000
  0.000000000000000E+000
  0.000000000000000E+000
  0.000000000000000E+000
  0.000000000000000E+000
  0.000000000000000E+000
  0.000000000000000E+000
  0.000000000000000E+000
  0.000000000000000E+000
  0.000000000000000E+000
  0.000000000000000E+000
  0.000000000000000E+000
  0.000000000000000E+000
  0.000000000000000E+000
  0.000000000000000E+000
  0.000000000000000E+000
  0.000000000000000E+000
  0.000000000000000E+000
  0.000000000000000E+000
  0.000000000000000E+000
  0.000000000000000E+000
  0.000000000000000E+000
  0.000000000000000E+000
  0.000000000000000E+000
  0.000000000000000E+000
  0.000000000000000E+000
  0.000000000000000E+000
  0.000000000000000E+000
  0.000000000000000E+000
  0.000000000000000E+000
  0.000000000000000E+000
  0.000000000000000E+000
  0.000000000000000E+000
  0.000000000000000E+000
  0.000000000000000E+000
  0.000000000000000E+000
  0.000000000000000E+000
  0.000000000000000E+000
  0.000000000000000E+000
  0.000000000000000E+000
  0.000000000000000E+000
  0.000000000000000E+000
  0.000000000000000E+000
  0.000000000000000E+000
  0.000000000000000E+000
  0.000000000000000E+000
  0.000000000000000E+000
  0.000000000000000E+000
  0.000000000000000E+000
  0.000000000000000E+000
  0.000000000000000E+000
  0.000000000000000E+000
  0.000000000000000E+000
  0.000000000000000E+000
  0.000000000000000E+000
  0.000000000000000E+000
  0.000000000000000E+000
  0.000000000000000E+000
  0.000000000000000E+000
  0.000000000000000E+000
  0.000000000000000E+000
  0.000000000000000E+000
  0.000000000000000E+000
  0.000000000000000E+000
  0.000000000000000E+000
  0.000000000000000E+000
  0.000000000000000E+000
  0.000000000000000E+000
  0.000000000000000E+000
  0.000000000000000E+000
  0.000000000000000E+000
  0.000000000000000E+000
  0.000000000000000E+000
  0.000000000000000E+000
  0.000000000000000E+000
  0.000000000000000E+000
  0.000000000000000E+000
  0.000000000000000E+000
  0.000000000000000E+000
  0.000000000000000E+000
  0.000000000000000E+000
  0.000000000000000E+000
  0.000000000000000E+000
  0.000000000000000E+000
  0.000000000000000E+000
  0.000000000000000E+000
  0.000000000000000E+000
  0.000000000000000E+000
  0.000000000000000E+000
  0.000000000000000E+000
  0.000000000000000E+000
  0.000000000000000E+000
  0.000000000000000E+000
  0.000000000000000E+000
  0.000000000000000E+000
  0.000000000000000E+000
  0.000000000000000E+000
  0.000000000000000E+000
  0.000000000000000E+000
  0.000000000000000E+000
  0.000000000000000E+000
  0.000000000000000E+000
  0.000000000000000E+000
  0.000000000000000E+000
  0.000000000000000E+000
  0.000000000000000E+000
  0.000000000000000E+000
  0.000000000000000E+000
  0.000000000000000E+000
  0.000000000000000E+000
  0.000000000000000E+000
  0.000000000000000E+000
  0.000000000000000E+000
  0.000000000000000E+000
  0.000000000000000E+000
  0.000000000000000E+000
  0.000000000000000E+000
  0.000000000000000E+000
  0.000000000000000E+000
  0.000000000000000E+000
  0.000000000000000E+000
  0.000000000000000E+000
  0.000000000000000E+000
  0.000000000000000E+000
  0.000000000000000E+000
  0.000000000000000E+000
  0.000000000000000E+000
  0.000000000000000E+000
  0.000000000000000E+000
  0.000000000000000E+000
  0.000000000000000E+000
  0.000000000000000E+000
  0.000000000000000E+000
  0.000000000000000E+000
  0.000000000000000E+000
  0.000000000000000E+000
  0.000000000000000E+000
  0.000000000000000E+000
  0.000000000000000E+000
  0.000000000000000E+000
  0.000000000000000E+000
  0.000000000000000E+000
  0.000000000000000E+000
  0.000000000000000E+000
  0.000000000000000E+000
  0.000000000000000E+000
  0.000000000000000E+000
  0.000000000000000E+000
  0.000000000000000E+000
  0.000000000000000E+000
  0.000000000000000E+000
  0.000000000000000E+000
  0.000000000000000E+000
  0.000000000000000E+000
  0.000000000000000E+000
  0.000000000000000E+000
  0.000000000000000E+000
  0.000000000000000E+000
  0.000000000000000E+000
  0.000000000000000E+000
  0.000000000000000E+000
  0.000000000000000E+000
  0.000000000000000E+000
  0.000000000000000E+000
  0.000000000000000E+000
  0.000000000000000E+000
  0.000000000000000E+000
  0.000000000000000E+000
  0.000000000000000E+000
  0.000000000000000E+000
  0.000000000000000E+000
  0.000000000000000E+000
  0.000000000000000E+000
  0.000000000000000E+000
  0.000000000000000E+000
  0.000000000000000E+000
  0.000000000000000E+000
  0.000000000000000E+000
  0.000000000000000E+000
  0.000000000000000E+000
  0.000000000000000E+000
  0.000000000000000E+000
  0.000000000000000E+000
  0.000000000000000E+000
  0.000000000000000E+000
  0.000000000000000E+000
  0.000000000000000E+000
  0.000000000000000E+000
  0.000000000000000E+000
  0.000000000000000E+000
  0.000000000000000E+000
  0.000000000000000E+000
  0.000000000000000E+000
  0.000000000000000E+000
  0.000000000000000E+000
  0.000000000000000E+000
  0.000000000000000E+000
  0.000000000000000E+000
  0.000000000000000E+000
  0.000000000000000E+000
  0.000000000000000E+000
  0.000000000000000E+000
  0.000000000000000E+000
  0.000000000000000E+000
  0.000000000000000E+000
  0.000000000000000E+000
  0.000000000000000E+000
  0.000000000000000E+000
  0.000000000000000E+000
  0.000000000000000E+000
  0.000000000000000E+000
  0.000000000000000E+000
  0.000000000000000E+000
  0.000000000000000E+000
  0.000000000000000E+000
  0.000000000000000E+000
  0.000000000000000E+000
  0.000000000000000E+000
  0.000000000000000E+000
  0.000000000000000E+000
  0.000000000000000E+000
  0.000000000000000E+000
  0.000000000000000E+000
  0.000000000000000E+000
  0.000000000000000E+000
  0.000000000000000E+000
  0.000000000000000E+000
  0.000000000000000E+000
  0.000000000000000E+000
  0.000000000000000E+000
  0.000000000000000E+000
  0.000000000000000E+000
  0.000000000000000E+000
  0.000000000000000E+000
  0.000000000000000E+000
  0.000000000000000E+000
  0.000000000000000E+000
  0.000000000000000E+000
  0.000000000000000E+000
  0.000000000000000E+000
  0.000000000000000E+000
  0.000000000000000E+000
  0.000000000000000E+000
  0.000000000000000E+000
  0.000000000000000E+000
  0.000000000000000E+000
  0.000000000000000E+000
  0.000000000000000E+000
  0.000000000000000E+000
  0.000000000000000E+000
  0.000000000000000E+000
  0.000000000000000E+000
  0.000000000000000E+000
  0.000000000000000E+000
  0.000000000000000E+000
  0.000000000000000E+000
  0.000000000000000E+000
  0.000000000000000E+000
  0.000000000000000E+000
  0.000000000000000E+000
  0.000000000000000E+000
  0.000000000000000E+000
  0.000000000000000E+000
  0.000000000000000E+000
  0.000000000000000E+000
  0.000000000000000E+000
  0.000000000000000E+000
  0.000000000000000E+000
  0.000000000000000E+000
  0.000000000000000E+000
  0.000000000000000E+000
  0.000000000000000E+000
  0.000000000000000E+000
  0.000000000000000E+000
  0.000000000000000E+000
  0.000000000000000E+000
  0.000000000000000E+000
  0.000000000000000E+000
  0.000000000000000E+000
  0.000000000000000E+000
  0.000000000000000E+000
  0.000000000000000E+000
  0.000000000000000E+000
  0.000000000000000E+000
  0.000000000000000E+000
  0.000000000000000E+000
  0.000000000000000E+000
  0.000000000000000E+000
  0.000000000000000E+000
  0.000000000000000E+000
  0.000000000000000E+000
  0.000000000000000E+000
  0.000000000000000E+000
  0.000000000000000E+000
  0.000000000000000E+000
  0.000000000000000E+000
  0.000000000000000E+000
  0.000000000000000E+000
  0.000000000000000E+000
  0.000000000000000E+000
  0.000000000000000E+000
  0.000000000000000E+000
  0.000000000000000E+000
  0.000000000000000E+000
  0.000000000000000E+000
  0.000000000000000E+000
  0.000000000000000E+000
  0.000000000000000E+000
  0.000000000000000E+000
  0.000000000000000E+000
  0.000000000000000E+000
  0.000000000000000E+000
  0.000000000000000E+000
  0.000000000000000E+000
  0.000000000000000E+000
  0.000000000000000E+000
  0.000000000000000E+000
  0.000000000000000E+000
  0.000000000000000E+000
  0.000000000000000E+000
  0.000000000000000E+000
  0.000000000000000E+000
  0.000000000000000E+000
  0.000000000000000E+000
  0.000000000000000E+000
  0.000000000000000E+000
  0.000000000000000E+000
  0.000000000000000E+000
  0.000000000000000E+000
  0.000000000000000E+000
  0.000000000000000E+000
  0.000000000000000E+000
  0.000000000000000E+000
  0.000000000000000E+000
  0.000000000000000E+000
  0.000000000000000E+000
  0.000000000000000E+000
  0.000000000000000E+000
  0.000000000000000E+000
  0.000000000000000E+000
  0.000000000000000E+000
  0.000000000000000E+000
  0.000000000000000E+000
  0.000000000000000E+000
  0.000000000000000E+000
  0.000000000000000E+000
  0.000000000000000E+000
  0.000000000000000E+000
  0.000000000000000E+000
  0.000000000000000E+000
  0.000000000000000E+000
  0.000000000000000E+000
  0.000000000000000E+000
  0.000000000000000E+000
  0.000000000000000E+000
  0.000000000000000E+000
  0.000000000000000E+000
  0.000000000000000E+000
  0.000000000000000E+000
  0.000000000000000E+000
  0.000000000000000E+000
  0.000000000000000E+000
  0.000000000000000E+000
  0.000000000000000E+000
  0.000000000000000E+000
  0.000000000000000E+000
  0.000000000000000E+000
  0.000000000000000E+000
  0.000000000000000E+000
  0.000000000000000E+000
  0.000000000000000E+000
  0.000000000000000E+000
  0.000000000000000E+000
  0.000000000000000E+000
  0.000000000000000E+000
  0.000000000000000E+000
  0.000000000000000E+000
  0.000000000000000E+000
  0.000000000000000E+000
  0.000000000000000E+000
  0.000000000000000E+000
  0.000000000000000E+000
  0.000000000000000E+000
  0.000000000000000E+000
  0.000000000000000E+000
  0.000000000000000E+000
  0.000000000000000E+000
  0.000000000000000E+000
  0.000000000000000E+000
  0.000000000000000E+000
  0.000000000000000E+000
  0.000000000000000E+000
  0.000000000000000E+000
  0.000000000000000E+000
  0.000000000000000E+000
  0.000000000000000E+000
  0.000000000000000E+000
  0.000000000000000E+000
  0.000000000000000E+000
  0.000000000000000E+000
  0.000000000000000E+000
  0.000000000000000E+000
  0.000000000000000E+000
  0.000000000000000E+000
  0.000000000000000E+000
  0.000000000000000E+000
  0.000000000000000E+000
  0.000000000000000E+000
  0.000000000000000E+000
  0.000000000000000E+000
  0.000000000000000E+000
  0.000000000000000E+000
  0.000000000000000E+000
  0.000000000000000E+000
  0.000000000000000E+000
  0.000000000000000E+000
  0.000000000000000E+000
  0.000000000000000E+000
  0.000000000000000E+000
  0.000000000000000E+000
  0.000000000000000E+000
  0.000000000000000E+000
  0.000000000000000E+000
  0.000000000000000E+000
  0.000000000000000E+000
  0.000000000000000E+000
  0.000000000000000E+000
  0.000000000000000E+000
  0.000000000000000E+000
  0.000000000000000E+000
  0.000000000000000E+000
  0.000000000000000E+000
  0.000000000000000E+000
  0.000000000000000E+000
  0.000000000000000E+000
  0.000000000000000E+000
  0.000000000000000E+000
  0.000000000000000E+000
  0.000000000000000E+000
  0.000000000000000E+000
  0.000000000000000E+000
  0.000000000000000E+000
  0.000000000000000E+000
  0.000000000000000E+000
  0.000000000000000E+000
  0.000000000000000E+000
  0.000000000000000E+000
  0.000000000000000E+000
  0.000000000000000E+000
  0.000000000000000E+000
  0.000000000000000E+000
  0.000000000000000E+000
  0.000000000000000E+000
  0.000000000000000E+000
  0.000000000000000E+000
  0.000000000000000E+000
  0.000000000000000E+000
  0.000000000000000E+000
  0.000000000000000E+000
  0.000000000000000E+000
  0.000000000000000E+000
  0.000000000000000E+000
  0.000000000000000E+000
  0.000000000000000E+000
  0.000000000000000E+000
  0.000000000000000E+000
  0.000000000000000E+000
  0.000000000000000E+000
  0.000000000000000E+000
  0.000000000000000E+000
  0.000000000000000E+000
  0.000000000000000E+000
  0.000000000000000E+000
  0.000000000000000E+000
  0.000000000000000E+000
  0.000000000000000E+000
  0.000000000000000E+000
  0.000000000000000E+000
  0.000000000000000E+000
  0.000000000000000E+000
  0.000000000000000E+000
  0.000000000000000E+000
  0.000000000000000E+000
  0.000000000000000E+000
  0.000000000000000E+000
  0.000000000000000E+000
  0.000000000000000E+000
  0.000000000000000E+000
  0.000000000000000E+000
  0.000000000000000E+000
  0.000000000000000E+000
  0.000000000000000E+000
  0.000000000000000E+000
  0.000000000000000E+000
  0.000000000000000E+000
  0.000000000000000E+000
  0.000000000000000E+000
  0.000000000000000E+000
  0.000000000000000E+000
  0.000000000000000E+000
  0.000000000000000E+000
  0.000000000000000E+000
  0.000000000000000E+000
  0.000000000000000E+000
  0.000000000000000E+000
  0.000000000000000E+000
  0.000000000000000E+000
  0.000000000000000E+000
  0.000000000000000E+000
  0.000000000000000E+000
  0.000000000000000E+000
  0.000000000000000E+000
  0.000000000000000E+000
  0.000000000000000E+000
  0.000000000000000E+000
  0.000000000000000E+000
  0.000000000000000E+000
  0.000000000000000E+000
  0.000000000000000E+000
  0.000000000000000E+000
  0.000000000000000E+000
  0.000000000000000E+000
  0.000000000000000E+000
  0.000000000000000E+000
  0.000000000000000E+000
  0.000000000000000E+000
  0.000000000000000E+000
  0.000000000000000E+000
  0.000000000000000E+000
  0.000000000000000E+000
  0.000000000000000E+000
  0.000000000000000E+000
  0.000000000000000E+000
  0.000000000000000E+000
  0.000000000000000E+000
  0.000000000000000E+000
  0.000000000000000E+000
  0.000000000000000E+000
  0.000000000000000E+000
  0.000000000000000E+000
  0.000000000000000E+000
  0.000000000000000E+000
  0.000000000000000E+000
  0.000000000000000E+000
  0.000000000000000E+000
  0.000000000000000E+000
  0.000000000000000E+000
  0.000000000000000E+000
  0.000000000000000E+000
  0.000000000000000E+000
  0.000000000000000E+000
  0.000000000000000E+000
  0.000000000000000E+000
  0.000000000000000E+000
  0.000000000000000E+000
  0.000000000000000E+000
  0.000000000000000E+000
  0.000000000000000E+000
  0.000000000000000E+000
  0.000000000000000E+000
  0.000000000000000E+000
  0.000000000000000E+000
  0.000000000000000E+000
  0.000000000000000E+000
  0.000000000000000E+000
  0.000000000000000E+000
  0.000000000000000E+000
  0.000000000000000E+000
  0.000000000000000E+000
  0.000000000000000E+000
  0.000000000000000E+000
  0.000000000000000E+000
  0.000000000000000E+000
  0.000000000000000E+000
  0.000000000000000E+000
  0.000000000000000E+000
  0.000000000000000E+000
  0.000000000000000E+000
  0.000000000000000E+000
  0.000000000000000E+000
  0.000000000000000E+000
  0.000000000000000E+000
  0.000000000000000E+000
  0.000000000000000E+000
  0.000000000000000E+000
  0.000000000000000E+000
  0.000000000000000E+000
  0.000000000000000E+000
  0.000000000000000E+000
  0.000000000000000E+000
  0.000000000000000E+000
  0.000000000000000E+000
  0.000000000000000E+000
  0.000000000000000E+000
  0.000000000000000E+000
  0.000000000000000E+000
  0.000000000000000E+000
  0.000000000000000E+000
  0.000000000000000E+000
  0.000000000000000E+000
  0.000000000000000E+000
  0.000000000000000E+000
  0.000000000000000E+000
  0.000000000000000E+000
  0.000000000000000E+000
  0.000000000000000E+000
  0.000000000000000E+000
  0.000000000000000E+000
  0.000000000000000E+000
  0.000000000000000E+000
  0.000000000000000E+000
  0.000000000000000E+000
  0.000000000000000E+000
  0.000000000000000E+000
  0.000000000000000E+000
  0.000000000000000E+000
  0.000000000000000E+000
  0.000000000000000E+000
  0.000000000000000E+000
  0.000000000000000E+000
  0.000000000000000E+000
  0.000000000000000E+000
  0.000000000000000E+000
  0.000000000000000E+000
  0.000000000000000E+000
  0.000000000000000E+000
  0.000000000000000E+000
  0.000000000000000E+000
  0.000000000000000E+000
  0.000000000000000E+000
  0.000000000000000E+000
  0.000000000000000E+000
  0.000000000000000E+000
  0.000000000000000E+000
  0.000000000000000E+000
  0.000000000000000E+000
  0.000000000000000E+000
  0.000000000000000E+000
  0.000000000000000E+000
  0.000000000000000E+000
  0.000000000000000E+000
  0.000000000000000E+000
  0.000000000000000E+000
  0.000000000000000E+000
  0.000000000000000E+000
  0.000000000000000E+000
  0.000000000000000E+000
  0.000000000000000E+000
  0.000000000000000E+000
  0.000000000000000E+000
  0.000000000000000E+000
  0.000000000000000E+000
  0.000000000000000E+000
  0.000000000000000E+000
  0.000000000000000E+000
  0.000000000000000E+000
  0.000000000000000E+000
  0.000000000000000E+000
  0.000000000000000E+000
  0.000000000000000E+000
  0.000000000000000E+000
  0.000000000000000E+000
  0.000000000000000E+000
  0.000000000000000E+000
  0.000000000000000E+000
  0.000000000000000E+000
  0.000000000000000E+000
  0.000000000000000E+000
  0.000000000000000E+000
  0.000000000000000E+000
  0.000000000000000E+000
  0.000000000000000E+000
  0.000000000000000E+000
  0.000000000000000E+000
  0.000000000000000E+000
  0.000000000000000E+000
  0.000000000000000E+000
  0.000000000000000E+000
  0.000000000000000E+000
  0.000000000000000E+000
  0.000000000000000E+000
  0.000000000000000E+000
  0.000000000000000E+000
  0.000000000000000E+000
  0.000000000000000E+000
  0.000000000000000E+000
  0.000000000000000E+000
  0.000000000000000E+000
  0.000000000000000E+000
  0.000000000000000E+000
  0.000000000000000E+000
  0.000000000000000E+000
  0.000000000000000E+000
  0.000000000000000E+000
  0.000000000000000E+000
  0.000000000000000E+000
  0.000000000000000E+000
  0.000000000000000E+000
  0.000000000000000E+000
  0.000000000000000E+000
  0.000000000000000E+000
  0.000000000000000E+000
  0.000000000000000E+000
  0.000000000000000E+000
  0.000000000000000E+000
  0.000000000000000E+000
  0.000000000000000E+000
  0.000000000000000E+000
  0.000000000000000E+000
  0.000000000000000E+000
  0.000000000000000E+000
  0.000000000000000E+000
  0.000000000000000E+000
  0.000000000000000E+000
  0.000000000000000E+000
  0.000000000000000E+000
  0.000000000000000E+000
  0.000000000000000E+000
  0.000000000000000E+000
  0.000000000000000E+000
  0.000000000000000E+000
  0.000000000000000E+000
  0.000000000000000E+000
  0.000000000000000E+000
  0.000000000000000E+000
  0.000000000000000E+000
  0.000000000000000E+000
  0.000000000000000E+000
  0.000000000000000E+000
  0.000000000000000E+000
  0.000000000000000E+000
  0.000000000000000E+000
  0.000000000000000E+000
  0.000000000000000E+000
  0.000000000000000E+000
  0.000000000000000E+000
  0.000000000000000E+000
  0.000000000000000E+000
  0.000000000000000E+000
  0.000000000000000E+000
  0.000000000000000E+000
  0.000000000000000E+000
  0.000000000000000E+000
  0.000000000000000E+000
  0.000000000000000E+000
  0.000000000000000E+000
  0.000000000000000E+000
  0.000000000000000E+000
  0.000000000000000E+000
  0.000000000000000E+000
  0.000000000000000E+000
  0.000000000000000E+000
  0.000000000000000E+000
  0.000000000000000E+000
  0.000000000000000E+000
  0.000000000000000E+000
  0.000000000000000E+000
  0.000000000000000E+000
  0.000000000000000E+000
  0.000000000000000E+000
  0.000000000000000E+000
  0.000000000000000E+000
  0.000000000000000E+000
  0.000000000000000E+000
  0.000000000000000E+000
  0.000000000000000E+000
  0.000000000000000E+000
  0.000000000000000E+000
  0.000000000000000E+000
  0.000000000000000E+000
  0.000000000000000E+000
  0.000000000000000E+000
  0.000000000000000E+000
  0.000000000000000E+000
  0.000000000000000E+000
  0.000000000000000E+000
  0.000000000000000E+000
  0.000000000000000E+000
  0.000000000000000E+000
  0.000000000000000E+000
  0.000000000000000E+000
  0.000000000000000E+000
  0.000000000000000E+000
  0.000000000000000E+000
  0.000000000000000E+000
  0.000000000000000E+000
  0.000000000000000E+000
  0.000000000000000E+000
  0.000000000000000E+000
  0.000000000000000E+000
  0.000000000000000E+000
  0.000000000000000E+000
  0.000000000000000E+000
  0.000000000000000E+000
  0.000000000000000E+000
  0.000000000000000E+000
  0.000000000000000E+000
  0.000000000000000E+000
  0.000000000000000E+000
  0.000000000000000E+000
  0.000000000000000E+000
  0.000000000000000E+000
  0.000000000000000E+000
  0.000000000000000E+000
  0.000000000000000E+000
  0.000000000000000E+000
  0.000000000000000E+000
  0.000000000000000E+000
  0.000000000000000E+000
  0.000000000000000E+000
  0.000000000000000E+000
  0.000000000000000E+000
  0.000000000000000E+000
  0.000000000000000E+000
  0.000000000000000E+000
  0.000000000000000E+000
  0.000000000000000E+000
  0.000000000000000E+000
  0.000000000000000E+000
  0.000000000000000E+000
  0.000000000000000E+000
  0.000000000000000E+000
  0.000000000000000E+000
  0.000000000000000E+000
  0.000000000000000E+000
  0.000000000000000E+000
  0.000000000000000E+000
  0.000000000000000E+000
  0.000000000000000E+000
  0.000000000000000E+000
  0.000000000000000E+000
  0.000000000000000E+000
  0.000000000000000E+000
  0.000000000000000E+000
  0.000000000000000E+000
  0.000000000000000E+000
  0.000000000000000E+000
  0.000000000000000E+000
  0.000000000000000E+000
  0.000000000000000E+000
  0.000000000000000E+000
  0.000000000000000E+000
  0.000000000000000E+000
  0.000000000000000E+000
  0.000000000000000E+000
  0.000000000000000E+000
  0.000000000000000E+000
  0.000000000000000E+000
  0.000000000000000E+000
  0.000000000000000E+000
  0.000000000000000E+000
  0.000000000000000E+000
  0.000000000000000E+000
  0.000000000000000E+000
  0.000000000000000E+000
  0.000000000000000E+000
  0.000000000000000E+000
  0.000000000000000E+000
  0.000000000000000E+000
  0.000000000000000E+000
  0.000000000000000E+000
  0.000000000000000E+000
  0.000000000000000E+000
  0.000000000000000E+000
  0.000000000000000E+000
  0.000000000000000E+000
  0.000000000000000E+000
  0.000000000000000E+000
  0.000000000000000E+000
  0.000000000000000E+000
  0.000000000000000E+000
  0.000000000000000E+000
  0.000000000000000E+000
  0.000000000000000E+000
  0.000000000000000E+000
  0.000000000000000E+000
  0.000000000000000E+000
  0.000000000000000E+000
  0.000000000000000E+000
  0.000000000000000E+000
  0.000000000000000E+000
  0.000000000000000E+000
  0.000000000000000E+000
  0.000000000000000E+000
  0.000000000000000E+000
  0.000000000000000E+000
  0.000000000000000E+000
  0.000000000000000E+000
  0.000000000000000E+000
  0.000000000000000E+000
  0.000000000000000E+000
  0.000000000000000E+000
  0.000000000000000E+000
  0.000000000000000E+000
  0.000000000000000E+000
  0.000000000000000E+000
  0.000000000000000E+000
  0.000000000000000E+000
  0.000000000000000E+000
  0.000000000000000E+000
  0.000000000000000E+000
  0.000000000000000E+000
  0.000000000000000E+000
  0.000000000000000E+000
  0.000000000000000E+000
  0.000000000000000E+000
  0.000000000000000E+000
  0.000000000000000E+000
  0.000000000000000E+000
  0.000000000000000E+000
  0.000000000000000E+000
  0.000000000000000E+000
  0.000000000000000E+000
  0.000000000000000E+000
  0.000000000000000E+000
  0.000000000000000E+000
  0.000000000000000E+000
  0.000000000000000E+000
  0.000000000000000E+000
  0.000000000000000E+000
  0.000000000000000E+000
  0.000000000000000E+000
  0.000000000000000E+000
  0.000000000000000E+000
  0.000000000000000E+000
  0.000000000000000E+000
  0.000000000000000E+000
  0.000000000000000E+000
  0.000000000000000E+000
  0.000000000000000E+000
  0.000000000000000E+000
  0.000000000000000E+000
  0.000000000000000E+000
  0.000000000000000E+000
  0.000000000000000E+000
  0.000000000000000E+000
  0.000000000000000E+000
  0.000000000000000E+000
  0.000000000000000E+000
  0.000000000000000E+000
  0.000000000000000E+000
  0.000000000000000E+000
  0.000000000000000E+000
  0.000000000000000E+000
  0.000000000000000E+000
  0.000000000000000E+000
  0.000000000000000E+000
  0.000000000000000E+000
  0.000000000000000E+000
  0.000000000000000E+000
  0.000000000000000E+000
  0.000000000000000E+000
  0.000000000000000E+000
  0.000000000000000E+000
  0.000000000000000E+000
  0.000000000000000E+000
  0.000000000000000E+000
  0.000000000000000E+000
  0.000000000000000E+000
  0.000000000000000E+000
  0.000000000000000E+000
  0.000000000000000E+000
  0.000000000000000E+000
  0.000000000000000E+000
  0.000000000000000E+000
  0.000000000000000E+000
  0.000000000000000E+000
  0.000000000000000E+000
  0.000000000000000E+000
  0.000000000000000E+000
  0.000000000000000E+000
  0.000000000000000E+000
  0.000000000000000E+000
  0.000000000000000E+000
  0.000000000000000E+000
  0.000000000000000E+000
  0.000000000000000E+000
  0.000000000000000E+000
  0.000000000000000E+000
  0.000000000000000E+000
  0.000000000000000E+000
  0.000000000000000E+000
  0.000000000000000E+000
  0.000000000000000E+000
  0.000000000000000E+000
  0.000000000000000E+000
  0.000000000000000E+000
  0.000000000000000E+000
  0.000000000000000E+000
  0.000000000000000E+000
  0.000000000000000E+000
  0.000000000000000E+000
  0.000000000000000E+000
  0.000000000000000E+000
  0.000000000000000E+000
  0.000000000000000E+000
  0.000000000000000E+000
  0.000000000000000E+000
  0.000000000000000E+000
  0.000000000000000E+000
  0.000000000000000E+000
  0.000000000000000E+000
  0.000000000000000E+000
  0.000000000000000E+000
  0.000000000000000E+000
  0.000000000000000E+000
  0.000000000000000E+000
  0.000000000000000E+000
  0.000000000000000E+000
  0.000000000000000E+000
  0.000000000000000E+000
  0.000000000000000E+000
  0.000000000000000E+000
  0.000000000000000E+000
  0.000000000000000E+000
  0.000000000000000E+000
  0.000000000000000E+000
  0.000000000000000E+000
  0.000000000000000E+000
  0.000000000000000E+000
  0.000000000000000E+000
  0.000000000000000E+000
  0.000000000000000E+000
  0.000000000000000E+000
  0.000000000000000E+000
  0.000000000000000E+000
  0.000000000000000E+000
  0.000000000000000E+000
  0.000000000000000E+000
  0.000000000000000E+000
  0.000000000000000E+000
  0.000000000000000E+000
  0.000000000000000E+000
  0.000000000000000E+000
  0.000000000000000E+000
  0.000000000000000E+000
  0.000000000000000E+000
  0.000000000000000E+000
  0.000000000000000E+000
  0.000000000000000E+000
  0.000000000000000E+000
  0.000000000000000E+000
  0.000000000000000E+000
  0.000000000000000E+000
  0.000000000000000E+000
  0.000000000000000E+000
  0.000000000000000E+000
  0.000000000000000E+000
  0.000000000000000E+000
  0.000000000000000E+000
  0.000000000000000E+000
  0.000000000000000E+000
  0.000000000000000E+000
  0.000000000000000E+000
  0.000000000000000E+000
  0.000000000000000E+000
  0.000000000000000E+000
  0.000000000000000E+000
  0.000000000000000E+000
  0.000000000000000E+000
  0.000000000000000E+000
  0.000000000000000E+000
  0.000000000000000E+000
  0.000000000000000E+000
  0.000000000000000E+000
  0.000000000000000E+000
  0.000000000000000E+000
  0.000000000000000E+000
  0.000000000000000E+000
  0.000000000000000E+000
  0.000000000000000E+000
  0.000000000000000E+000
  0.000000000000000E+000
  0.000000000000000E+000
  0.000000000000000E+000
  0.000000000000000E+000
  0.000000000000000E+000
  0.000000000000000E+000
  0.000000000000000E+000
  0.000000000000000E+000
  0.000000000000000E+000
  0.000000000000000E+000
  0.000000000000000E+000
  0.000000000000000E+000
  0.000000000000000E+000
  0.000000000000000E+000
  0.000000000000000E+000
  0.000000000000000E+000
  0.000000000000000E+000
  0.000000000000000E+000
  0.000000000000000E+000
  0.000000000000000E+000
  0.000000000000000E+000
  0.000000000000000E+000
  0.000000000000000E+000
  0.000000000000000E+000
  0.000000000000000E+000
  0.000000000000000E+000
  0.000000000000000E+000
  0.000000000000000E+000
  0.000000000000000E+000
  0.000000000000000E+000
  0.000000000000000E+000
  0.000000000000000E+000
  0.000000000000000E+000
  0.000000000000000E+000
  0.000000000000000E+000
  0.000000000000000E+000
  0.000000000000000E+000
  0.000000000000000E+000
  0.000000000000000E+000
  0.000000000000000E+000
  0.000000000000000E+000
  0.000000000000000E+000
  0.000000000000000E+000
  0.000000000000000E+000
  0.000000000000000E+000
  0.000000000000000E+000
  0.000000000000000E+000
  0.000000000000000E+000
  0.000000000000000E+000
  0.000000000000000E+000
  0.000000000000000E+000
  0.000000000000000E+000
  0.000000000000000E+000
  0.000000000000000E+000
  0.000000000000000E+000
  0.000000000000000E+000
  0.000000000000000E+000
  0.000000000000000E+000
  0.000000000000000E+000
  0.000000000000000E+000
  0.000000000000000E+000
  0.000000000000000E+000
  0.000000000000000E+000
  0.000000000000000E+000
  0.000000000000000E+000
  0.000000000000000E+000
  0.000000000000000E+000
  0.000000000000000E+000
  0.000000000000000E+000
  0.000000000000000E+000
  0.000000000000000E+000
  0.000000000000000E+000
  0.000000000000000E+000
  0.000000000000000E+000
  0.000000000000000E+000
  0.000000000000000E+000
  0.000000000000000E+000
  0.000000000000000E+000
  0.000000000000000E+000
  0.000000000000000E+000
  0.000000000000000E+000
  0.000000000000000E+000
  0.000000000000000E+000
  0.000000000000000E+000
  0.000000000000000E+000
  0.000000000000000E+000
  0.000000000000000E+000
  0.000000000000000E+000
  0.000000000000000E+000
  0.000000000000000E+000
  0.000000000000000E+000
  0.000000000000000E+000
  0.000000000000000E+000
  0.000000000000000E+000
  0.000000000000000E+000
  0.000000000000000E+000
  0.000000000000000E+000
  0.000000000000000E+000
  0.000000000000000E+000
  0.000000000000000E+000
  0.000000000000000E+000
  0.000000000000000E+000
  0.000000000000000E+000
  0.000000000000000E+000
  0.000000000000000E+000
  0.000000000000000E+000
  0.000000000000000E+000
  0.000000000000000E+000
  0.000000000000000E+000
  0.000000000000000E+000
  0.000000000000000E+000
  0.000000000000000E+000
  0.000000000000000E+000
  0.000000000000000E+000
  0.000000000000000E+000
  0.000000000000000E+000
  0.000000000000000E+000
  0.000000000000000E+000
  0.000000000000000E+000
  0.000000000000000E+000
  0.000000000000000E+000
  0.000000000000000E+000
  0.000000000000000E+000
  0.000000000000000E+000
  0.000000000000000E+000
  0.000000000000000E+000
  0.000000000000000E+000
  0.000000000000000E+000
  0.000000000000000E+000
  0.000000000000000E+000
  0.000000000000000E+000
  0.000000000000000E+000
  0.000000000000000E+000
  0.000000000000000E+000
  0.000000000000000E+000
  0.000000000000000E+000
  0.000000000000000E+000
  0.000000000000000E+000
  0.000000000000000E+000
  0.000000000000000E+000
  0.000000000000000E+000
  0.000000000000000E+000
  0.000000000000000E+000
  0.000000000000000E+000
  0.000000000000000E+000
  0.000000000000000E+000
  0.000000000000000E+000
  0.000000000000000E+000
  0.000000000000000E+000
  0.000000000000000E+000
  0.000000000000000E+000
  0.000000000000000E+000
  0.000000000000000E+000
  0.000000000000000E+000
  0.000000000000000E+000
  0.000000000000000E+000
  0.000000000000000E+000
  0.000000000000000E+000
  0.000000000000000E+000
  0.000000000000000E+000
  0.000000000000000E+000
  0.000000000000000E+000
  0.000000000000000E+000
  0.000000000000000E+000
  0.000000000000000E+000
  0.000000000000000E+000
  0.000000000000000E+000
  0.000000000000000E+000
  0.000000000000000E+000
  0.000000000000000E+000
  0.000000000000000E+000
  0.000000000000000E+000
  0.000000000000000E+000
  0.000000000000000E+000
  0.000000000000000E+000
  0.000000000000000E+000
  0.000000000000000E+000
  0.000000000000000E+000
  0.000000000000000E+000
  0.000000000000000E+000
  0.000000000000000E+000
  0.000000000000000E+000
  0.000000000000000E+000
  0.000000000000000E+000
  0.000000000000000E+000
  0.000000000000000E+000
  0.000000000000000E+000
  0.000000000000000E+000
  0.000000000000000E+000
  0.000000000000000E+000
  0.000000000000000E+000
  0.000000000000000E+000
  0.000000000000000E+000
  0.000000000000000E+000
  0.000000000000000E+000
  0.000000000000000E+000
  0.000000000000000E+000
  0.000000000000000E+000
  0.000000000000000E+000
  0.000000000000000E+000
  0.000000000000000E+000
  0.000000000000000E+000
  0.000000000000000E+000
  0.000000000000000E+000
  0.000000000000000E+000
  0.000000000000000E+000
  0.000000000000000E+000
  0.000000000000000E+000
  0.000000000000000E+000
  0.000000000000000E+000
  0.000000000000000E+000
  0.000000000000000E+000
  0.000000000000000E+000
  0.000000000000000E+000
  0.000000000000000E+000
  0.000000000000000E+000
  0.000000000000000E+000
  0.000000000000000E+000
  0.000000000000000E+000
  0.000000000000000E+000
  0.000000000000000E+000
  0.000000000000000E+000
  0.000000000000000E+000
  0.000000000000000E+000
  0.000000000000000E+000
  0.000000000000000E+000
  0.000000000000000E+000
  0.000000000000000E+000
  0.000000000000000E+000
  0.000000000000000E+000
  0.000000000000000E+000
  0.000000000000000E+000
  0.000000000000000E+000
  0.000000000000000E+000
  0.000000000000000E+000
  0.000000000000000E+000
  0.000000000000000E+000
  0.000000000000000E+000
  0.000000000000000E+000
  0.000000000000000E+000
  0.000000000000000E+000
  0.000000000000000E+000
  0.000000000000000E+000
  0.000000000000000E+000
  0.000000000000000E+000
  0.000000000000000E+000
  0.000000000000000E+000
  0.000000000000000E+000
  0.000000000000000E+000
  0.000000000000000E+000
  0.000000000000000E+000
  0.000000000000000E+000
  0.000000000000000E+000
  0.000000000000000E+000
  0.000000000000000E+000
  0.000000000000000E+000
  0.000000000000000E+000
  0.000000000000000E+000
  0.000000000000000E+000
  0.000000000000000E+000
  0.000000000000000E+000
  0.000000000000000E+000
  0.000000000000000E+000
  0.000000000000000E+000
  0.000000000000000E+000
  0.000000000000000E+000
  0.000000000000000E+000
  0.000000000000000E+000
  0.000000000000000E+000
  0.000000000000000E+000
  0.000000000000000E+000
  0.000000000000000E+000
  0.000000000000000E+000
  0.000000000000000E+000
  0.000000000000000E+000
  0.000000000000000E+000
  0.000000000000000E+000
  0.000000000000000E+000
  0.000000000000000E+000
  0.000000000000000E+000
  0.000000000000000E+000
  0.000000000000000E+000
  0.000000000000000E+000
  0.000000000000000E+000
  0.000000000000000E+000
  0.000000000000000E+000
  0.000000000000000E+000
  0.000000000000000E+000
  0.000000000000000E+000
  0.000000000000000E+000
  0.000000000000000E+000
  0.000000000000000E+000
  0.000000000000000E+000
  0.000000000000000E+000
  0.000000000000000E+000
  0.000000000000000E+000
  0.000000000000000E+000
  0.000000000000000E+000
  0.000000000000000E+000
  0.000000000000000E+000
  0.000000000000000E+000
  0.000000000000000E+000
  0.000000000000000E+000
  0.000000000000000E+000
  0.000000000000000E+000
  0.000000000000000E+000
  0.000000000000000E+000
  0.000000000000000E+000
  0.000000000000000E+000
  0.000000000000000E+000
  0.000000000000000E+000
  0.000000000000000E+000
  0.000000000000000E+000
  0.000000000000000E+000
  0.000000000000000E+000
  0.000000000000000E+000
  0.000000000000000E+000
  0.000000000000000E+000
  0.000000000000000E+000
  0.000000000000000E+000
  0.000000000000000E+000
  0.000000000000000E+000
  0.000000000000000E+000
  0.000000000000000E+000
  0.000000000000000E+000
  0.000000000000000E+000
  0.000000000000000E+000
  0.000000000000000E+000
  0.000000000000000E+000
  0.000000000000000E+000
  0.000000000000000E+000
  0.000000000000000E+000
  0.000000000000000E+000
  0.000000000000000E+000
  0.000000000000000E+000
  0.000000000000000E+000
  0.000000000000000E+000
  0.000000000000000E+000
  0.000000000000000E+000
  0.000000000000000E+000
  0.000000000000000E+000
  0.000000000000000E+000
  0.000000000000000E+000
  0.000000000000000E+000
  0.000000000000000E+000
  0.000000000000000E+000
  0.000000000000000E+000
  0.000000000000000E+000
  0.000000000000000E+000
  0.000000000000000E+000
  0.000000000000000E+000
  0.000000000000000E+000
  0.000000000000000E+000
  0.000000000000000E+000
  0.000000000000000E+000
  0.000000000000000E+000
  0.000000000000000E+000
  0.000000000000000E+000
  0.000000000000000E+000
  0.000000000000000E+000
  0.000000000000000E+000
  0.000000000000000E+000
  0.000000000000000E+000
  0.000000000000000E+000
  0.000000000000000E+000
  0.000000000000000E+000
  0.000000000000000E+000
  0.000000000000000E+000
  0.000000000000000E+000
  0.000000000000000E+000
  0.000000000000000E+000
  0.000000000000000E+000
  0.000000000000000E+000
  0.000000000000000E+000
  0.000000000000000E+000
  0.000000000000000E+000
  0.000000000000000E+000
  0.000000000000000E+000
  0.000000000000000E+000
  0.000000000000000E+000
  0.000000000000000E+000
  0.000000000000000E+000
  0.000000000000000E+000
  0.000000000000000E+000
  0.000000000000000E+000
  0.000000000000000E+000
  0.000000000000000E+000
  0.000000000000000E+000
  0.000000000000000E+000
  0.000000000000000E+000
  0.000000000000000E+000
  0.000000000000000E+000
  0.000000000000000E+000
  0.000000000000000E+000
  0.000000000000000E+000
  0.000000000000000E+000
  0.000000000000000E+000
  0.000000000000000E+000
  0.000000000000000E+000
  0.000000000000000E+000
  0.000000000000000E+000
  0.000000000000000E+000
  0.000000000000000E+000
  0.000000000000000E+000
  0.000000000000000E+000
  0.000000000000000E+000
  0.000000000000000E+000
  0.000000000000000E+000
  0.000000000000000E+000
  0.000000000000000E+000
  0.000000000000000E+000
  0.000000000000000E+000
  0.000000000000000E+000
  0.000000000000000E+000
  0.000000000000000E+000
  0.000000000000000E+000
  0.000000000000000E+000
  0.000000000000000E+000
  0.000000000000000E+000
  0.000000000000000E+000
  0.000000000000000E+000
  0.000000000000000E+000
  0.000000000000000E+000
  0.000000000000000E+000
  0.000000000000000E+000
  0.000000000000000E+000
  0.000000000000000E+000
  0.000000000000000E+000
  0.000000000000000E+000
  0.000000000000000E+000
  0.000000000000000E+000
  0.000000000000000E+000
  0.000000000000000E+000
  0.000000000000000E+000
  0.000000000000000E+000
  0.000000000000000E+000
  0.000000000000000E+000
  0.000000000000000E+000
  0.000000000000000E+000
  0.000000000000000E+000
  0.000000000000000E+000
  0.000000000000000E+000
  0.000000000000000E+000
  0.000000000000000E+000
  0.000000000000000E+000
  0.000000000000000E+000
  0.000000000000000E+000
  0.000000000000000E+000
  0.000000000000000E+000
  0.000000000000000E+000
  0.000000000000000E+000
  0.000000000000000E+000
  0.000000000000000E+000
  0.000000000000000E+000
  0.000000000000000E+000
  0.000000000000000E+000
  0.000000000000000E+000
  0.000000000000000E+000
  0.000000000000000E+000
  0.000000000000000E+000
  0.000000000000000E+000
  0.000000000000000E+000
  0.000000000000000E+000
  0.000000000000000E+000
  0.000000000000000E+000
  0.000000000000000E+000
  0.000000000000000E+000
  0.000000000000000E+000
  0.000000000000000E+000
  0.000000000000000E+000
  0.000000000000000E+000
  0.000000000000000E+000
  0.000000000000000E+000
  0.000000000000000E+000
  0.000000000000000E+000
  0.000000000000000E+000
  0.000000000000000E+000
  0.000000000000000E+000
  0.000000000000000E+000
  0.000000000000000E+000
  0.000000000000000E+000
  0.000000000000000E+000
  0.000000000000000E+000
  0.000000000000000E+000
  0.000000000000000E+000
  0.000000000000000E+000
  0.000000000000000E+000
  0.000000000000000E+000
  0.000000000000000E+000
  0.000000000000000E+000
  0.000000000000000E+000
  0.000000000000000E+000
  0.000000000000000E+000
  0.000000000000000E+000
  0.000000000000000E+000
  0.000000000000000E+000
  0.000000000000000E+000
  0.000000000000000E+000
  0.000000000000000E+000
  0.000000000000000E+000
  0.000000000000000E+000
  0.000000000000000E+000
  0.000000000000000E+000
  0.000000000000000E+000
  0.000000000000000E+000
  0.000000000000000E+000
  0.000000000000000E+000
  0.000000000000000E+000
  0.000000000000000E+000
  0.000000000000000E+000
  0.000000000000000E+000
  0.000000000000000E+000
  0.000000000000000E+000
  0.000000000000000E+000
  0.000000000000000E+000
  0.000000000000000E+000
  0.000000000000000E+000
  0.000000000000000E+000
  0.000000000000000E+000
  0.000000000000000E+000
  0.000000000000000E+000
  0.000000000000000E+000
  0.000000000000000E+000
  0.000000000000000E+000
  0.000000000000000E+000
  0.000000000000000E+000
  0.000000000000000E+000
  0.000000000000000E+000
  0.000000000000000E+000
  0.000000000000000E+000
  0.000000000000000E+000
  0.000000000000000E+000
  0.000000000000000E+000
  0.000000000000000E+000
  0.000000000000000E+000
  0.000000000000000E+000
  0.000000000000000E+000
  0.000000000000000E+000
  0.000000000000000E+000
  0.000000000000000E+000
  0.000000000000000E+000
  0.000000000000000E+000
  0.000000000000000E+000
  0.000000000000000E+000
  0.000000000000000E+000
  0.000000000000000E+000
  0.000000000000000E+000
  0.000000000000000E+000
  0.000000000000000E+000
  0.000000000000000E+000
  0.000000000000000E+000
  0.000000000000000E+000
  0.000000000000000E+000
  0.000000000000000E+000
  0.000000000000000E+000
  0.000000000000000E+000
  0.000000000000000E+000
  0.000000000000000E+000
  0.000000000000000E+000
  0.000000000000000E+000
  0.000000000000000E+000
  0.000000000000000E+000
  0.000000000000000E+000
  0.000000000000000E+000
  0.000000000000000E+000
  0.000000000000000E+000
  0.000000000000000E+000
  0.000000000000000E+000
  0.000000000000000E+000
  0.000000000000000E+000
  0.000000000000000E+000
  0.000000000000000E+000
  0.000000000000000E+000
  0.000000000000000E+000
  0.000000000000000E+000
  0.000000000000000E+000
  0.000000000000000E+000
  0.000000000000000E+000
  0.000000000000000E+000
  0.000000000000000E+000
  0.000000000000000E+000
  0.000000000000000E+000
  0.000000000000000E+000
  0.000000000000000E+000
  0.000000000000000E+000
  0.000000000000000E+000
  0.000000000000000E+000
  0.000000000000000E+000
  0.000000000000000E+000
  0.000000000000000E+000
  0.000000000000000E+000
  0.000000000000000E+000
  0.000000000000000E+000
  0.000000000000000E+000
  0.000000000000000E+000
  0.000000000000000E+000
  0.000000000000000E+000
  0.000000000000000E+000
  0.000000000000000E+000
  0.000000000000000E+000
  0.000000000000000E+000
  0.000000000000000E+000
  0.000000000000000E+000
  0.000000000000000E+000
  0.000000000000000E+000
  0.000000000000000E+000
  0.000000000000000E+000
  0.000000000000000E+000
  0.000000000000000E+000
  0.000000000000000E+000
  0.000000000000000E+000
  0.000000000000000E+000
  0.000000000000000E+000
  0.000000000000000E+000
  0.000000000000000E+000
  0.000000000000000E+000
  0.000000000000000E+000
  0.000000000000000E+000
  0.000000000000000E+000
  0.000000000000000E+000
  0.000000000000000E+000
  0.000000000000000E+000
  0.000000000000000E+000
  0.000000000000000E+000
  0.000000000000000E+000
  0.000000000000000E+000
  0.000000000000000E+000
  0.000000000000000E+000
  0.000000000000000E+000
  0.000000000000000E+000
  0.000000000000000E+000
  0.000000000000000E+000
  0.000000000000000E+000
  0.000000000000000E+000
  0.000000000000000E+000
  0.000000000000000E+000
  0.000000000000000E+000
  0.000000000000000E+000
  0.000000000000000E+000
  0.000000000000000E+000
  0.000000000000000E+000
  0.000000000000000E+000
  0.000000000000000E+000
  0.000000000000000E+000
  0.000000000000000E+000
  0.000000000000000E+000
  0.000000000000000E+000
  0.000000000000000E+000
  0.000000000000000E+000
  0.000000000000000E+000
  0.000000000000000E+000
  0.000000000000000E+000
  0.000000000000000E+000
  0.000000000000000E+000
  0.000000000000000E+000
  0.000000000000000E+000
  0.000000000000000E+000
  0.000000000000000E+000
  0.000000000000000E+000
  0.000000000000000E+000
  0.000000000000000E+000
  0.000000000000000E+000
  0.000000000000000E+000
  0.000000000000000E+000
  0.000000000000000E+000
  0.000000000000000E+000
  0.000000000000000E+000
  0.000000000000000E+000
  0.000000000000000E+000
  0.000000000000000E+000
  0.000000000000000E+000
  0.000000000000000E+000
  0.000000000000000E+000
  0.000000000000000E+000
  0.000000000000000E+000
  0.000000000000000E+000
  0.000000000000000E+000
  0.000000000000000E+000
  0.000000000000000E+000
  0.000000000000000E+000
  0.000000000000000E+000
  0.000000000000000E+000
  0.000000000000000E+000
  0.000000000000000E+000
  0.000000000000000E+000
  0.000000000000000E+000
  0.000000000000000E+000
  0.000000000000000E+000
  0.000000000000000E+000
  0.000000000000000E+000
  0.000000000000000E+000
  0.000000000000000E+000
  0.000000000000000E+000
  0.000000000000000E+000
  0.000000000000000E+000
  0.000000000000000E+000
  0.000000000000000E+000
  0.000000000000000E+000
  0.000000000000000E+000
  0.000000000000000E+000
  0.000000000000000E+000
  0.000000000000000E+000
  0.000000000000000E+000
  0.000000000000000E+000
  0.000000000000000E+000
  0.000000000000000E+000
  0.000000000000000E+000
  0.000000000000000E+000
  0.000000000000000E+000
  0.000000000000000E+000
  0.000000000000000E+000
  0.000000000000000E+000
  0.000000000000000E+000
  0.000000000000000E+000
  0.000000000000000E+000
  0.000000000000000E+000
  0.000000000000000E+000
  0.000000000000000E+000
  0.000000000000000E+000
  0.000000000000000E+000
  0.000000000000000E+000
  0.000000000000000E+000
  0.000000000000000E+000
  0.000000000000000E+000
  0.000000000000000E+000
  0.000000000000000E+000
  0.000000000000000E+000
  0.000000000000000E+000
  0.000000000000000E+000
  0.000000000000000E+000
  0.000000000000000E+000
  0.000000000000000E+000
  0.000000000000000E+000
  0.000000000000000E+000
  0.000000000000000E+000
  0.000000000000000E+000
  0.000000000000000E+000
  0.000000000000000E+000
  0.000000000000000E+000
  0.000000000000000E+000
  0.000000000000000E+000
  0.000000000000000E+000
  0.000000000000000E+000
  0.000000000000000E+000
  0.000000000000000E+000
  0.000000000000000E+000
  0.000000000000000E+000
  0.000000000000000E+000
  0.000000000000000E+000
  0.000000000000000E+000
  0.000000000000000E+000
  0.000000000000000E+000
  0.000000000000000E+000
  0.000000000000000E+000
  0.000000000000000E+000
  0.000000000000000E+000
  0.000000000000000E+000
  0.000000000000000E+000
  0.000000000000000E+000
  0.000000000000000E+000
  0.000000000000000E+000
  0.000000000000000E+000
  0.000000000000000E+000
  0.000000000000000E+000
  0.000000000000000E+000
  0.000000000000000E+000
  0.000000000000000E+000
  0.000000000000000E+000
  0.000000000000000E+000
  0.000000000000000E+000
  0.000000000000000E+000
  0.000000000000000E+000
  0.000000000000000E+000
  0.000000000000000E+000
  0.000000000000000E+000
  0.000000000000000E+000
  0.000000000000000E+000
  0.000000000000000E+000
  0.000000000000000E+000
  0.000000000000000E+000
  0.000000000000000E+000
  0.000000000000000E+000
  0.000000000000000E+000
  0.000000000000000E+000
  0.000000000000000E+000
  0.000000000000000E+000
  0.000000000000000E+000
  0.000000000000000E+000
  0.000000000000000E+000
  0.000000000000000E+000
  0.000000000000000E+000
  0.000000000000000E+000
  0.000000000000000E+000
  0.000000000000000E+000
  0.000000000000000E+000
  0.000000000000000E+000
  0.000000000000000E+000
  0.000000000000000E+000
  0.000000000000000E+000
  0.000000000000000E+000
  0.000000000000000E+000
  0.000000000000000E+000
  0.000000000000000E+000
  0.000000000000000E+000
  0.000000000000000E+000
  0.000000000000000E+000
  0.000000000000000E+000
  0.000000000000000E+000
  0.000000000000000E+000
  0.000000000000000E+000
  0.000000000000000E+000
  0.000000000000000E+000
  0.000000000000000E+000
  0.000000000000000E+000
  0.000000000000000E+000
  0.000000000000000E+000
  0.000000000000000E+000
  0.000000000000000E+000
  0.000000000000000E+000
  0.000000000000000E+000
  0.000000000000000E+000
  0.000000000000000E+000
  0.000000000000000E+000
  0.000000000000000E+000
  0.000000000000000E+000
  0.000000000000000E+000
  0.000000000000000E+000
  0.000000000000000E+000
  0.000000000000000E+000
  0.000000000000000E+000
  0.000000000000000E+000
  0.000000000000000E+000
  0.000000000000000E+000
  0.000000000000000E+000
  0.000000000000000E+000
  0.000000000000000E+000
  0.000000000000000E+000
  0.000000000000000E+000
  0.000000000000000E+000
  0.000000000000000E+000
  0.000000000000000E+000
  0.000000000000000E+000
  0.000000000000000E+000
  0.000000000000000E+000
  0.000000000000000E+000
  0.000000000000000E+000
  0.000000000000000E+000
  0.000000000000000E+000
  0.000000000000000E+000
  0.000000000000000E+000
  0.000000000000000E+000
  0.000000000000000E+000
  0.000000000000000E+000
  0.000000000000000E+000
  0.000000000000000E+000
  0.000000000000000E+000
  0.000000000000000E+000
  0.000000000000000E+000
  0.000000000000000E+000
  0.000000000000000E+000
  0.000000000000000E+000
  0.000000000000000E+000
  0.000000000000000E+000
  0.000000000000000E+000
  0.000000000000000E+000
  0.000000000000000E+000
  0.000000000000000E+000
  0.000000000000000E+000
  0.000000000000000E+000
  0.000000000000000E+000
  0.000000000000000E+000
  0.000000000000000E+000
  0.000000000000000E+000
  0.000000000000000E+000
  0.000000000000000E+000
  0.000000000000000E+000
  0.000000000000000E+000
  0.000000000000000E+000
  0.000000000000000E+000
  0.000000000000000E+000
  0.000000000000000E+000
  0.000000000000000E+000
  0.000000000000000E+000
  0.000000000000000E+000
  0.000000000000000E+000
  0.000000000000000E+000
  0.000000000000000E+000
  0.000000000000000E+000
  0.000000000000000E+000
  0.000000000000000E+000
  0.000000000000000E+000
  0.000000000000000E+000
  0.000000000000000E+000
  0.000000000000000E+000
  0.000000000000000E+000
  0.000000000000000E+000
  0.000000000000000E+000
  0.000000000000000E+000
  0.000000000000000E+000
  0.000000000000000E+000
  0.000000000000000E+000
  0.000000000000000E+000
  0.000000000000000E+000
  0.000000000000000E+000
  0.000000000000000E+000
  0.000000000000000E+000
  0.000000000000000E+000
  0.000000000000000E+000
  0.000000000000000E+000
  0.000000000000000E+000
  0.000000000000000E+000
  0.000000000000000E+000
  0.000000000000000E+000
  0.000000000000000E+000
  0.000000000000000E+000
  0.000000000000000E+000
  0.000000000000000E+000
  0.000000000000000E+000
  0.000000000000000E+000
  0.000000000000000E+000
  0.000000000000000E+000
  0.000000000000000E+000
  0.000000000000000E+000
  0.000000000000000E+000
  0.000000000000000E+000
  0.000000000000000E+000
  0.000000000000000E+000
  0.000000000000000E+000
  0.000000000000000E+000
  0.000000000000000E+000
  0.000000000000000E+000
  0.000000000000000E+000
  0.000000000000000E+000
  0.000000000000000E+000
  0.000000000000000E+000
  0.000000000000000E+000
  0.000000000000000E+000
  0.000000000000000E+000
  0.000000000000000E+000
  0.000000000000000E+000
  0.000000000000000E+000
  0.000000000000000E+000
  0.000000000000000E+000
  0.000000000000000E+000
  0.000000000000000E+000
  0.000000000000000E+000
  0.000000000000000E+000
  0.000000000000000E+000
  0.000000000000000E+000
  0.000000000000000E+000
  0.000000000000000E+000
  0.000000000000000E+000
  0.000000000000000E+000
  0.000000000000000E+000
  0.000000000000000E+000
  0.000000000000000E+000
  0.000000000000000E+000
  0.000000000000000E+000
  0.000000000000000E+000
  0.000000000000000E+000
  0.000000000000000E+000
  0.000000000000000E+000
  0.000000000000000E+000
  0.000000000000000E+000
  0.000000000000000E+000
  0.000000000000000E+000
  0.000000000000000E+000
  0.000000000000000E+000
  0.000000000000000E+000
  0.000000000000000E+000
  0.000000000000000E+000
  0.000000000000000E+000
  0.000000000000000E+000
  0.000000000000000E+000
  0.000000000000000E+000
  0.000000000000000E+000
  0.000000000000000E+000
  0.000000000000000E+000
  0.000000000000000E+000
  0.000000000000000E+000
  0.000000000000000E+000
  0.000000000000000E+000
  0.000000000000000E+000
  0.000000000000000E+000
  0.000000000000000E+000
  0.000000000000000E+000
  0.000000000000000E+000
  0.000000000000000E+000
  0.000000000000000E+000
  0.000000000000000E+000
  0.000000000000000E+000
  0.000000000000000E+000
  0.000000000000000E+000
  0.000000000000000E+000
  0.000000000000000E+000
  0.000000000000000E+000
  0.000000000000000E+000
  0.000000000000000E+000
  0.000000000000000E+000
  0.000000000000000E+000
  0.000000000000000E+000
  0.000000000000000E+000
  0.000000000000000E+000
  0.000000000000000E+000
  0.000000000000000E+000
  0.000000000000000E+000
  0.000000000000000E+000
  0.000000000000000E+000
  0.000000000000000E+000
  0.000000000000000E+000
  0.000000000000000E+000
  0.000000000000000E+000
  0.000000000000000E+000
  0.000000000000000E+000
  0.000000000000000E+000
  0.000000000000000E+000
  0.000000000000000E+000
  0.000000000000000E+000
  0.000000000000000E+000
  0.000000000000000E+000
  0.000000000000000E+000
  0.000000000000000E+000
  0.000000000000000E+000
  0.000000000000000E+000
  0.000000000000000E+000
  0.000000000000000E+000
  0.000000000000000E+000
  0.000000000000000E+000
  0.000000000000000E+000
  0.000000000000000E+000
  0.000000000000000E+000
  0.000000000000000E+000
  0.000000000000000E+000
  0.000000000000000E+000
  0.000000000000000E+000
  0.000000000000000E+000
  0.000000000000000E+000
  0.000000000000000E+000
  0.000000000000000E+000
  0.000000000000000E+000
  0.000000000000000E+000
  0.000000000000000E+000
  0.000000000000000E+000
  0.000000000000000E+000
  0.000000000000000E+000
  0.000000000000000E+000
  0.000000000000000E+000
  0.000000000000000E+000
  0.000000000000000E+000
  0.000000000000000E+000
  0.000000000000000E+000
  0.000000000000000E+000
  0.000000000000000E+000
  0.000000000000000E+000
  0.000000000000000E+000
  0.000000000000000E+000
  0.000000000000000E+000
  0.000000000000000E+000
  0.000000000000000E+000
  0.000000000000000E+000
  0.000000000000000E+000
  0.000000000000000E+000
  0.000000000000000E+000
  0.000000000000000E+000
  0.000000000000000E+000
  0.000000000000000E+000
  0.000000000000000E+000
  0.000000000000000E+000
  0.000000000000000E+000
  0.000000000000000E+000
  0.000000000000000E+000
  0.000000000000000E+000
  0.000000000000000E+000
  0.000000000000000E+000
  0.000000000000000E+000
  0.000000000000000E+000
  0.000000000000000E+000
  0.000000000000000E+000
  0.000000000000000E+000
  0.000000000000000E+000
  0.000000000000000E+000
  0.000000000000000E+000
  0.000000000000000E+000
  0.000000000000000E+000
  0.000000000000000E+000
  0.000000000000000E+000
  0.000000000000000E+000
  0.000000000000000E+000
  0.000000000000000E+000
  0.000000000000000E+000
  0.000000000000000E+000
  0.000000000000000E+000
  0.000000000000000E+000
  0.000000000000000E+000
  0.000000000000000E+000
  0.000000000000000E+000
  0.000000000000000E+000
  0.000000000000000E+000
  0.000000000000000E+000
  0.000000000000000E+000
  0.000000000000000E+000
  0.000000000000000E+000
  0.000000000000000E+000
  0.000000000000000E+000
  0.000000000000000E+000
  0.000000000000000E+000
  0.000000000000000E+000
  0.000000000000000E+000
  0.000000000000000E+000
  0.000000000000000E+000
  0.000000000000000E+000
  0.000000000000000E+000
  0.000000000000000E+000
  0.000000000000000E+000
  0.000000000000000E+000
  0.000000000000000E+000
  0.000000000000000E+000
  0.000000000000000E+000
  0.000000000000000E+000
  0.000000000000000E+000
  0.000000000000000E+000
  0.000000000000000E+000
  0.000000000000000E+000
  0.000000000000000E+000
  0.000000000000000E+000
  0.000000000000000E+000
  0.000000000000000E+000
  0.000000000000000E+000
  0.000000000000000E+000
  0.000000000000000E+000
  0.000000000000000E+000
  0.000000000000000E+000
  0.000000000000000E+000
  0.000000000000000E+000
  0.000000000000000E+000
  0.000000000000000E+000
  0.000000000000000E+000
  0.000000000000000E+000
  0.000000000000000E+000
  0.000000000000000E+000
  0.000000000000000E+000
  0.000000000000000E+000
  0.000000000000000E+000
  0.000000000000000E+000
  0.000000000000000E+000
  0.000000000000000E+000
  0.000000000000000E+000
  0.000000000000000E+000
  0.000000000000000E+000
  0.000000000000000E+000
  0.000000000000000E+000
  0.000000000000000E+000
  0.000000000000000E+000
  0.000000000000000E+000
  0.000000000000000E+000
  0.000000000000000E+000
  0.000000000000000E+000
  0.000000000000000E+000
  0.000000000000000E+000
  0.000000000000000E+000
  0.000000000000000E+000
  0.000000000000000E+000
  0.000000000000000E+000
  0.000000000000000E+000
  0.000000000000000E+000
  0.000000000000000E+000
  0.000000000000000E+000
  0.000000000000000E+000
  0.000000000000000E+000
  0.000000000000000E+000
  0.000000000000000E+000
  0.000000000000000E+000
  0.000000000000000E+000
  0.000000000000000E+000
  0.000000000000000E+000
  0.000000000000000E+000
  0.000000000000000E+000
  0.000000000000000E+000
  0.000000000000000E+000
  0.000000000000000E+000
  0.000000000000000E+000
  0.000000000000000E+000
  0.000000000000000E+000
  0.000000000000000E+000
  0.000000000000000E+000
  0.000000000000000E+000
  0.000000000000000E+000
  0.000000000000000E+000
  0.000000000000000E+000
  0.000000000000000E+000
  0.000000000000000E+000
  0.000000000000000E+000
  0.000000000000000E+000
  0.000000000000000E+000
  0.000000000000000E+000
  0.000000000000000E+000
  0.000000000000000E+000
  0.000000000000000E+000
  0.000000000000000E+000
  0.000000000000000E+000
  0.000000000000000E+000
  0.000000000000000E+000
  0.000000000000000E+000
  0.000000000000000E+000
  0.000000000000000E+000
  0.000000000000000E+000
  0.000000000000000E+000
  0.000000000000000E+000
  0.000000000000000E+000
  0.000000000000000E+000
  0.000000000000000E+000
  0.000000000000000E+000
  0.000000000000000E+000
  0.000000000000000E+000
  0.000000000000000E+000
  0.000000000000000E+000
  0.000000000000000E+000
  0.000000000000000E+000
  0.000000000000000E+000
  0.000000000000000E+000
  0.000000000000000E+000
  0.000000000000000E+000
  0.000000000000000E+000
  0.000000000000000E+000
  0.000000000000000E+000
  0.000000000000000E+000
  0.000000000000000E+000
  0.000000000000000E+000
  0.000000000000000E+000
  0.000000000000000E+000
  0.000000000000000E+000
  0.000000000000000E+000
  0.000000000000000E+000
  0.000000000000000E+000
  0.000000000000000E+000
  0.000000000000000E+000
  0.000000000000000E+000
  0.000000000000000E+000
  0.000000000000000E+000
  0.000000000000000E+000
  0.000000000000000E+000
  0.000000000000000E+000
  0.000000000000000E+000
  0.000000000000000E+000
  0.000000000000000E+000
  0.000000000000000E+000
  0.000000000000000E+000
  0.000000000000000E+000
  0.000000000000000E+000
  0.000000000000000E+000
  0.000000000000000E+000
  0.000000000000000E+000
  0.000000000000000E+000
  0.000000000000000E+000
  0.000000000000000E+000
  0.000000000000000E+000
  0.000000000000000E+000
  0.000000000000000E+000
  0.000000000000000E+000
  0.000000000000000E+000
  0.000000000000000E+000
  0.000000000000000E+000
  0.000000000000000E+000
  0.000000000000000E+000
  0.000000000000000E+000
  0.000000000000000E+000
  0.000000000000000E+000
  0.000000000000000E+000
  0.000000000000000E+000
  0.000000000000000E+000
  0.000000000000000E+000
  0.000000000000000E+000
  0.000000000000000E+000
  0.000000000000000E+000
  0.000000000000000E+000
  0.000000000000000E+000
  0.000000000000000E+000
  0.000000000000000E+000
  0.000000000000000E+000
  0.000000000000000E+000
  0.000000000000000E+000
  0.000000000000000E+000
  0.000000000000000E+000
  0.000000000000000E+000
  0.000000000000000E+000
  0.000000000000000E+000
  0.000000000000000E+000
  0.000000000000000E+000
  0.000000000000000E+000
  0.000000000000000E+000
  0.000000000000000E+000
  0.000000000000000E+000
  0.000000000000000E+000
  0.000000000000000E+000
  0.000000000000000E+000
  0.000000000000000E+000
  0.000000000000000E+000
  0.000000000000000E+000
  0.000000000000000E+000
  0.000000000000000E+000
  0.000000000000000E+000
  0.000000000000000E+000
  0.000000000000000E+000
  0.000000000000000E+000
  0.000000000000000E+000
  0.000000000000000E+000
  0.000000000000000E+000
  0.000000000000000E+000
  0.000000000000000E+000
  0.000000000000000E+000
  0.000000000000000E+000
  0.000000000000000E+000
  0.000000000000000E+000
  0.000000000000000E+000
  0.000000000000000E+000
  0.000000000000000E+000
  0.000000000000000E+000
  0.000000000000000E+000
  0.000000000000000E+000
  0.000000000000000E+000
  0.000000000000000E+000
  0.000000000000000E+000
  0.000000000000000E+000
  0.000000000000000E+000
  0.000000000000000E+000
  0.000000000000000E+000
  0.000000000000000E+000
  0.000000000000000E+000
  0.000000000000000E+000
  0.000000000000000E+000
  0.000000000000000E+000
  0.000000000000000E+000
  0.000000000000000E+000
  0.000000000000000E+000
  0.000000000000000E+000
  0.000000000000000E+000
  0.000000000000000E+000
  0.000000000000000E+000
  0.000000000000000E+000
  0.000000000000000E+000
  0.000000000000000E+000
  0.000000000000000E+000
  0.000000000000000E+000
  0.000000000000000E+000
  0.000000000000000E+000
  0.000000000000000E+000
  0.000000000000000E+000
  0.000000000000000E+000
  0.000000000000000E+000
  0.000000000000000E+000
  0.000000000000000E+000
  0.000000000000000E+000
  0.000000000000000E+000
  0.000000000000000E+000
  0.000000000000000E+000
  0.000000000000000E+000
  0.000000000000000E+000
  0.000000000000000E+000
  0.000000000000000E+000
  0.000000000000000E+000
  0.000000000000000E+000
  0.000000000000000E+000
  0.000000000000000E+000
  0.000000000000000E+000
  0.000000000000000E+000
  0.000000000000000E+000
  0.000000000000000E+000
  0.000000000000000E+000
  0.000000000000000E+000
  0.000000000000000E+000
  0.000000000000000E+000
  0.000000000000000E+000
  0.000000000000000E+000
  0.000000000000000E+000
  0.000000000000000E+000
  0.000000000000000E+000
  0.000000000000000E+000
  0.000000000000000E+000
  0.000000000000000E+000
  0.000000000000000E+000
  0.000000000000000E+000
  0.000000000000000E+000
  0.000000000000000E+000
  0.000000000000000E+000
  0.000000000000000E+000
  0.000000000000000E+000
  0.000000000000000E+000
  0.000000000000000E+000
  0.000000000000000E+000
  0.000000000000000E+000
  0.000000000000000E+000
  0.000000000000000E+000
  0.000000000000000E+000
  0.000000000000000E+000
  0.000000000000000E+000
  0.000000000000000E+000
  0.000000000000000E+000
  0.000000000000000E+000
  0.000000000000000E+000
  0.000000000000000E+000
  0.000000000000000E+000
  0.000000000000000E+000
  0.000000000000000E+000
  0.000000000000000E+000
  0.000000000000000E+000
  0.000000000000000E+000
  0.000000000000000E+000
  0.000000000000000E+000
  0.000000000000000E+000
  0.000000000000000E+000
  0.000000000000000E+000
  0.000000000000000E+000
  0.000000000000000E+000
  0.000000000000000E+000
  0.000000000000000E+000
  0.000000000000000E+000
  0.000000000000000E+000
  0.000000000000000E+000
  0.000000000000000E+000
  0.000000000000000E+000
  0.000000000000000E+000
  0.000000000000000E+000
  0.000000000000000E+000
  0.000000000000000E+000
  0.000000000000000E+000
  0.000000000000000E+000
  0.000000000000000E+000
  0.000000000000000E+000
  0.000000000000000E+000
  0.000000000000000E+000
  0.000000000000000E+000
  0.000000000000000E+000
  0.000000000000000E+000
  0.000000000000000E+000
  0.000000000000000E+000
  0.000000000000000E+000
  0.000000000000000E+000
  0.000000000000000E+000
  0.000000000000000E+000
  0.000000000000000E+000
  0.000000000000000E+000
  0.000000000000000E+000
  0.000000000000000E+000
  0.000000000000000E+000
  0.000000000000000E+000
  0.000000000000000E+000
  0.000000000000000E+000
  0.000000000000000E+000
  0.000000000000000E+000
  0.000000000000000E+000
  0.000000000000000E+000
  0.000000000000000E+000
  0.000000000000000E+000
  0.000000000000000E+000
  0.000000000000000E+000
  0.000000000000000E+000
  0.000000000000000E+000
  0.000000000000000E+000
  0.000000000000000E+000
  0.000000000000000E+000
  0.000000000000000E+000
  0.000000000000000E+000
  0.000000000000000E+000
  0.000000000000000E+000
  0.000000000000000E+000
  0.000000000000000E+000
  0.000000000000000E+000
  0.000000000000000E+000
  0.000000000000000E+000
  0.000000000000000E+000
  0.000000000000000E+000
  0.000000000000000E+000
  0.000000000000000E+000
  0.000000000000000E+000
  0.000000000000000E+000
  0.000000000000000E+000
  0.000000000000000E+000
  0.000000000000000E+000
  0.000000000000000E+000
  0.000000000000000E+000
  0.000000000000000E+000
  0.000000000000000E+000
  0.000000000000000E+000
  0.000000000000000E+000
  0.000000000000000E+000
  0.000000000000000E+000
  0.000000000000000E+000
  0.000000000000000E+000
  0.000000000000000E+000
  0.000000000000000E+000
  0.000000000000000E+000
  0.000000000000000E+000
  0.000000000000000E+000
  0.000000000000000E+000
  0.000000000000000E+000
  0.000000000000000E+000
  0.000000000000000E+000
  0.000000000000000E+000
  0.000000000000000E+000
  0.000000000000000E+000
  0.000000000000000E+000
  0.000000000000000E+000
  0.000000000000000E+000
  0.000000000000000E+000
  0.000000000000000E+000
  0.000000000000000E+000
  0.000000000000000E+000
  0.000000000000000E+000
  0.000000000000000E+000
  0.000000000000000E+000
  0.000000000000000E+000
  0.000000000000000E+000
  0.000000000000000E+000
  0.000000000000000E+000
  0.000000000000000E+000
  0.000000000000000E+000
  0.000000000000000E+000
  0.000000000000000E+000
  0.000000000000000E+000
  0.000000000000000E+000
  0.000000000000000E+000
  0.000000000000000E+000
  0.000000000000000E+000
  0.000000000000000E+000
  0.000000000000000E+000
  0.000000000000000E+000
  0.000000000000000E+000
  0.000000000000000E+000
  0.000000000000000E+000
  0.000000000000000E+000
  0.000000000000000E+000
  0.000000000000000E+000
  0.000000000000000E+000
  0.000000000000000E+000
  0.000000000000000E+000
  0.000000000000000E+000
  0.000000000000000E+000
  0.000000000000000E+000
  0.000000000000000E+000
  0.000000000000000E+000
  0.000000000000000E+000
  0.000000000000000E+000
  0.000000000000000E+000
  0.000000000000000E+000
  0.000000000000000E+000
  0.000000000000000E+000
  0.000000000000000E+000
  0.000000000000000E+000
  0.000000000000000E+000
  0.000000000000000E+000
  0.000000000000000E+000
  0.000000000000000E+000
  0.000000000000000E+000
  0.000000000000000E+000
  0.000000000000000E+000
  0.000000000000000E+000
  0.000000000000000E+000
  0.000000000000000E+000
  0.000000000000000E+000
  0.000000000000000E+000
  0.000000000000000E+000
  0.000000000000000E+000
  0.000000000000000E+000
  0.000000000000000E+000
  0.000000000000000E+000
  0.000000000000000E+000
  0.000000000000000E+000
  0.000000000000000E+000
  0.000000000000000E+000
  0.000000000000000E+000
  0.000000000000000E+000
  0.000000000000000E+000
  0.000000000000000E+000
  0.000000000000000E+000
  0.000000000000000E+000
  0.000000000000000E+000
  0.000000000000000E+000
  0.000000000000000E+000
  0.000000000000000E+000
  0.000000000000000E+000
  0.000000000000000E+000
  0.000000000000000E+000
  0.000000000000000E+000
  0.000000000000000E+000
  0.000000000000000E+000
  0.000000000000000E+000
  0.000000000000000E+000
  0.000000000000000E+000
  0.000000000000000E+000
  0.000000000000000E+000
  0.000000000000000E+000
  0.000000000000000E+000
  0.000000000000000E+000
  0.000000000000000E+000
  0.000000000000000E+000
  0.000000000000000E+000
  0.000000000000000E+000
  0.000000000000000E+000
  0.000000000000000E+000
  0.000000000000000E+000
  0.000000000000000E+000
  0.000000000000000E+000
  0.000000000000000E+000
  0.000000000000000E+000
  0.000000000000000E+000
  0.000000000000000E+000
  0.000000000000000E+000
  0.000000000000000E+000
  0.000000000000000E+000
  0.000000000000000E+000
  0.000000000000000E+000
  0.000000000000000E+000
  0.000000000000000E+000
  0.000000000000000E+000
  0.000000000000000E+000
  0.000000000000000E+000
  0.000000000000000E+000
  0.000000000000000E+000
  0.000000000000000E+000
  0.000000000000000E+000
  0.000000000000000E+000
  0.000000000000000E+000
  0.000000000000000E+000
  0.000000000000000E+000
  0.000000000000000E+000
  0.000000000000000E+000
  0.000000000000000E+000
  0.000000000000000E+000
  0.000000000000000E+000
  0.000000000000000E+000
  0.000000000000000E+000
  0.000000000000000E+000
  0.000000000000000E+000
  0.000000000000000E+000
  0.000000000000000E+000
  0.000000000000000E+000
  0.000000000000000E+000
  0.000000000000000E+000
  0.000000000000000E+000
  0.000000000000000E+000
  0.000000000000000E+000
  0.000000000000000E+000
  0.000000000000000E+000
  0.000000000000000E+000
  0.000000000000000E+000
  0.000000000000000E+000
  0.000000000000000E+000
  0.000000000000000E+000
  0.000000000000000E+000
  0.000000000000000E+000
  0.000000000000000E+000
  0.000000000000000E+000
  0.000000000000000E+000
  0.000000000000000E+000
  0.000000000000000E+000
  0.000000000000000E+000
  0.000000000000000E+000
  0.000000000000000E+000
  0.000000000000000E+000
  0.000000000000000E+000
  0.000000000000000E+000
  0.000000000000000E+000
  0.000000000000000E+000
  0.000000000000000E+000
  0.000000000000000E+000
  0.000000000000000E+000
  0.000000000000000E+000
  0.000000000000000E+000
  0.000000000000000E+000
  0.000000000000000E+000
  0.000000000000000E+000
  0.000000000000000E+000
  0.000000000000000E+000
  0.000000000000000E+000
  0.000000000000000E+000
  0.000000000000000E+000
  0.000000000000000E+000
  0.000000000000000E+000
  0.000000000000000E+000
  0.000000000000000E+000
  0.000000000000000E+000
  0.000000000000000E+000
  0.000000000000000E+000
  0.000000000000000E+000
  0.000000000000000E+000
  0.000000000000000E+000
  0.000000000000000E+000
  0.000000000000000E+000
  0.000000000000000E+000
  0.000000000000000E+000
  0.000000000000000E+000
  0.000000000000000E+000
  0.000000000000000E+000
  0.000000000000000E+000
  0.000000000000000E+000
  0.000000000000000E+000
  0.000000000000000E+000
  0.000000000000000E+000
  0.000000000000000E+000
  0.000000000000000E+000
  0.000000000000000E+000
  0.000000000000000E+000
  0.000000000000000E+000
  0.000000000000000E+000
  0.000000000000000E+000
  0.000000000000000E+000
  0.000000000000000E+000
  0.000000000000000E+000
  0.000000000000000E+000
  0.000000000000000E+000
  0.000000000000000E+000
  0.000000000000000E+000
  0.000000000000000E+000
  0.000000000000000E+000
  0.000000000000000E+000
  0.000000000000000E+000
  0.000000000000000E+000
  0.000000000000000E+000
  0.000000000000000E+000
  0.000000000000000E+000
  0.000000000000000E+000
  0.000000000000000E+000
  0.000000000000000E+000
  0.000000000000000E+000
  0.000000000000000E+000
  0.000000000000000E+000
  0.000000000000000E+000
  0.000000000000000E+000
  0.000000000000000E+000
  0.000000000000000E+000
  0.000000000000000E+000
  0.000000000000000E+000
  0.000000000000000E+000
  0.000000000000000E+000
  0.000000000000000E+000
  0.000000000000000E+000
  0.000000000000000E+000
  0.000000000000000E+000
  0.000000000000000E+000
  0.000000000000000E+000
  0.000000000000000E+000
  0.000000000000000E+000
  0.000000000000000E+000
  0.000000000000000E+000
  0.000000000000000E+000
  0.000000000000000E+000
  0.000000000000000E+000
  0.000000000000000E+000
  0.000000000000000E+000
  0.000000000000000E+000
  0.000000000000000E+000
  0.000000000000000E+000
  0.000000000000000E+000
  0.000000000000000E+000
  0.000000000000000E+000
  0.000000000000000E+000
  0.000000000000000E+000
  0.000000000000000E+000
  0.000000000000000E+000
  0.000000000000000E+000
  0.000000000000000E+000
  0.000000000000000E+000
  0.000000000000000E+000
  0.000000000000000E+000
  0.000000000000000E+000
  0.000000000000000E+000
  0.000000000000000E+000
  0.000000000000000E+000
  0.000000000000000E+000
  0.000000000000000E+000
  0.000000000000000E+000
  0.000000000000000E+000
  0.000000000000000E+000
  0.000000000000000E+000
  0.000000000000000E+000
  0.000000000000000E+000
  0.000000000000000E+000
  0.000000000000000E+000
  0.000000000000000E+000
  0.000000000000000E+000
  0.000000000000000E+000
  0.000000000000000E+000
  0.000000000000000E+000
  0.000000000000000E+000
  0.000000000000000E+000
  0.000000000000000E+000
  0.000000000000000E+000
  0.000000000000000E+000
  0.000000000000000E+000
  0.000000000000000E+000
  0.000000000000000E+000
  0.000000000000000E+000
  0.000000000000000E+000
  0.000000000000000E+000
  0.000000000000000E+000
  0.000000000000000E+000
  0.000000000000000E+000
  0.000000000000000E+000
  0.000000000000000E+000
  0.000000000000000E+000
  0.000000000000000E+000
  0.000000000000000E+000
  0.000000000000000E+000
  0.000000000000000E+000
  0.000000000000000E+000
  0.000000000000000E+000
  0.000000000000000E+000
  0.000000000000000E+000
  0.000000000000000E+000
  0.000000000000000E+000
  0.000000000000000E+000
  0.000000000000000E+000
  0.000000000000000E+000
  0.000000000000000E+000
  0.000000000000000E+000
  0.000000000000000E+000
  0.000000000000000E+000
  0.000000000000000E+000
  0.000000000000000E+000
  0.000000000000000E+000
  0.000000000000000E+000
  0.000000000000000E+000
  0.000000000000000E+000
  0.000000000000000E+000
  0.000000000000000E+000
  0.000000000000000E+000
  0.000000000000000E+000
  0.000000000000000E+000
  0.000000000000000E+000
  0.000000000000000E+000
  0.000000000000000E+000
  0.000000000000000E+000
  0.000000000000000E+000
  0.000000000000000E+000
  0.000000000000000E+000
  0.000000000000000E+000
  0.000000000000000E+000
  0.000000000000000E+000
  0.000000000000000E+000
  0.000000000000000E+000
  0.000000000000000E+000
  0.000000000000000E+000
  0.000000000000000E+000
  0.000000000000000E+000
  0.000000000000000E+000
  0.000000000000000E+000
  0.000000000000000E+000
  0.000000000000000E+000
  0.000000000000000E+000
  0.000000000000000E+000
  0.000000000000000E+000
  0.000000000000000E+000
  0.000000000000000E+000
  0.000000000000000E+000
  0.000000000000000E+000
  0.000000000000000E+000
  0.000000000000000E+000
  0.000000000000000E+000
  0.000000000000000E+000
  0.000000000000000E+000
  0.000000000000000E+000
  0.000000000000000E+000
  0.000000000000000E+000
  0.000000000000000E+000
  0.000000000000000E+000
  0.000000000000000E+000
  0.000000000000000E+000
  0.000000000000000E+000
  0.000000000000000E+000
  0.000000000000000E+000
  0.000000000000000E+000
  0.000000000000000E+000
  0.000000000000000E+000
  0.000000000000000E+000
  0.000000000000000E+000
  0.000000000000000E+000
  0.000000000000000E+000
  0.000000000000000E+000
  0.000000000000000E+000
  0.000000000000000E+000
  0.000000000000000E+000
  0.000000000000000E+000
  0.000000000000000E+000
  0.000000000000000E+000
  0.000000000000000E+000
  0.000000000000000E+000
  0.000000000000000E+000
  0.000000000000000E+000
  0.000000000000000E+000
  0.000000000000000E+000
  0.000000000000000E+000
  0.000000000000000E+000
  0.000000000000000E+000
  0.000000000000000E+000
  0.000000000000000E+000
  0.000000000000000E+000
  0.000000000000000E+000
  0.000000000000000E+000
  0.000000000000000E+000
  0.000000000000000E+000
  0.000000000000000E+000
  0.000000000000000E+000
  0.000000000000000E+000
  0.000000000000000E+000
  0.000000000000000E+000
  0.000000000000000E+000
  0.000000000000000E+000
  0.000000000000000E+000
  0.000000000000000E+000
  0.000000000000000E+000
  0.000000000000000E+000
  0.000000000000000E+000
  0.000000000000000E+000
  0.000000000000000E+000
  0.000000000000000E+000
  0.000000000000000E+000
  0.000000000000000E+000
  0.000000000000000E+000
  0.000000000000000E+000
  0.000000000000000E+000
  0.000000000000000E+000
  0.000000000000000E+000
  0.000000000000000E+000
  0.000000000000000E+000
  0.000000000000000E+000
  0.000000000000000E+000
  0.000000000000000E+000
  0.000000000000000E+000
  0.000000000000000E+000
  0.000000000000000E+000
  0.000000000000000E+000
  0.000000000000000E+000
  0.000000000000000E+000
  0.000000000000000E+000
  0.000000000000000E+000
  0.000000000000000E+000
  0.000000000000000E+000
  0.000000000000000E+000
  0.000000000000000E+000
  0.000000000000000E+000
  0.000000000000000E+000
  0.000000000000000E+000
  0.000000000000000E+000
  0.000000000000000E+000
  0.000000000000000E+000
  0.000000000000000E+000
  0.000000000000000E+000
  0.000000000000000E+000
  0.000000000000000E+000
  0.000000000000000E+000
  0.000000000000000E+000
  0.000000000000000E+000
  0.000000000000000E+000
  0.000000000000000E+000
  0.000000000000000E+000
  0.000000000000000E+000
  0.000000000000000E+000
  0.000000000000000E+000
  0.000000000000000E+000
  0.000000000000000E+000
  0.000000000000000E+000
  0.000000000000000E+000
  0.000000000000000E+000
  0.000000000000000E+000
  0.000000000000000E+000
  0.000000000000000E+000
  0.000000000000000E+000
  0.000000000000000E+000
  0.000000000000000E+000
  0.000000000000000E+000
  0.000000000000000E+000
  0.000000000000000E+000
  0.000000000000000E+000
  0.000000000000000E+000
  0.000000000000000E+000
  0.000000000000000E+000
  0.000000000000000E+000
  0.000000000000000E+000
  0.000000000000000E+000
  0.000000000000000E+000
  0.000000000000000E+000
  0.000000000000000E+000
  0.000000000000000E+000
  0.000000000000000E+000
  0.000000000000000E+000
  0.000000000000000E+000
  0.000000000000000E+000
  0.000000000000000E+000
  0.000000000000000E+000
  0.000000000000000E+000
  0.000000000000000E+000
  0.000000000000000E+000
  0.000000000000000E+000
  0.000000000000000E+000
  0.000000000000000E+000
  0.000000000000000E+000
  0.000000000000000E+000
  0.000000000000000E+000
  0.000000000000000E+000
  0.000000000000000E+000
  0.000000000000000E+000
  0.000000000000000E+000
  0.000000000000000E+000
  0.000000000000000E+000
  0.000000000000000E+000
  0.000000000000000E+000
  0.000000000000000E+000
  0.000000000000000E+000
  0.000000000000000E+000
  0.000000000000000E+000
  0.000000000000000E+000
  0.000000000000000E+000
  0.000000000000000E+000
  0.000000000000000E+000
  0.000000000000000E+000
  0.000000000000000E+000
  0.000000000000000E+000
  0.000000000000000E+000
  0.000000000000000E+000
  0.000000000000000E+000
  0.000000000000000E+000
  0.000000000000000E+000
  0.000000000000000E+000
  0.000000000000000E+000
  0.000000000000000E+000
  0.000000000000000E+000
  0.000000000000000E+000
  0.000000000000000E+000
  0.000000000000000E+000
  0.000000000000000E+000
  0.000000000000000E+000
  0.000000000000000E+000
  0.000000000000000E+000
  0.000000000000000E+000
  0.000000000000000E+000
  0.000000000000000E+000
  0.000000000000000E+000
  0.000000000000000E+000
  0.000000000000000E+000
  0.000000000000000E+000
  0.000000000000000E+000
  0.000000000000000E+000
  0.000000000000000E+000
  0.000000000000000E+000
  0.000000000000000E+000
  0.000000000000000E+000
  0.000000000000000E+000
  0.000000000000000E+000
  0.000000000000000E+000
  0.000000000000000E+000
  0.000000000000000E+000
  0.000000000000000E+000
  0.000000000000000E+000
  0.000000000000000E+000
  0.000000000000000E+000
  0.000000000000000E+000
  0.000000000000000E+000
  0.000000000000000E+000
  0.000000000000000E+000
  0.000000000000000E+000
  0.000000000000000E+000
  0.000000000000000E+000
  0.000000000000000E+000
  0.000000000000000E+000
  0.000000000000000E+000
  0.000000000000000E+000
  0.000000000000000E+000
  0.000000000000000E+000
  0.000000000000000E+000
  0.000000000000000E+000
  0.000000000000000E+000
  0.000000000000000E+000
  0.000000000000000E+000
  0.000000000000000E+000
  0.000000000000000E+000
  0.000000000000000E+000
  0.000000000000000E+000
  0.000000000000000E+000
  0.000000000000000E+000
  0.000000000000000E+000
  0.000000000000000E+000
  0.000000000000000E+000
  0.000000000000000E+000
  0.000000000000000E+000
  0.000000000000000E+000
  0.000000000000000E+000
  0.000000000000000E+000
  0.000000000000000E+000
  0.000000000000000E+000
  0.000000000000000E+000
  0.000000000000000E+000
  0.000000000000000E+000
  0.000000000000000E+000
  0.000000000000000E+000
  0.000000000000000E+000
  0.000000000000000E+000
  0.000000000000000E+000
  0.000000000000000E+000
  0.000000000000000E+000
  0.000000000000000E+000
  0.000000000000000E+000
  0.000000000000000E+000
  0.000000000000000E+000
  0.000000000000000E+000
  0.000000000000000E+000
  0.000000000000000E+000
  0.000000000000000E+000
  0.000000000000000E+000
  0.000000000000000E+000
  0.000000000000000E+000
  0.000000000000000E+000
  0.000000000000000E+000
  0.000000000000000E+000
  0.000000000000000E+000
  0.000000000000000E+000
  0.000000000000000E+000
  0.000000000000000E+000
  0.000000000000000E+000
  0.000000000000000E+000
  0.000000000000000E+000
  0.000000000000000E+000
  0.000000000000000E+000
  0.000000000000000E+000
  0.000000000000000E+000
  0.000000000000000E+000
  0.000000000000000E+000
  0.000000000000000E+000
  0.000000000000000E+000
  0.000000000000000E+000
  0.000000000000000E+000
  0.000000000000000E+000
  0.000000000000000E+000
  0.000000000000000E+000
  0.000000000000000E+000
  0.000000000000000E+000
  0.000000000000000E+000
  0.000000000000000E+000
  0.000000000000000E+000
  0.000000000000000E+000
  0.000000000000000E+000
  0.000000000000000E+000
  0.000000000000000E+000
  0.000000000000000E+000
  0.000000000000000E+000
  0.000000000000000E+000
  0.000000000000000E+000
  0.000000000000000E+000
  0.000000000000000E+000
  0.000000000000000E+000
  0.000000000000000E+000
  0.000000000000000E+000
  0.000000000000000E+000
  0.000000000000000E+000
  0.000000000000000E+000
  0.000000000000000E+000
  0.000000000000000E+000
  0.000000000000000E+000
  0.000000000000000E+000
  0.000000000000000E+000
  0.000000000000000E+000
  0.000000000000000E+000
  0.000000000000000E+000
  0.000000000000000E+000
  0.000000000000000E+000
  0.000000000000000E+000
  0.000000000000000E+000
  0.000000000000000E+000
  0.000000000000000E+000
  0.000000000000000E+000
  0.000000000000000E+000
  0.000000000000000E+000
  0.000000000000000E+000
  0.000000000000000E+000
  0.000000000000000E+000
  0.000000000000000E+000
  0.000000000000000E+000
  0.000000000000000E+000
  0.000000000000000E+000
  0.000000000000000E+000
  0.000000000000000E+000
  0.000000000000000E+000
  0.000000000000000E+000
  0.000000000000000E+000
  0.000000000000000E+000
  0.000000000000000E+000
  0.000000000000000E+000
  0.000000000000000E+000
  0.000000000000000E+000
  0.000000000000000E+000
  0.000000000000000E+000
  0.000000000000000E+000
  0.000000000000000E+000
  0.000000000000000E+000
  0.000000000000000E+000
  0.000000000000000E+000
  0.000000000000000E+000
  0.000000000000000E+000
  0.000000000000000E+000
  0.000000000000000E+000
  0.000000000000000E+000
  0.000000000000000E+000
  0.000000000000000E+000
  0.000000000000000E+000
  0.000000000000000E+000
  0.000000000000000E+000
  0.000000000000000E+000
  0.000000000000000E+000
  0.000000000000000E+000
  0.000000000000000E+000
  0.000000000000000E+000
  0.000000000000000E+000
  0.000000000000000E+000
  0.000000000000000E+000
  0.000000000000000E+000
  0.000000000000000E+000
  0.000000000000000E+000
  0.000000000000000E+000
  0.000000000000000E+000
  0.000000000000000E+000
  0.000000000000000E+000
  0.000000000000000E+000
  0.000000000000000E+000
  0.000000000000000E+000
  0.000000000000000E+000
  0.000000000000000E+000
  0.000000000000000E+000
  0.000000000000000E+000
  0.000000000000000E+000
  0.000000000000000E+000
  0.000000000000000E+000
  0.000000000000000E+000
  0.000000000000000E+000
  0.000000000000000E+000
  0.000000000000000E+000
  0.000000000000000E+000
  0.000000000000000E+000
  0.000000000000000E+000
  0.000000000000000E+000
  0.000000000000000E+000
  0.000000000000000E+000
  0.000000000000000E+000
  0.000000000000000E+000
  0.000000000000000E+000
  0.000000000000000E+000
  0.000000000000000E+000
  0.000000000000000E+000
  0.000000000000000E+000
  0.000000000000000E+000
  0.000000000000000E+000
  0.000000000000000E+000
  0.000000000000000E+000
  0.000000000000000E+000
  0.000000000000000E+000
  0.000000000000000E+000
  0.000000000000000E+000
  0.000000000000000E+000
  0.000000000000000E+000
  0.000000000000000E+000
  0.000000000000000E+000
  0.000000000000000E+000
  0.000000000000000E+000
  0.000000000000000E+000
  0.000000000000000E+000
  0.000000000000000E+000
  0.000000000000000E+000
  0.000000000000000E+000
  0.000000000000000E+000
  0.000000000000000E+000
  0.000000000000000E+000
  0.000000000000000E+000
  0.000000000000000E+000
  0.000000000000000E+000
  0.000000000000000E+000
  0.000000000000000E+000
  0.000000000000000E+000
  0.000000000000000E+000
  0.000000000000000E+000
  0.000000000000000E+000
  0.000000000000000E+000
  0.000000000000000E+000
  0.000000000000000E+000
  0.000000000000000E+000
  0.000000000000000E+000
  0.000000000000000E+000
  0.000000000000000E+000
  0.000000000000000E+000
  0.000000000000000E+000
  0.000000000000000E+000
  0.000000000000000E+000
  0.000000000000000E+000
  0.000000000000000E+000
  0.000000000000000E+000
  0.000000000000000E+000
  0.000000000000000E+000
  0.000000000000000E+000
  0.000000000000000E+000
  0.000000000000000E+000
  0.000000000000000E+000
  0.000000000000000E+000
  0.000000000000000E+000
  0.000000000000000E+000
  0.000000000000000E+000
  0.000000000000000E+000
  0.000000000000000E+000
  0.000000000000000E+000
  0.000000000000000E+000
  0.000000000000000E+000
  0.000000000000000E+000
  0.000000000000000E+000
  0.000000000000000E+000
  0.000000000000000E+000
  0.000000000000000E+000
  0.000000000000000E+000
  0.000000000000000E+000
  0.000000000000000E+000
  0.000000000000000E+000
  0.000000000000000E+000
  0.000000000000000E+000
  0.000000000000000E+000
  0.000000000000000E+000
  0.000000000000000E+000
  0.000000000000000E+000
  0.000000000000000E+000
  0.000000000000000E+000
  0.000000000000000E+000
  0.000000000000000E+000
  0.000000000000000E+000
  0.000000000000000E+000
  0.000000000000000E+000
  0.000000000000000E+000
  0.000000000000000E+000
  0.000000000000000E+000
  0.000000000000000E+000
  0.000000000000000E+000
  0.000000000000000E+000
  0.000000000000000E+000
  0.000000000000000E+000
  0.000000000000000E+000
  0.000000000000000E+000
  0.000000000000000E+000
  0.000000000000000E+000
  0.000000000000000E+000
  0.000000000000000E+000
  0.000000000000000E+000
  0.000000000000000E+000
  0.000000000000000E+000
  0.000000000000000E+000
  0.000000000000000E+000
  0.000000000000000E+000
  0.000000000000000E+000
  0.000000000000000E+000
  0.000000000000000E+000
  0.000000000000000E+000
  0.000000000000000E+000
  0.000000000000000E+000
  0.000000000000000E+000
  0.000000000000000E+000
  0.000000000000000E+000
  0.000000000000000E+000
  0.000000000000000E+000
  0.000000000000000E+000
  0.000000000000000E+000
  0.000000000000000E+000
  0.000000000000000E+000
  0.000000000000000E+000
  0.000000000000000E+000
  0.000000000000000E+000
  0.000000000000000E+000
  0.000000000000000E+000
  0.000000000000000E+000
  0.000000000000000E+000
  0.000000000000000E+000
  0.000000000000000E+000
  0.000000000000000E+000
  0.000000000000000E+000
  0.000000000000000E+000
  0.000000000000000E+000
  0.000000000000000E+000
  0.000000000000000E+000
  0.000000000000000E+000
  0.000000000000000E+000
  0.000000000000000E+000
  0.000000000000000E+000
  0.000000000000000E+000
  0.000000000000000E+000
  0.000000000000000E+000
  0.000000000000000E+000
  0.000000000000000E+000
  0.000000000000000E+000
  0.000000000000000E+000
  0.000000000000000E+000
  0.000000000000000E+000
  0.000000000000000E+000
  0.000000000000000E+000
  0.000000000000000E+000
  0.000000000000000E+000
  0.000000000000000E+000
  0.000000000000000E+000
  0.000000000000000E+000
  0.000000000000000E+000
  0.000000000000000E+000
  0.000000000000000E+000
  0.000000000000000E+000
  0.000000000000000E+000
  0.000000000000000E+000
  0.000000000000000E+000
  0.000000000000000E+000
  0.000000000000000E+000
  0.000000000000000E+000
  0.000000000000000E+000
  0.000000000000000E+000
  0.000000000000000E+000
  0.000000000000000E+000
  0.000000000000000E+000
  0.000000000000000E+000
  0.000000000000000E+000
  0.000000000000000E+000
  0.000000000000000E+000
  0.000000000000000E+000
  0.000000000000000E+000
  0.000000000000000E+000
  0.000000000000000E+000
  0.000000000000000E+000
  0.000000000000000E+000
  0.000000000000000E+000
  0.000000000000000E+000
  0.000000000000000E+000
  0.000000000000000E+000
  0.000000000000000E+000
  0.000000000000000E+000
  0.000000000000000E+000
  0.000000000000000E+000
  0.000000000000000E+000
  0.000000000000000E+000
  0.000000000000000E+000
  0.000000000000000E+000
  0.000000000000000E+000
  0.000000000000000E+000
  0.000000000000000E+000
  0.000000000000000E+000
  0.000000000000000E+000
  0.000000000000000E+000
  0.000000000000000E+000
  0.000000000000000E+000
  0.000000000000000E+000
  0.000000000000000E+000
  0.000000000000000E+000
  0.000000000000000E+000
  0.000000000000000E+000
  0.000000000000000E+000
  0.000000000000000E+000
  0.000000000000000E+000
  0.000000000000000E+000
  0.000000000000000E+000
  0.000000000000000E+000
  0.000000000000000E+000
  0.000000000000000E+000
  0.000000000000000E+000
  0.000000000000000E+000
  0.000000000000000E+000
  0.000000000000000E+000
  0.000000000000000E+000
  0.000000000000000E+000
  0.000000000000000E+000
  0.000000000000000E+000
  0.000000000000000E+000
  0.000000000000000E+000
  0.000000000000000E+000
  0.000000000000000E+000
  0.000000000000000E+000
  0.000000000000000E+000
  0.000000000000000E+000
  0.000000000000000E+000
  0.000000000000000E+000
  0.000000000000000E+000
  0.000000000000000E+000
  0.000000000000000E+000
  0.000000000000000E+000
  0.000000000000000E+000
  0.000000000000000E+000
  0.000000000000000E+000
  0.000000000000000E+000
  0.000000000000000E+000
