# vtk DataFile Version 3.0
vtk output
ASCII
DATASET UNSTRUCTURED_GRID
POINTS      5151 double 
  0.00000000E+00  1.00000000E+02  0.00000000E+00
  0.00000000E+00  9.80000000E+01  0.00000000E+00
  0.00000000E+00  9.60000000E+01  0.00000000E+00
  0.00000000E+00  9.40000000E+01  0.00000000E+00
  0.00000000E+00  9.20000000E+01  0.00000000E+00
  0.00000000E+00  9.00000000E+01  0.00000000E+00
  0.00000000E+00  8.80000000E+01  0.00000000E+00
  0.00000000E+00  8.60000000E+01  0.00000000E+00
  0.00000000E+00  8.40000000E+01  0.00000000E+00
  0.00000000E+00  8.20000000E+01  0.00000000E+00
  0.00000000E+00  8.00000000E+01  0.00000000E+00
  0.00000000E+00  7.80000000E+01  0.00000000E+00
  0.00000000E+00  7.60000000E+01  0.00000000E+00
  0.00000000E+00  7.40000000E+01  0.00000000E+00
  0.00000000E+00  7.20000000E+01  0.00000000E+00
  0.00000000E+00  7.00000000E+01  0.00000000E+00
  0.00000000E+00  6.80000000E+01  0.00000000E+00
  0.00000000E+00  6.60000000E+01  0.00000000E+00
  0.00000000E+00  6.40000000E+01  0.00000000E+00
  0.00000000E+00  6.20000000E+01  0.00000000E+00
  0.00000000E+00  6.00000000E+01  0.00000000E+00
  0.00000000E+00  5.80000000E+01  0.00000000E+00
  0.00000000E+00  5.60000000E+01  0.00000000E+00
  0.00000000E+00  5.40000000E+01  0.00000000E+00
  0.00000000E+00  5.20000000E+01  0.00000000E+00
  0.00000000E+00  5.00000000E+01  0.00000000E+00
  0.00000000E+00  4.80000000E+01  0.00000000E+00
  0.00000000E+00  4.60000000E+01  0.00000000E+00
  0.00000000E+00  4.40000000E+01  0.00000000E+00
  0.00000000E+00  4.20000000E+01  0.00000000E+00
  0.00000000E+00  4.00000000E+01  0.00000000E+00
  0.00000000E+00  3.80000000E+01  0.00000000E+00
  0.00000000E+00  3.60000000E+01  0.00000000E+00
  0.00000000E+00  3.40000000E+01  0.00000000E+00
  0.00000000E+00  3.20000000E+01  0.00000000E+00
  0.00000000E+00  3.00000000E+01  0.00000000E+00
  0.00000000E+00  2.80000000E+01  0.00000000E+00
  0.00000000E+00  2.60000000E+01  0.00000000E+00
  0.00000000E+00  2.40000000E+01  0.00000000E+00
  0.00000000E+00  2.20000000E+01  0.00000000E+00
  0.00000000E+00  2.00000000E+01  0.00000000E+00
  0.00000000E+00  1.80000000E+01  0.00000000E+00
  0.00000000E+00  1.60000000E+01  0.00000000E+00
  0.00000000E+00  1.40000000E+01  0.00000000E+00
  0.00000000E+00  1.20000000E+01  0.00000000E+00
  0.00000000E+00  1.00000000E+01  0.00000000E+00
  0.00000000E+00  8.00000000E+00  0.00000000E+00
  0.00000000E+00  6.00000000E+00  0.00000000E+00
  0.00000000E+00  4.00000000E+00  0.00000000E+00
  0.00000000E+00  2.00000000E+00  0.00000000E+00
  0.00000000E+00 -3.33066907E-14  0.00000000E+00
  1.00000000E+01  1.00000000E+02  0.00000000E+00
  1.00000000E+01  9.80000000E+01  0.00000000E+00
  1.00000000E+01  9.60000000E+01  0.00000000E+00
  1.00000000E+01  9.40000000E+01  0.00000000E+00
  1.00000000E+01  9.20000000E+01  0.00000000E+00
  1.00000000E+01  9.00000000E+01  0.00000000E+00
  1.00000000E+01  8.80000000E+01  0.00000000E+00
  1.00000000E+01  8.60000000E+01  0.00000000E+00
  1.00000000E+01  8.40000000E+01  0.00000000E+00
  1.00000000E+01  8.20000000E+01  0.00000000E+00
  1.00000000E+01  8.00000000E+01  0.00000000E+00
  1.00000000E+01  7.80000000E+01  0.00000000E+00
  1.00000000E+01  7.60000000E+01  0.00000000E+00
  1.00000000E+01  7.40000000E+01  0.00000000E+00
  1.00000000E+01  7.20000000E+01  0.00000000E+00
  1.00000000E+01  7.00000000E+01  0.00000000E+00
  1.00000000E+01  6.80000000E+01  0.00000000E+00
  1.00000000E+01  6.60000000E+01  0.00000000E+00
  1.00000000E+01  6.40000000E+01  0.00000000E+00
  1.00000000E+01  6.20000000E+01  0.00000000E+00
  1.00000000E+01  6.00000000E+01  0.00000000E+00
  1.00000000E+01  5.80000000E+01  0.00000000E+00
  1.00000000E+01  5.60000000E+01  0.00000000E+00
  1.00000000E+01  5.40000000E+01  0.00000000E+00
  1.00000000E+01  5.20000000E+01  0.00000000E+00
  1.00000000E+01  5.00000000E+01  0.00000000E+00
  1.00000000E+01  4.80000000E+01  0.00000000E+00
  1.00000000E+01  4.60000000E+01  0.00000000E+00
  1.00000000E+01  4.40000000E+01  0.00000000E+00
  1.00000000E+01  4.20000000E+01  0.00000000E+00
  1.00000000E+01  4.00000000E+01  0.00000000E+00
  1.00000000E+01  3.80000000E+01  0.00000000E+00
  1.00000000E+01  3.60000000E+01  0.00000000E+00
  1.00000000E+01  3.40000000E+01  0.00000000E+00
  1.00000000E+01  3.20000000E+01  0.00000000E+00
  1.00000000E+01  3.00000000E+01  0.00000000E+00
  1.00000000E+01  2.80000000E+01  0.00000000E+00
  1.00000000E+01  2.60000000E+01  0.00000000E+00
  1.00000000E+01  2.40000000E+01  0.00000000E+00
  1.00000000E+01  2.20000000E+01  0.00000000E+00
  1.00000000E+01  2.00000000E+01  0.00000000E+00
  1.00000000E+01  1.80000000E+01  0.00000000E+00
  1.00000000E+01  1.60000000E+01  0.00000000E+00
  1.00000000E+01  1.40000000E+01  0.00000000E+00
  1.00000000E+01  1.20000000E+01  0.00000000E+00
  1.00000000E+01  1.00000000E+01  0.00000000E+00
  1.00000000E+01  8.00000000E+00  0.00000000E+00
  1.00000000E+01  6.00000000E+00  0.00000000E+00
  1.00000000E+01  4.00000000E+00  0.00000000E+00
  1.00000000E+01  2.00000000E+00  0.00000000E+00
  1.00000000E+01 -3.33066907E-14  0.00000000E+00
  2.00000000E+01  1.00000000E+02  0.00000000E+00
  2.00000000E+01  9.80000000E+01  0.00000000E+00
  2.00000000E+01  9.60000000E+01  0.00000000E+00
  2.00000000E+01  9.40000000E+01  0.00000000E+00
  2.00000000E+01  9.20000000E+01  0.00000000E+00
  2.00000000E+01  9.00000000E+01  0.00000000E+00
  2.00000000E+01  8.80000000E+01  0.00000000E+00
  2.00000000E+01  8.60000000E+01  0.00000000E+00
  2.00000000E+01  8.40000000E+01  0.00000000E+00
  2.00000000E+01  8.20000000E+01  0.00000000E+00
  2.00000000E+01  8.00000000E+01  0.00000000E+00
  2.00000000E+01  7.80000000E+01  0.00000000E+00
  2.00000000E+01  7.60000000E+01  0.00000000E+00
  2.00000000E+01  7.40000000E+01  0.00000000E+00
  2.00000000E+01  7.20000000E+01  0.00000000E+00
  2.00000000E+01  7.00000000E+01  0.00000000E+00
  2.00000000E+01  6.80000000E+01  0.00000000E+00
  2.00000000E+01  6.60000000E+01  0.00000000E+00
  2.00000000E+01  6.40000000E+01  0.00000000E+00
  2.00000000E+01  6.20000000E+01  0.00000000E+00
  2.00000000E+01  6.00000000E+01  0.00000000E+00
  2.00000000E+01  5.80000000E+01  0.00000000E+00
  2.00000000E+01  5.60000000E+01  0.00000000E+00
  2.00000000E+01  5.40000000E+01  0.00000000E+00
  2.00000000E+01  5.20000000E+01  0.00000000E+00
  2.00000000E+01  5.00000000E+01  0.00000000E+00
  2.00000000E+01  4.80000000E+01  0.00000000E+00
  2.00000000E+01  4.60000000E+01  0.00000000E+00
  2.00000000E+01  4.40000000E+01  0.00000000E+00
  2.00000000E+01  4.20000000E+01  0.00000000E+00
  2.00000000E+01  4.00000000E+01  0.00000000E+00
  2.00000000E+01  3.80000000E+01  0.00000000E+00
  2.00000000E+01  3.60000000E+01  0.00000000E+00
  2.00000000E+01  3.40000000E+01  0.00000000E+00
  2.00000000E+01  3.20000000E+01  0.00000000E+00
  2.00000000E+01  3.00000000E+01  0.00000000E+00
  2.00000000E+01  2.80000000E+01  0.00000000E+00
  2.00000000E+01  2.60000000E+01  0.00000000E+00
  2.00000000E+01  2.40000000E+01  0.00000000E+00
  2.00000000E+01  2.20000000E+01  0.00000000E+00
  2.00000000E+01  2.00000000E+01  0.00000000E+00
  2.00000000E+01  1.80000000E+01  0.00000000E+00
  2.00000000E+01  1.60000000E+01  0.00000000E+00
  2.00000000E+01  1.40000000E+01  0.00000000E+00
  2.00000000E+01  1.20000000E+01  0.00000000E+00
  2.00000000E+01  1.00000000E+01  0.00000000E+00
  2.00000000E+01  8.00000000E+00  0.00000000E+00
  2.00000000E+01  6.00000000E+00  0.00000000E+00
  2.00000000E+01  4.00000000E+00  0.00000000E+00
  2.00000000E+01  2.00000000E+00  0.00000000E+00
  2.00000000E+01 -3.33066907E-14  0.00000000E+00
  3.00000000E+01  1.00000000E+02  0.00000000E+00
  3.00000000E+01  9.80000000E+01  0.00000000E+00
  3.00000000E+01  9.60000000E+01  0.00000000E+00
  3.00000000E+01  9.40000000E+01  0.00000000E+00
  3.00000000E+01  9.20000000E+01  0.00000000E+00
  3.00000000E+01  9.00000000E+01  0.00000000E+00
  3.00000000E+01  8.80000000E+01  0.00000000E+00
  3.00000000E+01  8.60000000E+01  0.00000000E+00
  3.00000000E+01  8.40000000E+01  0.00000000E+00
  3.00000000E+01  8.20000000E+01  0.00000000E+00
  3.00000000E+01  8.00000000E+01  0.00000000E+00
  3.00000000E+01  7.80000000E+01  0.00000000E+00
  3.00000000E+01  7.60000000E+01  0.00000000E+00
  3.00000000E+01  7.40000000E+01  0.00000000E+00
  3.00000000E+01  7.20000000E+01  0.00000000E+00
  3.00000000E+01  7.00000000E+01  0.00000000E+00
  3.00000000E+01  6.80000000E+01  0.00000000E+00
  3.00000000E+01  6.60000000E+01  0.00000000E+00
  3.00000000E+01  6.40000000E+01  0.00000000E+00
  3.00000000E+01  6.20000000E+01  0.00000000E+00
  3.00000000E+01  6.00000000E+01  0.00000000E+00
  3.00000000E+01  5.80000000E+01  0.00000000E+00
  3.00000000E+01  5.60000000E+01  0.00000000E+00
  3.00000000E+01  5.40000000E+01  0.00000000E+00
  3.00000000E+01  5.20000000E+01  0.00000000E+00
  3.00000000E+01  5.00000000E+01  0.00000000E+00
  3.00000000E+01  4.80000000E+01  0.00000000E+00
  3.00000000E+01  4.60000000E+01  0.00000000E+00
  3.00000000E+01  4.40000000E+01  0.00000000E+00
  3.00000000E+01  4.20000000E+01  0.00000000E+00
  3.00000000E+01  4.00000000E+01  0.00000000E+00
  3.00000000E+01  3.80000000E+01  0.00000000E+00
  3.00000000E+01  3.60000000E+01  0.00000000E+00
  3.00000000E+01  3.40000000E+01  0.00000000E+00
  3.00000000E+01  3.20000000E+01  0.00000000E+00
  3.00000000E+01  3.00000000E+01  0.00000000E+00
  3.00000000E+01  2.80000000E+01  0.00000000E+00
  3.00000000E+01  2.60000000E+01  0.00000000E+00
  3.00000000E+01  2.40000000E+01  0.00000000E+00
  3.00000000E+01  2.20000000E+01  0.00000000E+00
  3.00000000E+01  2.00000000E+01  0.00000000E+00
  3.00000000E+01  1.80000000E+01  0.00000000E+00
  3.00000000E+01  1.60000000E+01  0.00000000E+00
  3.00000000E+01  1.40000000E+01  0.00000000E+00
  3.00000000E+01  1.20000000E+01  0.00000000E+00
  3.00000000E+01  1.00000000E+01  0.00000000E+00
  3.00000000E+01  8.00000000E+00  0.00000000E+00
  3.00000000E+01  6.00000000E+00  0.00000000E+00
  3.00000000E+01  4.00000000E+00  0.00000000E+00
  3.00000000E+01  2.00000000E+00  0.00000000E+00
  3.00000000E+01 -3.33066907E-14  0.00000000E+00
  4.00000000E+01  1.00000000E+02  0.00000000E+00
  4.00000000E+01  9.80000000E+01  0.00000000E+00
  4.00000000E+01  9.60000000E+01  0.00000000E+00
  4.00000000E+01  9.40000000E+01  0.00000000E+00
  4.00000000E+01  9.20000000E+01  0.00000000E+00
  4.00000000E+01  9.00000000E+01  0.00000000E+00
  4.00000000E+01  8.80000000E+01  0.00000000E+00
  4.00000000E+01  8.60000000E+01  0.00000000E+00
  4.00000000E+01  8.40000000E+01  0.00000000E+00
  4.00000000E+01  8.20000000E+01  0.00000000E+00
  4.00000000E+01  8.00000000E+01  0.00000000E+00
  4.00000000E+01  7.80000000E+01  0.00000000E+00
  4.00000000E+01  7.60000000E+01  0.00000000E+00
  4.00000000E+01  7.40000000E+01  0.00000000E+00
  4.00000000E+01  7.20000000E+01  0.00000000E+00
  4.00000000E+01  7.00000000E+01  0.00000000E+00
  4.00000000E+01  6.80000000E+01  0.00000000E+00
  4.00000000E+01  6.60000000E+01  0.00000000E+00
  4.00000000E+01  6.40000000E+01  0.00000000E+00
  4.00000000E+01  6.20000000E+01  0.00000000E+00
  4.00000000E+01  6.00000000E+01  0.00000000E+00
  4.00000000E+01  5.80000000E+01  0.00000000E+00
  4.00000000E+01  5.60000000E+01  0.00000000E+00
  4.00000000E+01  5.40000000E+01  0.00000000E+00
  4.00000000E+01  5.20000000E+01  0.00000000E+00
  4.00000000E+01  5.00000000E+01  0.00000000E+00
  4.00000000E+01  4.80000000E+01  0.00000000E+00
  4.00000000E+01  4.60000000E+01  0.00000000E+00
  4.00000000E+01  4.40000000E+01  0.00000000E+00
  4.00000000E+01  4.20000000E+01  0.00000000E+00
  4.00000000E+01  4.00000000E+01  0.00000000E+00
  4.00000000E+01  3.80000000E+01  0.00000000E+00
  4.00000000E+01  3.60000000E+01  0.00000000E+00
  4.00000000E+01  3.40000000E+01  0.00000000E+00
  4.00000000E+01  3.20000000E+01  0.00000000E+00
  4.00000000E+01  3.00000000E+01  0.00000000E+00
  4.00000000E+01  2.80000000E+01  0.00000000E+00
  4.00000000E+01  2.60000000E+01  0.00000000E+00
  4.00000000E+01  2.40000000E+01  0.00000000E+00
  4.00000000E+01  2.20000000E+01  0.00000000E+00
  4.00000000E+01  2.00000000E+01  0.00000000E+00
  4.00000000E+01  1.80000000E+01  0.00000000E+00
  4.00000000E+01  1.60000000E+01  0.00000000E+00
  4.00000000E+01  1.40000000E+01  0.00000000E+00
  4.00000000E+01  1.20000000E+01  0.00000000E+00
  4.00000000E+01  1.00000000E+01  0.00000000E+00
  4.00000000E+01  8.00000000E+00  0.00000000E+00
  4.00000000E+01  6.00000000E+00  0.00000000E+00
  4.00000000E+01  4.00000000E+00  0.00000000E+00
  4.00000000E+01  2.00000000E+00  0.00000000E+00
  4.00000000E+01 -3.33066907E-14  0.00000000E+00
  5.00000000E+01  1.00000000E+02  0.00000000E+00
  5.00000000E+01  9.80000000E+01  0.00000000E+00
  5.00000000E+01  9.60000000E+01  0.00000000E+00
  5.00000000E+01  9.40000000E+01  0.00000000E+00
  5.00000000E+01  9.20000000E+01  0.00000000E+00
  5.00000000E+01  9.00000000E+01  0.00000000E+00
  5.00000000E+01  8.80000000E+01  0.00000000E+00
  5.00000000E+01  8.60000000E+01  0.00000000E+00
  5.00000000E+01  8.40000000E+01  0.00000000E+00
  5.00000000E+01  8.20000000E+01  0.00000000E+00
  5.00000000E+01  8.00000000E+01  0.00000000E+00
  5.00000000E+01  7.80000000E+01  0.00000000E+00
  5.00000000E+01  7.60000000E+01  0.00000000E+00
  5.00000000E+01  7.40000000E+01  0.00000000E+00
  5.00000000E+01  7.20000000E+01  0.00000000E+00
  5.00000000E+01  7.00000000E+01  0.00000000E+00
  5.00000000E+01  6.80000000E+01  0.00000000E+00
  5.00000000E+01  6.60000000E+01  0.00000000E+00
  5.00000000E+01  6.40000000E+01  0.00000000E+00
  5.00000000E+01  6.20000000E+01  0.00000000E+00
  5.00000000E+01  6.00000000E+01  0.00000000E+00
  5.00000000E+01  5.80000000E+01  0.00000000E+00
  5.00000000E+01  5.60000000E+01  0.00000000E+00
  5.00000000E+01  5.40000000E+01  0.00000000E+00
  5.00000000E+01  5.20000000E+01  0.00000000E+00
  5.00000000E+01  5.00000000E+01  0.00000000E+00
  5.00000000E+01  4.80000000E+01  0.00000000E+00
  5.00000000E+01  4.60000000E+01  0.00000000E+00
  5.00000000E+01  4.40000000E+01  0.00000000E+00
  5.00000000E+01  4.20000000E+01  0.00000000E+00
  5.00000000E+01  4.00000000E+01  0.00000000E+00
  5.00000000E+01  3.80000000E+01  0.00000000E+00
  5.00000000E+01  3.60000000E+01  0.00000000E+00
  5.00000000E+01  3.40000000E+01  0.00000000E+00
  5.00000000E+01  3.20000000E+01  0.00000000E+00
  5.00000000E+01  3.00000000E+01  0.00000000E+00
  5.00000000E+01  2.80000000E+01  0.00000000E+00
  5.00000000E+01  2.60000000E+01  0.00000000E+00
  5.00000000E+01  2.40000000E+01  0.00000000E+00
  5.00000000E+01  2.20000000E+01  0.00000000E+00
  5.00000000E+01  2.00000000E+01  0.00000000E+00
  5.00000000E+01  1.80000000E+01  0.00000000E+00
  5.00000000E+01  1.60000000E+01  0.00000000E+00
  5.00000000E+01  1.40000000E+01  0.00000000E+00
  5.00000000E+01  1.20000000E+01  0.00000000E+00
  5.00000000E+01  1.00000000E+01  0.00000000E+00
  5.00000000E+01  8.00000000E+00  0.00000000E+00
  5.00000000E+01  6.00000000E+00  0.00000000E+00
  5.00000000E+01  4.00000000E+00  0.00000000E+00
  5.00000000E+01  2.00000000E+00  0.00000000E+00
  5.00000000E+01 -3.33066907E-14  0.00000000E+00
  6.00000000E+01  1.00000000E+02  0.00000000E+00
  6.00000000E+01  9.80000000E+01  0.00000000E+00
  6.00000000E+01  9.60000000E+01  0.00000000E+00
  6.00000000E+01  9.40000000E+01  0.00000000E+00
  6.00000000E+01  9.20000000E+01  0.00000000E+00
  6.00000000E+01  9.00000000E+01  0.00000000E+00
  6.00000000E+01  8.80000000E+01  0.00000000E+00
  6.00000000E+01  8.60000000E+01  0.00000000E+00
  6.00000000E+01  8.40000000E+01  0.00000000E+00
  6.00000000E+01  8.20000000E+01  0.00000000E+00
  6.00000000E+01  8.00000000E+01  0.00000000E+00
  6.00000000E+01  7.80000000E+01  0.00000000E+00
  6.00000000E+01  7.60000000E+01  0.00000000E+00
  6.00000000E+01  7.40000000E+01  0.00000000E+00
  6.00000000E+01  7.20000000E+01  0.00000000E+00
  6.00000000E+01  7.00000000E+01  0.00000000E+00
  6.00000000E+01  6.80000000E+01  0.00000000E+00
  6.00000000E+01  6.60000000E+01  0.00000000E+00
  6.00000000E+01  6.40000000E+01  0.00000000E+00
  6.00000000E+01  6.20000000E+01  0.00000000E+00
  6.00000000E+01  6.00000000E+01  0.00000000E+00
  6.00000000E+01  5.80000000E+01  0.00000000E+00
  6.00000000E+01  5.60000000E+01  0.00000000E+00
  6.00000000E+01  5.40000000E+01  0.00000000E+00
  6.00000000E+01  5.20000000E+01  0.00000000E+00
  6.00000000E+01  5.00000000E+01  0.00000000E+00
  6.00000000E+01  4.80000000E+01  0.00000000E+00
  6.00000000E+01  4.60000000E+01  0.00000000E+00
  6.00000000E+01  4.40000000E+01  0.00000000E+00
  6.00000000E+01  4.20000000E+01  0.00000000E+00
  6.00000000E+01  4.00000000E+01  0.00000000E+00
  6.00000000E+01  3.80000000E+01  0.00000000E+00
  6.00000000E+01  3.60000000E+01  0.00000000E+00
  6.00000000E+01  3.40000000E+01  0.00000000E+00
  6.00000000E+01  3.20000000E+01  0.00000000E+00
  6.00000000E+01  3.00000000E+01  0.00000000E+00
  6.00000000E+01  2.80000000E+01  0.00000000E+00
  6.00000000E+01  2.60000000E+01  0.00000000E+00
  6.00000000E+01  2.40000000E+01  0.00000000E+00
  6.00000000E+01  2.20000000E+01  0.00000000E+00
  6.00000000E+01  2.00000000E+01  0.00000000E+00
  6.00000000E+01  1.80000000E+01  0.00000000E+00
  6.00000000E+01  1.60000000E+01  0.00000000E+00
  6.00000000E+01  1.40000000E+01  0.00000000E+00
  6.00000000E+01  1.20000000E+01  0.00000000E+00
  6.00000000E+01  1.00000000E+01  0.00000000E+00
  6.00000000E+01  8.00000000E+00  0.00000000E+00
  6.00000000E+01  6.00000000E+00  0.00000000E+00
  6.00000000E+01  4.00000000E+00  0.00000000E+00
  6.00000000E+01  2.00000000E+00  0.00000000E+00
  6.00000000E+01 -3.33066907E-14  0.00000000E+00
  7.00000000E+01  1.00000000E+02  0.00000000E+00
  7.00000000E+01  9.80000000E+01  0.00000000E+00
  7.00000000E+01  9.60000000E+01  0.00000000E+00
  7.00000000E+01  9.40000000E+01  0.00000000E+00
  7.00000000E+01  9.20000000E+01  0.00000000E+00
  7.00000000E+01  9.00000000E+01  0.00000000E+00
  7.00000000E+01  8.80000000E+01  0.00000000E+00
  7.00000000E+01  8.60000000E+01  0.00000000E+00
  7.00000000E+01  8.40000000E+01  0.00000000E+00
  7.00000000E+01  8.20000000E+01  0.00000000E+00
  7.00000000E+01  8.00000000E+01  0.00000000E+00
  7.00000000E+01  7.80000000E+01  0.00000000E+00
  7.00000000E+01  7.60000000E+01  0.00000000E+00
  7.00000000E+01  7.40000000E+01  0.00000000E+00
  7.00000000E+01  7.20000000E+01  0.00000000E+00
  7.00000000E+01  7.00000000E+01  0.00000000E+00
  7.00000000E+01  6.80000000E+01  0.00000000E+00
  7.00000000E+01  6.60000000E+01  0.00000000E+00
  7.00000000E+01  6.40000000E+01  0.00000000E+00
  7.00000000E+01  6.20000000E+01  0.00000000E+00
  7.00000000E+01  6.00000000E+01  0.00000000E+00
  7.00000000E+01  5.80000000E+01  0.00000000E+00
  7.00000000E+01  5.60000000E+01  0.00000000E+00
  7.00000000E+01  5.40000000E+01  0.00000000E+00
  7.00000000E+01  5.20000000E+01  0.00000000E+00
  7.00000000E+01  5.00000000E+01  0.00000000E+00
  7.00000000E+01  4.80000000E+01  0.00000000E+00
  7.00000000E+01  4.60000000E+01  0.00000000E+00
  7.00000000E+01  4.40000000E+01  0.00000000E+00
  7.00000000E+01  4.20000000E+01  0.00000000E+00
  7.00000000E+01  4.00000000E+01  0.00000000E+00
  7.00000000E+01  3.80000000E+01  0.00000000E+00
  7.00000000E+01  3.60000000E+01  0.00000000E+00
  7.00000000E+01  3.40000000E+01  0.00000000E+00
  7.00000000E+01  3.20000000E+01  0.00000000E+00
  7.00000000E+01  3.00000000E+01  0.00000000E+00
  7.00000000E+01  2.80000000E+01  0.00000000E+00
  7.00000000E+01  2.60000000E+01  0.00000000E+00
  7.00000000E+01  2.40000000E+01  0.00000000E+00
  7.00000000E+01  2.20000000E+01  0.00000000E+00
  7.00000000E+01  2.00000000E+01  0.00000000E+00
  7.00000000E+01  1.80000000E+01  0.00000000E+00
  7.00000000E+01  1.60000000E+01  0.00000000E+00
  7.00000000E+01  1.40000000E+01  0.00000000E+00
  7.00000000E+01  1.20000000E+01  0.00000000E+00
  7.00000000E+01  1.00000000E+01  0.00000000E+00
  7.00000000E+01  8.00000000E+00  0.00000000E+00
  7.00000000E+01  6.00000000E+00  0.00000000E+00
  7.00000000E+01  4.00000000E+00  0.00000000E+00
  7.00000000E+01  2.00000000E+00  0.00000000E+00
  7.00000000E+01 -3.33066907E-14  0.00000000E+00
  8.00000000E+01  1.00000000E+02  0.00000000E+00
  8.00000000E+01  9.80000000E+01  0.00000000E+00
  8.00000000E+01  9.60000000E+01  0.00000000E+00
  8.00000000E+01  9.40000000E+01  0.00000000E+00
  8.00000000E+01  9.20000000E+01  0.00000000E+00
  8.00000000E+01  9.00000000E+01  0.00000000E+00
  8.00000000E+01  8.80000000E+01  0.00000000E+00
  8.00000000E+01  8.60000000E+01  0.00000000E+00
  8.00000000E+01  8.40000000E+01  0.00000000E+00
  8.00000000E+01  8.20000000E+01  0.00000000E+00
  8.00000000E+01  8.00000000E+01  0.00000000E+00
  8.00000000E+01  7.80000000E+01  0.00000000E+00
  8.00000000E+01  7.60000000E+01  0.00000000E+00
  8.00000000E+01  7.40000000E+01  0.00000000E+00
  8.00000000E+01  7.20000000E+01  0.00000000E+00
  8.00000000E+01  7.00000000E+01  0.00000000E+00
  8.00000000E+01  6.80000000E+01  0.00000000E+00
  8.00000000E+01  6.60000000E+01  0.00000000E+00
  8.00000000E+01  6.40000000E+01  0.00000000E+00
  8.00000000E+01  6.20000000E+01  0.00000000E+00
  8.00000000E+01  6.00000000E+01  0.00000000E+00
  8.00000000E+01  5.80000000E+01  0.00000000E+00
  8.00000000E+01  5.60000000E+01  0.00000000E+00
  8.00000000E+01  5.40000000E+01  0.00000000E+00
  8.00000000E+01  5.20000000E+01  0.00000000E+00
  8.00000000E+01  5.00000000E+01  0.00000000E+00
  8.00000000E+01  4.80000000E+01  0.00000000E+00
  8.00000000E+01  4.60000000E+01  0.00000000E+00
  8.00000000E+01  4.40000000E+01  0.00000000E+00
  8.00000000E+01  4.20000000E+01  0.00000000E+00
  8.00000000E+01  4.00000000E+01  0.00000000E+00
  8.00000000E+01  3.80000000E+01  0.00000000E+00
  8.00000000E+01  3.60000000E+01  0.00000000E+00
  8.00000000E+01  3.40000000E+01  0.00000000E+00
  8.00000000E+01  3.20000000E+01  0.00000000E+00
  8.00000000E+01  3.00000000E+01  0.00000000E+00
  8.00000000E+01  2.80000000E+01  0.00000000E+00
  8.00000000E+01  2.60000000E+01  0.00000000E+00
  8.00000000E+01  2.40000000E+01  0.00000000E+00
  8.00000000E+01  2.20000000E+01  0.00000000E+00
  8.00000000E+01  2.00000000E+01  0.00000000E+00
  8.00000000E+01  1.80000000E+01  0.00000000E+00
  8.00000000E+01  1.60000000E+01  0.00000000E+00
  8.00000000E+01  1.40000000E+01  0.00000000E+00
  8.00000000E+01  1.20000000E+01  0.00000000E+00
  8.00000000E+01  1.00000000E+01  0.00000000E+00
  8.00000000E+01  8.00000000E+00  0.00000000E+00
  8.00000000E+01  6.00000000E+00  0.00000000E+00
  8.00000000E+01  4.00000000E+00  0.00000000E+00
  8.00000000E+01  2.00000000E+00  0.00000000E+00
  8.00000000E+01 -3.33066907E-14  0.00000000E+00
  9.00000000E+01  1.00000000E+02  0.00000000E+00
  9.00000000E+01  9.80000000E+01  0.00000000E+00
  9.00000000E+01  9.60000000E+01  0.00000000E+00
  9.00000000E+01  9.40000000E+01  0.00000000E+00
  9.00000000E+01  9.20000000E+01  0.00000000E+00
  9.00000000E+01  9.00000000E+01  0.00000000E+00
  9.00000000E+01  8.80000000E+01  0.00000000E+00
  9.00000000E+01  8.60000000E+01  0.00000000E+00
  9.00000000E+01  8.40000000E+01  0.00000000E+00
  9.00000000E+01  8.20000000E+01  0.00000000E+00
  9.00000000E+01  8.00000000E+01  0.00000000E+00
  9.00000000E+01  7.80000000E+01  0.00000000E+00
  9.00000000E+01  7.60000000E+01  0.00000000E+00
  9.00000000E+01  7.40000000E+01  0.00000000E+00
  9.00000000E+01  7.20000000E+01  0.00000000E+00
  9.00000000E+01  7.00000000E+01  0.00000000E+00
  9.00000000E+01  6.80000000E+01  0.00000000E+00
  9.00000000E+01  6.60000000E+01  0.00000000E+00
  9.00000000E+01  6.40000000E+01  0.00000000E+00
  9.00000000E+01  6.20000000E+01  0.00000000E+00
  9.00000000E+01  6.00000000E+01  0.00000000E+00
  9.00000000E+01  5.80000000E+01  0.00000000E+00
  9.00000000E+01  5.60000000E+01  0.00000000E+00
  9.00000000E+01  5.40000000E+01  0.00000000E+00
  9.00000000E+01  5.20000000E+01  0.00000000E+00
  9.00000000E+01  5.00000000E+01  0.00000000E+00
  9.00000000E+01  4.80000000E+01  0.00000000E+00
  9.00000000E+01  4.60000000E+01  0.00000000E+00
  9.00000000E+01  4.40000000E+01  0.00000000E+00
  9.00000000E+01  4.20000000E+01  0.00000000E+00
  9.00000000E+01  4.00000000E+01  0.00000000E+00
  9.00000000E+01  3.80000000E+01  0.00000000E+00
  9.00000000E+01  3.60000000E+01  0.00000000E+00
  9.00000000E+01  3.40000000E+01  0.00000000E+00
  9.00000000E+01  3.20000000E+01  0.00000000E+00
  9.00000000E+01  3.00000000E+01  0.00000000E+00
  9.00000000E+01  2.80000000E+01  0.00000000E+00
  9.00000000E+01  2.60000000E+01  0.00000000E+00
  9.00000000E+01  2.40000000E+01  0.00000000E+00
  9.00000000E+01  2.20000000E+01  0.00000000E+00
  9.00000000E+01  2.00000000E+01  0.00000000E+00
  9.00000000E+01  1.80000000E+01  0.00000000E+00
  9.00000000E+01  1.60000000E+01  0.00000000E+00
  9.00000000E+01  1.40000000E+01  0.00000000E+00
  9.00000000E+01  1.20000000E+01  0.00000000E+00
  9.00000000E+01  1.00000000E+01  0.00000000E+00
  9.00000000E+01  8.00000000E+00  0.00000000E+00
  9.00000000E+01  6.00000000E+00  0.00000000E+00
  9.00000000E+01  4.00000000E+00  0.00000000E+00
  9.00000000E+01  2.00000000E+00  0.00000000E+00
  9.00000000E+01 -3.33066907E-14  0.00000000E+00
  1.00000000E+02  1.00000000E+02  0.00000000E+00
  1.00000000E+02  9.80000000E+01  0.00000000E+00
  1.00000000E+02  9.60000000E+01  0.00000000E+00
  1.00000000E+02  9.40000000E+01  0.00000000E+00
  1.00000000E+02  9.20000000E+01  0.00000000E+00
  1.00000000E+02  9.00000000E+01  0.00000000E+00
  1.00000000E+02  8.80000000E+01  0.00000000E+00
  1.00000000E+02  8.60000000E+01  0.00000000E+00
  1.00000000E+02  8.40000000E+01  0.00000000E+00
  1.00000000E+02  8.20000000E+01  0.00000000E+00
  1.00000000E+02  8.00000000E+01  0.00000000E+00
  1.00000000E+02  7.80000000E+01  0.00000000E+00
  1.00000000E+02  7.60000000E+01  0.00000000E+00
  1.00000000E+02  7.40000000E+01  0.00000000E+00
  1.00000000E+02  7.20000000E+01  0.00000000E+00
  1.00000000E+02  7.00000000E+01  0.00000000E+00
  1.00000000E+02  6.80000000E+01  0.00000000E+00
  1.00000000E+02  6.60000000E+01  0.00000000E+00
  1.00000000E+02  6.40000000E+01  0.00000000E+00
  1.00000000E+02  6.20000000E+01  0.00000000E+00
  1.00000000E+02  6.00000000E+01  0.00000000E+00
  1.00000000E+02  5.80000000E+01  0.00000000E+00
  1.00000000E+02  5.60000000E+01  0.00000000E+00
  1.00000000E+02  5.40000000E+01  0.00000000E+00
  1.00000000E+02  5.20000000E+01  0.00000000E+00
  1.00000000E+02  5.00000000E+01  0.00000000E+00
  1.00000000E+02  4.80000000E+01  0.00000000E+00
  1.00000000E+02  4.60000000E+01  0.00000000E+00
  1.00000000E+02  4.40000000E+01  0.00000000E+00
  1.00000000E+02  4.20000000E+01  0.00000000E+00
  1.00000000E+02  4.00000000E+01  0.00000000E+00
  1.00000000E+02  3.80000000E+01  0.00000000E+00
  1.00000000E+02  3.60000000E+01  0.00000000E+00
  1.00000000E+02  3.40000000E+01  0.00000000E+00
  1.00000000E+02  3.20000000E+01  0.00000000E+00
  1.00000000E+02  3.00000000E+01  0.00000000E+00
  1.00000000E+02  2.80000000E+01  0.00000000E+00
  1.00000000E+02  2.60000000E+01  0.00000000E+00
  1.00000000E+02  2.40000000E+01  0.00000000E+00
  1.00000000E+02  2.20000000E+01  0.00000000E+00
  1.00000000E+02  2.00000000E+01  0.00000000E+00
  1.00000000E+02  1.80000000E+01  0.00000000E+00
  1.00000000E+02  1.60000000E+01  0.00000000E+00
  1.00000000E+02  1.40000000E+01  0.00000000E+00
  1.00000000E+02  1.20000000E+01  0.00000000E+00
  1.00000000E+02  1.00000000E+01  0.00000000E+00
  1.00000000E+02  8.00000000E+00  0.00000000E+00
  1.00000000E+02  6.00000000E+00  0.00000000E+00
  1.00000000E+02  4.00000000E+00  0.00000000E+00
  1.00000000E+02  2.00000000E+00  0.00000000E+00
  1.00000000E+02 -3.33066907E-14  0.00000000E+00
  1.10000000E+02  1.00000000E+02  0.00000000E+00
  1.10000000E+02  9.80000000E+01  0.00000000E+00
  1.10000000E+02  9.60000000E+01  0.00000000E+00
  1.10000000E+02  9.40000000E+01  0.00000000E+00
  1.10000000E+02  9.20000000E+01  0.00000000E+00
  1.10000000E+02  9.00000000E+01  0.00000000E+00
  1.10000000E+02  8.80000000E+01  0.00000000E+00
  1.10000000E+02  8.60000000E+01  0.00000000E+00
  1.10000000E+02  8.40000000E+01  0.00000000E+00
  1.10000000E+02  8.20000000E+01  0.00000000E+00
  1.10000000E+02  8.00000000E+01  0.00000000E+00
  1.10000000E+02  7.80000000E+01  0.00000000E+00
  1.10000000E+02  7.60000000E+01  0.00000000E+00
  1.10000000E+02  7.40000000E+01  0.00000000E+00
  1.10000000E+02  7.20000000E+01  0.00000000E+00
  1.10000000E+02  7.00000000E+01  0.00000000E+00
  1.10000000E+02  6.80000000E+01  0.00000000E+00
  1.10000000E+02  6.60000000E+01  0.00000000E+00
  1.10000000E+02  6.40000000E+01  0.00000000E+00
  1.10000000E+02  6.20000000E+01  0.00000000E+00
  1.10000000E+02  6.00000000E+01  0.00000000E+00
  1.10000000E+02  5.80000000E+01  0.00000000E+00
  1.10000000E+02  5.60000000E+01  0.00000000E+00
  1.10000000E+02  5.40000000E+01  0.00000000E+00
  1.10000000E+02  5.20000000E+01  0.00000000E+00
  1.10000000E+02  5.00000000E+01  0.00000000E+00
  1.10000000E+02  4.80000000E+01  0.00000000E+00
  1.10000000E+02  4.60000000E+01  0.00000000E+00
  1.10000000E+02  4.40000000E+01  0.00000000E+00
  1.10000000E+02  4.20000000E+01  0.00000000E+00
  1.10000000E+02  4.00000000E+01  0.00000000E+00
  1.10000000E+02  3.80000000E+01  0.00000000E+00
  1.10000000E+02  3.60000000E+01  0.00000000E+00
  1.10000000E+02  3.40000000E+01  0.00000000E+00
  1.10000000E+02  3.20000000E+01  0.00000000E+00
  1.10000000E+02  3.00000000E+01  0.00000000E+00
  1.10000000E+02  2.80000000E+01  0.00000000E+00
  1.10000000E+02  2.60000000E+01  0.00000000E+00
  1.10000000E+02  2.40000000E+01  0.00000000E+00
  1.10000000E+02  2.20000000E+01  0.00000000E+00
  1.10000000E+02  2.00000000E+01  0.00000000E+00
  1.10000000E+02  1.80000000E+01  0.00000000E+00
  1.10000000E+02  1.60000000E+01  0.00000000E+00
  1.10000000E+02  1.40000000E+01  0.00000000E+00
  1.10000000E+02  1.20000000E+01  0.00000000E+00
  1.10000000E+02  1.00000000E+01  0.00000000E+00
  1.10000000E+02  8.00000000E+00  0.00000000E+00
  1.10000000E+02  6.00000000E+00  0.00000000E+00
  1.10000000E+02  4.00000000E+00  0.00000000E+00
  1.10000000E+02  2.00000000E+00  0.00000000E+00
  1.10000000E+02 -3.33066907E-14  0.00000000E+00
  1.20000000E+02  1.00000000E+02  0.00000000E+00
  1.20000000E+02  9.80000000E+01  0.00000000E+00
  1.20000000E+02  9.60000000E+01  0.00000000E+00
  1.20000000E+02  9.40000000E+01  0.00000000E+00
  1.20000000E+02  9.20000000E+01  0.00000000E+00
  1.20000000E+02  9.00000000E+01  0.00000000E+00
  1.20000000E+02  8.80000000E+01  0.00000000E+00
  1.20000000E+02  8.60000000E+01  0.00000000E+00
  1.20000000E+02  8.40000000E+01  0.00000000E+00
  1.20000000E+02  8.20000000E+01  0.00000000E+00
  1.20000000E+02  8.00000000E+01  0.00000000E+00
  1.20000000E+02  7.80000000E+01  0.00000000E+00
  1.20000000E+02  7.60000000E+01  0.00000000E+00
  1.20000000E+02  7.40000000E+01  0.00000000E+00
  1.20000000E+02  7.20000000E+01  0.00000000E+00
  1.20000000E+02  7.00000000E+01  0.00000000E+00
  1.20000000E+02  6.80000000E+01  0.00000000E+00
  1.20000000E+02  6.60000000E+01  0.00000000E+00
  1.20000000E+02  6.40000000E+01  0.00000000E+00
  1.20000000E+02  6.20000000E+01  0.00000000E+00
  1.20000000E+02  6.00000000E+01  0.00000000E+00
  1.20000000E+02  5.80000000E+01  0.00000000E+00
  1.20000000E+02  5.60000000E+01  0.00000000E+00
  1.20000000E+02  5.40000000E+01  0.00000000E+00
  1.20000000E+02  5.20000000E+01  0.00000000E+00
  1.20000000E+02  5.00000000E+01  0.00000000E+00
  1.20000000E+02  4.80000000E+01  0.00000000E+00
  1.20000000E+02  4.60000000E+01  0.00000000E+00
  1.20000000E+02  4.40000000E+01  0.00000000E+00
  1.20000000E+02  4.20000000E+01  0.00000000E+00
  1.20000000E+02  4.00000000E+01  0.00000000E+00
  1.20000000E+02  3.80000000E+01  0.00000000E+00
  1.20000000E+02  3.60000000E+01  0.00000000E+00
  1.20000000E+02  3.40000000E+01  0.00000000E+00
  1.20000000E+02  3.20000000E+01  0.00000000E+00
  1.20000000E+02  3.00000000E+01  0.00000000E+00
  1.20000000E+02  2.80000000E+01  0.00000000E+00
  1.20000000E+02  2.60000000E+01  0.00000000E+00
  1.20000000E+02  2.40000000E+01  0.00000000E+00
  1.20000000E+02  2.20000000E+01  0.00000000E+00
  1.20000000E+02  2.00000000E+01  0.00000000E+00
  1.20000000E+02  1.80000000E+01  0.00000000E+00
  1.20000000E+02  1.60000000E+01  0.00000000E+00
  1.20000000E+02  1.40000000E+01  0.00000000E+00
  1.20000000E+02  1.20000000E+01  0.00000000E+00
  1.20000000E+02  1.00000000E+01  0.00000000E+00
  1.20000000E+02  8.00000000E+00  0.00000000E+00
  1.20000000E+02  6.00000000E+00  0.00000000E+00
  1.20000000E+02  4.00000000E+00  0.00000000E+00
  1.20000000E+02  2.00000000E+00  0.00000000E+00
  1.20000000E+02 -3.33066907E-14  0.00000000E+00
  1.30000000E+02  1.00000000E+02  0.00000000E+00
  1.30000000E+02  9.80000000E+01  0.00000000E+00
  1.30000000E+02  9.60000000E+01  0.00000000E+00
  1.30000000E+02  9.40000000E+01  0.00000000E+00
  1.30000000E+02  9.20000000E+01  0.00000000E+00
  1.30000000E+02  9.00000000E+01  0.00000000E+00
  1.30000000E+02  8.80000000E+01  0.00000000E+00
  1.30000000E+02  8.60000000E+01  0.00000000E+00
  1.30000000E+02  8.40000000E+01  0.00000000E+00
  1.30000000E+02  8.20000000E+01  0.00000000E+00
  1.30000000E+02  8.00000000E+01  0.00000000E+00
  1.30000000E+02  7.80000000E+01  0.00000000E+00
  1.30000000E+02  7.60000000E+01  0.00000000E+00
  1.30000000E+02  7.40000000E+01  0.00000000E+00
  1.30000000E+02  7.20000000E+01  0.00000000E+00
  1.30000000E+02  7.00000000E+01  0.00000000E+00
  1.30000000E+02  6.80000000E+01  0.00000000E+00
  1.30000000E+02  6.60000000E+01  0.00000000E+00
  1.30000000E+02  6.40000000E+01  0.00000000E+00
  1.30000000E+02  6.20000000E+01  0.00000000E+00
  1.30000000E+02  6.00000000E+01  0.00000000E+00
  1.30000000E+02  5.80000000E+01  0.00000000E+00
  1.30000000E+02  5.60000000E+01  0.00000000E+00
  1.30000000E+02  5.40000000E+01  0.00000000E+00
  1.30000000E+02  5.20000000E+01  0.00000000E+00
  1.30000000E+02  5.00000000E+01  0.00000000E+00
  1.30000000E+02  4.80000000E+01  0.00000000E+00
  1.30000000E+02  4.60000000E+01  0.00000000E+00
  1.30000000E+02  4.40000000E+01  0.00000000E+00
  1.30000000E+02  4.20000000E+01  0.00000000E+00
  1.30000000E+02  4.00000000E+01  0.00000000E+00
  1.30000000E+02  3.80000000E+01  0.00000000E+00
  1.30000000E+02  3.60000000E+01  0.00000000E+00
  1.30000000E+02  3.40000000E+01  0.00000000E+00
  1.30000000E+02  3.20000000E+01  0.00000000E+00
  1.30000000E+02  3.00000000E+01  0.00000000E+00
  1.30000000E+02  2.80000000E+01  0.00000000E+00
  1.30000000E+02  2.60000000E+01  0.00000000E+00
  1.30000000E+02  2.40000000E+01  0.00000000E+00
  1.30000000E+02  2.20000000E+01  0.00000000E+00
  1.30000000E+02  2.00000000E+01  0.00000000E+00
  1.30000000E+02  1.80000000E+01  0.00000000E+00
  1.30000000E+02  1.60000000E+01  0.00000000E+00
  1.30000000E+02  1.40000000E+01  0.00000000E+00
  1.30000000E+02  1.20000000E+01  0.00000000E+00
  1.30000000E+02  1.00000000E+01  0.00000000E+00
  1.30000000E+02  8.00000000E+00  0.00000000E+00
  1.30000000E+02  6.00000000E+00  0.00000000E+00
  1.30000000E+02  4.00000000E+00  0.00000000E+00
  1.30000000E+02  2.00000000E+00  0.00000000E+00
  1.30000000E+02 -3.33066907E-14  0.00000000E+00
  1.40000000E+02  1.00000000E+02  0.00000000E+00
  1.40000000E+02  9.80000000E+01  0.00000000E+00
  1.40000000E+02  9.60000000E+01  0.00000000E+00
  1.40000000E+02  9.40000000E+01  0.00000000E+00
  1.40000000E+02  9.20000000E+01  0.00000000E+00
  1.40000000E+02  9.00000000E+01  0.00000000E+00
  1.40000000E+02  8.80000000E+01  0.00000000E+00
  1.40000000E+02  8.60000000E+01  0.00000000E+00
  1.40000000E+02  8.40000000E+01  0.00000000E+00
  1.40000000E+02  8.20000000E+01  0.00000000E+00
  1.40000000E+02  8.00000000E+01  0.00000000E+00
  1.40000000E+02  7.80000000E+01  0.00000000E+00
  1.40000000E+02  7.60000000E+01  0.00000000E+00
  1.40000000E+02  7.40000000E+01  0.00000000E+00
  1.40000000E+02  7.20000000E+01  0.00000000E+00
  1.40000000E+02  7.00000000E+01  0.00000000E+00
  1.40000000E+02  6.80000000E+01  0.00000000E+00
  1.40000000E+02  6.60000000E+01  0.00000000E+00
  1.40000000E+02  6.40000000E+01  0.00000000E+00
  1.40000000E+02  6.20000000E+01  0.00000000E+00
  1.40000000E+02  6.00000000E+01  0.00000000E+00
  1.40000000E+02  5.80000000E+01  0.00000000E+00
  1.40000000E+02  5.60000000E+01  0.00000000E+00
  1.40000000E+02  5.40000000E+01  0.00000000E+00
  1.40000000E+02  5.20000000E+01  0.00000000E+00
  1.40000000E+02  5.00000000E+01  0.00000000E+00
  1.40000000E+02  4.80000000E+01  0.00000000E+00
  1.40000000E+02  4.60000000E+01  0.00000000E+00
  1.40000000E+02  4.40000000E+01  0.00000000E+00
  1.40000000E+02  4.20000000E+01  0.00000000E+00
  1.40000000E+02  4.00000000E+01  0.00000000E+00
  1.40000000E+02  3.80000000E+01  0.00000000E+00
  1.40000000E+02  3.60000000E+01  0.00000000E+00
  1.40000000E+02  3.40000000E+01  0.00000000E+00
  1.40000000E+02  3.20000000E+01  0.00000000E+00
  1.40000000E+02  3.00000000E+01  0.00000000E+00
  1.40000000E+02  2.80000000E+01  0.00000000E+00
  1.40000000E+02  2.60000000E+01  0.00000000E+00
  1.40000000E+02  2.40000000E+01  0.00000000E+00
  1.40000000E+02  2.20000000E+01  0.00000000E+00
  1.40000000E+02  2.00000000E+01  0.00000000E+00
  1.40000000E+02  1.80000000E+01  0.00000000E+00
  1.40000000E+02  1.60000000E+01  0.00000000E+00
  1.40000000E+02  1.40000000E+01  0.00000000E+00
  1.40000000E+02  1.20000000E+01  0.00000000E+00
  1.40000000E+02  1.00000000E+01  0.00000000E+00
  1.40000000E+02  8.00000000E+00  0.00000000E+00
  1.40000000E+02  6.00000000E+00  0.00000000E+00
  1.40000000E+02  4.00000000E+00  0.00000000E+00
  1.40000000E+02  2.00000000E+00  0.00000000E+00
  1.40000000E+02 -3.33066907E-14  0.00000000E+00
  1.50000000E+02  1.00000000E+02  0.00000000E+00
  1.50000000E+02  9.80000000E+01  0.00000000E+00
  1.50000000E+02  9.60000000E+01  0.00000000E+00
  1.50000000E+02  9.40000000E+01  0.00000000E+00
  1.50000000E+02  9.20000000E+01  0.00000000E+00
  1.50000000E+02  9.00000000E+01  0.00000000E+00
  1.50000000E+02  8.80000000E+01  0.00000000E+00
  1.50000000E+02  8.60000000E+01  0.00000000E+00
  1.50000000E+02  8.40000000E+01  0.00000000E+00
  1.50000000E+02  8.20000000E+01  0.00000000E+00
  1.50000000E+02  8.00000000E+01  0.00000000E+00
  1.50000000E+02  7.80000000E+01  0.00000000E+00
  1.50000000E+02  7.60000000E+01  0.00000000E+00
  1.50000000E+02  7.40000000E+01  0.00000000E+00
  1.50000000E+02  7.20000000E+01  0.00000000E+00
  1.50000000E+02  7.00000000E+01  0.00000000E+00
  1.50000000E+02  6.80000000E+01  0.00000000E+00
  1.50000000E+02  6.60000000E+01  0.00000000E+00
  1.50000000E+02  6.40000000E+01  0.00000000E+00
  1.50000000E+02  6.20000000E+01  0.00000000E+00
  1.50000000E+02  6.00000000E+01  0.00000000E+00
  1.50000000E+02  5.80000000E+01  0.00000000E+00
  1.50000000E+02  5.60000000E+01  0.00000000E+00
  1.50000000E+02  5.40000000E+01  0.00000000E+00
  1.50000000E+02  5.20000000E+01  0.00000000E+00
  1.50000000E+02  5.00000000E+01  0.00000000E+00
  1.50000000E+02  4.80000000E+01  0.00000000E+00
  1.50000000E+02  4.60000000E+01  0.00000000E+00
  1.50000000E+02  4.40000000E+01  0.00000000E+00
  1.50000000E+02  4.20000000E+01  0.00000000E+00
  1.50000000E+02  4.00000000E+01  0.00000000E+00
  1.50000000E+02  3.80000000E+01  0.00000000E+00
  1.50000000E+02  3.60000000E+01  0.00000000E+00
  1.50000000E+02  3.40000000E+01  0.00000000E+00
  1.50000000E+02  3.20000000E+01  0.00000000E+00
  1.50000000E+02  3.00000000E+01  0.00000000E+00
  1.50000000E+02  2.80000000E+01  0.00000000E+00
  1.50000000E+02  2.60000000E+01  0.00000000E+00
  1.50000000E+02  2.40000000E+01  0.00000000E+00
  1.50000000E+02  2.20000000E+01  0.00000000E+00
  1.50000000E+02  2.00000000E+01  0.00000000E+00
  1.50000000E+02  1.80000000E+01  0.00000000E+00
  1.50000000E+02  1.60000000E+01  0.00000000E+00
  1.50000000E+02  1.40000000E+01  0.00000000E+00
  1.50000000E+02  1.20000000E+01  0.00000000E+00
  1.50000000E+02  1.00000000E+01  0.00000000E+00
  1.50000000E+02  8.00000000E+00  0.00000000E+00
  1.50000000E+02  6.00000000E+00  0.00000000E+00
  1.50000000E+02  4.00000000E+00  0.00000000E+00
  1.50000000E+02  2.00000000E+00  0.00000000E+00
  1.50000000E+02 -3.33066907E-14  0.00000000E+00
  1.60000000E+02  1.00000000E+02  0.00000000E+00
  1.60000000E+02  9.80000000E+01  0.00000000E+00
  1.60000000E+02  9.60000000E+01  0.00000000E+00
  1.60000000E+02  9.40000000E+01  0.00000000E+00
  1.60000000E+02  9.20000000E+01  0.00000000E+00
  1.60000000E+02  9.00000000E+01  0.00000000E+00
  1.60000000E+02  8.80000000E+01  0.00000000E+00
  1.60000000E+02  8.60000000E+01  0.00000000E+00
  1.60000000E+02  8.40000000E+01  0.00000000E+00
  1.60000000E+02  8.20000000E+01  0.00000000E+00
  1.60000000E+02  8.00000000E+01  0.00000000E+00
  1.60000000E+02  7.80000000E+01  0.00000000E+00
  1.60000000E+02  7.60000000E+01  0.00000000E+00
  1.60000000E+02  7.40000000E+01  0.00000000E+00
  1.60000000E+02  7.20000000E+01  0.00000000E+00
  1.60000000E+02  7.00000000E+01  0.00000000E+00
  1.60000000E+02  6.80000000E+01  0.00000000E+00
  1.60000000E+02  6.60000000E+01  0.00000000E+00
  1.60000000E+02  6.40000000E+01  0.00000000E+00
  1.60000000E+02  6.20000000E+01  0.00000000E+00
  1.60000000E+02  6.00000000E+01  0.00000000E+00
  1.60000000E+02  5.80000000E+01  0.00000000E+00
  1.60000000E+02  5.60000000E+01  0.00000000E+00
  1.60000000E+02  5.40000000E+01  0.00000000E+00
  1.60000000E+02  5.20000000E+01  0.00000000E+00
  1.60000000E+02  5.00000000E+01  0.00000000E+00
  1.60000000E+02  4.80000000E+01  0.00000000E+00
  1.60000000E+02  4.60000000E+01  0.00000000E+00
  1.60000000E+02  4.40000000E+01  0.00000000E+00
  1.60000000E+02  4.20000000E+01  0.00000000E+00
  1.60000000E+02  4.00000000E+01  0.00000000E+00
  1.60000000E+02  3.80000000E+01  0.00000000E+00
  1.60000000E+02  3.60000000E+01  0.00000000E+00
  1.60000000E+02  3.40000000E+01  0.00000000E+00
  1.60000000E+02  3.20000000E+01  0.00000000E+00
  1.60000000E+02  3.00000000E+01  0.00000000E+00
  1.60000000E+02  2.80000000E+01  0.00000000E+00
  1.60000000E+02  2.60000000E+01  0.00000000E+00
  1.60000000E+02  2.40000000E+01  0.00000000E+00
  1.60000000E+02  2.20000000E+01  0.00000000E+00
  1.60000000E+02  2.00000000E+01  0.00000000E+00
  1.60000000E+02  1.80000000E+01  0.00000000E+00
  1.60000000E+02  1.60000000E+01  0.00000000E+00
  1.60000000E+02  1.40000000E+01  0.00000000E+00
  1.60000000E+02  1.20000000E+01  0.00000000E+00
  1.60000000E+02  1.00000000E+01  0.00000000E+00
  1.60000000E+02  8.00000000E+00  0.00000000E+00
  1.60000000E+02  6.00000000E+00  0.00000000E+00
  1.60000000E+02  4.00000000E+00  0.00000000E+00
  1.60000000E+02  2.00000000E+00  0.00000000E+00
  1.60000000E+02 -3.33066907E-14  0.00000000E+00
  1.70000000E+02  1.00000000E+02  0.00000000E+00
  1.70000000E+02  9.80000000E+01  0.00000000E+00
  1.70000000E+02  9.60000000E+01  0.00000000E+00
  1.70000000E+02  9.40000000E+01  0.00000000E+00
  1.70000000E+02  9.20000000E+01  0.00000000E+00
  1.70000000E+02  9.00000000E+01  0.00000000E+00
  1.70000000E+02  8.80000000E+01  0.00000000E+00
  1.70000000E+02  8.60000000E+01  0.00000000E+00
  1.70000000E+02  8.40000000E+01  0.00000000E+00
  1.70000000E+02  8.20000000E+01  0.00000000E+00
  1.70000000E+02  8.00000000E+01  0.00000000E+00
  1.70000000E+02  7.80000000E+01  0.00000000E+00
  1.70000000E+02  7.60000000E+01  0.00000000E+00
  1.70000000E+02  7.40000000E+01  0.00000000E+00
  1.70000000E+02  7.20000000E+01  0.00000000E+00
  1.70000000E+02  7.00000000E+01  0.00000000E+00
  1.70000000E+02  6.80000000E+01  0.00000000E+00
  1.70000000E+02  6.60000000E+01  0.00000000E+00
  1.70000000E+02  6.40000000E+01  0.00000000E+00
  1.70000000E+02  6.20000000E+01  0.00000000E+00
  1.70000000E+02  6.00000000E+01  0.00000000E+00
  1.70000000E+02  5.80000000E+01  0.00000000E+00
  1.70000000E+02  5.60000000E+01  0.00000000E+00
  1.70000000E+02  5.40000000E+01  0.00000000E+00
  1.70000000E+02  5.20000000E+01  0.00000000E+00
  1.70000000E+02  5.00000000E+01  0.00000000E+00
  1.70000000E+02  4.80000000E+01  0.00000000E+00
  1.70000000E+02  4.60000000E+01  0.00000000E+00
  1.70000000E+02  4.40000000E+01  0.00000000E+00
  1.70000000E+02  4.20000000E+01  0.00000000E+00
  1.70000000E+02  4.00000000E+01  0.00000000E+00
  1.70000000E+02  3.80000000E+01  0.00000000E+00
  1.70000000E+02  3.60000000E+01  0.00000000E+00
  1.70000000E+02  3.40000000E+01  0.00000000E+00
  1.70000000E+02  3.20000000E+01  0.00000000E+00
  1.70000000E+02  3.00000000E+01  0.00000000E+00
  1.70000000E+02  2.80000000E+01  0.00000000E+00
  1.70000000E+02  2.60000000E+01  0.00000000E+00
  1.70000000E+02  2.40000000E+01  0.00000000E+00
  1.70000000E+02  2.20000000E+01  0.00000000E+00
  1.70000000E+02  2.00000000E+01  0.00000000E+00
  1.70000000E+02  1.80000000E+01  0.00000000E+00
  1.70000000E+02  1.60000000E+01  0.00000000E+00
  1.70000000E+02  1.40000000E+01  0.00000000E+00
  1.70000000E+02  1.20000000E+01  0.00000000E+00
  1.70000000E+02  1.00000000E+01  0.00000000E+00
  1.70000000E+02  8.00000000E+00  0.00000000E+00
  1.70000000E+02  6.00000000E+00  0.00000000E+00
  1.70000000E+02  4.00000000E+00  0.00000000E+00
  1.70000000E+02  2.00000000E+00  0.00000000E+00
  1.70000000E+02 -3.33066907E-14  0.00000000E+00
  1.80000000E+02  1.00000000E+02  0.00000000E+00
  1.80000000E+02  9.80000000E+01  0.00000000E+00
  1.80000000E+02  9.60000000E+01  0.00000000E+00
  1.80000000E+02  9.40000000E+01  0.00000000E+00
  1.80000000E+02  9.20000000E+01  0.00000000E+00
  1.80000000E+02  9.00000000E+01  0.00000000E+00
  1.80000000E+02  8.80000000E+01  0.00000000E+00
  1.80000000E+02  8.60000000E+01  0.00000000E+00
  1.80000000E+02  8.40000000E+01  0.00000000E+00
  1.80000000E+02  8.20000000E+01  0.00000000E+00
  1.80000000E+02  8.00000000E+01  0.00000000E+00
  1.80000000E+02  7.80000000E+01  0.00000000E+00
  1.80000000E+02  7.60000000E+01  0.00000000E+00
  1.80000000E+02  7.40000000E+01  0.00000000E+00
  1.80000000E+02  7.20000000E+01  0.00000000E+00
  1.80000000E+02  7.00000000E+01  0.00000000E+00
  1.80000000E+02  6.80000000E+01  0.00000000E+00
  1.80000000E+02  6.60000000E+01  0.00000000E+00
  1.80000000E+02  6.40000000E+01  0.00000000E+00
  1.80000000E+02  6.20000000E+01  0.00000000E+00
  1.80000000E+02  6.00000000E+01  0.00000000E+00
  1.80000000E+02  5.80000000E+01  0.00000000E+00
  1.80000000E+02  5.60000000E+01  0.00000000E+00
  1.80000000E+02  5.40000000E+01  0.00000000E+00
  1.80000000E+02  5.20000000E+01  0.00000000E+00
  1.80000000E+02  5.00000000E+01  0.00000000E+00
  1.80000000E+02  4.80000000E+01  0.00000000E+00
  1.80000000E+02  4.60000000E+01  0.00000000E+00
  1.80000000E+02  4.40000000E+01  0.00000000E+00
  1.80000000E+02  4.20000000E+01  0.00000000E+00
  1.80000000E+02  4.00000000E+01  0.00000000E+00
  1.80000000E+02  3.80000000E+01  0.00000000E+00
  1.80000000E+02  3.60000000E+01  0.00000000E+00
  1.80000000E+02  3.40000000E+01  0.00000000E+00
  1.80000000E+02  3.20000000E+01  0.00000000E+00
  1.80000000E+02  3.00000000E+01  0.00000000E+00
  1.80000000E+02  2.80000000E+01  0.00000000E+00
  1.80000000E+02  2.60000000E+01  0.00000000E+00
  1.80000000E+02  2.40000000E+01  0.00000000E+00
  1.80000000E+02  2.20000000E+01  0.00000000E+00
  1.80000000E+02  2.00000000E+01  0.00000000E+00
  1.80000000E+02  1.80000000E+01  0.00000000E+00
  1.80000000E+02  1.60000000E+01  0.00000000E+00
  1.80000000E+02  1.40000000E+01  0.00000000E+00
  1.80000000E+02  1.20000000E+01  0.00000000E+00
  1.80000000E+02  1.00000000E+01  0.00000000E+00
  1.80000000E+02  8.00000000E+00  0.00000000E+00
  1.80000000E+02  6.00000000E+00  0.00000000E+00
  1.80000000E+02  4.00000000E+00  0.00000000E+00
  1.80000000E+02  2.00000000E+00  0.00000000E+00
  1.80000000E+02 -3.33066907E-14  0.00000000E+00
  1.90000000E+02  1.00000000E+02  0.00000000E+00
  1.90000000E+02  9.80000000E+01  0.00000000E+00
  1.90000000E+02  9.60000000E+01  0.00000000E+00
  1.90000000E+02  9.40000000E+01  0.00000000E+00
  1.90000000E+02  9.20000000E+01  0.00000000E+00
  1.90000000E+02  9.00000000E+01  0.00000000E+00
  1.90000000E+02  8.80000000E+01  0.00000000E+00
  1.90000000E+02  8.60000000E+01  0.00000000E+00
  1.90000000E+02  8.40000000E+01  0.00000000E+00
  1.90000000E+02  8.20000000E+01  0.00000000E+00
  1.90000000E+02  8.00000000E+01  0.00000000E+00
  1.90000000E+02  7.80000000E+01  0.00000000E+00
  1.90000000E+02  7.60000000E+01  0.00000000E+00
  1.90000000E+02  7.40000000E+01  0.00000000E+00
  1.90000000E+02  7.20000000E+01  0.00000000E+00
  1.90000000E+02  7.00000000E+01  0.00000000E+00
  1.90000000E+02  6.80000000E+01  0.00000000E+00
  1.90000000E+02  6.60000000E+01  0.00000000E+00
  1.90000000E+02  6.40000000E+01  0.00000000E+00
  1.90000000E+02  6.20000000E+01  0.00000000E+00
  1.90000000E+02  6.00000000E+01  0.00000000E+00
  1.90000000E+02  5.80000000E+01  0.00000000E+00
  1.90000000E+02  5.60000000E+01  0.00000000E+00
  1.90000000E+02  5.40000000E+01  0.00000000E+00
  1.90000000E+02  5.20000000E+01  0.00000000E+00
  1.90000000E+02  5.00000000E+01  0.00000000E+00
  1.90000000E+02  4.80000000E+01  0.00000000E+00
  1.90000000E+02  4.60000000E+01  0.00000000E+00
  1.90000000E+02  4.40000000E+01  0.00000000E+00
  1.90000000E+02  4.20000000E+01  0.00000000E+00
  1.90000000E+02  4.00000000E+01  0.00000000E+00
  1.90000000E+02  3.80000000E+01  0.00000000E+00
  1.90000000E+02  3.60000000E+01  0.00000000E+00
  1.90000000E+02  3.40000000E+01  0.00000000E+00
  1.90000000E+02  3.20000000E+01  0.00000000E+00
  1.90000000E+02  3.00000000E+01  0.00000000E+00
  1.90000000E+02  2.80000000E+01  0.00000000E+00
  1.90000000E+02  2.60000000E+01  0.00000000E+00
  1.90000000E+02  2.40000000E+01  0.00000000E+00
  1.90000000E+02  2.20000000E+01  0.00000000E+00
  1.90000000E+02  2.00000000E+01  0.00000000E+00
  1.90000000E+02  1.80000000E+01  0.00000000E+00
  1.90000000E+02  1.60000000E+01  0.00000000E+00
  1.90000000E+02  1.40000000E+01  0.00000000E+00
  1.90000000E+02  1.20000000E+01  0.00000000E+00
  1.90000000E+02  1.00000000E+01  0.00000000E+00
  1.90000000E+02  8.00000000E+00  0.00000000E+00
  1.90000000E+02  6.00000000E+00  0.00000000E+00
  1.90000000E+02  4.00000000E+00  0.00000000E+00
  1.90000000E+02  2.00000000E+00  0.00000000E+00
  1.90000000E+02 -3.33066907E-14  0.00000000E+00
  2.00000000E+02  1.00000000E+02  0.00000000E+00
  2.00000000E+02  9.80000000E+01  0.00000000E+00
  2.00000000E+02  9.60000000E+01  0.00000000E+00
  2.00000000E+02  9.40000000E+01  0.00000000E+00
  2.00000000E+02  9.20000000E+01  0.00000000E+00
  2.00000000E+02  9.00000000E+01  0.00000000E+00
  2.00000000E+02  8.80000000E+01  0.00000000E+00
  2.00000000E+02  8.60000000E+01  0.00000000E+00
  2.00000000E+02  8.40000000E+01  0.00000000E+00
  2.00000000E+02  8.20000000E+01  0.00000000E+00
  2.00000000E+02  8.00000000E+01  0.00000000E+00
  2.00000000E+02  7.80000000E+01  0.00000000E+00
  2.00000000E+02  7.60000000E+01  0.00000000E+00
  2.00000000E+02  7.40000000E+01  0.00000000E+00
  2.00000000E+02  7.20000000E+01  0.00000000E+00
  2.00000000E+02  7.00000000E+01  0.00000000E+00
  2.00000000E+02  6.80000000E+01  0.00000000E+00
  2.00000000E+02  6.60000000E+01  0.00000000E+00
  2.00000000E+02  6.40000000E+01  0.00000000E+00
  2.00000000E+02  6.20000000E+01  0.00000000E+00
  2.00000000E+02  6.00000000E+01  0.00000000E+00
  2.00000000E+02  5.80000000E+01  0.00000000E+00
  2.00000000E+02  5.60000000E+01  0.00000000E+00
  2.00000000E+02  5.40000000E+01  0.00000000E+00
  2.00000000E+02  5.20000000E+01  0.00000000E+00
  2.00000000E+02  5.00000000E+01  0.00000000E+00
  2.00000000E+02  4.80000000E+01  0.00000000E+00
  2.00000000E+02  4.60000000E+01  0.00000000E+00
  2.00000000E+02  4.40000000E+01  0.00000000E+00
  2.00000000E+02  4.20000000E+01  0.00000000E+00
  2.00000000E+02  4.00000000E+01  0.00000000E+00
  2.00000000E+02  3.80000000E+01  0.00000000E+00
  2.00000000E+02  3.60000000E+01  0.00000000E+00
  2.00000000E+02  3.40000000E+01  0.00000000E+00
  2.00000000E+02  3.20000000E+01  0.00000000E+00
  2.00000000E+02  3.00000000E+01  0.00000000E+00
  2.00000000E+02  2.80000000E+01  0.00000000E+00
  2.00000000E+02  2.60000000E+01  0.00000000E+00
  2.00000000E+02  2.40000000E+01  0.00000000E+00
  2.00000000E+02  2.20000000E+01  0.00000000E+00
  2.00000000E+02  2.00000000E+01  0.00000000E+00
  2.00000000E+02  1.80000000E+01  0.00000000E+00
  2.00000000E+02  1.60000000E+01  0.00000000E+00
  2.00000000E+02  1.40000000E+01  0.00000000E+00
  2.00000000E+02  1.20000000E+01  0.00000000E+00
  2.00000000E+02  1.00000000E+01  0.00000000E+00
  2.00000000E+02  8.00000000E+00  0.00000000E+00
  2.00000000E+02  6.00000000E+00  0.00000000E+00
  2.00000000E+02  4.00000000E+00  0.00000000E+00
  2.00000000E+02  2.00000000E+00  0.00000000E+00
  2.00000000E+02 -3.33066907E-14  0.00000000E+00
  2.10000000E+02  1.00000000E+02  0.00000000E+00
  2.10000000E+02  9.80000000E+01  0.00000000E+00
  2.10000000E+02  9.60000000E+01  0.00000000E+00
  2.10000000E+02  9.40000000E+01  0.00000000E+00
  2.10000000E+02  9.20000000E+01  0.00000000E+00
  2.10000000E+02  9.00000000E+01  0.00000000E+00
  2.10000000E+02  8.80000000E+01  0.00000000E+00
  2.10000000E+02  8.60000000E+01  0.00000000E+00
  2.10000000E+02  8.40000000E+01  0.00000000E+00
  2.10000000E+02  8.20000000E+01  0.00000000E+00
  2.10000000E+02  8.00000000E+01  0.00000000E+00
  2.10000000E+02  7.80000000E+01  0.00000000E+00
  2.10000000E+02  7.60000000E+01  0.00000000E+00
  2.10000000E+02  7.40000000E+01  0.00000000E+00
  2.10000000E+02  7.20000000E+01  0.00000000E+00
  2.10000000E+02  7.00000000E+01  0.00000000E+00
  2.10000000E+02  6.80000000E+01  0.00000000E+00
  2.10000000E+02  6.60000000E+01  0.00000000E+00
  2.10000000E+02  6.40000000E+01  0.00000000E+00
  2.10000000E+02  6.20000000E+01  0.00000000E+00
  2.10000000E+02  6.00000000E+01  0.00000000E+00
  2.10000000E+02  5.80000000E+01  0.00000000E+00
  2.10000000E+02  5.60000000E+01  0.00000000E+00
  2.10000000E+02  5.40000000E+01  0.00000000E+00
  2.10000000E+02  5.20000000E+01  0.00000000E+00
  2.10000000E+02  5.00000000E+01  0.00000000E+00
  2.10000000E+02  4.80000000E+01  0.00000000E+00
  2.10000000E+02  4.60000000E+01  0.00000000E+00
  2.10000000E+02  4.40000000E+01  0.00000000E+00
  2.10000000E+02  4.20000000E+01  0.00000000E+00
  2.10000000E+02  4.00000000E+01  0.00000000E+00
  2.10000000E+02  3.80000000E+01  0.00000000E+00
  2.10000000E+02  3.60000000E+01  0.00000000E+00
  2.10000000E+02  3.40000000E+01  0.00000000E+00
  2.10000000E+02  3.20000000E+01  0.00000000E+00
  2.10000000E+02  3.00000000E+01  0.00000000E+00
  2.10000000E+02  2.80000000E+01  0.00000000E+00
  2.10000000E+02  2.60000000E+01  0.00000000E+00
  2.10000000E+02  2.40000000E+01  0.00000000E+00
  2.10000000E+02  2.20000000E+01  0.00000000E+00
  2.10000000E+02  2.00000000E+01  0.00000000E+00
  2.10000000E+02  1.80000000E+01  0.00000000E+00
  2.10000000E+02  1.60000000E+01  0.00000000E+00
  2.10000000E+02  1.40000000E+01  0.00000000E+00
  2.10000000E+02  1.20000000E+01  0.00000000E+00
  2.10000000E+02  1.00000000E+01  0.00000000E+00
  2.10000000E+02  8.00000000E+00  0.00000000E+00
  2.10000000E+02  6.00000000E+00  0.00000000E+00
  2.10000000E+02  4.00000000E+00  0.00000000E+00
  2.10000000E+02  2.00000000E+00  0.00000000E+00
  2.10000000E+02 -3.33066907E-14  0.00000000E+00
  2.20000000E+02  1.00000000E+02  0.00000000E+00
  2.20000000E+02  9.80000000E+01  0.00000000E+00
  2.20000000E+02  9.60000000E+01  0.00000000E+00
  2.20000000E+02  9.40000000E+01  0.00000000E+00
  2.20000000E+02  9.20000000E+01  0.00000000E+00
  2.20000000E+02  9.00000000E+01  0.00000000E+00
  2.20000000E+02  8.80000000E+01  0.00000000E+00
  2.20000000E+02  8.60000000E+01  0.00000000E+00
  2.20000000E+02  8.40000000E+01  0.00000000E+00
  2.20000000E+02  8.20000000E+01  0.00000000E+00
  2.20000000E+02  8.00000000E+01  0.00000000E+00
  2.20000000E+02  7.80000000E+01  0.00000000E+00
  2.20000000E+02  7.60000000E+01  0.00000000E+00
  2.20000000E+02  7.40000000E+01  0.00000000E+00
  2.20000000E+02  7.20000000E+01  0.00000000E+00
  2.20000000E+02  7.00000000E+01  0.00000000E+00
  2.20000000E+02  6.80000000E+01  0.00000000E+00
  2.20000000E+02  6.60000000E+01  0.00000000E+00
  2.20000000E+02  6.40000000E+01  0.00000000E+00
  2.20000000E+02  6.20000000E+01  0.00000000E+00
  2.20000000E+02  6.00000000E+01  0.00000000E+00
  2.20000000E+02  5.80000000E+01  0.00000000E+00
  2.20000000E+02  5.60000000E+01  0.00000000E+00
  2.20000000E+02  5.40000000E+01  0.00000000E+00
  2.20000000E+02  5.20000000E+01  0.00000000E+00
  2.20000000E+02  5.00000000E+01  0.00000000E+00
  2.20000000E+02  4.80000000E+01  0.00000000E+00
  2.20000000E+02  4.60000000E+01  0.00000000E+00
  2.20000000E+02  4.40000000E+01  0.00000000E+00
  2.20000000E+02  4.20000000E+01  0.00000000E+00
  2.20000000E+02  4.00000000E+01  0.00000000E+00
  2.20000000E+02  3.80000000E+01  0.00000000E+00
  2.20000000E+02  3.60000000E+01  0.00000000E+00
  2.20000000E+02  3.40000000E+01  0.00000000E+00
  2.20000000E+02  3.20000000E+01  0.00000000E+00
  2.20000000E+02  3.00000000E+01  0.00000000E+00
  2.20000000E+02  2.80000000E+01  0.00000000E+00
  2.20000000E+02  2.60000000E+01  0.00000000E+00
  2.20000000E+02  2.40000000E+01  0.00000000E+00
  2.20000000E+02  2.20000000E+01  0.00000000E+00
  2.20000000E+02  2.00000000E+01  0.00000000E+00
  2.20000000E+02  1.80000000E+01  0.00000000E+00
  2.20000000E+02  1.60000000E+01  0.00000000E+00
  2.20000000E+02  1.40000000E+01  0.00000000E+00
  2.20000000E+02  1.20000000E+01  0.00000000E+00
  2.20000000E+02  1.00000000E+01  0.00000000E+00
  2.20000000E+02  8.00000000E+00  0.00000000E+00
  2.20000000E+02  6.00000000E+00  0.00000000E+00
  2.20000000E+02  4.00000000E+00  0.00000000E+00
  2.20000000E+02  2.00000000E+00  0.00000000E+00
  2.20000000E+02 -3.33066907E-14  0.00000000E+00
  2.30000000E+02  1.00000000E+02  0.00000000E+00
  2.30000000E+02  9.80000000E+01  0.00000000E+00
  2.30000000E+02  9.60000000E+01  0.00000000E+00
  2.30000000E+02  9.40000000E+01  0.00000000E+00
  2.30000000E+02  9.20000000E+01  0.00000000E+00
  2.30000000E+02  9.00000000E+01  0.00000000E+00
  2.30000000E+02  8.80000000E+01  0.00000000E+00
  2.30000000E+02  8.60000000E+01  0.00000000E+00
  2.30000000E+02  8.40000000E+01  0.00000000E+00
  2.30000000E+02  8.20000000E+01  0.00000000E+00
  2.30000000E+02  8.00000000E+01  0.00000000E+00
  2.30000000E+02  7.80000000E+01  0.00000000E+00
  2.30000000E+02  7.60000000E+01  0.00000000E+00
  2.30000000E+02  7.40000000E+01  0.00000000E+00
  2.30000000E+02  7.20000000E+01  0.00000000E+00
  2.30000000E+02  7.00000000E+01  0.00000000E+00
  2.30000000E+02  6.80000000E+01  0.00000000E+00
  2.30000000E+02  6.60000000E+01  0.00000000E+00
  2.30000000E+02  6.40000000E+01  0.00000000E+00
  2.30000000E+02  6.20000000E+01  0.00000000E+00
  2.30000000E+02  6.00000000E+01  0.00000000E+00
  2.30000000E+02  5.80000000E+01  0.00000000E+00
  2.30000000E+02  5.60000000E+01  0.00000000E+00
  2.30000000E+02  5.40000000E+01  0.00000000E+00
  2.30000000E+02  5.20000000E+01  0.00000000E+00
  2.30000000E+02  5.00000000E+01  0.00000000E+00
  2.30000000E+02  4.80000000E+01  0.00000000E+00
  2.30000000E+02  4.60000000E+01  0.00000000E+00
  2.30000000E+02  4.40000000E+01  0.00000000E+00
  2.30000000E+02  4.20000000E+01  0.00000000E+00
  2.30000000E+02  4.00000000E+01  0.00000000E+00
  2.30000000E+02  3.80000000E+01  0.00000000E+00
  2.30000000E+02  3.60000000E+01  0.00000000E+00
  2.30000000E+02  3.40000000E+01  0.00000000E+00
  2.30000000E+02  3.20000000E+01  0.00000000E+00
  2.30000000E+02  3.00000000E+01  0.00000000E+00
  2.30000000E+02  2.80000000E+01  0.00000000E+00
  2.30000000E+02  2.60000000E+01  0.00000000E+00
  2.30000000E+02  2.40000000E+01  0.00000000E+00
  2.30000000E+02  2.20000000E+01  0.00000000E+00
  2.30000000E+02  2.00000000E+01  0.00000000E+00
  2.30000000E+02  1.80000000E+01  0.00000000E+00
  2.30000000E+02  1.60000000E+01  0.00000000E+00
  2.30000000E+02  1.40000000E+01  0.00000000E+00
  2.30000000E+02  1.20000000E+01  0.00000000E+00
  2.30000000E+02  1.00000000E+01  0.00000000E+00
  2.30000000E+02  8.00000000E+00  0.00000000E+00
  2.30000000E+02  6.00000000E+00  0.00000000E+00
  2.30000000E+02  4.00000000E+00  0.00000000E+00
  2.30000000E+02  2.00000000E+00  0.00000000E+00
  2.30000000E+02 -3.33066907E-14  0.00000000E+00
  2.40000000E+02  1.00000000E+02  0.00000000E+00
  2.40000000E+02  9.80000000E+01  0.00000000E+00
  2.40000000E+02  9.60000000E+01  0.00000000E+00
  2.40000000E+02  9.40000000E+01  0.00000000E+00
  2.40000000E+02  9.20000000E+01  0.00000000E+00
  2.40000000E+02  9.00000000E+01  0.00000000E+00
  2.40000000E+02  8.80000000E+01  0.00000000E+00
  2.40000000E+02  8.60000000E+01  0.00000000E+00
  2.40000000E+02  8.40000000E+01  0.00000000E+00
  2.40000000E+02  8.20000000E+01  0.00000000E+00
  2.40000000E+02  8.00000000E+01  0.00000000E+00
  2.40000000E+02  7.80000000E+01  0.00000000E+00
  2.40000000E+02  7.60000000E+01  0.00000000E+00
  2.40000000E+02  7.40000000E+01  0.00000000E+00
  2.40000000E+02  7.20000000E+01  0.00000000E+00
  2.40000000E+02  7.00000000E+01  0.00000000E+00
  2.40000000E+02  6.80000000E+01  0.00000000E+00
  2.40000000E+02  6.60000000E+01  0.00000000E+00
  2.40000000E+02  6.40000000E+01  0.00000000E+00
  2.40000000E+02  6.20000000E+01  0.00000000E+00
  2.40000000E+02  6.00000000E+01  0.00000000E+00
  2.40000000E+02  5.80000000E+01  0.00000000E+00
  2.40000000E+02  5.60000000E+01  0.00000000E+00
  2.40000000E+02  5.40000000E+01  0.00000000E+00
  2.40000000E+02  5.20000000E+01  0.00000000E+00
  2.40000000E+02  5.00000000E+01  0.00000000E+00
  2.40000000E+02  4.80000000E+01  0.00000000E+00
  2.40000000E+02  4.60000000E+01  0.00000000E+00
  2.40000000E+02  4.40000000E+01  0.00000000E+00
  2.40000000E+02  4.20000000E+01  0.00000000E+00
  2.40000000E+02  4.00000000E+01  0.00000000E+00
  2.40000000E+02  3.80000000E+01  0.00000000E+00
  2.40000000E+02  3.60000000E+01  0.00000000E+00
  2.40000000E+02  3.40000000E+01  0.00000000E+00
  2.40000000E+02  3.20000000E+01  0.00000000E+00
  2.40000000E+02  3.00000000E+01  0.00000000E+00
  2.40000000E+02  2.80000000E+01  0.00000000E+00
  2.40000000E+02  2.60000000E+01  0.00000000E+00
  2.40000000E+02  2.40000000E+01  0.00000000E+00
  2.40000000E+02  2.20000000E+01  0.00000000E+00
  2.40000000E+02  2.00000000E+01  0.00000000E+00
  2.40000000E+02  1.80000000E+01  0.00000000E+00
  2.40000000E+02  1.60000000E+01  0.00000000E+00
  2.40000000E+02  1.40000000E+01  0.00000000E+00
  2.40000000E+02  1.20000000E+01  0.00000000E+00
  2.40000000E+02  1.00000000E+01  0.00000000E+00
  2.40000000E+02  8.00000000E+00  0.00000000E+00
  2.40000000E+02  6.00000000E+00  0.00000000E+00
  2.40000000E+02  4.00000000E+00  0.00000000E+00
  2.40000000E+02  2.00000000E+00  0.00000000E+00
  2.40000000E+02 -3.33066907E-14  0.00000000E+00
  2.50000000E+02  1.00000000E+02  0.00000000E+00
  2.50000000E+02  9.80000000E+01  0.00000000E+00
  2.50000000E+02  9.60000000E+01  0.00000000E+00
  2.50000000E+02  9.40000000E+01  0.00000000E+00
  2.50000000E+02  9.20000000E+01  0.00000000E+00
  2.50000000E+02  9.00000000E+01  0.00000000E+00
  2.50000000E+02  8.80000000E+01  0.00000000E+00
  2.50000000E+02  8.60000000E+01  0.00000000E+00
  2.50000000E+02  8.40000000E+01  0.00000000E+00
  2.50000000E+02  8.20000000E+01  0.00000000E+00
  2.50000000E+02  8.00000000E+01  0.00000000E+00
  2.50000000E+02  7.80000000E+01  0.00000000E+00
  2.50000000E+02  7.60000000E+01  0.00000000E+00
  2.50000000E+02  7.40000000E+01  0.00000000E+00
  2.50000000E+02  7.20000000E+01  0.00000000E+00
  2.50000000E+02  7.00000000E+01  0.00000000E+00
  2.50000000E+02  6.80000000E+01  0.00000000E+00
  2.50000000E+02  6.60000000E+01  0.00000000E+00
  2.50000000E+02  6.40000000E+01  0.00000000E+00
  2.50000000E+02  6.20000000E+01  0.00000000E+00
  2.50000000E+02  6.00000000E+01  0.00000000E+00
  2.50000000E+02  5.80000000E+01  0.00000000E+00
  2.50000000E+02  5.60000000E+01  0.00000000E+00
  2.50000000E+02  5.40000000E+01  0.00000000E+00
  2.50000000E+02  5.20000000E+01  0.00000000E+00
  2.50000000E+02  5.00000000E+01  0.00000000E+00
  2.50000000E+02  4.80000000E+01  0.00000000E+00
  2.50000000E+02  4.60000000E+01  0.00000000E+00
  2.50000000E+02  4.40000000E+01  0.00000000E+00
  2.50000000E+02  4.20000000E+01  0.00000000E+00
  2.50000000E+02  4.00000000E+01  0.00000000E+00
  2.50000000E+02  3.80000000E+01  0.00000000E+00
  2.50000000E+02  3.60000000E+01  0.00000000E+00
  2.50000000E+02  3.40000000E+01  0.00000000E+00
  2.50000000E+02  3.20000000E+01  0.00000000E+00
  2.50000000E+02  3.00000000E+01  0.00000000E+00
  2.50000000E+02  2.80000000E+01  0.00000000E+00
  2.50000000E+02  2.60000000E+01  0.00000000E+00
  2.50000000E+02  2.40000000E+01  0.00000000E+00
  2.50000000E+02  2.20000000E+01  0.00000000E+00
  2.50000000E+02  2.00000000E+01  0.00000000E+00
  2.50000000E+02  1.80000000E+01  0.00000000E+00
  2.50000000E+02  1.60000000E+01  0.00000000E+00
  2.50000000E+02  1.40000000E+01  0.00000000E+00
  2.50000000E+02  1.20000000E+01  0.00000000E+00
  2.50000000E+02  1.00000000E+01  0.00000000E+00
  2.50000000E+02  8.00000000E+00  0.00000000E+00
  2.50000000E+02  6.00000000E+00  0.00000000E+00
  2.50000000E+02  4.00000000E+00  0.00000000E+00
  2.50000000E+02  2.00000000E+00  0.00000000E+00
  2.50000000E+02 -3.33066907E-14  0.00000000E+00
  2.60000000E+02  1.00000000E+02  0.00000000E+00
  2.60000000E+02  9.80000000E+01  0.00000000E+00
  2.60000000E+02  9.60000000E+01  0.00000000E+00
  2.60000000E+02  9.40000000E+01  0.00000000E+00
  2.60000000E+02  9.20000000E+01  0.00000000E+00
  2.60000000E+02  9.00000000E+01  0.00000000E+00
  2.60000000E+02  8.80000000E+01  0.00000000E+00
  2.60000000E+02  8.60000000E+01  0.00000000E+00
  2.60000000E+02  8.40000000E+01  0.00000000E+00
  2.60000000E+02  8.20000000E+01  0.00000000E+00
  2.60000000E+02  8.00000000E+01  0.00000000E+00
  2.60000000E+02  7.80000000E+01  0.00000000E+00
  2.60000000E+02  7.60000000E+01  0.00000000E+00
  2.60000000E+02  7.40000000E+01  0.00000000E+00
  2.60000000E+02  7.20000000E+01  0.00000000E+00
  2.60000000E+02  7.00000000E+01  0.00000000E+00
  2.60000000E+02  6.80000000E+01  0.00000000E+00
  2.60000000E+02  6.60000000E+01  0.00000000E+00
  2.60000000E+02  6.40000000E+01  0.00000000E+00
  2.60000000E+02  6.20000000E+01  0.00000000E+00
  2.60000000E+02  6.00000000E+01  0.00000000E+00
  2.60000000E+02  5.80000000E+01  0.00000000E+00
  2.60000000E+02  5.60000000E+01  0.00000000E+00
  2.60000000E+02  5.40000000E+01  0.00000000E+00
  2.60000000E+02  5.20000000E+01  0.00000000E+00
  2.60000000E+02  5.00000000E+01  0.00000000E+00
  2.60000000E+02  4.80000000E+01  0.00000000E+00
  2.60000000E+02  4.60000000E+01  0.00000000E+00
  2.60000000E+02  4.40000000E+01  0.00000000E+00
  2.60000000E+02  4.20000000E+01  0.00000000E+00
  2.60000000E+02  4.00000000E+01  0.00000000E+00
  2.60000000E+02  3.80000000E+01  0.00000000E+00
  2.60000000E+02  3.60000000E+01  0.00000000E+00
  2.60000000E+02  3.40000000E+01  0.00000000E+00
  2.60000000E+02  3.20000000E+01  0.00000000E+00
  2.60000000E+02  3.00000000E+01  0.00000000E+00
  2.60000000E+02  2.80000000E+01  0.00000000E+00
  2.60000000E+02  2.60000000E+01  0.00000000E+00
  2.60000000E+02  2.40000000E+01  0.00000000E+00
  2.60000000E+02  2.20000000E+01  0.00000000E+00
  2.60000000E+02  2.00000000E+01  0.00000000E+00
  2.60000000E+02  1.80000000E+01  0.00000000E+00
  2.60000000E+02  1.60000000E+01  0.00000000E+00
  2.60000000E+02  1.40000000E+01  0.00000000E+00
  2.60000000E+02  1.20000000E+01  0.00000000E+00
  2.60000000E+02  1.00000000E+01  0.00000000E+00
  2.60000000E+02  8.00000000E+00  0.00000000E+00
  2.60000000E+02  6.00000000E+00  0.00000000E+00
  2.60000000E+02  4.00000000E+00  0.00000000E+00
  2.60000000E+02  2.00000000E+00  0.00000000E+00
  2.60000000E+02 -3.33066907E-14  0.00000000E+00
  2.70000000E+02  1.00000000E+02  0.00000000E+00
  2.70000000E+02  9.80000000E+01  0.00000000E+00
  2.70000000E+02  9.60000000E+01  0.00000000E+00
  2.70000000E+02  9.40000000E+01  0.00000000E+00
  2.70000000E+02  9.20000000E+01  0.00000000E+00
  2.70000000E+02  9.00000000E+01  0.00000000E+00
  2.70000000E+02  8.80000000E+01  0.00000000E+00
  2.70000000E+02  8.60000000E+01  0.00000000E+00
  2.70000000E+02  8.40000000E+01  0.00000000E+00
  2.70000000E+02  8.20000000E+01  0.00000000E+00
  2.70000000E+02  8.00000000E+01  0.00000000E+00
  2.70000000E+02  7.80000000E+01  0.00000000E+00
  2.70000000E+02  7.60000000E+01  0.00000000E+00
  2.70000000E+02  7.40000000E+01  0.00000000E+00
  2.70000000E+02  7.20000000E+01  0.00000000E+00
  2.70000000E+02  7.00000000E+01  0.00000000E+00
  2.70000000E+02  6.80000000E+01  0.00000000E+00
  2.70000000E+02  6.60000000E+01  0.00000000E+00
  2.70000000E+02  6.40000000E+01  0.00000000E+00
  2.70000000E+02  6.20000000E+01  0.00000000E+00
  2.70000000E+02  6.00000000E+01  0.00000000E+00
  2.70000000E+02  5.80000000E+01  0.00000000E+00
  2.70000000E+02  5.60000000E+01  0.00000000E+00
  2.70000000E+02  5.40000000E+01  0.00000000E+00
  2.70000000E+02  5.20000000E+01  0.00000000E+00
  2.70000000E+02  5.00000000E+01  0.00000000E+00
  2.70000000E+02  4.80000000E+01  0.00000000E+00
  2.70000000E+02  4.60000000E+01  0.00000000E+00
  2.70000000E+02  4.40000000E+01  0.00000000E+00
  2.70000000E+02  4.20000000E+01  0.00000000E+00
  2.70000000E+02  4.00000000E+01  0.00000000E+00
  2.70000000E+02  3.80000000E+01  0.00000000E+00
  2.70000000E+02  3.60000000E+01  0.00000000E+00
  2.70000000E+02  3.40000000E+01  0.00000000E+00
  2.70000000E+02  3.20000000E+01  0.00000000E+00
  2.70000000E+02  3.00000000E+01  0.00000000E+00
  2.70000000E+02  2.80000000E+01  0.00000000E+00
  2.70000000E+02  2.60000000E+01  0.00000000E+00
  2.70000000E+02  2.40000000E+01  0.00000000E+00
  2.70000000E+02  2.20000000E+01  0.00000000E+00
  2.70000000E+02  2.00000000E+01  0.00000000E+00
  2.70000000E+02  1.80000000E+01  0.00000000E+00
  2.70000000E+02  1.60000000E+01  0.00000000E+00
  2.70000000E+02  1.40000000E+01  0.00000000E+00
  2.70000000E+02  1.20000000E+01  0.00000000E+00
  2.70000000E+02  1.00000000E+01  0.00000000E+00
  2.70000000E+02  8.00000000E+00  0.00000000E+00
  2.70000000E+02  6.00000000E+00  0.00000000E+00
  2.70000000E+02  4.00000000E+00  0.00000000E+00
  2.70000000E+02  2.00000000E+00  0.00000000E+00
  2.70000000E+02 -3.33066907E-14  0.00000000E+00
  2.80000000E+02  1.00000000E+02  0.00000000E+00
  2.80000000E+02  9.80000000E+01  0.00000000E+00
  2.80000000E+02  9.60000000E+01  0.00000000E+00
  2.80000000E+02  9.40000000E+01  0.00000000E+00
  2.80000000E+02  9.20000000E+01  0.00000000E+00
  2.80000000E+02  9.00000000E+01  0.00000000E+00
  2.80000000E+02  8.80000000E+01  0.00000000E+00
  2.80000000E+02  8.60000000E+01  0.00000000E+00
  2.80000000E+02  8.40000000E+01  0.00000000E+00
  2.80000000E+02  8.20000000E+01  0.00000000E+00
  2.80000000E+02  8.00000000E+01  0.00000000E+00
  2.80000000E+02  7.80000000E+01  0.00000000E+00
  2.80000000E+02  7.60000000E+01  0.00000000E+00
  2.80000000E+02  7.40000000E+01  0.00000000E+00
  2.80000000E+02  7.20000000E+01  0.00000000E+00
  2.80000000E+02  7.00000000E+01  0.00000000E+00
  2.80000000E+02  6.80000000E+01  0.00000000E+00
  2.80000000E+02  6.60000000E+01  0.00000000E+00
  2.80000000E+02  6.40000000E+01  0.00000000E+00
  2.80000000E+02  6.20000000E+01  0.00000000E+00
  2.80000000E+02  6.00000000E+01  0.00000000E+00
  2.80000000E+02  5.80000000E+01  0.00000000E+00
  2.80000000E+02  5.60000000E+01  0.00000000E+00
  2.80000000E+02  5.40000000E+01  0.00000000E+00
  2.80000000E+02  5.20000000E+01  0.00000000E+00
  2.80000000E+02  5.00000000E+01  0.00000000E+00
  2.80000000E+02  4.80000000E+01  0.00000000E+00
  2.80000000E+02  4.60000000E+01  0.00000000E+00
  2.80000000E+02  4.40000000E+01  0.00000000E+00
  2.80000000E+02  4.20000000E+01  0.00000000E+00
  2.80000000E+02  4.00000000E+01  0.00000000E+00
  2.80000000E+02  3.80000000E+01  0.00000000E+00
  2.80000000E+02  3.60000000E+01  0.00000000E+00
  2.80000000E+02  3.40000000E+01  0.00000000E+00
  2.80000000E+02  3.20000000E+01  0.00000000E+00
  2.80000000E+02  3.00000000E+01  0.00000000E+00
  2.80000000E+02  2.80000000E+01  0.00000000E+00
  2.80000000E+02  2.60000000E+01  0.00000000E+00
  2.80000000E+02  2.40000000E+01  0.00000000E+00
  2.80000000E+02  2.20000000E+01  0.00000000E+00
  2.80000000E+02  2.00000000E+01  0.00000000E+00
  2.80000000E+02  1.80000000E+01  0.00000000E+00
  2.80000000E+02  1.60000000E+01  0.00000000E+00
  2.80000000E+02  1.40000000E+01  0.00000000E+00
  2.80000000E+02  1.20000000E+01  0.00000000E+00
  2.80000000E+02  1.00000000E+01  0.00000000E+00
  2.80000000E+02  8.00000000E+00  0.00000000E+00
  2.80000000E+02  6.00000000E+00  0.00000000E+00
  2.80000000E+02  4.00000000E+00  0.00000000E+00
  2.80000000E+02  2.00000000E+00  0.00000000E+00
  2.80000000E+02 -3.33066907E-14  0.00000000E+00
  2.90000000E+02  1.00000000E+02  0.00000000E+00
  2.90000000E+02  9.80000000E+01  0.00000000E+00
  2.90000000E+02  9.60000000E+01  0.00000000E+00
  2.90000000E+02  9.40000000E+01  0.00000000E+00
  2.90000000E+02  9.20000000E+01  0.00000000E+00
  2.90000000E+02  9.00000000E+01  0.00000000E+00
  2.90000000E+02  8.80000000E+01  0.00000000E+00
  2.90000000E+02  8.60000000E+01  0.00000000E+00
  2.90000000E+02  8.40000000E+01  0.00000000E+00
  2.90000000E+02  8.20000000E+01  0.00000000E+00
  2.90000000E+02  8.00000000E+01  0.00000000E+00
  2.90000000E+02  7.80000000E+01  0.00000000E+00
  2.90000000E+02  7.60000000E+01  0.00000000E+00
  2.90000000E+02  7.40000000E+01  0.00000000E+00
  2.90000000E+02  7.20000000E+01  0.00000000E+00
  2.90000000E+02  7.00000000E+01  0.00000000E+00
  2.90000000E+02  6.80000000E+01  0.00000000E+00
  2.90000000E+02  6.60000000E+01  0.00000000E+00
  2.90000000E+02  6.40000000E+01  0.00000000E+00
  2.90000000E+02  6.20000000E+01  0.00000000E+00
  2.90000000E+02  6.00000000E+01  0.00000000E+00
  2.90000000E+02  5.80000000E+01  0.00000000E+00
  2.90000000E+02  5.60000000E+01  0.00000000E+00
  2.90000000E+02  5.40000000E+01  0.00000000E+00
  2.90000000E+02  5.20000000E+01  0.00000000E+00
  2.90000000E+02  5.00000000E+01  0.00000000E+00
  2.90000000E+02  4.80000000E+01  0.00000000E+00
  2.90000000E+02  4.60000000E+01  0.00000000E+00
  2.90000000E+02  4.40000000E+01  0.00000000E+00
  2.90000000E+02  4.20000000E+01  0.00000000E+00
  2.90000000E+02  4.00000000E+01  0.00000000E+00
  2.90000000E+02  3.80000000E+01  0.00000000E+00
  2.90000000E+02  3.60000000E+01  0.00000000E+00
  2.90000000E+02  3.40000000E+01  0.00000000E+00
  2.90000000E+02  3.20000000E+01  0.00000000E+00
  2.90000000E+02  3.00000000E+01  0.00000000E+00
  2.90000000E+02  2.80000000E+01  0.00000000E+00
  2.90000000E+02  2.60000000E+01  0.00000000E+00
  2.90000000E+02  2.40000000E+01  0.00000000E+00
  2.90000000E+02  2.20000000E+01  0.00000000E+00
  2.90000000E+02  2.00000000E+01  0.00000000E+00
  2.90000000E+02  1.80000000E+01  0.00000000E+00
  2.90000000E+02  1.60000000E+01  0.00000000E+00
  2.90000000E+02  1.40000000E+01  0.00000000E+00
  2.90000000E+02  1.20000000E+01  0.00000000E+00
  2.90000000E+02  1.00000000E+01  0.00000000E+00
  2.90000000E+02  8.00000000E+00  0.00000000E+00
  2.90000000E+02  6.00000000E+00  0.00000000E+00
  2.90000000E+02  4.00000000E+00  0.00000000E+00
  2.90000000E+02  2.00000000E+00  0.00000000E+00
  2.90000000E+02 -3.33066907E-14  0.00000000E+00
  3.00000000E+02  1.00000000E+02  0.00000000E+00
  3.00000000E+02  9.80000000E+01  0.00000000E+00
  3.00000000E+02  9.60000000E+01  0.00000000E+00
  3.00000000E+02  9.40000000E+01  0.00000000E+00
  3.00000000E+02  9.20000000E+01  0.00000000E+00
  3.00000000E+02  9.00000000E+01  0.00000000E+00
  3.00000000E+02  8.80000000E+01  0.00000000E+00
  3.00000000E+02  8.60000000E+01  0.00000000E+00
  3.00000000E+02  8.40000000E+01  0.00000000E+00
  3.00000000E+02  8.20000000E+01  0.00000000E+00
  3.00000000E+02  8.00000000E+01  0.00000000E+00
  3.00000000E+02  7.80000000E+01  0.00000000E+00
  3.00000000E+02  7.60000000E+01  0.00000000E+00
  3.00000000E+02  7.40000000E+01  0.00000000E+00
  3.00000000E+02  7.20000000E+01  0.00000000E+00
  3.00000000E+02  7.00000000E+01  0.00000000E+00
  3.00000000E+02  6.80000000E+01  0.00000000E+00
  3.00000000E+02  6.60000000E+01  0.00000000E+00
  3.00000000E+02  6.40000000E+01  0.00000000E+00
  3.00000000E+02  6.20000000E+01  0.00000000E+00
  3.00000000E+02  6.00000000E+01  0.00000000E+00
  3.00000000E+02  5.80000000E+01  0.00000000E+00
  3.00000000E+02  5.60000000E+01  0.00000000E+00
  3.00000000E+02  5.40000000E+01  0.00000000E+00
  3.00000000E+02  5.20000000E+01  0.00000000E+00
  3.00000000E+02  5.00000000E+01  0.00000000E+00
  3.00000000E+02  4.80000000E+01  0.00000000E+00
  3.00000000E+02  4.60000000E+01  0.00000000E+00
  3.00000000E+02  4.40000000E+01  0.00000000E+00
  3.00000000E+02  4.20000000E+01  0.00000000E+00
  3.00000000E+02  4.00000000E+01  0.00000000E+00
  3.00000000E+02  3.80000000E+01  0.00000000E+00
  3.00000000E+02  3.60000000E+01  0.00000000E+00
  3.00000000E+02  3.40000000E+01  0.00000000E+00
  3.00000000E+02  3.20000000E+01  0.00000000E+00
  3.00000000E+02  3.00000000E+01  0.00000000E+00
  3.00000000E+02  2.80000000E+01  0.00000000E+00
  3.00000000E+02  2.60000000E+01  0.00000000E+00
  3.00000000E+02  2.40000000E+01  0.00000000E+00
  3.00000000E+02  2.20000000E+01  0.00000000E+00
  3.00000000E+02  2.00000000E+01  0.00000000E+00
  3.00000000E+02  1.80000000E+01  0.00000000E+00
  3.00000000E+02  1.60000000E+01  0.00000000E+00
  3.00000000E+02  1.40000000E+01  0.00000000E+00
  3.00000000E+02  1.20000000E+01  0.00000000E+00
  3.00000000E+02  1.00000000E+01  0.00000000E+00
  3.00000000E+02  8.00000000E+00  0.00000000E+00
  3.00000000E+02  6.00000000E+00  0.00000000E+00
  3.00000000E+02  4.00000000E+00  0.00000000E+00
  3.00000000E+02  2.00000000E+00  0.00000000E+00
  3.00000000E+02 -3.33066907E-14  0.00000000E+00
  3.10000000E+02  1.00000000E+02  0.00000000E+00
  3.10000000E+02  9.80000000E+01  0.00000000E+00
  3.10000000E+02  9.60000000E+01  0.00000000E+00
  3.10000000E+02  9.40000000E+01  0.00000000E+00
  3.10000000E+02  9.20000000E+01  0.00000000E+00
  3.10000000E+02  9.00000000E+01  0.00000000E+00
  3.10000000E+02  8.80000000E+01  0.00000000E+00
  3.10000000E+02  8.60000000E+01  0.00000000E+00
  3.10000000E+02  8.40000000E+01  0.00000000E+00
  3.10000000E+02  8.20000000E+01  0.00000000E+00
  3.10000000E+02  8.00000000E+01  0.00000000E+00
  3.10000000E+02  7.80000000E+01  0.00000000E+00
  3.10000000E+02  7.60000000E+01  0.00000000E+00
  3.10000000E+02  7.40000000E+01  0.00000000E+00
  3.10000000E+02  7.20000000E+01  0.00000000E+00
  3.10000000E+02  7.00000000E+01  0.00000000E+00
  3.10000000E+02  6.80000000E+01  0.00000000E+00
  3.10000000E+02  6.60000000E+01  0.00000000E+00
  3.10000000E+02  6.40000000E+01  0.00000000E+00
  3.10000000E+02  6.20000000E+01  0.00000000E+00
  3.10000000E+02  6.00000000E+01  0.00000000E+00
  3.10000000E+02  5.80000000E+01  0.00000000E+00
  3.10000000E+02  5.60000000E+01  0.00000000E+00
  3.10000000E+02  5.40000000E+01  0.00000000E+00
  3.10000000E+02  5.20000000E+01  0.00000000E+00
  3.10000000E+02  5.00000000E+01  0.00000000E+00
  3.10000000E+02  4.80000000E+01  0.00000000E+00
  3.10000000E+02  4.60000000E+01  0.00000000E+00
  3.10000000E+02  4.40000000E+01  0.00000000E+00
  3.10000000E+02  4.20000000E+01  0.00000000E+00
  3.10000000E+02  4.00000000E+01  0.00000000E+00
  3.10000000E+02  3.80000000E+01  0.00000000E+00
  3.10000000E+02  3.60000000E+01  0.00000000E+00
  3.10000000E+02  3.40000000E+01  0.00000000E+00
  3.10000000E+02  3.20000000E+01  0.00000000E+00
  3.10000000E+02  3.00000000E+01  0.00000000E+00
  3.10000000E+02  2.80000000E+01  0.00000000E+00
  3.10000000E+02  2.60000000E+01  0.00000000E+00
  3.10000000E+02  2.40000000E+01  0.00000000E+00
  3.10000000E+02  2.20000000E+01  0.00000000E+00
  3.10000000E+02  2.00000000E+01  0.00000000E+00
  3.10000000E+02  1.80000000E+01  0.00000000E+00
  3.10000000E+02  1.60000000E+01  0.00000000E+00
  3.10000000E+02  1.40000000E+01  0.00000000E+00
  3.10000000E+02  1.20000000E+01  0.00000000E+00
  3.10000000E+02  1.00000000E+01  0.00000000E+00
  3.10000000E+02  8.00000000E+00  0.00000000E+00
  3.10000000E+02  6.00000000E+00  0.00000000E+00
  3.10000000E+02  4.00000000E+00  0.00000000E+00
  3.10000000E+02  2.00000000E+00  0.00000000E+00
  3.10000000E+02 -3.33066907E-14  0.00000000E+00
  3.20000000E+02  1.00000000E+02  0.00000000E+00
  3.20000000E+02  9.80000000E+01  0.00000000E+00
  3.20000000E+02  9.60000000E+01  0.00000000E+00
  3.20000000E+02  9.40000000E+01  0.00000000E+00
  3.20000000E+02  9.20000000E+01  0.00000000E+00
  3.20000000E+02  9.00000000E+01  0.00000000E+00
  3.20000000E+02  8.80000000E+01  0.00000000E+00
  3.20000000E+02  8.60000000E+01  0.00000000E+00
  3.20000000E+02  8.40000000E+01  0.00000000E+00
  3.20000000E+02  8.20000000E+01  0.00000000E+00
  3.20000000E+02  8.00000000E+01  0.00000000E+00
  3.20000000E+02  7.80000000E+01  0.00000000E+00
  3.20000000E+02  7.60000000E+01  0.00000000E+00
  3.20000000E+02  7.40000000E+01  0.00000000E+00
  3.20000000E+02  7.20000000E+01  0.00000000E+00
  3.20000000E+02  7.00000000E+01  0.00000000E+00
  3.20000000E+02  6.80000000E+01  0.00000000E+00
  3.20000000E+02  6.60000000E+01  0.00000000E+00
  3.20000000E+02  6.40000000E+01  0.00000000E+00
  3.20000000E+02  6.20000000E+01  0.00000000E+00
  3.20000000E+02  6.00000000E+01  0.00000000E+00
  3.20000000E+02  5.80000000E+01  0.00000000E+00
  3.20000000E+02  5.60000000E+01  0.00000000E+00
  3.20000000E+02  5.40000000E+01  0.00000000E+00
  3.20000000E+02  5.20000000E+01  0.00000000E+00
  3.20000000E+02  5.00000000E+01  0.00000000E+00
  3.20000000E+02  4.80000000E+01  0.00000000E+00
  3.20000000E+02  4.60000000E+01  0.00000000E+00
  3.20000000E+02  4.40000000E+01  0.00000000E+00
  3.20000000E+02  4.20000000E+01  0.00000000E+00
  3.20000000E+02  4.00000000E+01  0.00000000E+00
  3.20000000E+02  3.80000000E+01  0.00000000E+00
  3.20000000E+02  3.60000000E+01  0.00000000E+00
  3.20000000E+02  3.40000000E+01  0.00000000E+00
  3.20000000E+02  3.20000000E+01  0.00000000E+00
  3.20000000E+02  3.00000000E+01  0.00000000E+00
  3.20000000E+02  2.80000000E+01  0.00000000E+00
  3.20000000E+02  2.60000000E+01  0.00000000E+00
  3.20000000E+02  2.40000000E+01  0.00000000E+00
  3.20000000E+02  2.20000000E+01  0.00000000E+00
  3.20000000E+02  2.00000000E+01  0.00000000E+00
  3.20000000E+02  1.80000000E+01  0.00000000E+00
  3.20000000E+02  1.60000000E+01  0.00000000E+00
  3.20000000E+02  1.40000000E+01  0.00000000E+00
  3.20000000E+02  1.20000000E+01  0.00000000E+00
  3.20000000E+02  1.00000000E+01  0.00000000E+00
  3.20000000E+02  8.00000000E+00  0.00000000E+00
  3.20000000E+02  6.00000000E+00  0.00000000E+00
  3.20000000E+02  4.00000000E+00  0.00000000E+00
  3.20000000E+02  2.00000000E+00  0.00000000E+00
  3.20000000E+02 -3.33066907E-14  0.00000000E+00
  3.30000000E+02  1.00000000E+02  0.00000000E+00
  3.30000000E+02  9.80000000E+01  0.00000000E+00
  3.30000000E+02  9.60000000E+01  0.00000000E+00
  3.30000000E+02  9.40000000E+01  0.00000000E+00
  3.30000000E+02  9.20000000E+01  0.00000000E+00
  3.30000000E+02  9.00000000E+01  0.00000000E+00
  3.30000000E+02  8.80000000E+01  0.00000000E+00
  3.30000000E+02  8.60000000E+01  0.00000000E+00
  3.30000000E+02  8.40000000E+01  0.00000000E+00
  3.30000000E+02  8.20000000E+01  0.00000000E+00
  3.30000000E+02  8.00000000E+01  0.00000000E+00
  3.30000000E+02  7.80000000E+01  0.00000000E+00
  3.30000000E+02  7.60000000E+01  0.00000000E+00
  3.30000000E+02  7.40000000E+01  0.00000000E+00
  3.30000000E+02  7.20000000E+01  0.00000000E+00
  3.30000000E+02  7.00000000E+01  0.00000000E+00
  3.30000000E+02  6.80000000E+01  0.00000000E+00
  3.30000000E+02  6.60000000E+01  0.00000000E+00
  3.30000000E+02  6.40000000E+01  0.00000000E+00
  3.30000000E+02  6.20000000E+01  0.00000000E+00
  3.30000000E+02  6.00000000E+01  0.00000000E+00
  3.30000000E+02  5.80000000E+01  0.00000000E+00
  3.30000000E+02  5.60000000E+01  0.00000000E+00
  3.30000000E+02  5.40000000E+01  0.00000000E+00
  3.30000000E+02  5.20000000E+01  0.00000000E+00
  3.30000000E+02  5.00000000E+01  0.00000000E+00
  3.30000000E+02  4.80000000E+01  0.00000000E+00
  3.30000000E+02  4.60000000E+01  0.00000000E+00
  3.30000000E+02  4.40000000E+01  0.00000000E+00
  3.30000000E+02  4.20000000E+01  0.00000000E+00
  3.30000000E+02  4.00000000E+01  0.00000000E+00
  3.30000000E+02  3.80000000E+01  0.00000000E+00
  3.30000000E+02  3.60000000E+01  0.00000000E+00
  3.30000000E+02  3.40000000E+01  0.00000000E+00
  3.30000000E+02  3.20000000E+01  0.00000000E+00
  3.30000000E+02  3.00000000E+01  0.00000000E+00
  3.30000000E+02  2.80000000E+01  0.00000000E+00
  3.30000000E+02  2.60000000E+01  0.00000000E+00
  3.30000000E+02  2.40000000E+01  0.00000000E+00
  3.30000000E+02  2.20000000E+01  0.00000000E+00
  3.30000000E+02  2.00000000E+01  0.00000000E+00
  3.30000000E+02  1.80000000E+01  0.00000000E+00
  3.30000000E+02  1.60000000E+01  0.00000000E+00
  3.30000000E+02  1.40000000E+01  0.00000000E+00
  3.30000000E+02  1.20000000E+01  0.00000000E+00
  3.30000000E+02  1.00000000E+01  0.00000000E+00
  3.30000000E+02  8.00000000E+00  0.00000000E+00
  3.30000000E+02  6.00000000E+00  0.00000000E+00
  3.30000000E+02  4.00000000E+00  0.00000000E+00
  3.30000000E+02  2.00000000E+00  0.00000000E+00
  3.30000000E+02 -3.33066907E-14  0.00000000E+00
  3.40000000E+02  1.00000000E+02  0.00000000E+00
  3.40000000E+02  9.80000000E+01  0.00000000E+00
  3.40000000E+02  9.60000000E+01  0.00000000E+00
  3.40000000E+02  9.40000000E+01  0.00000000E+00
  3.40000000E+02  9.20000000E+01  0.00000000E+00
  3.40000000E+02  9.00000000E+01  0.00000000E+00
  3.40000000E+02  8.80000000E+01  0.00000000E+00
  3.40000000E+02  8.60000000E+01  0.00000000E+00
  3.40000000E+02  8.40000000E+01  0.00000000E+00
  3.40000000E+02  8.20000000E+01  0.00000000E+00
  3.40000000E+02  8.00000000E+01  0.00000000E+00
  3.40000000E+02  7.80000000E+01  0.00000000E+00
  3.40000000E+02  7.60000000E+01  0.00000000E+00
  3.40000000E+02  7.40000000E+01  0.00000000E+00
  3.40000000E+02  7.20000000E+01  0.00000000E+00
  3.40000000E+02  7.00000000E+01  0.00000000E+00
  3.40000000E+02  6.80000000E+01  0.00000000E+00
  3.40000000E+02  6.60000000E+01  0.00000000E+00
  3.40000000E+02  6.40000000E+01  0.00000000E+00
  3.40000000E+02  6.20000000E+01  0.00000000E+00
  3.40000000E+02  6.00000000E+01  0.00000000E+00
  3.40000000E+02  5.80000000E+01  0.00000000E+00
  3.40000000E+02  5.60000000E+01  0.00000000E+00
  3.40000000E+02  5.40000000E+01  0.00000000E+00
  3.40000000E+02  5.20000000E+01  0.00000000E+00
  3.40000000E+02  5.00000000E+01  0.00000000E+00
  3.40000000E+02  4.80000000E+01  0.00000000E+00
  3.40000000E+02  4.60000000E+01  0.00000000E+00
  3.40000000E+02  4.40000000E+01  0.00000000E+00
  3.40000000E+02  4.20000000E+01  0.00000000E+00
  3.40000000E+02  4.00000000E+01  0.00000000E+00
  3.40000000E+02  3.80000000E+01  0.00000000E+00
  3.40000000E+02  3.60000000E+01  0.00000000E+00
  3.40000000E+02  3.40000000E+01  0.00000000E+00
  3.40000000E+02  3.20000000E+01  0.00000000E+00
  3.40000000E+02  3.00000000E+01  0.00000000E+00
  3.40000000E+02  2.80000000E+01  0.00000000E+00
  3.40000000E+02  2.60000000E+01  0.00000000E+00
  3.40000000E+02  2.40000000E+01  0.00000000E+00
  3.40000000E+02  2.20000000E+01  0.00000000E+00
  3.40000000E+02  2.00000000E+01  0.00000000E+00
  3.40000000E+02  1.80000000E+01  0.00000000E+00
  3.40000000E+02  1.60000000E+01  0.00000000E+00
  3.40000000E+02  1.40000000E+01  0.00000000E+00
  3.40000000E+02  1.20000000E+01  0.00000000E+00
  3.40000000E+02  1.00000000E+01  0.00000000E+00
  3.40000000E+02  8.00000000E+00  0.00000000E+00
  3.40000000E+02  6.00000000E+00  0.00000000E+00
  3.40000000E+02  4.00000000E+00  0.00000000E+00
  3.40000000E+02  2.00000000E+00  0.00000000E+00
  3.40000000E+02 -3.33066907E-14  0.00000000E+00
  3.50000000E+02  1.00000000E+02  0.00000000E+00
  3.50000000E+02  9.80000000E+01  0.00000000E+00
  3.50000000E+02  9.60000000E+01  0.00000000E+00
  3.50000000E+02  9.40000000E+01  0.00000000E+00
  3.50000000E+02  9.20000000E+01  0.00000000E+00
  3.50000000E+02  9.00000000E+01  0.00000000E+00
  3.50000000E+02  8.80000000E+01  0.00000000E+00
  3.50000000E+02  8.60000000E+01  0.00000000E+00
  3.50000000E+02  8.40000000E+01  0.00000000E+00
  3.50000000E+02  8.20000000E+01  0.00000000E+00
  3.50000000E+02  8.00000000E+01  0.00000000E+00
  3.50000000E+02  7.80000000E+01  0.00000000E+00
  3.50000000E+02  7.60000000E+01  0.00000000E+00
  3.50000000E+02  7.40000000E+01  0.00000000E+00
  3.50000000E+02  7.20000000E+01  0.00000000E+00
  3.50000000E+02  7.00000000E+01  0.00000000E+00
  3.50000000E+02  6.80000000E+01  0.00000000E+00
  3.50000000E+02  6.60000000E+01  0.00000000E+00
  3.50000000E+02  6.40000000E+01  0.00000000E+00
  3.50000000E+02  6.20000000E+01  0.00000000E+00
  3.50000000E+02  6.00000000E+01  0.00000000E+00
  3.50000000E+02  5.80000000E+01  0.00000000E+00
  3.50000000E+02  5.60000000E+01  0.00000000E+00
  3.50000000E+02  5.40000000E+01  0.00000000E+00
  3.50000000E+02  5.20000000E+01  0.00000000E+00
  3.50000000E+02  5.00000000E+01  0.00000000E+00
  3.50000000E+02  4.80000000E+01  0.00000000E+00
  3.50000000E+02  4.60000000E+01  0.00000000E+00
  3.50000000E+02  4.40000000E+01  0.00000000E+00
  3.50000000E+02  4.20000000E+01  0.00000000E+00
  3.50000000E+02  4.00000000E+01  0.00000000E+00
  3.50000000E+02  3.80000000E+01  0.00000000E+00
  3.50000000E+02  3.60000000E+01  0.00000000E+00
  3.50000000E+02  3.40000000E+01  0.00000000E+00
  3.50000000E+02  3.20000000E+01  0.00000000E+00
  3.50000000E+02  3.00000000E+01  0.00000000E+00
  3.50000000E+02  2.80000000E+01  0.00000000E+00
  3.50000000E+02  2.60000000E+01  0.00000000E+00
  3.50000000E+02  2.40000000E+01  0.00000000E+00
  3.50000000E+02  2.20000000E+01  0.00000000E+00
  3.50000000E+02  2.00000000E+01  0.00000000E+00
  3.50000000E+02  1.80000000E+01  0.00000000E+00
  3.50000000E+02  1.60000000E+01  0.00000000E+00
  3.50000000E+02  1.40000000E+01  0.00000000E+00
  3.50000000E+02  1.20000000E+01  0.00000000E+00
  3.50000000E+02  1.00000000E+01  0.00000000E+00
  3.50000000E+02  8.00000000E+00  0.00000000E+00
  3.50000000E+02  6.00000000E+00  0.00000000E+00
  3.50000000E+02  4.00000000E+00  0.00000000E+00
  3.50000000E+02  2.00000000E+00  0.00000000E+00
  3.50000000E+02 -3.33066907E-14  0.00000000E+00
  3.60000000E+02  1.00000000E+02  0.00000000E+00
  3.60000000E+02  9.80000000E+01  0.00000000E+00
  3.60000000E+02  9.60000000E+01  0.00000000E+00
  3.60000000E+02  9.40000000E+01  0.00000000E+00
  3.60000000E+02  9.20000000E+01  0.00000000E+00
  3.60000000E+02  9.00000000E+01  0.00000000E+00
  3.60000000E+02  8.80000000E+01  0.00000000E+00
  3.60000000E+02  8.60000000E+01  0.00000000E+00
  3.60000000E+02  8.40000000E+01  0.00000000E+00
  3.60000000E+02  8.20000000E+01  0.00000000E+00
  3.60000000E+02  8.00000000E+01  0.00000000E+00
  3.60000000E+02  7.80000000E+01  0.00000000E+00
  3.60000000E+02  7.60000000E+01  0.00000000E+00
  3.60000000E+02  7.40000000E+01  0.00000000E+00
  3.60000000E+02  7.20000000E+01  0.00000000E+00
  3.60000000E+02  7.00000000E+01  0.00000000E+00
  3.60000000E+02  6.80000000E+01  0.00000000E+00
  3.60000000E+02  6.60000000E+01  0.00000000E+00
  3.60000000E+02  6.40000000E+01  0.00000000E+00
  3.60000000E+02  6.20000000E+01  0.00000000E+00
  3.60000000E+02  6.00000000E+01  0.00000000E+00
  3.60000000E+02  5.80000000E+01  0.00000000E+00
  3.60000000E+02  5.60000000E+01  0.00000000E+00
  3.60000000E+02  5.40000000E+01  0.00000000E+00
  3.60000000E+02  5.20000000E+01  0.00000000E+00
  3.60000000E+02  5.00000000E+01  0.00000000E+00
  3.60000000E+02  4.80000000E+01  0.00000000E+00
  3.60000000E+02  4.60000000E+01  0.00000000E+00
  3.60000000E+02  4.40000000E+01  0.00000000E+00
  3.60000000E+02  4.20000000E+01  0.00000000E+00
  3.60000000E+02  4.00000000E+01  0.00000000E+00
  3.60000000E+02  3.80000000E+01  0.00000000E+00
  3.60000000E+02  3.60000000E+01  0.00000000E+00
  3.60000000E+02  3.40000000E+01  0.00000000E+00
  3.60000000E+02  3.20000000E+01  0.00000000E+00
  3.60000000E+02  3.00000000E+01  0.00000000E+00
  3.60000000E+02  2.80000000E+01  0.00000000E+00
  3.60000000E+02  2.60000000E+01  0.00000000E+00
  3.60000000E+02  2.40000000E+01  0.00000000E+00
  3.60000000E+02  2.20000000E+01  0.00000000E+00
  3.60000000E+02  2.00000000E+01  0.00000000E+00
  3.60000000E+02  1.80000000E+01  0.00000000E+00
  3.60000000E+02  1.60000000E+01  0.00000000E+00
  3.60000000E+02  1.40000000E+01  0.00000000E+00
  3.60000000E+02  1.20000000E+01  0.00000000E+00
  3.60000000E+02  1.00000000E+01  0.00000000E+00
  3.60000000E+02  8.00000000E+00  0.00000000E+00
  3.60000000E+02  6.00000000E+00  0.00000000E+00
  3.60000000E+02  4.00000000E+00  0.00000000E+00
  3.60000000E+02  2.00000000E+00  0.00000000E+00
  3.60000000E+02 -3.33066907E-14  0.00000000E+00
  3.70000000E+02  1.00000000E+02  0.00000000E+00
  3.70000000E+02  9.80000000E+01  0.00000000E+00
  3.70000000E+02  9.60000000E+01  0.00000000E+00
  3.70000000E+02  9.40000000E+01  0.00000000E+00
  3.70000000E+02  9.20000000E+01  0.00000000E+00
  3.70000000E+02  9.00000000E+01  0.00000000E+00
  3.70000000E+02  8.80000000E+01  0.00000000E+00
  3.70000000E+02  8.60000000E+01  0.00000000E+00
  3.70000000E+02  8.40000000E+01  0.00000000E+00
  3.70000000E+02  8.20000000E+01  0.00000000E+00
  3.70000000E+02  8.00000000E+01  0.00000000E+00
  3.70000000E+02  7.80000000E+01  0.00000000E+00
  3.70000000E+02  7.60000000E+01  0.00000000E+00
  3.70000000E+02  7.40000000E+01  0.00000000E+00
  3.70000000E+02  7.20000000E+01  0.00000000E+00
  3.70000000E+02  7.00000000E+01  0.00000000E+00
  3.70000000E+02  6.80000000E+01  0.00000000E+00
  3.70000000E+02  6.60000000E+01  0.00000000E+00
  3.70000000E+02  6.40000000E+01  0.00000000E+00
  3.70000000E+02  6.20000000E+01  0.00000000E+00
  3.70000000E+02  6.00000000E+01  0.00000000E+00
  3.70000000E+02  5.80000000E+01  0.00000000E+00
  3.70000000E+02  5.60000000E+01  0.00000000E+00
  3.70000000E+02  5.40000000E+01  0.00000000E+00
  3.70000000E+02  5.20000000E+01  0.00000000E+00
  3.70000000E+02  5.00000000E+01  0.00000000E+00
  3.70000000E+02  4.80000000E+01  0.00000000E+00
  3.70000000E+02  4.60000000E+01  0.00000000E+00
  3.70000000E+02  4.40000000E+01  0.00000000E+00
  3.70000000E+02  4.20000000E+01  0.00000000E+00
  3.70000000E+02  4.00000000E+01  0.00000000E+00
  3.70000000E+02  3.80000000E+01  0.00000000E+00
  3.70000000E+02  3.60000000E+01  0.00000000E+00
  3.70000000E+02  3.40000000E+01  0.00000000E+00
  3.70000000E+02  3.20000000E+01  0.00000000E+00
  3.70000000E+02  3.00000000E+01  0.00000000E+00
  3.70000000E+02  2.80000000E+01  0.00000000E+00
  3.70000000E+02  2.60000000E+01  0.00000000E+00
  3.70000000E+02  2.40000000E+01  0.00000000E+00
  3.70000000E+02  2.20000000E+01  0.00000000E+00
  3.70000000E+02  2.00000000E+01  0.00000000E+00
  3.70000000E+02  1.80000000E+01  0.00000000E+00
  3.70000000E+02  1.60000000E+01  0.00000000E+00
  3.70000000E+02  1.40000000E+01  0.00000000E+00
  3.70000000E+02  1.20000000E+01  0.00000000E+00
  3.70000000E+02  1.00000000E+01  0.00000000E+00
  3.70000000E+02  8.00000000E+00  0.00000000E+00
  3.70000000E+02  6.00000000E+00  0.00000000E+00
  3.70000000E+02  4.00000000E+00  0.00000000E+00
  3.70000000E+02  2.00000000E+00  0.00000000E+00
  3.70000000E+02 -3.33066907E-14  0.00000000E+00
  3.80000000E+02  1.00000000E+02  0.00000000E+00
  3.80000000E+02  9.80000000E+01  0.00000000E+00
  3.80000000E+02  9.60000000E+01  0.00000000E+00
  3.80000000E+02  9.40000000E+01  0.00000000E+00
  3.80000000E+02  9.20000000E+01  0.00000000E+00
  3.80000000E+02  9.00000000E+01  0.00000000E+00
  3.80000000E+02  8.80000000E+01  0.00000000E+00
  3.80000000E+02  8.60000000E+01  0.00000000E+00
  3.80000000E+02  8.40000000E+01  0.00000000E+00
  3.80000000E+02  8.20000000E+01  0.00000000E+00
  3.80000000E+02  8.00000000E+01  0.00000000E+00
  3.80000000E+02  7.80000000E+01  0.00000000E+00
  3.80000000E+02  7.60000000E+01  0.00000000E+00
  3.80000000E+02  7.40000000E+01  0.00000000E+00
  3.80000000E+02  7.20000000E+01  0.00000000E+00
  3.80000000E+02  7.00000000E+01  0.00000000E+00
  3.80000000E+02  6.80000000E+01  0.00000000E+00
  3.80000000E+02  6.60000000E+01  0.00000000E+00
  3.80000000E+02  6.40000000E+01  0.00000000E+00
  3.80000000E+02  6.20000000E+01  0.00000000E+00
  3.80000000E+02  6.00000000E+01  0.00000000E+00
  3.80000000E+02  5.80000000E+01  0.00000000E+00
  3.80000000E+02  5.60000000E+01  0.00000000E+00
  3.80000000E+02  5.40000000E+01  0.00000000E+00
  3.80000000E+02  5.20000000E+01  0.00000000E+00
  3.80000000E+02  5.00000000E+01  0.00000000E+00
  3.80000000E+02  4.80000000E+01  0.00000000E+00
  3.80000000E+02  4.60000000E+01  0.00000000E+00
  3.80000000E+02  4.40000000E+01  0.00000000E+00
  3.80000000E+02  4.20000000E+01  0.00000000E+00
  3.80000000E+02  4.00000000E+01  0.00000000E+00
  3.80000000E+02  3.80000000E+01  0.00000000E+00
  3.80000000E+02  3.60000000E+01  0.00000000E+00
  3.80000000E+02  3.40000000E+01  0.00000000E+00
  3.80000000E+02  3.20000000E+01  0.00000000E+00
  3.80000000E+02  3.00000000E+01  0.00000000E+00
  3.80000000E+02  2.80000000E+01  0.00000000E+00
  3.80000000E+02  2.60000000E+01  0.00000000E+00
  3.80000000E+02  2.40000000E+01  0.00000000E+00
  3.80000000E+02  2.20000000E+01  0.00000000E+00
  3.80000000E+02  2.00000000E+01  0.00000000E+00
  3.80000000E+02  1.80000000E+01  0.00000000E+00
  3.80000000E+02  1.60000000E+01  0.00000000E+00
  3.80000000E+02  1.40000000E+01  0.00000000E+00
  3.80000000E+02  1.20000000E+01  0.00000000E+00
  3.80000000E+02  1.00000000E+01  0.00000000E+00
  3.80000000E+02  8.00000000E+00  0.00000000E+00
  3.80000000E+02  6.00000000E+00  0.00000000E+00
  3.80000000E+02  4.00000000E+00  0.00000000E+00
  3.80000000E+02  2.00000000E+00  0.00000000E+00
  3.80000000E+02 -3.33066907E-14  0.00000000E+00
  3.90000000E+02  1.00000000E+02  0.00000000E+00
  3.90000000E+02  9.80000000E+01  0.00000000E+00
  3.90000000E+02  9.60000000E+01  0.00000000E+00
  3.90000000E+02  9.40000000E+01  0.00000000E+00
  3.90000000E+02  9.20000000E+01  0.00000000E+00
  3.90000000E+02  9.00000000E+01  0.00000000E+00
  3.90000000E+02  8.80000000E+01  0.00000000E+00
  3.90000000E+02  8.60000000E+01  0.00000000E+00
  3.90000000E+02  8.40000000E+01  0.00000000E+00
  3.90000000E+02  8.20000000E+01  0.00000000E+00
  3.90000000E+02  8.00000000E+01  0.00000000E+00
  3.90000000E+02  7.80000000E+01  0.00000000E+00
  3.90000000E+02  7.60000000E+01  0.00000000E+00
  3.90000000E+02  7.40000000E+01  0.00000000E+00
  3.90000000E+02  7.20000000E+01  0.00000000E+00
  3.90000000E+02  7.00000000E+01  0.00000000E+00
  3.90000000E+02  6.80000000E+01  0.00000000E+00
  3.90000000E+02  6.60000000E+01  0.00000000E+00
  3.90000000E+02  6.40000000E+01  0.00000000E+00
  3.90000000E+02  6.20000000E+01  0.00000000E+00
  3.90000000E+02  6.00000000E+01  0.00000000E+00
  3.90000000E+02  5.80000000E+01  0.00000000E+00
  3.90000000E+02  5.60000000E+01  0.00000000E+00
  3.90000000E+02  5.40000000E+01  0.00000000E+00
  3.90000000E+02  5.20000000E+01  0.00000000E+00
  3.90000000E+02  5.00000000E+01  0.00000000E+00
  3.90000000E+02  4.80000000E+01  0.00000000E+00
  3.90000000E+02  4.60000000E+01  0.00000000E+00
  3.90000000E+02  4.40000000E+01  0.00000000E+00
  3.90000000E+02  4.20000000E+01  0.00000000E+00
  3.90000000E+02  4.00000000E+01  0.00000000E+00
  3.90000000E+02  3.80000000E+01  0.00000000E+00
  3.90000000E+02  3.60000000E+01  0.00000000E+00
  3.90000000E+02  3.40000000E+01  0.00000000E+00
  3.90000000E+02  3.20000000E+01  0.00000000E+00
  3.90000000E+02  3.00000000E+01  0.00000000E+00
  3.90000000E+02  2.80000000E+01  0.00000000E+00
  3.90000000E+02  2.60000000E+01  0.00000000E+00
  3.90000000E+02  2.40000000E+01  0.00000000E+00
  3.90000000E+02  2.20000000E+01  0.00000000E+00
  3.90000000E+02  2.00000000E+01  0.00000000E+00
  3.90000000E+02  1.80000000E+01  0.00000000E+00
  3.90000000E+02  1.60000000E+01  0.00000000E+00
  3.90000000E+02  1.40000000E+01  0.00000000E+00
  3.90000000E+02  1.20000000E+01  0.00000000E+00
  3.90000000E+02  1.00000000E+01  0.00000000E+00
  3.90000000E+02  8.00000000E+00  0.00000000E+00
  3.90000000E+02  6.00000000E+00  0.00000000E+00
  3.90000000E+02  4.00000000E+00  0.00000000E+00
  3.90000000E+02  2.00000000E+00  0.00000000E+00
  3.90000000E+02 -3.33066907E-14  0.00000000E+00
  4.00000000E+02  1.00000000E+02  0.00000000E+00
  4.00000000E+02  9.80000000E+01  0.00000000E+00
  4.00000000E+02  9.60000000E+01  0.00000000E+00
  4.00000000E+02  9.40000000E+01  0.00000000E+00
  4.00000000E+02  9.20000000E+01  0.00000000E+00
  4.00000000E+02  9.00000000E+01  0.00000000E+00
  4.00000000E+02  8.80000000E+01  0.00000000E+00
  4.00000000E+02  8.60000000E+01  0.00000000E+00
  4.00000000E+02  8.40000000E+01  0.00000000E+00
  4.00000000E+02  8.20000000E+01  0.00000000E+00
  4.00000000E+02  8.00000000E+01  0.00000000E+00
  4.00000000E+02  7.80000000E+01  0.00000000E+00
  4.00000000E+02  7.60000000E+01  0.00000000E+00
  4.00000000E+02  7.40000000E+01  0.00000000E+00
  4.00000000E+02  7.20000000E+01  0.00000000E+00
  4.00000000E+02  7.00000000E+01  0.00000000E+00
  4.00000000E+02  6.80000000E+01  0.00000000E+00
  4.00000000E+02  6.60000000E+01  0.00000000E+00
  4.00000000E+02  6.40000000E+01  0.00000000E+00
  4.00000000E+02  6.20000000E+01  0.00000000E+00
  4.00000000E+02  6.00000000E+01  0.00000000E+00
  4.00000000E+02  5.80000000E+01  0.00000000E+00
  4.00000000E+02  5.60000000E+01  0.00000000E+00
  4.00000000E+02  5.40000000E+01  0.00000000E+00
  4.00000000E+02  5.20000000E+01  0.00000000E+00
  4.00000000E+02  5.00000000E+01  0.00000000E+00
  4.00000000E+02  4.80000000E+01  0.00000000E+00
  4.00000000E+02  4.60000000E+01  0.00000000E+00
  4.00000000E+02  4.40000000E+01  0.00000000E+00
  4.00000000E+02  4.20000000E+01  0.00000000E+00
  4.00000000E+02  4.00000000E+01  0.00000000E+00
  4.00000000E+02  3.80000000E+01  0.00000000E+00
  4.00000000E+02  3.60000000E+01  0.00000000E+00
  4.00000000E+02  3.40000000E+01  0.00000000E+00
  4.00000000E+02  3.20000000E+01  0.00000000E+00
  4.00000000E+02  3.00000000E+01  0.00000000E+00
  4.00000000E+02  2.80000000E+01  0.00000000E+00
  4.00000000E+02  2.60000000E+01  0.00000000E+00
  4.00000000E+02  2.40000000E+01  0.00000000E+00
  4.00000000E+02  2.20000000E+01  0.00000000E+00
  4.00000000E+02  2.00000000E+01  0.00000000E+00
  4.00000000E+02  1.80000000E+01  0.00000000E+00
  4.00000000E+02  1.60000000E+01  0.00000000E+00
  4.00000000E+02  1.40000000E+01  0.00000000E+00
  4.00000000E+02  1.20000000E+01  0.00000000E+00
  4.00000000E+02  1.00000000E+01  0.00000000E+00
  4.00000000E+02  8.00000000E+00  0.00000000E+00
  4.00000000E+02  6.00000000E+00  0.00000000E+00
  4.00000000E+02  4.00000000E+00  0.00000000E+00
  4.00000000E+02  2.00000000E+00  0.00000000E+00
  4.00000000E+02 -3.33066907E-14  0.00000000E+00
  4.10000000E+02  1.00000000E+02  0.00000000E+00
  4.10000000E+02  9.80000000E+01  0.00000000E+00
  4.10000000E+02  9.60000000E+01  0.00000000E+00
  4.10000000E+02  9.40000000E+01  0.00000000E+00
  4.10000000E+02  9.20000000E+01  0.00000000E+00
  4.10000000E+02  9.00000000E+01  0.00000000E+00
  4.10000000E+02  8.80000000E+01  0.00000000E+00
  4.10000000E+02  8.60000000E+01  0.00000000E+00
  4.10000000E+02  8.40000000E+01  0.00000000E+00
  4.10000000E+02  8.20000000E+01  0.00000000E+00
  4.10000000E+02  8.00000000E+01  0.00000000E+00
  4.10000000E+02  7.80000000E+01  0.00000000E+00
  4.10000000E+02  7.60000000E+01  0.00000000E+00
  4.10000000E+02  7.40000000E+01  0.00000000E+00
  4.10000000E+02  7.20000000E+01  0.00000000E+00
  4.10000000E+02  7.00000000E+01  0.00000000E+00
  4.10000000E+02  6.80000000E+01  0.00000000E+00
  4.10000000E+02  6.60000000E+01  0.00000000E+00
  4.10000000E+02  6.40000000E+01  0.00000000E+00
  4.10000000E+02  6.20000000E+01  0.00000000E+00
  4.10000000E+02  6.00000000E+01  0.00000000E+00
  4.10000000E+02  5.80000000E+01  0.00000000E+00
  4.10000000E+02  5.60000000E+01  0.00000000E+00
  4.10000000E+02  5.40000000E+01  0.00000000E+00
  4.10000000E+02  5.20000000E+01  0.00000000E+00
  4.10000000E+02  5.00000000E+01  0.00000000E+00
  4.10000000E+02  4.80000000E+01  0.00000000E+00
  4.10000000E+02  4.60000000E+01  0.00000000E+00
  4.10000000E+02  4.40000000E+01  0.00000000E+00
  4.10000000E+02  4.20000000E+01  0.00000000E+00
  4.10000000E+02  4.00000000E+01  0.00000000E+00
  4.10000000E+02  3.80000000E+01  0.00000000E+00
  4.10000000E+02  3.60000000E+01  0.00000000E+00
  4.10000000E+02  3.40000000E+01  0.00000000E+00
  4.10000000E+02  3.20000000E+01  0.00000000E+00
  4.10000000E+02  3.00000000E+01  0.00000000E+00
  4.10000000E+02  2.80000000E+01  0.00000000E+00
  4.10000000E+02  2.60000000E+01  0.00000000E+00
  4.10000000E+02  2.40000000E+01  0.00000000E+00
  4.10000000E+02  2.20000000E+01  0.00000000E+00
  4.10000000E+02  2.00000000E+01  0.00000000E+00
  4.10000000E+02  1.80000000E+01  0.00000000E+00
  4.10000000E+02  1.60000000E+01  0.00000000E+00
  4.10000000E+02  1.40000000E+01  0.00000000E+00
  4.10000000E+02  1.20000000E+01  0.00000000E+00
  4.10000000E+02  1.00000000E+01  0.00000000E+00
  4.10000000E+02  8.00000000E+00  0.00000000E+00
  4.10000000E+02  6.00000000E+00  0.00000000E+00
  4.10000000E+02  4.00000000E+00  0.00000000E+00
  4.10000000E+02  2.00000000E+00  0.00000000E+00
  4.10000000E+02 -3.33066907E-14  0.00000000E+00
  4.20000000E+02  1.00000000E+02  0.00000000E+00
  4.20000000E+02  9.80000000E+01  0.00000000E+00
  4.20000000E+02  9.60000000E+01  0.00000000E+00
  4.20000000E+02  9.40000000E+01  0.00000000E+00
  4.20000000E+02  9.20000000E+01  0.00000000E+00
  4.20000000E+02  9.00000000E+01  0.00000000E+00
  4.20000000E+02  8.80000000E+01  0.00000000E+00
  4.20000000E+02  8.60000000E+01  0.00000000E+00
  4.20000000E+02  8.40000000E+01  0.00000000E+00
  4.20000000E+02  8.20000000E+01  0.00000000E+00
  4.20000000E+02  8.00000000E+01  0.00000000E+00
  4.20000000E+02  7.80000000E+01  0.00000000E+00
  4.20000000E+02  7.60000000E+01  0.00000000E+00
  4.20000000E+02  7.40000000E+01  0.00000000E+00
  4.20000000E+02  7.20000000E+01  0.00000000E+00
  4.20000000E+02  7.00000000E+01  0.00000000E+00
  4.20000000E+02  6.80000000E+01  0.00000000E+00
  4.20000000E+02  6.60000000E+01  0.00000000E+00
  4.20000000E+02  6.40000000E+01  0.00000000E+00
  4.20000000E+02  6.20000000E+01  0.00000000E+00
  4.20000000E+02  6.00000000E+01  0.00000000E+00
  4.20000000E+02  5.80000000E+01  0.00000000E+00
  4.20000000E+02  5.60000000E+01  0.00000000E+00
  4.20000000E+02  5.40000000E+01  0.00000000E+00
  4.20000000E+02  5.20000000E+01  0.00000000E+00
  4.20000000E+02  5.00000000E+01  0.00000000E+00
  4.20000000E+02  4.80000000E+01  0.00000000E+00
  4.20000000E+02  4.60000000E+01  0.00000000E+00
  4.20000000E+02  4.40000000E+01  0.00000000E+00
  4.20000000E+02  4.20000000E+01  0.00000000E+00
  4.20000000E+02  4.00000000E+01  0.00000000E+00
  4.20000000E+02  3.80000000E+01  0.00000000E+00
  4.20000000E+02  3.60000000E+01  0.00000000E+00
  4.20000000E+02  3.40000000E+01  0.00000000E+00
  4.20000000E+02  3.20000000E+01  0.00000000E+00
  4.20000000E+02  3.00000000E+01  0.00000000E+00
  4.20000000E+02  2.80000000E+01  0.00000000E+00
  4.20000000E+02  2.60000000E+01  0.00000000E+00
  4.20000000E+02  2.40000000E+01  0.00000000E+00
  4.20000000E+02  2.20000000E+01  0.00000000E+00
  4.20000000E+02  2.00000000E+01  0.00000000E+00
  4.20000000E+02  1.80000000E+01  0.00000000E+00
  4.20000000E+02  1.60000000E+01  0.00000000E+00
  4.20000000E+02  1.40000000E+01  0.00000000E+00
  4.20000000E+02  1.20000000E+01  0.00000000E+00
  4.20000000E+02  1.00000000E+01  0.00000000E+00
  4.20000000E+02  8.00000000E+00  0.00000000E+00
  4.20000000E+02  6.00000000E+00  0.00000000E+00
  4.20000000E+02  4.00000000E+00  0.00000000E+00
  4.20000000E+02  2.00000000E+00  0.00000000E+00
  4.20000000E+02 -3.33066907E-14  0.00000000E+00
  4.30000000E+02  1.00000000E+02  0.00000000E+00
  4.30000000E+02  9.80000000E+01  0.00000000E+00
  4.30000000E+02  9.60000000E+01  0.00000000E+00
  4.30000000E+02  9.40000000E+01  0.00000000E+00
  4.30000000E+02  9.20000000E+01  0.00000000E+00
  4.30000000E+02  9.00000000E+01  0.00000000E+00
  4.30000000E+02  8.80000000E+01  0.00000000E+00
  4.30000000E+02  8.60000000E+01  0.00000000E+00
  4.30000000E+02  8.40000000E+01  0.00000000E+00
  4.30000000E+02  8.20000000E+01  0.00000000E+00
  4.30000000E+02  8.00000000E+01  0.00000000E+00
  4.30000000E+02  7.80000000E+01  0.00000000E+00
  4.30000000E+02  7.60000000E+01  0.00000000E+00
  4.30000000E+02  7.40000000E+01  0.00000000E+00
  4.30000000E+02  7.20000000E+01  0.00000000E+00
  4.30000000E+02  7.00000000E+01  0.00000000E+00
  4.30000000E+02  6.80000000E+01  0.00000000E+00
  4.30000000E+02  6.60000000E+01  0.00000000E+00
  4.30000000E+02  6.40000000E+01  0.00000000E+00
  4.30000000E+02  6.20000000E+01  0.00000000E+00
  4.30000000E+02  6.00000000E+01  0.00000000E+00
  4.30000000E+02  5.80000000E+01  0.00000000E+00
  4.30000000E+02  5.60000000E+01  0.00000000E+00
  4.30000000E+02  5.40000000E+01  0.00000000E+00
  4.30000000E+02  5.20000000E+01  0.00000000E+00
  4.30000000E+02  5.00000000E+01  0.00000000E+00
  4.30000000E+02  4.80000000E+01  0.00000000E+00
  4.30000000E+02  4.60000000E+01  0.00000000E+00
  4.30000000E+02  4.40000000E+01  0.00000000E+00
  4.30000000E+02  4.20000000E+01  0.00000000E+00
  4.30000000E+02  4.00000000E+01  0.00000000E+00
  4.30000000E+02  3.80000000E+01  0.00000000E+00
  4.30000000E+02  3.60000000E+01  0.00000000E+00
  4.30000000E+02  3.40000000E+01  0.00000000E+00
  4.30000000E+02  3.20000000E+01  0.00000000E+00
  4.30000000E+02  3.00000000E+01  0.00000000E+00
  4.30000000E+02  2.80000000E+01  0.00000000E+00
  4.30000000E+02  2.60000000E+01  0.00000000E+00
  4.30000000E+02  2.40000000E+01  0.00000000E+00
  4.30000000E+02  2.20000000E+01  0.00000000E+00
  4.30000000E+02  2.00000000E+01  0.00000000E+00
  4.30000000E+02  1.80000000E+01  0.00000000E+00
  4.30000000E+02  1.60000000E+01  0.00000000E+00
  4.30000000E+02  1.40000000E+01  0.00000000E+00
  4.30000000E+02  1.20000000E+01  0.00000000E+00
  4.30000000E+02  1.00000000E+01  0.00000000E+00
  4.30000000E+02  8.00000000E+00  0.00000000E+00
  4.30000000E+02  6.00000000E+00  0.00000000E+00
  4.30000000E+02  4.00000000E+00  0.00000000E+00
  4.30000000E+02  2.00000000E+00  0.00000000E+00
  4.30000000E+02 -3.33066907E-14  0.00000000E+00
  4.40000000E+02  1.00000000E+02  0.00000000E+00
  4.40000000E+02  9.80000000E+01  0.00000000E+00
  4.40000000E+02  9.60000000E+01  0.00000000E+00
  4.40000000E+02  9.40000000E+01  0.00000000E+00
  4.40000000E+02  9.20000000E+01  0.00000000E+00
  4.40000000E+02  9.00000000E+01  0.00000000E+00
  4.40000000E+02  8.80000000E+01  0.00000000E+00
  4.40000000E+02  8.60000000E+01  0.00000000E+00
  4.40000000E+02  8.40000000E+01  0.00000000E+00
  4.40000000E+02  8.20000000E+01  0.00000000E+00
  4.40000000E+02  8.00000000E+01  0.00000000E+00
  4.40000000E+02  7.80000000E+01  0.00000000E+00
  4.40000000E+02  7.60000000E+01  0.00000000E+00
  4.40000000E+02  7.40000000E+01  0.00000000E+00
  4.40000000E+02  7.20000000E+01  0.00000000E+00
  4.40000000E+02  7.00000000E+01  0.00000000E+00
  4.40000000E+02  6.80000000E+01  0.00000000E+00
  4.40000000E+02  6.60000000E+01  0.00000000E+00
  4.40000000E+02  6.40000000E+01  0.00000000E+00
  4.40000000E+02  6.20000000E+01  0.00000000E+00
  4.40000000E+02  6.00000000E+01  0.00000000E+00
  4.40000000E+02  5.80000000E+01  0.00000000E+00
  4.40000000E+02  5.60000000E+01  0.00000000E+00
  4.40000000E+02  5.40000000E+01  0.00000000E+00
  4.40000000E+02  5.20000000E+01  0.00000000E+00
  4.40000000E+02  5.00000000E+01  0.00000000E+00
  4.40000000E+02  4.80000000E+01  0.00000000E+00
  4.40000000E+02  4.60000000E+01  0.00000000E+00
  4.40000000E+02  4.40000000E+01  0.00000000E+00
  4.40000000E+02  4.20000000E+01  0.00000000E+00
  4.40000000E+02  4.00000000E+01  0.00000000E+00
  4.40000000E+02  3.80000000E+01  0.00000000E+00
  4.40000000E+02  3.60000000E+01  0.00000000E+00
  4.40000000E+02  3.40000000E+01  0.00000000E+00
  4.40000000E+02  3.20000000E+01  0.00000000E+00
  4.40000000E+02  3.00000000E+01  0.00000000E+00
  4.40000000E+02  2.80000000E+01  0.00000000E+00
  4.40000000E+02  2.60000000E+01  0.00000000E+00
  4.40000000E+02  2.40000000E+01  0.00000000E+00
  4.40000000E+02  2.20000000E+01  0.00000000E+00
  4.40000000E+02  2.00000000E+01  0.00000000E+00
  4.40000000E+02  1.80000000E+01  0.00000000E+00
  4.40000000E+02  1.60000000E+01  0.00000000E+00
  4.40000000E+02  1.40000000E+01  0.00000000E+00
  4.40000000E+02  1.20000000E+01  0.00000000E+00
  4.40000000E+02  1.00000000E+01  0.00000000E+00
  4.40000000E+02  8.00000000E+00  0.00000000E+00
  4.40000000E+02  6.00000000E+00  0.00000000E+00
  4.40000000E+02  4.00000000E+00  0.00000000E+00
  4.40000000E+02  2.00000000E+00  0.00000000E+00
  4.40000000E+02 -3.33066907E-14  0.00000000E+00
  4.50000000E+02  1.00000000E+02  0.00000000E+00
  4.50000000E+02  9.80000000E+01  0.00000000E+00
  4.50000000E+02  9.60000000E+01  0.00000000E+00
  4.50000000E+02  9.40000000E+01  0.00000000E+00
  4.50000000E+02  9.20000000E+01  0.00000000E+00
  4.50000000E+02  9.00000000E+01  0.00000000E+00
  4.50000000E+02  8.80000000E+01  0.00000000E+00
  4.50000000E+02  8.60000000E+01  0.00000000E+00
  4.50000000E+02  8.40000000E+01  0.00000000E+00
  4.50000000E+02  8.20000000E+01  0.00000000E+00
  4.50000000E+02  8.00000000E+01  0.00000000E+00
  4.50000000E+02  7.80000000E+01  0.00000000E+00
  4.50000000E+02  7.60000000E+01  0.00000000E+00
  4.50000000E+02  7.40000000E+01  0.00000000E+00
  4.50000000E+02  7.20000000E+01  0.00000000E+00
  4.50000000E+02  7.00000000E+01  0.00000000E+00
  4.50000000E+02  6.80000000E+01  0.00000000E+00
  4.50000000E+02  6.60000000E+01  0.00000000E+00
  4.50000000E+02  6.40000000E+01  0.00000000E+00
  4.50000000E+02  6.20000000E+01  0.00000000E+00
  4.50000000E+02  6.00000000E+01  0.00000000E+00
  4.50000000E+02  5.80000000E+01  0.00000000E+00
  4.50000000E+02  5.60000000E+01  0.00000000E+00
  4.50000000E+02  5.40000000E+01  0.00000000E+00
  4.50000000E+02  5.20000000E+01  0.00000000E+00
  4.50000000E+02  5.00000000E+01  0.00000000E+00
  4.50000000E+02  4.80000000E+01  0.00000000E+00
  4.50000000E+02  4.60000000E+01  0.00000000E+00
  4.50000000E+02  4.40000000E+01  0.00000000E+00
  4.50000000E+02  4.20000000E+01  0.00000000E+00
  4.50000000E+02  4.00000000E+01  0.00000000E+00
  4.50000000E+02  3.80000000E+01  0.00000000E+00
  4.50000000E+02  3.60000000E+01  0.00000000E+00
  4.50000000E+02  3.40000000E+01  0.00000000E+00
  4.50000000E+02  3.20000000E+01  0.00000000E+00
  4.50000000E+02  3.00000000E+01  0.00000000E+00
  4.50000000E+02  2.80000000E+01  0.00000000E+00
  4.50000000E+02  2.60000000E+01  0.00000000E+00
  4.50000000E+02  2.40000000E+01  0.00000000E+00
  4.50000000E+02  2.20000000E+01  0.00000000E+00
  4.50000000E+02  2.00000000E+01  0.00000000E+00
  4.50000000E+02  1.80000000E+01  0.00000000E+00
  4.50000000E+02  1.60000000E+01  0.00000000E+00
  4.50000000E+02  1.40000000E+01  0.00000000E+00
  4.50000000E+02  1.20000000E+01  0.00000000E+00
  4.50000000E+02  1.00000000E+01  0.00000000E+00
  4.50000000E+02  8.00000000E+00  0.00000000E+00
  4.50000000E+02  6.00000000E+00  0.00000000E+00
  4.50000000E+02  4.00000000E+00  0.00000000E+00
  4.50000000E+02  2.00000000E+00  0.00000000E+00
  4.50000000E+02 -3.33066907E-14  0.00000000E+00
  4.60000000E+02  1.00000000E+02  0.00000000E+00
  4.60000000E+02  9.80000000E+01  0.00000000E+00
  4.60000000E+02  9.60000000E+01  0.00000000E+00
  4.60000000E+02  9.40000000E+01  0.00000000E+00
  4.60000000E+02  9.20000000E+01  0.00000000E+00
  4.60000000E+02  9.00000000E+01  0.00000000E+00
  4.60000000E+02  8.80000000E+01  0.00000000E+00
  4.60000000E+02  8.60000000E+01  0.00000000E+00
  4.60000000E+02  8.40000000E+01  0.00000000E+00
  4.60000000E+02  8.20000000E+01  0.00000000E+00
  4.60000000E+02  8.00000000E+01  0.00000000E+00
  4.60000000E+02  7.80000000E+01  0.00000000E+00
  4.60000000E+02  7.60000000E+01  0.00000000E+00
  4.60000000E+02  7.40000000E+01  0.00000000E+00
  4.60000000E+02  7.20000000E+01  0.00000000E+00
  4.60000000E+02  7.00000000E+01  0.00000000E+00
  4.60000000E+02  6.80000000E+01  0.00000000E+00
  4.60000000E+02  6.60000000E+01  0.00000000E+00
  4.60000000E+02  6.40000000E+01  0.00000000E+00
  4.60000000E+02  6.20000000E+01  0.00000000E+00
  4.60000000E+02  6.00000000E+01  0.00000000E+00
  4.60000000E+02  5.80000000E+01  0.00000000E+00
  4.60000000E+02  5.60000000E+01  0.00000000E+00
  4.60000000E+02  5.40000000E+01  0.00000000E+00
  4.60000000E+02  5.20000000E+01  0.00000000E+00
  4.60000000E+02  5.00000000E+01  0.00000000E+00
  4.60000000E+02  4.80000000E+01  0.00000000E+00
  4.60000000E+02  4.60000000E+01  0.00000000E+00
  4.60000000E+02  4.40000000E+01  0.00000000E+00
  4.60000000E+02  4.20000000E+01  0.00000000E+00
  4.60000000E+02  4.00000000E+01  0.00000000E+00
  4.60000000E+02  3.80000000E+01  0.00000000E+00
  4.60000000E+02  3.60000000E+01  0.00000000E+00
  4.60000000E+02  3.40000000E+01  0.00000000E+00
  4.60000000E+02  3.20000000E+01  0.00000000E+00
  4.60000000E+02  3.00000000E+01  0.00000000E+00
  4.60000000E+02  2.80000000E+01  0.00000000E+00
  4.60000000E+02  2.60000000E+01  0.00000000E+00
  4.60000000E+02  2.40000000E+01  0.00000000E+00
  4.60000000E+02  2.20000000E+01  0.00000000E+00
  4.60000000E+02  2.00000000E+01  0.00000000E+00
  4.60000000E+02  1.80000000E+01  0.00000000E+00
  4.60000000E+02  1.60000000E+01  0.00000000E+00
  4.60000000E+02  1.40000000E+01  0.00000000E+00
  4.60000000E+02  1.20000000E+01  0.00000000E+00
  4.60000000E+02  1.00000000E+01  0.00000000E+00
  4.60000000E+02  8.00000000E+00  0.00000000E+00
  4.60000000E+02  6.00000000E+00  0.00000000E+00
  4.60000000E+02  4.00000000E+00  0.00000000E+00
  4.60000000E+02  2.00000000E+00  0.00000000E+00
  4.60000000E+02 -3.33066907E-14  0.00000000E+00
  4.70000000E+02  1.00000000E+02  0.00000000E+00
  4.70000000E+02  9.80000000E+01  0.00000000E+00
  4.70000000E+02  9.60000000E+01  0.00000000E+00
  4.70000000E+02  9.40000000E+01  0.00000000E+00
  4.70000000E+02  9.20000000E+01  0.00000000E+00
  4.70000000E+02  9.00000000E+01  0.00000000E+00
  4.70000000E+02  8.80000000E+01  0.00000000E+00
  4.70000000E+02  8.60000000E+01  0.00000000E+00
  4.70000000E+02  8.40000000E+01  0.00000000E+00
  4.70000000E+02  8.20000000E+01  0.00000000E+00
  4.70000000E+02  8.00000000E+01  0.00000000E+00
  4.70000000E+02  7.80000000E+01  0.00000000E+00
  4.70000000E+02  7.60000000E+01  0.00000000E+00
  4.70000000E+02  7.40000000E+01  0.00000000E+00
  4.70000000E+02  7.20000000E+01  0.00000000E+00
  4.70000000E+02  7.00000000E+01  0.00000000E+00
  4.70000000E+02  6.80000000E+01  0.00000000E+00
  4.70000000E+02  6.60000000E+01  0.00000000E+00
  4.70000000E+02  6.40000000E+01  0.00000000E+00
  4.70000000E+02  6.20000000E+01  0.00000000E+00
  4.70000000E+02  6.00000000E+01  0.00000000E+00
  4.70000000E+02  5.80000000E+01  0.00000000E+00
  4.70000000E+02  5.60000000E+01  0.00000000E+00
  4.70000000E+02  5.40000000E+01  0.00000000E+00
  4.70000000E+02  5.20000000E+01  0.00000000E+00
  4.70000000E+02  5.00000000E+01  0.00000000E+00
  4.70000000E+02  4.80000000E+01  0.00000000E+00
  4.70000000E+02  4.60000000E+01  0.00000000E+00
  4.70000000E+02  4.40000000E+01  0.00000000E+00
  4.70000000E+02  4.20000000E+01  0.00000000E+00
  4.70000000E+02  4.00000000E+01  0.00000000E+00
  4.70000000E+02  3.80000000E+01  0.00000000E+00
  4.70000000E+02  3.60000000E+01  0.00000000E+00
  4.70000000E+02  3.40000000E+01  0.00000000E+00
  4.70000000E+02  3.20000000E+01  0.00000000E+00
  4.70000000E+02  3.00000000E+01  0.00000000E+00
  4.70000000E+02  2.80000000E+01  0.00000000E+00
  4.70000000E+02  2.60000000E+01  0.00000000E+00
  4.70000000E+02  2.40000000E+01  0.00000000E+00
  4.70000000E+02  2.20000000E+01  0.00000000E+00
  4.70000000E+02  2.00000000E+01  0.00000000E+00
  4.70000000E+02  1.80000000E+01  0.00000000E+00
  4.70000000E+02  1.60000000E+01  0.00000000E+00
  4.70000000E+02  1.40000000E+01  0.00000000E+00
  4.70000000E+02  1.20000000E+01  0.00000000E+00
  4.70000000E+02  1.00000000E+01  0.00000000E+00
  4.70000000E+02  8.00000000E+00  0.00000000E+00
  4.70000000E+02  6.00000000E+00  0.00000000E+00
  4.70000000E+02  4.00000000E+00  0.00000000E+00
  4.70000000E+02  2.00000000E+00  0.00000000E+00
  4.70000000E+02 -3.33066907E-14  0.00000000E+00
  4.80000000E+02  1.00000000E+02  0.00000000E+00
  4.80000000E+02  9.80000000E+01  0.00000000E+00
  4.80000000E+02  9.60000000E+01  0.00000000E+00
  4.80000000E+02  9.40000000E+01  0.00000000E+00
  4.80000000E+02  9.20000000E+01  0.00000000E+00
  4.80000000E+02  9.00000000E+01  0.00000000E+00
  4.80000000E+02  8.80000000E+01  0.00000000E+00
  4.80000000E+02  8.60000000E+01  0.00000000E+00
  4.80000000E+02  8.40000000E+01  0.00000000E+00
  4.80000000E+02  8.20000000E+01  0.00000000E+00
  4.80000000E+02  8.00000000E+01  0.00000000E+00
  4.80000000E+02  7.80000000E+01  0.00000000E+00
  4.80000000E+02  7.60000000E+01  0.00000000E+00
  4.80000000E+02  7.40000000E+01  0.00000000E+00
  4.80000000E+02  7.20000000E+01  0.00000000E+00
  4.80000000E+02  7.00000000E+01  0.00000000E+00
  4.80000000E+02  6.80000000E+01  0.00000000E+00
  4.80000000E+02  6.60000000E+01  0.00000000E+00
  4.80000000E+02  6.40000000E+01  0.00000000E+00
  4.80000000E+02  6.20000000E+01  0.00000000E+00
  4.80000000E+02  6.00000000E+01  0.00000000E+00
  4.80000000E+02  5.80000000E+01  0.00000000E+00
  4.80000000E+02  5.60000000E+01  0.00000000E+00
  4.80000000E+02  5.40000000E+01  0.00000000E+00
  4.80000000E+02  5.20000000E+01  0.00000000E+00
  4.80000000E+02  5.00000000E+01  0.00000000E+00
  4.80000000E+02  4.80000000E+01  0.00000000E+00
  4.80000000E+02  4.60000000E+01  0.00000000E+00
  4.80000000E+02  4.40000000E+01  0.00000000E+00
  4.80000000E+02  4.20000000E+01  0.00000000E+00
  4.80000000E+02  4.00000000E+01  0.00000000E+00
  4.80000000E+02  3.80000000E+01  0.00000000E+00
  4.80000000E+02  3.60000000E+01  0.00000000E+00
  4.80000000E+02  3.40000000E+01  0.00000000E+00
  4.80000000E+02  3.20000000E+01  0.00000000E+00
  4.80000000E+02  3.00000000E+01  0.00000000E+00
  4.80000000E+02  2.80000000E+01  0.00000000E+00
  4.80000000E+02  2.60000000E+01  0.00000000E+00
  4.80000000E+02  2.40000000E+01  0.00000000E+00
  4.80000000E+02  2.20000000E+01  0.00000000E+00
  4.80000000E+02  2.00000000E+01  0.00000000E+00
  4.80000000E+02  1.80000000E+01  0.00000000E+00
  4.80000000E+02  1.60000000E+01  0.00000000E+00
  4.80000000E+02  1.40000000E+01  0.00000000E+00
  4.80000000E+02  1.20000000E+01  0.00000000E+00
  4.80000000E+02  1.00000000E+01  0.00000000E+00
  4.80000000E+02  8.00000000E+00  0.00000000E+00
  4.80000000E+02  6.00000000E+00  0.00000000E+00
  4.80000000E+02  4.00000000E+00  0.00000000E+00
  4.80000000E+02  2.00000000E+00  0.00000000E+00
  4.80000000E+02 -3.33066907E-14  0.00000000E+00
  4.90000000E+02  1.00000000E+02  0.00000000E+00
  4.90000000E+02  9.80000000E+01  0.00000000E+00
  4.90000000E+02  9.60000000E+01  0.00000000E+00
  4.90000000E+02  9.40000000E+01  0.00000000E+00
  4.90000000E+02  9.20000000E+01  0.00000000E+00
  4.90000000E+02  9.00000000E+01  0.00000000E+00
  4.90000000E+02  8.80000000E+01  0.00000000E+00
  4.90000000E+02  8.60000000E+01  0.00000000E+00
  4.90000000E+02  8.40000000E+01  0.00000000E+00
  4.90000000E+02  8.20000000E+01  0.00000000E+00
  4.90000000E+02  8.00000000E+01  0.00000000E+00
  4.90000000E+02  7.80000000E+01  0.00000000E+00
  4.90000000E+02  7.60000000E+01  0.00000000E+00
  4.90000000E+02  7.40000000E+01  0.00000000E+00
  4.90000000E+02  7.20000000E+01  0.00000000E+00
  4.90000000E+02  7.00000000E+01  0.00000000E+00
  4.90000000E+02  6.80000000E+01  0.00000000E+00
  4.90000000E+02  6.60000000E+01  0.00000000E+00
  4.90000000E+02  6.40000000E+01  0.00000000E+00
  4.90000000E+02  6.20000000E+01  0.00000000E+00
  4.90000000E+02  6.00000000E+01  0.00000000E+00
  4.90000000E+02  5.80000000E+01  0.00000000E+00
  4.90000000E+02  5.60000000E+01  0.00000000E+00
  4.90000000E+02  5.40000000E+01  0.00000000E+00
  4.90000000E+02  5.20000000E+01  0.00000000E+00
  4.90000000E+02  5.00000000E+01  0.00000000E+00
  4.90000000E+02  4.80000000E+01  0.00000000E+00
  4.90000000E+02  4.60000000E+01  0.00000000E+00
  4.90000000E+02  4.40000000E+01  0.00000000E+00
  4.90000000E+02  4.20000000E+01  0.00000000E+00
  4.90000000E+02  4.00000000E+01  0.00000000E+00
  4.90000000E+02  3.80000000E+01  0.00000000E+00
  4.90000000E+02  3.60000000E+01  0.00000000E+00
  4.90000000E+02  3.40000000E+01  0.00000000E+00
  4.90000000E+02  3.20000000E+01  0.00000000E+00
  4.90000000E+02  3.00000000E+01  0.00000000E+00
  4.90000000E+02  2.80000000E+01  0.00000000E+00
  4.90000000E+02  2.60000000E+01  0.00000000E+00
  4.90000000E+02  2.40000000E+01  0.00000000E+00
  4.90000000E+02  2.20000000E+01  0.00000000E+00
  4.90000000E+02  2.00000000E+01  0.00000000E+00
  4.90000000E+02  1.80000000E+01  0.00000000E+00
  4.90000000E+02  1.60000000E+01  0.00000000E+00
  4.90000000E+02  1.40000000E+01  0.00000000E+00
  4.90000000E+02  1.20000000E+01  0.00000000E+00
  4.90000000E+02  1.00000000E+01  0.00000000E+00
  4.90000000E+02  8.00000000E+00  0.00000000E+00
  4.90000000E+02  6.00000000E+00  0.00000000E+00
  4.90000000E+02  4.00000000E+00  0.00000000E+00
  4.90000000E+02  2.00000000E+00  0.00000000E+00
  4.90000000E+02 -3.33066907E-14  0.00000000E+00
  5.00000000E+02  1.00000000E+02  0.00000000E+00
  5.00000000E+02  9.80000000E+01  0.00000000E+00
  5.00000000E+02  9.60000000E+01  0.00000000E+00
  5.00000000E+02  9.40000000E+01  0.00000000E+00
  5.00000000E+02  9.20000000E+01  0.00000000E+00
  5.00000000E+02  9.00000000E+01  0.00000000E+00
  5.00000000E+02  8.80000000E+01  0.00000000E+00
  5.00000000E+02  8.60000000E+01  0.00000000E+00
  5.00000000E+02  8.40000000E+01  0.00000000E+00
  5.00000000E+02  8.20000000E+01  0.00000000E+00
  5.00000000E+02  8.00000000E+01  0.00000000E+00
  5.00000000E+02  7.80000000E+01  0.00000000E+00
  5.00000000E+02  7.60000000E+01  0.00000000E+00
  5.00000000E+02  7.40000000E+01  0.00000000E+00
  5.00000000E+02  7.20000000E+01  0.00000000E+00
  5.00000000E+02  7.00000000E+01  0.00000000E+00
  5.00000000E+02  6.80000000E+01  0.00000000E+00
  5.00000000E+02  6.60000000E+01  0.00000000E+00
  5.00000000E+02  6.40000000E+01  0.00000000E+00
  5.00000000E+02  6.20000000E+01  0.00000000E+00
  5.00000000E+02  6.00000000E+01  0.00000000E+00
  5.00000000E+02  5.80000000E+01  0.00000000E+00
  5.00000000E+02  5.60000000E+01  0.00000000E+00
  5.00000000E+02  5.40000000E+01  0.00000000E+00
  5.00000000E+02  5.20000000E+01  0.00000000E+00
  5.00000000E+02  5.00000000E+01  0.00000000E+00
  5.00000000E+02  4.80000000E+01  0.00000000E+00
  5.00000000E+02  4.60000000E+01  0.00000000E+00
  5.00000000E+02  4.40000000E+01  0.00000000E+00
  5.00000000E+02  4.20000000E+01  0.00000000E+00
  5.00000000E+02  4.00000000E+01  0.00000000E+00
  5.00000000E+02  3.80000000E+01  0.00000000E+00
  5.00000000E+02  3.60000000E+01  0.00000000E+00
  5.00000000E+02  3.40000000E+01  0.00000000E+00
  5.00000000E+02  3.20000000E+01  0.00000000E+00
  5.00000000E+02  3.00000000E+01  0.00000000E+00
  5.00000000E+02  2.80000000E+01  0.00000000E+00
  5.00000000E+02  2.60000000E+01  0.00000000E+00
  5.00000000E+02  2.40000000E+01  0.00000000E+00
  5.00000000E+02  2.20000000E+01  0.00000000E+00
  5.00000000E+02  2.00000000E+01  0.00000000E+00
  5.00000000E+02  1.80000000E+01  0.00000000E+00
  5.00000000E+02  1.60000000E+01  0.00000000E+00
  5.00000000E+02  1.40000000E+01  0.00000000E+00
  5.00000000E+02  1.20000000E+01  0.00000000E+00
  5.00000000E+02  1.00000000E+01  0.00000000E+00
  5.00000000E+02  8.00000000E+00  0.00000000E+00
  5.00000000E+02  6.00000000E+00  0.00000000E+00
  5.00000000E+02  4.00000000E+00  0.00000000E+00
  5.00000000E+02  2.00000000E+00  0.00000000E+00
  5.00000000E+02 -3.33066907E-14  0.00000000E+00
  5.10000000E+02  1.00000000E+02  0.00000000E+00
  5.10000000E+02  9.80000000E+01  0.00000000E+00
  5.10000000E+02  9.60000000E+01  0.00000000E+00
  5.10000000E+02  9.40000000E+01  0.00000000E+00
  5.10000000E+02  9.20000000E+01  0.00000000E+00
  5.10000000E+02  9.00000000E+01  0.00000000E+00
  5.10000000E+02  8.80000000E+01  0.00000000E+00
  5.10000000E+02  8.60000000E+01  0.00000000E+00
  5.10000000E+02  8.40000000E+01  0.00000000E+00
  5.10000000E+02  8.20000000E+01  0.00000000E+00
  5.10000000E+02  8.00000000E+01  0.00000000E+00
  5.10000000E+02  7.80000000E+01  0.00000000E+00
  5.10000000E+02  7.60000000E+01  0.00000000E+00
  5.10000000E+02  7.40000000E+01  0.00000000E+00
  5.10000000E+02  7.20000000E+01  0.00000000E+00
  5.10000000E+02  7.00000000E+01  0.00000000E+00
  5.10000000E+02  6.80000000E+01  0.00000000E+00
  5.10000000E+02  6.60000000E+01  0.00000000E+00
  5.10000000E+02  6.40000000E+01  0.00000000E+00
  5.10000000E+02  6.20000000E+01  0.00000000E+00
  5.10000000E+02  6.00000000E+01  0.00000000E+00
  5.10000000E+02  5.80000000E+01  0.00000000E+00
  5.10000000E+02  5.60000000E+01  0.00000000E+00
  5.10000000E+02  5.40000000E+01  0.00000000E+00
  5.10000000E+02  5.20000000E+01  0.00000000E+00
  5.10000000E+02  5.00000000E+01  0.00000000E+00
  5.10000000E+02  4.80000000E+01  0.00000000E+00
  5.10000000E+02  4.60000000E+01  0.00000000E+00
  5.10000000E+02  4.40000000E+01  0.00000000E+00
  5.10000000E+02  4.20000000E+01  0.00000000E+00
  5.10000000E+02  4.00000000E+01  0.00000000E+00
  5.10000000E+02  3.80000000E+01  0.00000000E+00
  5.10000000E+02  3.60000000E+01  0.00000000E+00
  5.10000000E+02  3.40000000E+01  0.00000000E+00
  5.10000000E+02  3.20000000E+01  0.00000000E+00
  5.10000000E+02  3.00000000E+01  0.00000000E+00
  5.10000000E+02  2.80000000E+01  0.00000000E+00
  5.10000000E+02  2.60000000E+01  0.00000000E+00
  5.10000000E+02  2.40000000E+01  0.00000000E+00
  5.10000000E+02  2.20000000E+01  0.00000000E+00
  5.10000000E+02  2.00000000E+01  0.00000000E+00
  5.10000000E+02  1.80000000E+01  0.00000000E+00
  5.10000000E+02  1.60000000E+01  0.00000000E+00
  5.10000000E+02  1.40000000E+01  0.00000000E+00
  5.10000000E+02  1.20000000E+01  0.00000000E+00
  5.10000000E+02  1.00000000E+01  0.00000000E+00
  5.10000000E+02  8.00000000E+00  0.00000000E+00
  5.10000000E+02  6.00000000E+00  0.00000000E+00
  5.10000000E+02  4.00000000E+00  0.00000000E+00
  5.10000000E+02  2.00000000E+00  0.00000000E+00
  5.10000000E+02 -3.33066907E-14  0.00000000E+00
  5.20000000E+02  1.00000000E+02  0.00000000E+00
  5.20000000E+02  9.80000000E+01  0.00000000E+00
  5.20000000E+02  9.60000000E+01  0.00000000E+00
  5.20000000E+02  9.40000000E+01  0.00000000E+00
  5.20000000E+02  9.20000000E+01  0.00000000E+00
  5.20000000E+02  9.00000000E+01  0.00000000E+00
  5.20000000E+02  8.80000000E+01  0.00000000E+00
  5.20000000E+02  8.60000000E+01  0.00000000E+00
  5.20000000E+02  8.40000000E+01  0.00000000E+00
  5.20000000E+02  8.20000000E+01  0.00000000E+00
  5.20000000E+02  8.00000000E+01  0.00000000E+00
  5.20000000E+02  7.80000000E+01  0.00000000E+00
  5.20000000E+02  7.60000000E+01  0.00000000E+00
  5.20000000E+02  7.40000000E+01  0.00000000E+00
  5.20000000E+02  7.20000000E+01  0.00000000E+00
  5.20000000E+02  7.00000000E+01  0.00000000E+00
  5.20000000E+02  6.80000000E+01  0.00000000E+00
  5.20000000E+02  6.60000000E+01  0.00000000E+00
  5.20000000E+02  6.40000000E+01  0.00000000E+00
  5.20000000E+02  6.20000000E+01  0.00000000E+00
  5.20000000E+02  6.00000000E+01  0.00000000E+00
  5.20000000E+02  5.80000000E+01  0.00000000E+00
  5.20000000E+02  5.60000000E+01  0.00000000E+00
  5.20000000E+02  5.40000000E+01  0.00000000E+00
  5.20000000E+02  5.20000000E+01  0.00000000E+00
  5.20000000E+02  5.00000000E+01  0.00000000E+00
  5.20000000E+02  4.80000000E+01  0.00000000E+00
  5.20000000E+02  4.60000000E+01  0.00000000E+00
  5.20000000E+02  4.40000000E+01  0.00000000E+00
  5.20000000E+02  4.20000000E+01  0.00000000E+00
  5.20000000E+02  4.00000000E+01  0.00000000E+00
  5.20000000E+02  3.80000000E+01  0.00000000E+00
  5.20000000E+02  3.60000000E+01  0.00000000E+00
  5.20000000E+02  3.40000000E+01  0.00000000E+00
  5.20000000E+02  3.20000000E+01  0.00000000E+00
  5.20000000E+02  3.00000000E+01  0.00000000E+00
  5.20000000E+02  2.80000000E+01  0.00000000E+00
  5.20000000E+02  2.60000000E+01  0.00000000E+00
  5.20000000E+02  2.40000000E+01  0.00000000E+00
  5.20000000E+02  2.20000000E+01  0.00000000E+00
  5.20000000E+02  2.00000000E+01  0.00000000E+00
  5.20000000E+02  1.80000000E+01  0.00000000E+00
  5.20000000E+02  1.60000000E+01  0.00000000E+00
  5.20000000E+02  1.40000000E+01  0.00000000E+00
  5.20000000E+02  1.20000000E+01  0.00000000E+00
  5.20000000E+02  1.00000000E+01  0.00000000E+00
  5.20000000E+02  8.00000000E+00  0.00000000E+00
  5.20000000E+02  6.00000000E+00  0.00000000E+00
  5.20000000E+02  4.00000000E+00  0.00000000E+00
  5.20000000E+02  2.00000000E+00  0.00000000E+00
  5.20000000E+02 -3.33066907E-14  0.00000000E+00
  5.30000000E+02  1.00000000E+02  0.00000000E+00
  5.30000000E+02  9.80000000E+01  0.00000000E+00
  5.30000000E+02  9.60000000E+01  0.00000000E+00
  5.30000000E+02  9.40000000E+01  0.00000000E+00
  5.30000000E+02  9.20000000E+01  0.00000000E+00
  5.30000000E+02  9.00000000E+01  0.00000000E+00
  5.30000000E+02  8.80000000E+01  0.00000000E+00
  5.30000000E+02  8.60000000E+01  0.00000000E+00
  5.30000000E+02  8.40000000E+01  0.00000000E+00
  5.30000000E+02  8.20000000E+01  0.00000000E+00
  5.30000000E+02  8.00000000E+01  0.00000000E+00
  5.30000000E+02  7.80000000E+01  0.00000000E+00
  5.30000000E+02  7.60000000E+01  0.00000000E+00
  5.30000000E+02  7.40000000E+01  0.00000000E+00
  5.30000000E+02  7.20000000E+01  0.00000000E+00
  5.30000000E+02  7.00000000E+01  0.00000000E+00
  5.30000000E+02  6.80000000E+01  0.00000000E+00
  5.30000000E+02  6.60000000E+01  0.00000000E+00
  5.30000000E+02  6.40000000E+01  0.00000000E+00
  5.30000000E+02  6.20000000E+01  0.00000000E+00
  5.30000000E+02  6.00000000E+01  0.00000000E+00
  5.30000000E+02  5.80000000E+01  0.00000000E+00
  5.30000000E+02  5.60000000E+01  0.00000000E+00
  5.30000000E+02  5.40000000E+01  0.00000000E+00
  5.30000000E+02  5.20000000E+01  0.00000000E+00
  5.30000000E+02  5.00000000E+01  0.00000000E+00
  5.30000000E+02  4.80000000E+01  0.00000000E+00
  5.30000000E+02  4.60000000E+01  0.00000000E+00
  5.30000000E+02  4.40000000E+01  0.00000000E+00
  5.30000000E+02  4.20000000E+01  0.00000000E+00
  5.30000000E+02  4.00000000E+01  0.00000000E+00
  5.30000000E+02  3.80000000E+01  0.00000000E+00
  5.30000000E+02  3.60000000E+01  0.00000000E+00
  5.30000000E+02  3.40000000E+01  0.00000000E+00
  5.30000000E+02  3.20000000E+01  0.00000000E+00
  5.30000000E+02  3.00000000E+01  0.00000000E+00
  5.30000000E+02  2.80000000E+01  0.00000000E+00
  5.30000000E+02  2.60000000E+01  0.00000000E+00
  5.30000000E+02  2.40000000E+01  0.00000000E+00
  5.30000000E+02  2.20000000E+01  0.00000000E+00
  5.30000000E+02  2.00000000E+01  0.00000000E+00
  5.30000000E+02  1.80000000E+01  0.00000000E+00
  5.30000000E+02  1.60000000E+01  0.00000000E+00
  5.30000000E+02  1.40000000E+01  0.00000000E+00
  5.30000000E+02  1.20000000E+01  0.00000000E+00
  5.30000000E+02  1.00000000E+01  0.00000000E+00
  5.30000000E+02  8.00000000E+00  0.00000000E+00
  5.30000000E+02  6.00000000E+00  0.00000000E+00
  5.30000000E+02  4.00000000E+00  0.00000000E+00
  5.30000000E+02  2.00000000E+00  0.00000000E+00
  5.30000000E+02 -3.33066907E-14  0.00000000E+00
  5.40000000E+02  1.00000000E+02  0.00000000E+00
  5.40000000E+02  9.80000000E+01  0.00000000E+00
  5.40000000E+02  9.60000000E+01  0.00000000E+00
  5.40000000E+02  9.40000000E+01  0.00000000E+00
  5.40000000E+02  9.20000000E+01  0.00000000E+00
  5.40000000E+02  9.00000000E+01  0.00000000E+00
  5.40000000E+02  8.80000000E+01  0.00000000E+00
  5.40000000E+02  8.60000000E+01  0.00000000E+00
  5.40000000E+02  8.40000000E+01  0.00000000E+00
  5.40000000E+02  8.20000000E+01  0.00000000E+00
  5.40000000E+02  8.00000000E+01  0.00000000E+00
  5.40000000E+02  7.80000000E+01  0.00000000E+00
  5.40000000E+02  7.60000000E+01  0.00000000E+00
  5.40000000E+02  7.40000000E+01  0.00000000E+00
  5.40000000E+02  7.20000000E+01  0.00000000E+00
  5.40000000E+02  7.00000000E+01  0.00000000E+00
  5.40000000E+02  6.80000000E+01  0.00000000E+00
  5.40000000E+02  6.60000000E+01  0.00000000E+00
  5.40000000E+02  6.40000000E+01  0.00000000E+00
  5.40000000E+02  6.20000000E+01  0.00000000E+00
  5.40000000E+02  6.00000000E+01  0.00000000E+00
  5.40000000E+02  5.80000000E+01  0.00000000E+00
  5.40000000E+02  5.60000000E+01  0.00000000E+00
  5.40000000E+02  5.40000000E+01  0.00000000E+00
  5.40000000E+02  5.20000000E+01  0.00000000E+00
  5.40000000E+02  5.00000000E+01  0.00000000E+00
  5.40000000E+02  4.80000000E+01  0.00000000E+00
  5.40000000E+02  4.60000000E+01  0.00000000E+00
  5.40000000E+02  4.40000000E+01  0.00000000E+00
  5.40000000E+02  4.20000000E+01  0.00000000E+00
  5.40000000E+02  4.00000000E+01  0.00000000E+00
  5.40000000E+02  3.80000000E+01  0.00000000E+00
  5.40000000E+02  3.60000000E+01  0.00000000E+00
  5.40000000E+02  3.40000000E+01  0.00000000E+00
  5.40000000E+02  3.20000000E+01  0.00000000E+00
  5.40000000E+02  3.00000000E+01  0.00000000E+00
  5.40000000E+02  2.80000000E+01  0.00000000E+00
  5.40000000E+02  2.60000000E+01  0.00000000E+00
  5.40000000E+02  2.40000000E+01  0.00000000E+00
  5.40000000E+02  2.20000000E+01  0.00000000E+00
  5.40000000E+02  2.00000000E+01  0.00000000E+00
  5.40000000E+02  1.80000000E+01  0.00000000E+00
  5.40000000E+02  1.60000000E+01  0.00000000E+00
  5.40000000E+02  1.40000000E+01  0.00000000E+00
  5.40000000E+02  1.20000000E+01  0.00000000E+00
  5.40000000E+02  1.00000000E+01  0.00000000E+00
  5.40000000E+02  8.00000000E+00  0.00000000E+00
  5.40000000E+02  6.00000000E+00  0.00000000E+00
  5.40000000E+02  4.00000000E+00  0.00000000E+00
  5.40000000E+02  2.00000000E+00  0.00000000E+00
  5.40000000E+02 -3.33066907E-14  0.00000000E+00
  5.50000000E+02  1.00000000E+02  0.00000000E+00
  5.50000000E+02  9.80000000E+01  0.00000000E+00
  5.50000000E+02  9.60000000E+01  0.00000000E+00
  5.50000000E+02  9.40000000E+01  0.00000000E+00
  5.50000000E+02  9.20000000E+01  0.00000000E+00
  5.50000000E+02  9.00000000E+01  0.00000000E+00
  5.50000000E+02  8.80000000E+01  0.00000000E+00
  5.50000000E+02  8.60000000E+01  0.00000000E+00
  5.50000000E+02  8.40000000E+01  0.00000000E+00
  5.50000000E+02  8.20000000E+01  0.00000000E+00
  5.50000000E+02  8.00000000E+01  0.00000000E+00
  5.50000000E+02  7.80000000E+01  0.00000000E+00
  5.50000000E+02  7.60000000E+01  0.00000000E+00
  5.50000000E+02  7.40000000E+01  0.00000000E+00
  5.50000000E+02  7.20000000E+01  0.00000000E+00
  5.50000000E+02  7.00000000E+01  0.00000000E+00
  5.50000000E+02  6.80000000E+01  0.00000000E+00
  5.50000000E+02  6.60000000E+01  0.00000000E+00
  5.50000000E+02  6.40000000E+01  0.00000000E+00
  5.50000000E+02  6.20000000E+01  0.00000000E+00
  5.50000000E+02  6.00000000E+01  0.00000000E+00
  5.50000000E+02  5.80000000E+01  0.00000000E+00
  5.50000000E+02  5.60000000E+01  0.00000000E+00
  5.50000000E+02  5.40000000E+01  0.00000000E+00
  5.50000000E+02  5.20000000E+01  0.00000000E+00
  5.50000000E+02  5.00000000E+01  0.00000000E+00
  5.50000000E+02  4.80000000E+01  0.00000000E+00
  5.50000000E+02  4.60000000E+01  0.00000000E+00
  5.50000000E+02  4.40000000E+01  0.00000000E+00
  5.50000000E+02  4.20000000E+01  0.00000000E+00
  5.50000000E+02  4.00000000E+01  0.00000000E+00
  5.50000000E+02  3.80000000E+01  0.00000000E+00
  5.50000000E+02  3.60000000E+01  0.00000000E+00
  5.50000000E+02  3.40000000E+01  0.00000000E+00
  5.50000000E+02  3.20000000E+01  0.00000000E+00
  5.50000000E+02  3.00000000E+01  0.00000000E+00
  5.50000000E+02  2.80000000E+01  0.00000000E+00
  5.50000000E+02  2.60000000E+01  0.00000000E+00
  5.50000000E+02  2.40000000E+01  0.00000000E+00
  5.50000000E+02  2.20000000E+01  0.00000000E+00
  5.50000000E+02  2.00000000E+01  0.00000000E+00
  5.50000000E+02  1.80000000E+01  0.00000000E+00
  5.50000000E+02  1.60000000E+01  0.00000000E+00
  5.50000000E+02  1.40000000E+01  0.00000000E+00
  5.50000000E+02  1.20000000E+01  0.00000000E+00
  5.50000000E+02  1.00000000E+01  0.00000000E+00
  5.50000000E+02  8.00000000E+00  0.00000000E+00
  5.50000000E+02  6.00000000E+00  0.00000000E+00
  5.50000000E+02  4.00000000E+00  0.00000000E+00
  5.50000000E+02  2.00000000E+00  0.00000000E+00
  5.50000000E+02 -3.33066907E-14  0.00000000E+00
  5.60000000E+02  1.00000000E+02  0.00000000E+00
  5.60000000E+02  9.80000000E+01  0.00000000E+00
  5.60000000E+02  9.60000000E+01  0.00000000E+00
  5.60000000E+02  9.40000000E+01  0.00000000E+00
  5.60000000E+02  9.20000000E+01  0.00000000E+00
  5.60000000E+02  9.00000000E+01  0.00000000E+00
  5.60000000E+02  8.80000000E+01  0.00000000E+00
  5.60000000E+02  8.60000000E+01  0.00000000E+00
  5.60000000E+02  8.40000000E+01  0.00000000E+00
  5.60000000E+02  8.20000000E+01  0.00000000E+00
  5.60000000E+02  8.00000000E+01  0.00000000E+00
  5.60000000E+02  7.80000000E+01  0.00000000E+00
  5.60000000E+02  7.60000000E+01  0.00000000E+00
  5.60000000E+02  7.40000000E+01  0.00000000E+00
  5.60000000E+02  7.20000000E+01  0.00000000E+00
  5.60000000E+02  7.00000000E+01  0.00000000E+00
  5.60000000E+02  6.80000000E+01  0.00000000E+00
  5.60000000E+02  6.60000000E+01  0.00000000E+00
  5.60000000E+02  6.40000000E+01  0.00000000E+00
  5.60000000E+02  6.20000000E+01  0.00000000E+00
  5.60000000E+02  6.00000000E+01  0.00000000E+00
  5.60000000E+02  5.80000000E+01  0.00000000E+00
  5.60000000E+02  5.60000000E+01  0.00000000E+00
  5.60000000E+02  5.40000000E+01  0.00000000E+00
  5.60000000E+02  5.20000000E+01  0.00000000E+00
  5.60000000E+02  5.00000000E+01  0.00000000E+00
  5.60000000E+02  4.80000000E+01  0.00000000E+00
  5.60000000E+02  4.60000000E+01  0.00000000E+00
  5.60000000E+02  4.40000000E+01  0.00000000E+00
  5.60000000E+02  4.20000000E+01  0.00000000E+00
  5.60000000E+02  4.00000000E+01  0.00000000E+00
  5.60000000E+02  3.80000000E+01  0.00000000E+00
  5.60000000E+02  3.60000000E+01  0.00000000E+00
  5.60000000E+02  3.40000000E+01  0.00000000E+00
  5.60000000E+02  3.20000000E+01  0.00000000E+00
  5.60000000E+02  3.00000000E+01  0.00000000E+00
  5.60000000E+02  2.80000000E+01  0.00000000E+00
  5.60000000E+02  2.60000000E+01  0.00000000E+00
  5.60000000E+02  2.40000000E+01  0.00000000E+00
  5.60000000E+02  2.20000000E+01  0.00000000E+00
  5.60000000E+02  2.00000000E+01  0.00000000E+00
  5.60000000E+02  1.80000000E+01  0.00000000E+00
  5.60000000E+02  1.60000000E+01  0.00000000E+00
  5.60000000E+02  1.40000000E+01  0.00000000E+00
  5.60000000E+02  1.20000000E+01  0.00000000E+00
  5.60000000E+02  1.00000000E+01  0.00000000E+00
  5.60000000E+02  8.00000000E+00  0.00000000E+00
  5.60000000E+02  6.00000000E+00  0.00000000E+00
  5.60000000E+02  4.00000000E+00  0.00000000E+00
  5.60000000E+02  2.00000000E+00  0.00000000E+00
  5.60000000E+02 -3.33066907E-14  0.00000000E+00
  5.70000000E+02  1.00000000E+02  0.00000000E+00
  5.70000000E+02  9.80000000E+01  0.00000000E+00
  5.70000000E+02  9.60000000E+01  0.00000000E+00
  5.70000000E+02  9.40000000E+01  0.00000000E+00
  5.70000000E+02  9.20000000E+01  0.00000000E+00
  5.70000000E+02  9.00000000E+01  0.00000000E+00
  5.70000000E+02  8.80000000E+01  0.00000000E+00
  5.70000000E+02  8.60000000E+01  0.00000000E+00
  5.70000000E+02  8.40000000E+01  0.00000000E+00
  5.70000000E+02  8.20000000E+01  0.00000000E+00
  5.70000000E+02  8.00000000E+01  0.00000000E+00
  5.70000000E+02  7.80000000E+01  0.00000000E+00
  5.70000000E+02  7.60000000E+01  0.00000000E+00
  5.70000000E+02  7.40000000E+01  0.00000000E+00
  5.70000000E+02  7.20000000E+01  0.00000000E+00
  5.70000000E+02  7.00000000E+01  0.00000000E+00
  5.70000000E+02  6.80000000E+01  0.00000000E+00
  5.70000000E+02  6.60000000E+01  0.00000000E+00
  5.70000000E+02  6.40000000E+01  0.00000000E+00
  5.70000000E+02  6.20000000E+01  0.00000000E+00
  5.70000000E+02  6.00000000E+01  0.00000000E+00
  5.70000000E+02  5.80000000E+01  0.00000000E+00
  5.70000000E+02  5.60000000E+01  0.00000000E+00
  5.70000000E+02  5.40000000E+01  0.00000000E+00
  5.70000000E+02  5.20000000E+01  0.00000000E+00
  5.70000000E+02  5.00000000E+01  0.00000000E+00
  5.70000000E+02  4.80000000E+01  0.00000000E+00
  5.70000000E+02  4.60000000E+01  0.00000000E+00
  5.70000000E+02  4.40000000E+01  0.00000000E+00
  5.70000000E+02  4.20000000E+01  0.00000000E+00
  5.70000000E+02  4.00000000E+01  0.00000000E+00
  5.70000000E+02  3.80000000E+01  0.00000000E+00
  5.70000000E+02  3.60000000E+01  0.00000000E+00
  5.70000000E+02  3.40000000E+01  0.00000000E+00
  5.70000000E+02  3.20000000E+01  0.00000000E+00
  5.70000000E+02  3.00000000E+01  0.00000000E+00
  5.70000000E+02  2.80000000E+01  0.00000000E+00
  5.70000000E+02  2.60000000E+01  0.00000000E+00
  5.70000000E+02  2.40000000E+01  0.00000000E+00
  5.70000000E+02  2.20000000E+01  0.00000000E+00
  5.70000000E+02  2.00000000E+01  0.00000000E+00
  5.70000000E+02  1.80000000E+01  0.00000000E+00
  5.70000000E+02  1.60000000E+01  0.00000000E+00
  5.70000000E+02  1.40000000E+01  0.00000000E+00
  5.70000000E+02  1.20000000E+01  0.00000000E+00
  5.70000000E+02  1.00000000E+01  0.00000000E+00
  5.70000000E+02  8.00000000E+00  0.00000000E+00
  5.70000000E+02  6.00000000E+00  0.00000000E+00
  5.70000000E+02  4.00000000E+00  0.00000000E+00
  5.70000000E+02  2.00000000E+00  0.00000000E+00
  5.70000000E+02 -3.33066907E-14  0.00000000E+00
  5.80000000E+02  1.00000000E+02  0.00000000E+00
  5.80000000E+02  9.80000000E+01  0.00000000E+00
  5.80000000E+02  9.60000000E+01  0.00000000E+00
  5.80000000E+02  9.40000000E+01  0.00000000E+00
  5.80000000E+02  9.20000000E+01  0.00000000E+00
  5.80000000E+02  9.00000000E+01  0.00000000E+00
  5.80000000E+02  8.80000000E+01  0.00000000E+00
  5.80000000E+02  8.60000000E+01  0.00000000E+00
  5.80000000E+02  8.40000000E+01  0.00000000E+00
  5.80000000E+02  8.20000000E+01  0.00000000E+00
  5.80000000E+02  8.00000000E+01  0.00000000E+00
  5.80000000E+02  7.80000000E+01  0.00000000E+00
  5.80000000E+02  7.60000000E+01  0.00000000E+00
  5.80000000E+02  7.40000000E+01  0.00000000E+00
  5.80000000E+02  7.20000000E+01  0.00000000E+00
  5.80000000E+02  7.00000000E+01  0.00000000E+00
  5.80000000E+02  6.80000000E+01  0.00000000E+00
  5.80000000E+02  6.60000000E+01  0.00000000E+00
  5.80000000E+02  6.40000000E+01  0.00000000E+00
  5.80000000E+02  6.20000000E+01  0.00000000E+00
  5.80000000E+02  6.00000000E+01  0.00000000E+00
  5.80000000E+02  5.80000000E+01  0.00000000E+00
  5.80000000E+02  5.60000000E+01  0.00000000E+00
  5.80000000E+02  5.40000000E+01  0.00000000E+00
  5.80000000E+02  5.20000000E+01  0.00000000E+00
  5.80000000E+02  5.00000000E+01  0.00000000E+00
  5.80000000E+02  4.80000000E+01  0.00000000E+00
  5.80000000E+02  4.60000000E+01  0.00000000E+00
  5.80000000E+02  4.40000000E+01  0.00000000E+00
  5.80000000E+02  4.20000000E+01  0.00000000E+00
  5.80000000E+02  4.00000000E+01  0.00000000E+00
  5.80000000E+02  3.80000000E+01  0.00000000E+00
  5.80000000E+02  3.60000000E+01  0.00000000E+00
  5.80000000E+02  3.40000000E+01  0.00000000E+00
  5.80000000E+02  3.20000000E+01  0.00000000E+00
  5.80000000E+02  3.00000000E+01  0.00000000E+00
  5.80000000E+02  2.80000000E+01  0.00000000E+00
  5.80000000E+02  2.60000000E+01  0.00000000E+00
  5.80000000E+02  2.40000000E+01  0.00000000E+00
  5.80000000E+02  2.20000000E+01  0.00000000E+00
  5.80000000E+02  2.00000000E+01  0.00000000E+00
  5.80000000E+02  1.80000000E+01  0.00000000E+00
  5.80000000E+02  1.60000000E+01  0.00000000E+00
  5.80000000E+02  1.40000000E+01  0.00000000E+00
  5.80000000E+02  1.20000000E+01  0.00000000E+00
  5.80000000E+02  1.00000000E+01  0.00000000E+00
  5.80000000E+02  8.00000000E+00  0.00000000E+00
  5.80000000E+02  6.00000000E+00  0.00000000E+00
  5.80000000E+02  4.00000000E+00  0.00000000E+00
  5.80000000E+02  2.00000000E+00  0.00000000E+00
  5.80000000E+02 -3.33066907E-14  0.00000000E+00
  5.90000000E+02  1.00000000E+02  0.00000000E+00
  5.90000000E+02  9.80000000E+01  0.00000000E+00
  5.90000000E+02  9.60000000E+01  0.00000000E+00
  5.90000000E+02  9.40000000E+01  0.00000000E+00
  5.90000000E+02  9.20000000E+01  0.00000000E+00
  5.90000000E+02  9.00000000E+01  0.00000000E+00
  5.90000000E+02  8.80000000E+01  0.00000000E+00
  5.90000000E+02  8.60000000E+01  0.00000000E+00
  5.90000000E+02  8.40000000E+01  0.00000000E+00
  5.90000000E+02  8.20000000E+01  0.00000000E+00
  5.90000000E+02  8.00000000E+01  0.00000000E+00
  5.90000000E+02  7.80000000E+01  0.00000000E+00
  5.90000000E+02  7.60000000E+01  0.00000000E+00
  5.90000000E+02  7.40000000E+01  0.00000000E+00
  5.90000000E+02  7.20000000E+01  0.00000000E+00
  5.90000000E+02  7.00000000E+01  0.00000000E+00
  5.90000000E+02  6.80000000E+01  0.00000000E+00
  5.90000000E+02  6.60000000E+01  0.00000000E+00
  5.90000000E+02  6.40000000E+01  0.00000000E+00
  5.90000000E+02  6.20000000E+01  0.00000000E+00
  5.90000000E+02  6.00000000E+01  0.00000000E+00
  5.90000000E+02  5.80000000E+01  0.00000000E+00
  5.90000000E+02  5.60000000E+01  0.00000000E+00
  5.90000000E+02  5.40000000E+01  0.00000000E+00
  5.90000000E+02  5.20000000E+01  0.00000000E+00
  5.90000000E+02  5.00000000E+01  0.00000000E+00
  5.90000000E+02  4.80000000E+01  0.00000000E+00
  5.90000000E+02  4.60000000E+01  0.00000000E+00
  5.90000000E+02  4.40000000E+01  0.00000000E+00
  5.90000000E+02  4.20000000E+01  0.00000000E+00
  5.90000000E+02  4.00000000E+01  0.00000000E+00
  5.90000000E+02  3.80000000E+01  0.00000000E+00
  5.90000000E+02  3.60000000E+01  0.00000000E+00
  5.90000000E+02  3.40000000E+01  0.00000000E+00
  5.90000000E+02  3.20000000E+01  0.00000000E+00
  5.90000000E+02  3.00000000E+01  0.00000000E+00
  5.90000000E+02  2.80000000E+01  0.00000000E+00
  5.90000000E+02  2.60000000E+01  0.00000000E+00
  5.90000000E+02  2.40000000E+01  0.00000000E+00
  5.90000000E+02  2.20000000E+01  0.00000000E+00
  5.90000000E+02  2.00000000E+01  0.00000000E+00
  5.90000000E+02  1.80000000E+01  0.00000000E+00
  5.90000000E+02  1.60000000E+01  0.00000000E+00
  5.90000000E+02  1.40000000E+01  0.00000000E+00
  5.90000000E+02  1.20000000E+01  0.00000000E+00
  5.90000000E+02  1.00000000E+01  0.00000000E+00
  5.90000000E+02  8.00000000E+00  0.00000000E+00
  5.90000000E+02  6.00000000E+00  0.00000000E+00
  5.90000000E+02  4.00000000E+00  0.00000000E+00
  5.90000000E+02  2.00000000E+00  0.00000000E+00
  5.90000000E+02 -3.33066907E-14  0.00000000E+00
  6.00000000E+02  1.00000000E+02  0.00000000E+00
  6.00000000E+02  9.80000000E+01  0.00000000E+00
  6.00000000E+02  9.60000000E+01  0.00000000E+00
  6.00000000E+02  9.40000000E+01  0.00000000E+00
  6.00000000E+02  9.20000000E+01  0.00000000E+00
  6.00000000E+02  9.00000000E+01  0.00000000E+00
  6.00000000E+02  8.80000000E+01  0.00000000E+00
  6.00000000E+02  8.60000000E+01  0.00000000E+00
  6.00000000E+02  8.40000000E+01  0.00000000E+00
  6.00000000E+02  8.20000000E+01  0.00000000E+00
  6.00000000E+02  8.00000000E+01  0.00000000E+00
  6.00000000E+02  7.80000000E+01  0.00000000E+00
  6.00000000E+02  7.60000000E+01  0.00000000E+00
  6.00000000E+02  7.40000000E+01  0.00000000E+00
  6.00000000E+02  7.20000000E+01  0.00000000E+00
  6.00000000E+02  7.00000000E+01  0.00000000E+00
  6.00000000E+02  6.80000000E+01  0.00000000E+00
  6.00000000E+02  6.60000000E+01  0.00000000E+00
  6.00000000E+02  6.40000000E+01  0.00000000E+00
  6.00000000E+02  6.20000000E+01  0.00000000E+00
  6.00000000E+02  6.00000000E+01  0.00000000E+00
  6.00000000E+02  5.80000000E+01  0.00000000E+00
  6.00000000E+02  5.60000000E+01  0.00000000E+00
  6.00000000E+02  5.40000000E+01  0.00000000E+00
  6.00000000E+02  5.20000000E+01  0.00000000E+00
  6.00000000E+02  5.00000000E+01  0.00000000E+00
  6.00000000E+02  4.80000000E+01  0.00000000E+00
  6.00000000E+02  4.60000000E+01  0.00000000E+00
  6.00000000E+02  4.40000000E+01  0.00000000E+00
  6.00000000E+02  4.20000000E+01  0.00000000E+00
  6.00000000E+02  4.00000000E+01  0.00000000E+00
  6.00000000E+02  3.80000000E+01  0.00000000E+00
  6.00000000E+02  3.60000000E+01  0.00000000E+00
  6.00000000E+02  3.40000000E+01  0.00000000E+00
  6.00000000E+02  3.20000000E+01  0.00000000E+00
  6.00000000E+02  3.00000000E+01  0.00000000E+00
  6.00000000E+02  2.80000000E+01  0.00000000E+00
  6.00000000E+02  2.60000000E+01  0.00000000E+00
  6.00000000E+02  2.40000000E+01  0.00000000E+00
  6.00000000E+02  2.20000000E+01  0.00000000E+00
  6.00000000E+02  2.00000000E+01  0.00000000E+00
  6.00000000E+02  1.80000000E+01  0.00000000E+00
  6.00000000E+02  1.60000000E+01  0.00000000E+00
  6.00000000E+02  1.40000000E+01  0.00000000E+00
  6.00000000E+02  1.20000000E+01  0.00000000E+00
  6.00000000E+02  1.00000000E+01  0.00000000E+00
  6.00000000E+02  8.00000000E+00  0.00000000E+00
  6.00000000E+02  6.00000000E+00  0.00000000E+00
  6.00000000E+02  4.00000000E+00  0.00000000E+00
  6.00000000E+02  2.00000000E+00  0.00000000E+00
  6.00000000E+02 -3.33066907E-14  0.00000000E+00
  6.10000000E+02  1.00000000E+02  0.00000000E+00
  6.10000000E+02  9.80000000E+01  0.00000000E+00
  6.10000000E+02  9.60000000E+01  0.00000000E+00
  6.10000000E+02  9.40000000E+01  0.00000000E+00
  6.10000000E+02  9.20000000E+01  0.00000000E+00
  6.10000000E+02  9.00000000E+01  0.00000000E+00
  6.10000000E+02  8.80000000E+01  0.00000000E+00
  6.10000000E+02  8.60000000E+01  0.00000000E+00
  6.10000000E+02  8.40000000E+01  0.00000000E+00
  6.10000000E+02  8.20000000E+01  0.00000000E+00
  6.10000000E+02  8.00000000E+01  0.00000000E+00
  6.10000000E+02  7.80000000E+01  0.00000000E+00
  6.10000000E+02  7.60000000E+01  0.00000000E+00
  6.10000000E+02  7.40000000E+01  0.00000000E+00
  6.10000000E+02  7.20000000E+01  0.00000000E+00
  6.10000000E+02  7.00000000E+01  0.00000000E+00
  6.10000000E+02  6.80000000E+01  0.00000000E+00
  6.10000000E+02  6.60000000E+01  0.00000000E+00
  6.10000000E+02  6.40000000E+01  0.00000000E+00
  6.10000000E+02  6.20000000E+01  0.00000000E+00
  6.10000000E+02  6.00000000E+01  0.00000000E+00
  6.10000000E+02  5.80000000E+01  0.00000000E+00
  6.10000000E+02  5.60000000E+01  0.00000000E+00
  6.10000000E+02  5.40000000E+01  0.00000000E+00
  6.10000000E+02  5.20000000E+01  0.00000000E+00
  6.10000000E+02  5.00000000E+01  0.00000000E+00
  6.10000000E+02  4.80000000E+01  0.00000000E+00
  6.10000000E+02  4.60000000E+01  0.00000000E+00
  6.10000000E+02  4.40000000E+01  0.00000000E+00
  6.10000000E+02  4.20000000E+01  0.00000000E+00
  6.10000000E+02  4.00000000E+01  0.00000000E+00
  6.10000000E+02  3.80000000E+01  0.00000000E+00
  6.10000000E+02  3.60000000E+01  0.00000000E+00
  6.10000000E+02  3.40000000E+01  0.00000000E+00
  6.10000000E+02  3.20000000E+01  0.00000000E+00
  6.10000000E+02  3.00000000E+01  0.00000000E+00
  6.10000000E+02  2.80000000E+01  0.00000000E+00
  6.10000000E+02  2.60000000E+01  0.00000000E+00
  6.10000000E+02  2.40000000E+01  0.00000000E+00
  6.10000000E+02  2.20000000E+01  0.00000000E+00
  6.10000000E+02  2.00000000E+01  0.00000000E+00
  6.10000000E+02  1.80000000E+01  0.00000000E+00
  6.10000000E+02  1.60000000E+01  0.00000000E+00
  6.10000000E+02  1.40000000E+01  0.00000000E+00
  6.10000000E+02  1.20000000E+01  0.00000000E+00
  6.10000000E+02  1.00000000E+01  0.00000000E+00
  6.10000000E+02  8.00000000E+00  0.00000000E+00
  6.10000000E+02  6.00000000E+00  0.00000000E+00
  6.10000000E+02  4.00000000E+00  0.00000000E+00
  6.10000000E+02  2.00000000E+00  0.00000000E+00
  6.10000000E+02 -3.33066907E-14  0.00000000E+00
  6.20000000E+02  1.00000000E+02  0.00000000E+00
  6.20000000E+02  9.80000000E+01  0.00000000E+00
  6.20000000E+02  9.60000000E+01  0.00000000E+00
  6.20000000E+02  9.40000000E+01  0.00000000E+00
  6.20000000E+02  9.20000000E+01  0.00000000E+00
  6.20000000E+02  9.00000000E+01  0.00000000E+00
  6.20000000E+02  8.80000000E+01  0.00000000E+00
  6.20000000E+02  8.60000000E+01  0.00000000E+00
  6.20000000E+02  8.40000000E+01  0.00000000E+00
  6.20000000E+02  8.20000000E+01  0.00000000E+00
  6.20000000E+02  8.00000000E+01  0.00000000E+00
  6.20000000E+02  7.80000000E+01  0.00000000E+00
  6.20000000E+02  7.60000000E+01  0.00000000E+00
  6.20000000E+02  7.40000000E+01  0.00000000E+00
  6.20000000E+02  7.20000000E+01  0.00000000E+00
  6.20000000E+02  7.00000000E+01  0.00000000E+00
  6.20000000E+02  6.80000000E+01  0.00000000E+00
  6.20000000E+02  6.60000000E+01  0.00000000E+00
  6.20000000E+02  6.40000000E+01  0.00000000E+00
  6.20000000E+02  6.20000000E+01  0.00000000E+00
  6.20000000E+02  6.00000000E+01  0.00000000E+00
  6.20000000E+02  5.80000000E+01  0.00000000E+00
  6.20000000E+02  5.60000000E+01  0.00000000E+00
  6.20000000E+02  5.40000000E+01  0.00000000E+00
  6.20000000E+02  5.20000000E+01  0.00000000E+00
  6.20000000E+02  5.00000000E+01  0.00000000E+00
  6.20000000E+02  4.80000000E+01  0.00000000E+00
  6.20000000E+02  4.60000000E+01  0.00000000E+00
  6.20000000E+02  4.40000000E+01  0.00000000E+00
  6.20000000E+02  4.20000000E+01  0.00000000E+00
  6.20000000E+02  4.00000000E+01  0.00000000E+00
  6.20000000E+02  3.80000000E+01  0.00000000E+00
  6.20000000E+02  3.60000000E+01  0.00000000E+00
  6.20000000E+02  3.40000000E+01  0.00000000E+00
  6.20000000E+02  3.20000000E+01  0.00000000E+00
  6.20000000E+02  3.00000000E+01  0.00000000E+00
  6.20000000E+02  2.80000000E+01  0.00000000E+00
  6.20000000E+02  2.60000000E+01  0.00000000E+00
  6.20000000E+02  2.40000000E+01  0.00000000E+00
  6.20000000E+02  2.20000000E+01  0.00000000E+00
  6.20000000E+02  2.00000000E+01  0.00000000E+00
  6.20000000E+02  1.80000000E+01  0.00000000E+00
  6.20000000E+02  1.60000000E+01  0.00000000E+00
  6.20000000E+02  1.40000000E+01  0.00000000E+00
  6.20000000E+02  1.20000000E+01  0.00000000E+00
  6.20000000E+02  1.00000000E+01  0.00000000E+00
  6.20000000E+02  8.00000000E+00  0.00000000E+00
  6.20000000E+02  6.00000000E+00  0.00000000E+00
  6.20000000E+02  4.00000000E+00  0.00000000E+00
  6.20000000E+02  2.00000000E+00  0.00000000E+00
  6.20000000E+02 -3.33066907E-14  0.00000000E+00
  6.30000000E+02  1.00000000E+02  0.00000000E+00
  6.30000000E+02  9.80000000E+01  0.00000000E+00
  6.30000000E+02  9.60000000E+01  0.00000000E+00
  6.30000000E+02  9.40000000E+01  0.00000000E+00
  6.30000000E+02  9.20000000E+01  0.00000000E+00
  6.30000000E+02  9.00000000E+01  0.00000000E+00
  6.30000000E+02  8.80000000E+01  0.00000000E+00
  6.30000000E+02  8.60000000E+01  0.00000000E+00
  6.30000000E+02  8.40000000E+01  0.00000000E+00
  6.30000000E+02  8.20000000E+01  0.00000000E+00
  6.30000000E+02  8.00000000E+01  0.00000000E+00
  6.30000000E+02  7.80000000E+01  0.00000000E+00
  6.30000000E+02  7.60000000E+01  0.00000000E+00
  6.30000000E+02  7.40000000E+01  0.00000000E+00
  6.30000000E+02  7.20000000E+01  0.00000000E+00
  6.30000000E+02  7.00000000E+01  0.00000000E+00
  6.30000000E+02  6.80000000E+01  0.00000000E+00
  6.30000000E+02  6.60000000E+01  0.00000000E+00
  6.30000000E+02  6.40000000E+01  0.00000000E+00
  6.30000000E+02  6.20000000E+01  0.00000000E+00
  6.30000000E+02  6.00000000E+01  0.00000000E+00
  6.30000000E+02  5.80000000E+01  0.00000000E+00
  6.30000000E+02  5.60000000E+01  0.00000000E+00
  6.30000000E+02  5.40000000E+01  0.00000000E+00
  6.30000000E+02  5.20000000E+01  0.00000000E+00
  6.30000000E+02  5.00000000E+01  0.00000000E+00
  6.30000000E+02  4.80000000E+01  0.00000000E+00
  6.30000000E+02  4.60000000E+01  0.00000000E+00
  6.30000000E+02  4.40000000E+01  0.00000000E+00
  6.30000000E+02  4.20000000E+01  0.00000000E+00
  6.30000000E+02  4.00000000E+01  0.00000000E+00
  6.30000000E+02  3.80000000E+01  0.00000000E+00
  6.30000000E+02  3.60000000E+01  0.00000000E+00
  6.30000000E+02  3.40000000E+01  0.00000000E+00
  6.30000000E+02  3.20000000E+01  0.00000000E+00
  6.30000000E+02  3.00000000E+01  0.00000000E+00
  6.30000000E+02  2.80000000E+01  0.00000000E+00
  6.30000000E+02  2.60000000E+01  0.00000000E+00
  6.30000000E+02  2.40000000E+01  0.00000000E+00
  6.30000000E+02  2.20000000E+01  0.00000000E+00
  6.30000000E+02  2.00000000E+01  0.00000000E+00
  6.30000000E+02  1.80000000E+01  0.00000000E+00
  6.30000000E+02  1.60000000E+01  0.00000000E+00
  6.30000000E+02  1.40000000E+01  0.00000000E+00
  6.30000000E+02  1.20000000E+01  0.00000000E+00
  6.30000000E+02  1.00000000E+01  0.00000000E+00
  6.30000000E+02  8.00000000E+00  0.00000000E+00
  6.30000000E+02  6.00000000E+00  0.00000000E+00
  6.30000000E+02  4.00000000E+00  0.00000000E+00
  6.30000000E+02  2.00000000E+00  0.00000000E+00
  6.30000000E+02 -3.33066907E-14  0.00000000E+00
  6.40000000E+02  1.00000000E+02  0.00000000E+00
  6.40000000E+02  9.80000000E+01  0.00000000E+00
  6.40000000E+02  9.60000000E+01  0.00000000E+00
  6.40000000E+02  9.40000000E+01  0.00000000E+00
  6.40000000E+02  9.20000000E+01  0.00000000E+00
  6.40000000E+02  9.00000000E+01  0.00000000E+00
  6.40000000E+02  8.80000000E+01  0.00000000E+00
  6.40000000E+02  8.60000000E+01  0.00000000E+00
  6.40000000E+02  8.40000000E+01  0.00000000E+00
  6.40000000E+02  8.20000000E+01  0.00000000E+00
  6.40000000E+02  8.00000000E+01  0.00000000E+00
  6.40000000E+02  7.80000000E+01  0.00000000E+00
  6.40000000E+02  7.60000000E+01  0.00000000E+00
  6.40000000E+02  7.40000000E+01  0.00000000E+00
  6.40000000E+02  7.20000000E+01  0.00000000E+00
  6.40000000E+02  7.00000000E+01  0.00000000E+00
  6.40000000E+02  6.80000000E+01  0.00000000E+00
  6.40000000E+02  6.60000000E+01  0.00000000E+00
  6.40000000E+02  6.40000000E+01  0.00000000E+00
  6.40000000E+02  6.20000000E+01  0.00000000E+00
  6.40000000E+02  6.00000000E+01  0.00000000E+00
  6.40000000E+02  5.80000000E+01  0.00000000E+00
  6.40000000E+02  5.60000000E+01  0.00000000E+00
  6.40000000E+02  5.40000000E+01  0.00000000E+00
  6.40000000E+02  5.20000000E+01  0.00000000E+00
  6.40000000E+02  5.00000000E+01  0.00000000E+00
  6.40000000E+02  4.80000000E+01  0.00000000E+00
  6.40000000E+02  4.60000000E+01  0.00000000E+00
  6.40000000E+02  4.40000000E+01  0.00000000E+00
  6.40000000E+02  4.20000000E+01  0.00000000E+00
  6.40000000E+02  4.00000000E+01  0.00000000E+00
  6.40000000E+02  3.80000000E+01  0.00000000E+00
  6.40000000E+02  3.60000000E+01  0.00000000E+00
  6.40000000E+02  3.40000000E+01  0.00000000E+00
  6.40000000E+02  3.20000000E+01  0.00000000E+00
  6.40000000E+02  3.00000000E+01  0.00000000E+00
  6.40000000E+02  2.80000000E+01  0.00000000E+00
  6.40000000E+02  2.60000000E+01  0.00000000E+00
  6.40000000E+02  2.40000000E+01  0.00000000E+00
  6.40000000E+02  2.20000000E+01  0.00000000E+00
  6.40000000E+02  2.00000000E+01  0.00000000E+00
  6.40000000E+02  1.80000000E+01  0.00000000E+00
  6.40000000E+02  1.60000000E+01  0.00000000E+00
  6.40000000E+02  1.40000000E+01  0.00000000E+00
  6.40000000E+02  1.20000000E+01  0.00000000E+00
  6.40000000E+02  1.00000000E+01  0.00000000E+00
  6.40000000E+02  8.00000000E+00  0.00000000E+00
  6.40000000E+02  6.00000000E+00  0.00000000E+00
  6.40000000E+02  4.00000000E+00  0.00000000E+00
  6.40000000E+02  2.00000000E+00  0.00000000E+00
  6.40000000E+02 -3.33066907E-14  0.00000000E+00
  6.50000000E+02  1.00000000E+02  0.00000000E+00
  6.50000000E+02  9.80000000E+01  0.00000000E+00
  6.50000000E+02  9.60000000E+01  0.00000000E+00
  6.50000000E+02  9.40000000E+01  0.00000000E+00
  6.50000000E+02  9.20000000E+01  0.00000000E+00
  6.50000000E+02  9.00000000E+01  0.00000000E+00
  6.50000000E+02  8.80000000E+01  0.00000000E+00
  6.50000000E+02  8.60000000E+01  0.00000000E+00
  6.50000000E+02  8.40000000E+01  0.00000000E+00
  6.50000000E+02  8.20000000E+01  0.00000000E+00
  6.50000000E+02  8.00000000E+01  0.00000000E+00
  6.50000000E+02  7.80000000E+01  0.00000000E+00
  6.50000000E+02  7.60000000E+01  0.00000000E+00
  6.50000000E+02  7.40000000E+01  0.00000000E+00
  6.50000000E+02  7.20000000E+01  0.00000000E+00
  6.50000000E+02  7.00000000E+01  0.00000000E+00
  6.50000000E+02  6.80000000E+01  0.00000000E+00
  6.50000000E+02  6.60000000E+01  0.00000000E+00
  6.50000000E+02  6.40000000E+01  0.00000000E+00
  6.50000000E+02  6.20000000E+01  0.00000000E+00
  6.50000000E+02  6.00000000E+01  0.00000000E+00
  6.50000000E+02  5.80000000E+01  0.00000000E+00
  6.50000000E+02  5.60000000E+01  0.00000000E+00
  6.50000000E+02  5.40000000E+01  0.00000000E+00
  6.50000000E+02  5.20000000E+01  0.00000000E+00
  6.50000000E+02  5.00000000E+01  0.00000000E+00
  6.50000000E+02  4.80000000E+01  0.00000000E+00
  6.50000000E+02  4.60000000E+01  0.00000000E+00
  6.50000000E+02  4.40000000E+01  0.00000000E+00
  6.50000000E+02  4.20000000E+01  0.00000000E+00
  6.50000000E+02  4.00000000E+01  0.00000000E+00
  6.50000000E+02  3.80000000E+01  0.00000000E+00
  6.50000000E+02  3.60000000E+01  0.00000000E+00
  6.50000000E+02  3.40000000E+01  0.00000000E+00
  6.50000000E+02  3.20000000E+01  0.00000000E+00
  6.50000000E+02  3.00000000E+01  0.00000000E+00
  6.50000000E+02  2.80000000E+01  0.00000000E+00
  6.50000000E+02  2.60000000E+01  0.00000000E+00
  6.50000000E+02  2.40000000E+01  0.00000000E+00
  6.50000000E+02  2.20000000E+01  0.00000000E+00
  6.50000000E+02  2.00000000E+01  0.00000000E+00
  6.50000000E+02  1.80000000E+01  0.00000000E+00
  6.50000000E+02  1.60000000E+01  0.00000000E+00
  6.50000000E+02  1.40000000E+01  0.00000000E+00
  6.50000000E+02  1.20000000E+01  0.00000000E+00
  6.50000000E+02  1.00000000E+01  0.00000000E+00
  6.50000000E+02  8.00000000E+00  0.00000000E+00
  6.50000000E+02  6.00000000E+00  0.00000000E+00
  6.50000000E+02  4.00000000E+00  0.00000000E+00
  6.50000000E+02  2.00000000E+00  0.00000000E+00
  6.50000000E+02 -3.33066907E-14  0.00000000E+00
  6.60000000E+02  1.00000000E+02  0.00000000E+00
  6.60000000E+02  9.80000000E+01  0.00000000E+00
  6.60000000E+02  9.60000000E+01  0.00000000E+00
  6.60000000E+02  9.40000000E+01  0.00000000E+00
  6.60000000E+02  9.20000000E+01  0.00000000E+00
  6.60000000E+02  9.00000000E+01  0.00000000E+00
  6.60000000E+02  8.80000000E+01  0.00000000E+00
  6.60000000E+02  8.60000000E+01  0.00000000E+00
  6.60000000E+02  8.40000000E+01  0.00000000E+00
  6.60000000E+02  8.20000000E+01  0.00000000E+00
  6.60000000E+02  8.00000000E+01  0.00000000E+00
  6.60000000E+02  7.80000000E+01  0.00000000E+00
  6.60000000E+02  7.60000000E+01  0.00000000E+00
  6.60000000E+02  7.40000000E+01  0.00000000E+00
  6.60000000E+02  7.20000000E+01  0.00000000E+00
  6.60000000E+02  7.00000000E+01  0.00000000E+00
  6.60000000E+02  6.80000000E+01  0.00000000E+00
  6.60000000E+02  6.60000000E+01  0.00000000E+00
  6.60000000E+02  6.40000000E+01  0.00000000E+00
  6.60000000E+02  6.20000000E+01  0.00000000E+00
  6.60000000E+02  6.00000000E+01  0.00000000E+00
  6.60000000E+02  5.80000000E+01  0.00000000E+00
  6.60000000E+02  5.60000000E+01  0.00000000E+00
  6.60000000E+02  5.40000000E+01  0.00000000E+00
  6.60000000E+02  5.20000000E+01  0.00000000E+00
  6.60000000E+02  5.00000000E+01  0.00000000E+00
  6.60000000E+02  4.80000000E+01  0.00000000E+00
  6.60000000E+02  4.60000000E+01  0.00000000E+00
  6.60000000E+02  4.40000000E+01  0.00000000E+00
  6.60000000E+02  4.20000000E+01  0.00000000E+00
  6.60000000E+02  4.00000000E+01  0.00000000E+00
  6.60000000E+02  3.80000000E+01  0.00000000E+00
  6.60000000E+02  3.60000000E+01  0.00000000E+00
  6.60000000E+02  3.40000000E+01  0.00000000E+00
  6.60000000E+02  3.20000000E+01  0.00000000E+00
  6.60000000E+02  3.00000000E+01  0.00000000E+00
  6.60000000E+02  2.80000000E+01  0.00000000E+00
  6.60000000E+02  2.60000000E+01  0.00000000E+00
  6.60000000E+02  2.40000000E+01  0.00000000E+00
  6.60000000E+02  2.20000000E+01  0.00000000E+00
  6.60000000E+02  2.00000000E+01  0.00000000E+00
  6.60000000E+02  1.80000000E+01  0.00000000E+00
  6.60000000E+02  1.60000000E+01  0.00000000E+00
  6.60000000E+02  1.40000000E+01  0.00000000E+00
  6.60000000E+02  1.20000000E+01  0.00000000E+00
  6.60000000E+02  1.00000000E+01  0.00000000E+00
  6.60000000E+02  8.00000000E+00  0.00000000E+00
  6.60000000E+02  6.00000000E+00  0.00000000E+00
  6.60000000E+02  4.00000000E+00  0.00000000E+00
  6.60000000E+02  2.00000000E+00  0.00000000E+00
  6.60000000E+02 -3.33066907E-14  0.00000000E+00
  6.70000000E+02  1.00000000E+02  0.00000000E+00
  6.70000000E+02  9.80000000E+01  0.00000000E+00
  6.70000000E+02  9.60000000E+01  0.00000000E+00
  6.70000000E+02  9.40000000E+01  0.00000000E+00
  6.70000000E+02  9.20000000E+01  0.00000000E+00
  6.70000000E+02  9.00000000E+01  0.00000000E+00
  6.70000000E+02  8.80000000E+01  0.00000000E+00
  6.70000000E+02  8.60000000E+01  0.00000000E+00
  6.70000000E+02  8.40000000E+01  0.00000000E+00
  6.70000000E+02  8.20000000E+01  0.00000000E+00
  6.70000000E+02  8.00000000E+01  0.00000000E+00
  6.70000000E+02  7.80000000E+01  0.00000000E+00
  6.70000000E+02  7.60000000E+01  0.00000000E+00
  6.70000000E+02  7.40000000E+01  0.00000000E+00
  6.70000000E+02  7.20000000E+01  0.00000000E+00
  6.70000000E+02  7.00000000E+01  0.00000000E+00
  6.70000000E+02  6.80000000E+01  0.00000000E+00
  6.70000000E+02  6.60000000E+01  0.00000000E+00
  6.70000000E+02  6.40000000E+01  0.00000000E+00
  6.70000000E+02  6.20000000E+01  0.00000000E+00
  6.70000000E+02  6.00000000E+01  0.00000000E+00
  6.70000000E+02  5.80000000E+01  0.00000000E+00
  6.70000000E+02  5.60000000E+01  0.00000000E+00
  6.70000000E+02  5.40000000E+01  0.00000000E+00
  6.70000000E+02  5.20000000E+01  0.00000000E+00
  6.70000000E+02  5.00000000E+01  0.00000000E+00
  6.70000000E+02  4.80000000E+01  0.00000000E+00
  6.70000000E+02  4.60000000E+01  0.00000000E+00
  6.70000000E+02  4.40000000E+01  0.00000000E+00
  6.70000000E+02  4.20000000E+01  0.00000000E+00
  6.70000000E+02  4.00000000E+01  0.00000000E+00
  6.70000000E+02  3.80000000E+01  0.00000000E+00
  6.70000000E+02  3.60000000E+01  0.00000000E+00
  6.70000000E+02  3.40000000E+01  0.00000000E+00
  6.70000000E+02  3.20000000E+01  0.00000000E+00
  6.70000000E+02  3.00000000E+01  0.00000000E+00
  6.70000000E+02  2.80000000E+01  0.00000000E+00
  6.70000000E+02  2.60000000E+01  0.00000000E+00
  6.70000000E+02  2.40000000E+01  0.00000000E+00
  6.70000000E+02  2.20000000E+01  0.00000000E+00
  6.70000000E+02  2.00000000E+01  0.00000000E+00
  6.70000000E+02  1.80000000E+01  0.00000000E+00
  6.70000000E+02  1.60000000E+01  0.00000000E+00
  6.70000000E+02  1.40000000E+01  0.00000000E+00
  6.70000000E+02  1.20000000E+01  0.00000000E+00
  6.70000000E+02  1.00000000E+01  0.00000000E+00
  6.70000000E+02  8.00000000E+00  0.00000000E+00
  6.70000000E+02  6.00000000E+00  0.00000000E+00
  6.70000000E+02  4.00000000E+00  0.00000000E+00
  6.70000000E+02  2.00000000E+00  0.00000000E+00
  6.70000000E+02 -3.33066907E-14  0.00000000E+00
  6.80000000E+02  1.00000000E+02  0.00000000E+00
  6.80000000E+02  9.80000000E+01  0.00000000E+00
  6.80000000E+02  9.60000000E+01  0.00000000E+00
  6.80000000E+02  9.40000000E+01  0.00000000E+00
  6.80000000E+02  9.20000000E+01  0.00000000E+00
  6.80000000E+02  9.00000000E+01  0.00000000E+00
  6.80000000E+02  8.80000000E+01  0.00000000E+00
  6.80000000E+02  8.60000000E+01  0.00000000E+00
  6.80000000E+02  8.40000000E+01  0.00000000E+00
  6.80000000E+02  8.20000000E+01  0.00000000E+00
  6.80000000E+02  8.00000000E+01  0.00000000E+00
  6.80000000E+02  7.80000000E+01  0.00000000E+00
  6.80000000E+02  7.60000000E+01  0.00000000E+00
  6.80000000E+02  7.40000000E+01  0.00000000E+00
  6.80000000E+02  7.20000000E+01  0.00000000E+00
  6.80000000E+02  7.00000000E+01  0.00000000E+00
  6.80000000E+02  6.80000000E+01  0.00000000E+00
  6.80000000E+02  6.60000000E+01  0.00000000E+00
  6.80000000E+02  6.40000000E+01  0.00000000E+00
  6.80000000E+02  6.20000000E+01  0.00000000E+00
  6.80000000E+02  6.00000000E+01  0.00000000E+00
  6.80000000E+02  5.80000000E+01  0.00000000E+00
  6.80000000E+02  5.60000000E+01  0.00000000E+00
  6.80000000E+02  5.40000000E+01  0.00000000E+00
  6.80000000E+02  5.20000000E+01  0.00000000E+00
  6.80000000E+02  5.00000000E+01  0.00000000E+00
  6.80000000E+02  4.80000000E+01  0.00000000E+00
  6.80000000E+02  4.60000000E+01  0.00000000E+00
  6.80000000E+02  4.40000000E+01  0.00000000E+00
  6.80000000E+02  4.20000000E+01  0.00000000E+00
  6.80000000E+02  4.00000000E+01  0.00000000E+00
  6.80000000E+02  3.80000000E+01  0.00000000E+00
  6.80000000E+02  3.60000000E+01  0.00000000E+00
  6.80000000E+02  3.40000000E+01  0.00000000E+00
  6.80000000E+02  3.20000000E+01  0.00000000E+00
  6.80000000E+02  3.00000000E+01  0.00000000E+00
  6.80000000E+02  2.80000000E+01  0.00000000E+00
  6.80000000E+02  2.60000000E+01  0.00000000E+00
  6.80000000E+02  2.40000000E+01  0.00000000E+00
  6.80000000E+02  2.20000000E+01  0.00000000E+00
  6.80000000E+02  2.00000000E+01  0.00000000E+00
  6.80000000E+02  1.80000000E+01  0.00000000E+00
  6.80000000E+02  1.60000000E+01  0.00000000E+00
  6.80000000E+02  1.40000000E+01  0.00000000E+00
  6.80000000E+02  1.20000000E+01  0.00000000E+00
  6.80000000E+02  1.00000000E+01  0.00000000E+00
  6.80000000E+02  8.00000000E+00  0.00000000E+00
  6.80000000E+02  6.00000000E+00  0.00000000E+00
  6.80000000E+02  4.00000000E+00  0.00000000E+00
  6.80000000E+02  2.00000000E+00  0.00000000E+00
  6.80000000E+02 -3.33066907E-14  0.00000000E+00
  6.90000000E+02  1.00000000E+02  0.00000000E+00
  6.90000000E+02  9.80000000E+01  0.00000000E+00
  6.90000000E+02  9.60000000E+01  0.00000000E+00
  6.90000000E+02  9.40000000E+01  0.00000000E+00
  6.90000000E+02  9.20000000E+01  0.00000000E+00
  6.90000000E+02  9.00000000E+01  0.00000000E+00
  6.90000000E+02  8.80000000E+01  0.00000000E+00
  6.90000000E+02  8.60000000E+01  0.00000000E+00
  6.90000000E+02  8.40000000E+01  0.00000000E+00
  6.90000000E+02  8.20000000E+01  0.00000000E+00
  6.90000000E+02  8.00000000E+01  0.00000000E+00
  6.90000000E+02  7.80000000E+01  0.00000000E+00
  6.90000000E+02  7.60000000E+01  0.00000000E+00
  6.90000000E+02  7.40000000E+01  0.00000000E+00
  6.90000000E+02  7.20000000E+01  0.00000000E+00
  6.90000000E+02  7.00000000E+01  0.00000000E+00
  6.90000000E+02  6.80000000E+01  0.00000000E+00
  6.90000000E+02  6.60000000E+01  0.00000000E+00
  6.90000000E+02  6.40000000E+01  0.00000000E+00
  6.90000000E+02  6.20000000E+01  0.00000000E+00
  6.90000000E+02  6.00000000E+01  0.00000000E+00
  6.90000000E+02  5.80000000E+01  0.00000000E+00
  6.90000000E+02  5.60000000E+01  0.00000000E+00
  6.90000000E+02  5.40000000E+01  0.00000000E+00
  6.90000000E+02  5.20000000E+01  0.00000000E+00
  6.90000000E+02  5.00000000E+01  0.00000000E+00
  6.90000000E+02  4.80000000E+01  0.00000000E+00
  6.90000000E+02  4.60000000E+01  0.00000000E+00
  6.90000000E+02  4.40000000E+01  0.00000000E+00
  6.90000000E+02  4.20000000E+01  0.00000000E+00
  6.90000000E+02  4.00000000E+01  0.00000000E+00
  6.90000000E+02  3.80000000E+01  0.00000000E+00
  6.90000000E+02  3.60000000E+01  0.00000000E+00
  6.90000000E+02  3.40000000E+01  0.00000000E+00
  6.90000000E+02  3.20000000E+01  0.00000000E+00
  6.90000000E+02  3.00000000E+01  0.00000000E+00
  6.90000000E+02  2.80000000E+01  0.00000000E+00
  6.90000000E+02  2.60000000E+01  0.00000000E+00
  6.90000000E+02  2.40000000E+01  0.00000000E+00
  6.90000000E+02  2.20000000E+01  0.00000000E+00
  6.90000000E+02  2.00000000E+01  0.00000000E+00
  6.90000000E+02  1.80000000E+01  0.00000000E+00
  6.90000000E+02  1.60000000E+01  0.00000000E+00
  6.90000000E+02  1.40000000E+01  0.00000000E+00
  6.90000000E+02  1.20000000E+01  0.00000000E+00
  6.90000000E+02  1.00000000E+01  0.00000000E+00
  6.90000000E+02  8.00000000E+00  0.00000000E+00
  6.90000000E+02  6.00000000E+00  0.00000000E+00
  6.90000000E+02  4.00000000E+00  0.00000000E+00
  6.90000000E+02  2.00000000E+00  0.00000000E+00
  6.90000000E+02 -3.33066907E-14  0.00000000E+00
  7.00000000E+02  1.00000000E+02  0.00000000E+00
  7.00000000E+02  9.80000000E+01  0.00000000E+00
  7.00000000E+02  9.60000000E+01  0.00000000E+00
  7.00000000E+02  9.40000000E+01  0.00000000E+00
  7.00000000E+02  9.20000000E+01  0.00000000E+00
  7.00000000E+02  9.00000000E+01  0.00000000E+00
  7.00000000E+02  8.80000000E+01  0.00000000E+00
  7.00000000E+02  8.60000000E+01  0.00000000E+00
  7.00000000E+02  8.40000000E+01  0.00000000E+00
  7.00000000E+02  8.20000000E+01  0.00000000E+00
  7.00000000E+02  8.00000000E+01  0.00000000E+00
  7.00000000E+02  7.80000000E+01  0.00000000E+00
  7.00000000E+02  7.60000000E+01  0.00000000E+00
  7.00000000E+02  7.40000000E+01  0.00000000E+00
  7.00000000E+02  7.20000000E+01  0.00000000E+00
  7.00000000E+02  7.00000000E+01  0.00000000E+00
  7.00000000E+02  6.80000000E+01  0.00000000E+00
  7.00000000E+02  6.60000000E+01  0.00000000E+00
  7.00000000E+02  6.40000000E+01  0.00000000E+00
  7.00000000E+02  6.20000000E+01  0.00000000E+00
  7.00000000E+02  6.00000000E+01  0.00000000E+00
  7.00000000E+02  5.80000000E+01  0.00000000E+00
  7.00000000E+02  5.60000000E+01  0.00000000E+00
  7.00000000E+02  5.40000000E+01  0.00000000E+00
  7.00000000E+02  5.20000000E+01  0.00000000E+00
  7.00000000E+02  5.00000000E+01  0.00000000E+00
  7.00000000E+02  4.80000000E+01  0.00000000E+00
  7.00000000E+02  4.60000000E+01  0.00000000E+00
  7.00000000E+02  4.40000000E+01  0.00000000E+00
  7.00000000E+02  4.20000000E+01  0.00000000E+00
  7.00000000E+02  4.00000000E+01  0.00000000E+00
  7.00000000E+02  3.80000000E+01  0.00000000E+00
  7.00000000E+02  3.60000000E+01  0.00000000E+00
  7.00000000E+02  3.40000000E+01  0.00000000E+00
  7.00000000E+02  3.20000000E+01  0.00000000E+00
  7.00000000E+02  3.00000000E+01  0.00000000E+00
  7.00000000E+02  2.80000000E+01  0.00000000E+00
  7.00000000E+02  2.60000000E+01  0.00000000E+00
  7.00000000E+02  2.40000000E+01  0.00000000E+00
  7.00000000E+02  2.20000000E+01  0.00000000E+00
  7.00000000E+02  2.00000000E+01  0.00000000E+00
  7.00000000E+02  1.80000000E+01  0.00000000E+00
  7.00000000E+02  1.60000000E+01  0.00000000E+00
  7.00000000E+02  1.40000000E+01  0.00000000E+00
  7.00000000E+02  1.20000000E+01  0.00000000E+00
  7.00000000E+02  1.00000000E+01  0.00000000E+00
  7.00000000E+02  8.00000000E+00  0.00000000E+00
  7.00000000E+02  6.00000000E+00  0.00000000E+00
  7.00000000E+02  4.00000000E+00  0.00000000E+00
  7.00000000E+02  2.00000000E+00  0.00000000E+00
  7.00000000E+02 -3.33066907E-14  0.00000000E+00
  7.10000000E+02  1.00000000E+02  0.00000000E+00
  7.10000000E+02  9.80000000E+01  0.00000000E+00
  7.10000000E+02  9.60000000E+01  0.00000000E+00
  7.10000000E+02  9.40000000E+01  0.00000000E+00
  7.10000000E+02  9.20000000E+01  0.00000000E+00
  7.10000000E+02  9.00000000E+01  0.00000000E+00
  7.10000000E+02  8.80000000E+01  0.00000000E+00
  7.10000000E+02  8.60000000E+01  0.00000000E+00
  7.10000000E+02  8.40000000E+01  0.00000000E+00
  7.10000000E+02  8.20000000E+01  0.00000000E+00
  7.10000000E+02  8.00000000E+01  0.00000000E+00
  7.10000000E+02  7.80000000E+01  0.00000000E+00
  7.10000000E+02  7.60000000E+01  0.00000000E+00
  7.10000000E+02  7.40000000E+01  0.00000000E+00
  7.10000000E+02  7.20000000E+01  0.00000000E+00
  7.10000000E+02  7.00000000E+01  0.00000000E+00
  7.10000000E+02  6.80000000E+01  0.00000000E+00
  7.10000000E+02  6.60000000E+01  0.00000000E+00
  7.10000000E+02  6.40000000E+01  0.00000000E+00
  7.10000000E+02  6.20000000E+01  0.00000000E+00
  7.10000000E+02  6.00000000E+01  0.00000000E+00
  7.10000000E+02  5.80000000E+01  0.00000000E+00
  7.10000000E+02  5.60000000E+01  0.00000000E+00
  7.10000000E+02  5.40000000E+01  0.00000000E+00
  7.10000000E+02  5.20000000E+01  0.00000000E+00
  7.10000000E+02  5.00000000E+01  0.00000000E+00
  7.10000000E+02  4.80000000E+01  0.00000000E+00
  7.10000000E+02  4.60000000E+01  0.00000000E+00
  7.10000000E+02  4.40000000E+01  0.00000000E+00
  7.10000000E+02  4.20000000E+01  0.00000000E+00
  7.10000000E+02  4.00000000E+01  0.00000000E+00
  7.10000000E+02  3.80000000E+01  0.00000000E+00
  7.10000000E+02  3.60000000E+01  0.00000000E+00
  7.10000000E+02  3.40000000E+01  0.00000000E+00
  7.10000000E+02  3.20000000E+01  0.00000000E+00
  7.10000000E+02  3.00000000E+01  0.00000000E+00
  7.10000000E+02  2.80000000E+01  0.00000000E+00
  7.10000000E+02  2.60000000E+01  0.00000000E+00
  7.10000000E+02  2.40000000E+01  0.00000000E+00
  7.10000000E+02  2.20000000E+01  0.00000000E+00
  7.10000000E+02  2.00000000E+01  0.00000000E+00
  7.10000000E+02  1.80000000E+01  0.00000000E+00
  7.10000000E+02  1.60000000E+01  0.00000000E+00
  7.10000000E+02  1.40000000E+01  0.00000000E+00
  7.10000000E+02  1.20000000E+01  0.00000000E+00
  7.10000000E+02  1.00000000E+01  0.00000000E+00
  7.10000000E+02  8.00000000E+00  0.00000000E+00
  7.10000000E+02  6.00000000E+00  0.00000000E+00
  7.10000000E+02  4.00000000E+00  0.00000000E+00
  7.10000000E+02  2.00000000E+00  0.00000000E+00
  7.10000000E+02 -3.33066907E-14  0.00000000E+00
  7.20000000E+02  1.00000000E+02  0.00000000E+00
  7.20000000E+02  9.80000000E+01  0.00000000E+00
  7.20000000E+02  9.60000000E+01  0.00000000E+00
  7.20000000E+02  9.40000000E+01  0.00000000E+00
  7.20000000E+02  9.20000000E+01  0.00000000E+00
  7.20000000E+02  9.00000000E+01  0.00000000E+00
  7.20000000E+02  8.80000000E+01  0.00000000E+00
  7.20000000E+02  8.60000000E+01  0.00000000E+00
  7.20000000E+02  8.40000000E+01  0.00000000E+00
  7.20000000E+02  8.20000000E+01  0.00000000E+00
  7.20000000E+02  8.00000000E+01  0.00000000E+00
  7.20000000E+02  7.80000000E+01  0.00000000E+00
  7.20000000E+02  7.60000000E+01  0.00000000E+00
  7.20000000E+02  7.40000000E+01  0.00000000E+00
  7.20000000E+02  7.20000000E+01  0.00000000E+00
  7.20000000E+02  7.00000000E+01  0.00000000E+00
  7.20000000E+02  6.80000000E+01  0.00000000E+00
  7.20000000E+02  6.60000000E+01  0.00000000E+00
  7.20000000E+02  6.40000000E+01  0.00000000E+00
  7.20000000E+02  6.20000000E+01  0.00000000E+00
  7.20000000E+02  6.00000000E+01  0.00000000E+00
  7.20000000E+02  5.80000000E+01  0.00000000E+00
  7.20000000E+02  5.60000000E+01  0.00000000E+00
  7.20000000E+02  5.40000000E+01  0.00000000E+00
  7.20000000E+02  5.20000000E+01  0.00000000E+00
  7.20000000E+02  5.00000000E+01  0.00000000E+00
  7.20000000E+02  4.80000000E+01  0.00000000E+00
  7.20000000E+02  4.60000000E+01  0.00000000E+00
  7.20000000E+02  4.40000000E+01  0.00000000E+00
  7.20000000E+02  4.20000000E+01  0.00000000E+00
  7.20000000E+02  4.00000000E+01  0.00000000E+00
  7.20000000E+02  3.80000000E+01  0.00000000E+00
  7.20000000E+02  3.60000000E+01  0.00000000E+00
  7.20000000E+02  3.40000000E+01  0.00000000E+00
  7.20000000E+02  3.20000000E+01  0.00000000E+00
  7.20000000E+02  3.00000000E+01  0.00000000E+00
  7.20000000E+02  2.80000000E+01  0.00000000E+00
  7.20000000E+02  2.60000000E+01  0.00000000E+00
  7.20000000E+02  2.40000000E+01  0.00000000E+00
  7.20000000E+02  2.20000000E+01  0.00000000E+00
  7.20000000E+02  2.00000000E+01  0.00000000E+00
  7.20000000E+02  1.80000000E+01  0.00000000E+00
  7.20000000E+02  1.60000000E+01  0.00000000E+00
  7.20000000E+02  1.40000000E+01  0.00000000E+00
  7.20000000E+02  1.20000000E+01  0.00000000E+00
  7.20000000E+02  1.00000000E+01  0.00000000E+00
  7.20000000E+02  8.00000000E+00  0.00000000E+00
  7.20000000E+02  6.00000000E+00  0.00000000E+00
  7.20000000E+02  4.00000000E+00  0.00000000E+00
  7.20000000E+02  2.00000000E+00  0.00000000E+00
  7.20000000E+02 -3.33066907E-14  0.00000000E+00
  7.30000000E+02  1.00000000E+02  0.00000000E+00
  7.30000000E+02  9.80000000E+01  0.00000000E+00
  7.30000000E+02  9.60000000E+01  0.00000000E+00
  7.30000000E+02  9.40000000E+01  0.00000000E+00
  7.30000000E+02  9.20000000E+01  0.00000000E+00
  7.30000000E+02  9.00000000E+01  0.00000000E+00
  7.30000000E+02  8.80000000E+01  0.00000000E+00
  7.30000000E+02  8.60000000E+01  0.00000000E+00
  7.30000000E+02  8.40000000E+01  0.00000000E+00
  7.30000000E+02  8.20000000E+01  0.00000000E+00
  7.30000000E+02  8.00000000E+01  0.00000000E+00
  7.30000000E+02  7.80000000E+01  0.00000000E+00
  7.30000000E+02  7.60000000E+01  0.00000000E+00
  7.30000000E+02  7.40000000E+01  0.00000000E+00
  7.30000000E+02  7.20000000E+01  0.00000000E+00
  7.30000000E+02  7.00000000E+01  0.00000000E+00
  7.30000000E+02  6.80000000E+01  0.00000000E+00
  7.30000000E+02  6.60000000E+01  0.00000000E+00
  7.30000000E+02  6.40000000E+01  0.00000000E+00
  7.30000000E+02  6.20000000E+01  0.00000000E+00
  7.30000000E+02  6.00000000E+01  0.00000000E+00
  7.30000000E+02  5.80000000E+01  0.00000000E+00
  7.30000000E+02  5.60000000E+01  0.00000000E+00
  7.30000000E+02  5.40000000E+01  0.00000000E+00
  7.30000000E+02  5.20000000E+01  0.00000000E+00
  7.30000000E+02  5.00000000E+01  0.00000000E+00
  7.30000000E+02  4.80000000E+01  0.00000000E+00
  7.30000000E+02  4.60000000E+01  0.00000000E+00
  7.30000000E+02  4.40000000E+01  0.00000000E+00
  7.30000000E+02  4.20000000E+01  0.00000000E+00
  7.30000000E+02  4.00000000E+01  0.00000000E+00
  7.30000000E+02  3.80000000E+01  0.00000000E+00
  7.30000000E+02  3.60000000E+01  0.00000000E+00
  7.30000000E+02  3.40000000E+01  0.00000000E+00
  7.30000000E+02  3.20000000E+01  0.00000000E+00
  7.30000000E+02  3.00000000E+01  0.00000000E+00
  7.30000000E+02  2.80000000E+01  0.00000000E+00
  7.30000000E+02  2.60000000E+01  0.00000000E+00
  7.30000000E+02  2.40000000E+01  0.00000000E+00
  7.30000000E+02  2.20000000E+01  0.00000000E+00
  7.30000000E+02  2.00000000E+01  0.00000000E+00
  7.30000000E+02  1.80000000E+01  0.00000000E+00
  7.30000000E+02  1.60000000E+01  0.00000000E+00
  7.30000000E+02  1.40000000E+01  0.00000000E+00
  7.30000000E+02  1.20000000E+01  0.00000000E+00
  7.30000000E+02  1.00000000E+01  0.00000000E+00
  7.30000000E+02  8.00000000E+00  0.00000000E+00
  7.30000000E+02  6.00000000E+00  0.00000000E+00
  7.30000000E+02  4.00000000E+00  0.00000000E+00
  7.30000000E+02  2.00000000E+00  0.00000000E+00
  7.30000000E+02 -3.33066907E-14  0.00000000E+00
  7.40000000E+02  1.00000000E+02  0.00000000E+00
  7.40000000E+02  9.80000000E+01  0.00000000E+00
  7.40000000E+02  9.60000000E+01  0.00000000E+00
  7.40000000E+02  9.40000000E+01  0.00000000E+00
  7.40000000E+02  9.20000000E+01  0.00000000E+00
  7.40000000E+02  9.00000000E+01  0.00000000E+00
  7.40000000E+02  8.80000000E+01  0.00000000E+00
  7.40000000E+02  8.60000000E+01  0.00000000E+00
  7.40000000E+02  8.40000000E+01  0.00000000E+00
  7.40000000E+02  8.20000000E+01  0.00000000E+00
  7.40000000E+02  8.00000000E+01  0.00000000E+00
  7.40000000E+02  7.80000000E+01  0.00000000E+00
  7.40000000E+02  7.60000000E+01  0.00000000E+00
  7.40000000E+02  7.40000000E+01  0.00000000E+00
  7.40000000E+02  7.20000000E+01  0.00000000E+00
  7.40000000E+02  7.00000000E+01  0.00000000E+00
  7.40000000E+02  6.80000000E+01  0.00000000E+00
  7.40000000E+02  6.60000000E+01  0.00000000E+00
  7.40000000E+02  6.40000000E+01  0.00000000E+00
  7.40000000E+02  6.20000000E+01  0.00000000E+00
  7.40000000E+02  6.00000000E+01  0.00000000E+00
  7.40000000E+02  5.80000000E+01  0.00000000E+00
  7.40000000E+02  5.60000000E+01  0.00000000E+00
  7.40000000E+02  5.40000000E+01  0.00000000E+00
  7.40000000E+02  5.20000000E+01  0.00000000E+00
  7.40000000E+02  5.00000000E+01  0.00000000E+00
  7.40000000E+02  4.80000000E+01  0.00000000E+00
  7.40000000E+02  4.60000000E+01  0.00000000E+00
  7.40000000E+02  4.40000000E+01  0.00000000E+00
  7.40000000E+02  4.20000000E+01  0.00000000E+00
  7.40000000E+02  4.00000000E+01  0.00000000E+00
  7.40000000E+02  3.80000000E+01  0.00000000E+00
  7.40000000E+02  3.60000000E+01  0.00000000E+00
  7.40000000E+02  3.40000000E+01  0.00000000E+00
  7.40000000E+02  3.20000000E+01  0.00000000E+00
  7.40000000E+02  3.00000000E+01  0.00000000E+00
  7.40000000E+02  2.80000000E+01  0.00000000E+00
  7.40000000E+02  2.60000000E+01  0.00000000E+00
  7.40000000E+02  2.40000000E+01  0.00000000E+00
  7.40000000E+02  2.20000000E+01  0.00000000E+00
  7.40000000E+02  2.00000000E+01  0.00000000E+00
  7.40000000E+02  1.80000000E+01  0.00000000E+00
  7.40000000E+02  1.60000000E+01  0.00000000E+00
  7.40000000E+02  1.40000000E+01  0.00000000E+00
  7.40000000E+02  1.20000000E+01  0.00000000E+00
  7.40000000E+02  1.00000000E+01  0.00000000E+00
  7.40000000E+02  8.00000000E+00  0.00000000E+00
  7.40000000E+02  6.00000000E+00  0.00000000E+00
  7.40000000E+02  4.00000000E+00  0.00000000E+00
  7.40000000E+02  2.00000000E+00  0.00000000E+00
  7.40000000E+02 -3.33066907E-14  0.00000000E+00
  7.50000000E+02  1.00000000E+02  0.00000000E+00
  7.50000000E+02  9.80000000E+01  0.00000000E+00
  7.50000000E+02  9.60000000E+01  0.00000000E+00
  7.50000000E+02  9.40000000E+01  0.00000000E+00
  7.50000000E+02  9.20000000E+01  0.00000000E+00
  7.50000000E+02  9.00000000E+01  0.00000000E+00
  7.50000000E+02  8.80000000E+01  0.00000000E+00
  7.50000000E+02  8.60000000E+01  0.00000000E+00
  7.50000000E+02  8.40000000E+01  0.00000000E+00
  7.50000000E+02  8.20000000E+01  0.00000000E+00
  7.50000000E+02  8.00000000E+01  0.00000000E+00
  7.50000000E+02  7.80000000E+01  0.00000000E+00
  7.50000000E+02  7.60000000E+01  0.00000000E+00
  7.50000000E+02  7.40000000E+01  0.00000000E+00
  7.50000000E+02  7.20000000E+01  0.00000000E+00
  7.50000000E+02  7.00000000E+01  0.00000000E+00
  7.50000000E+02  6.80000000E+01  0.00000000E+00
  7.50000000E+02  6.60000000E+01  0.00000000E+00
  7.50000000E+02  6.40000000E+01  0.00000000E+00
  7.50000000E+02  6.20000000E+01  0.00000000E+00
  7.50000000E+02  6.00000000E+01  0.00000000E+00
  7.50000000E+02  5.80000000E+01  0.00000000E+00
  7.50000000E+02  5.60000000E+01  0.00000000E+00
  7.50000000E+02  5.40000000E+01  0.00000000E+00
  7.50000000E+02  5.20000000E+01  0.00000000E+00
  7.50000000E+02  5.00000000E+01  0.00000000E+00
  7.50000000E+02  4.80000000E+01  0.00000000E+00
  7.50000000E+02  4.60000000E+01  0.00000000E+00
  7.50000000E+02  4.40000000E+01  0.00000000E+00
  7.50000000E+02  4.20000000E+01  0.00000000E+00
  7.50000000E+02  4.00000000E+01  0.00000000E+00
  7.50000000E+02  3.80000000E+01  0.00000000E+00
  7.50000000E+02  3.60000000E+01  0.00000000E+00
  7.50000000E+02  3.40000000E+01  0.00000000E+00
  7.50000000E+02  3.20000000E+01  0.00000000E+00
  7.50000000E+02  3.00000000E+01  0.00000000E+00
  7.50000000E+02  2.80000000E+01  0.00000000E+00
  7.50000000E+02  2.60000000E+01  0.00000000E+00
  7.50000000E+02  2.40000000E+01  0.00000000E+00
  7.50000000E+02  2.20000000E+01  0.00000000E+00
  7.50000000E+02  2.00000000E+01  0.00000000E+00
  7.50000000E+02  1.80000000E+01  0.00000000E+00
  7.50000000E+02  1.60000000E+01  0.00000000E+00
  7.50000000E+02  1.40000000E+01  0.00000000E+00
  7.50000000E+02  1.20000000E+01  0.00000000E+00
  7.50000000E+02  1.00000000E+01  0.00000000E+00
  7.50000000E+02  8.00000000E+00  0.00000000E+00
  7.50000000E+02  6.00000000E+00  0.00000000E+00
  7.50000000E+02  4.00000000E+00  0.00000000E+00
  7.50000000E+02  2.00000000E+00  0.00000000E+00
  7.50000000E+02 -3.33066907E-14  0.00000000E+00
  7.60000000E+02  1.00000000E+02  0.00000000E+00
  7.60000000E+02  9.80000000E+01  0.00000000E+00
  7.60000000E+02  9.60000000E+01  0.00000000E+00
  7.60000000E+02  9.40000000E+01  0.00000000E+00
  7.60000000E+02  9.20000000E+01  0.00000000E+00
  7.60000000E+02  9.00000000E+01  0.00000000E+00
  7.60000000E+02  8.80000000E+01  0.00000000E+00
  7.60000000E+02  8.60000000E+01  0.00000000E+00
  7.60000000E+02  8.40000000E+01  0.00000000E+00
  7.60000000E+02  8.20000000E+01  0.00000000E+00
  7.60000000E+02  8.00000000E+01  0.00000000E+00
  7.60000000E+02  7.80000000E+01  0.00000000E+00
  7.60000000E+02  7.60000000E+01  0.00000000E+00
  7.60000000E+02  7.40000000E+01  0.00000000E+00
  7.60000000E+02  7.20000000E+01  0.00000000E+00
  7.60000000E+02  7.00000000E+01  0.00000000E+00
  7.60000000E+02  6.80000000E+01  0.00000000E+00
  7.60000000E+02  6.60000000E+01  0.00000000E+00
  7.60000000E+02  6.40000000E+01  0.00000000E+00
  7.60000000E+02  6.20000000E+01  0.00000000E+00
  7.60000000E+02  6.00000000E+01  0.00000000E+00
  7.60000000E+02  5.80000000E+01  0.00000000E+00
  7.60000000E+02  5.60000000E+01  0.00000000E+00
  7.60000000E+02  5.40000000E+01  0.00000000E+00
  7.60000000E+02  5.20000000E+01  0.00000000E+00
  7.60000000E+02  5.00000000E+01  0.00000000E+00
  7.60000000E+02  4.80000000E+01  0.00000000E+00
  7.60000000E+02  4.60000000E+01  0.00000000E+00
  7.60000000E+02  4.40000000E+01  0.00000000E+00
  7.60000000E+02  4.20000000E+01  0.00000000E+00
  7.60000000E+02  4.00000000E+01  0.00000000E+00
  7.60000000E+02  3.80000000E+01  0.00000000E+00
  7.60000000E+02  3.60000000E+01  0.00000000E+00
  7.60000000E+02  3.40000000E+01  0.00000000E+00
  7.60000000E+02  3.20000000E+01  0.00000000E+00
  7.60000000E+02  3.00000000E+01  0.00000000E+00
  7.60000000E+02  2.80000000E+01  0.00000000E+00
  7.60000000E+02  2.60000000E+01  0.00000000E+00
  7.60000000E+02  2.40000000E+01  0.00000000E+00
  7.60000000E+02  2.20000000E+01  0.00000000E+00
  7.60000000E+02  2.00000000E+01  0.00000000E+00
  7.60000000E+02  1.80000000E+01  0.00000000E+00
  7.60000000E+02  1.60000000E+01  0.00000000E+00
  7.60000000E+02  1.40000000E+01  0.00000000E+00
  7.60000000E+02  1.20000000E+01  0.00000000E+00
  7.60000000E+02  1.00000000E+01  0.00000000E+00
  7.60000000E+02  8.00000000E+00  0.00000000E+00
  7.60000000E+02  6.00000000E+00  0.00000000E+00
  7.60000000E+02  4.00000000E+00  0.00000000E+00
  7.60000000E+02  2.00000000E+00  0.00000000E+00
  7.60000000E+02 -3.33066907E-14  0.00000000E+00
  7.70000000E+02  1.00000000E+02  0.00000000E+00
  7.70000000E+02  9.80000000E+01  0.00000000E+00
  7.70000000E+02  9.60000000E+01  0.00000000E+00
  7.70000000E+02  9.40000000E+01  0.00000000E+00
  7.70000000E+02  9.20000000E+01  0.00000000E+00
  7.70000000E+02  9.00000000E+01  0.00000000E+00
  7.70000000E+02  8.80000000E+01  0.00000000E+00
  7.70000000E+02  8.60000000E+01  0.00000000E+00
  7.70000000E+02  8.40000000E+01  0.00000000E+00
  7.70000000E+02  8.20000000E+01  0.00000000E+00
  7.70000000E+02  8.00000000E+01  0.00000000E+00
  7.70000000E+02  7.80000000E+01  0.00000000E+00
  7.70000000E+02  7.60000000E+01  0.00000000E+00
  7.70000000E+02  7.40000000E+01  0.00000000E+00
  7.70000000E+02  7.20000000E+01  0.00000000E+00
  7.70000000E+02  7.00000000E+01  0.00000000E+00
  7.70000000E+02  6.80000000E+01  0.00000000E+00
  7.70000000E+02  6.60000000E+01  0.00000000E+00
  7.70000000E+02  6.40000000E+01  0.00000000E+00
  7.70000000E+02  6.20000000E+01  0.00000000E+00
  7.70000000E+02  6.00000000E+01  0.00000000E+00
  7.70000000E+02  5.80000000E+01  0.00000000E+00
  7.70000000E+02  5.60000000E+01  0.00000000E+00
  7.70000000E+02  5.40000000E+01  0.00000000E+00
  7.70000000E+02  5.20000000E+01  0.00000000E+00
  7.70000000E+02  5.00000000E+01  0.00000000E+00
  7.70000000E+02  4.80000000E+01  0.00000000E+00
  7.70000000E+02  4.60000000E+01  0.00000000E+00
  7.70000000E+02  4.40000000E+01  0.00000000E+00
  7.70000000E+02  4.20000000E+01  0.00000000E+00
  7.70000000E+02  4.00000000E+01  0.00000000E+00
  7.70000000E+02  3.80000000E+01  0.00000000E+00
  7.70000000E+02  3.60000000E+01  0.00000000E+00
  7.70000000E+02  3.40000000E+01  0.00000000E+00
  7.70000000E+02  3.20000000E+01  0.00000000E+00
  7.70000000E+02  3.00000000E+01  0.00000000E+00
  7.70000000E+02  2.80000000E+01  0.00000000E+00
  7.70000000E+02  2.60000000E+01  0.00000000E+00
  7.70000000E+02  2.40000000E+01  0.00000000E+00
  7.70000000E+02  2.20000000E+01  0.00000000E+00
  7.70000000E+02  2.00000000E+01  0.00000000E+00
  7.70000000E+02  1.80000000E+01  0.00000000E+00
  7.70000000E+02  1.60000000E+01  0.00000000E+00
  7.70000000E+02  1.40000000E+01  0.00000000E+00
  7.70000000E+02  1.20000000E+01  0.00000000E+00
  7.70000000E+02  1.00000000E+01  0.00000000E+00
  7.70000000E+02  8.00000000E+00  0.00000000E+00
  7.70000000E+02  6.00000000E+00  0.00000000E+00
  7.70000000E+02  4.00000000E+00  0.00000000E+00
  7.70000000E+02  2.00000000E+00  0.00000000E+00
  7.70000000E+02 -3.33066907E-14  0.00000000E+00
  7.80000000E+02  1.00000000E+02  0.00000000E+00
  7.80000000E+02  9.80000000E+01  0.00000000E+00
  7.80000000E+02  9.60000000E+01  0.00000000E+00
  7.80000000E+02  9.40000000E+01  0.00000000E+00
  7.80000000E+02  9.20000000E+01  0.00000000E+00
  7.80000000E+02  9.00000000E+01  0.00000000E+00
  7.80000000E+02  8.80000000E+01  0.00000000E+00
  7.80000000E+02  8.60000000E+01  0.00000000E+00
  7.80000000E+02  8.40000000E+01  0.00000000E+00
  7.80000000E+02  8.20000000E+01  0.00000000E+00
  7.80000000E+02  8.00000000E+01  0.00000000E+00
  7.80000000E+02  7.80000000E+01  0.00000000E+00
  7.80000000E+02  7.60000000E+01  0.00000000E+00
  7.80000000E+02  7.40000000E+01  0.00000000E+00
  7.80000000E+02  7.20000000E+01  0.00000000E+00
  7.80000000E+02  7.00000000E+01  0.00000000E+00
  7.80000000E+02  6.80000000E+01  0.00000000E+00
  7.80000000E+02  6.60000000E+01  0.00000000E+00
  7.80000000E+02  6.40000000E+01  0.00000000E+00
  7.80000000E+02  6.20000000E+01  0.00000000E+00
  7.80000000E+02  6.00000000E+01  0.00000000E+00
  7.80000000E+02  5.80000000E+01  0.00000000E+00
  7.80000000E+02  5.60000000E+01  0.00000000E+00
  7.80000000E+02  5.40000000E+01  0.00000000E+00
  7.80000000E+02  5.20000000E+01  0.00000000E+00
  7.80000000E+02  5.00000000E+01  0.00000000E+00
  7.80000000E+02  4.80000000E+01  0.00000000E+00
  7.80000000E+02  4.60000000E+01  0.00000000E+00
  7.80000000E+02  4.40000000E+01  0.00000000E+00
  7.80000000E+02  4.20000000E+01  0.00000000E+00
  7.80000000E+02  4.00000000E+01  0.00000000E+00
  7.80000000E+02  3.80000000E+01  0.00000000E+00
  7.80000000E+02  3.60000000E+01  0.00000000E+00
  7.80000000E+02  3.40000000E+01  0.00000000E+00
  7.80000000E+02  3.20000000E+01  0.00000000E+00
  7.80000000E+02  3.00000000E+01  0.00000000E+00
  7.80000000E+02  2.80000000E+01  0.00000000E+00
  7.80000000E+02  2.60000000E+01  0.00000000E+00
  7.80000000E+02  2.40000000E+01  0.00000000E+00
  7.80000000E+02  2.20000000E+01  0.00000000E+00
  7.80000000E+02  2.00000000E+01  0.00000000E+00
  7.80000000E+02  1.80000000E+01  0.00000000E+00
  7.80000000E+02  1.60000000E+01  0.00000000E+00
  7.80000000E+02  1.40000000E+01  0.00000000E+00
  7.80000000E+02  1.20000000E+01  0.00000000E+00
  7.80000000E+02  1.00000000E+01  0.00000000E+00
  7.80000000E+02  8.00000000E+00  0.00000000E+00
  7.80000000E+02  6.00000000E+00  0.00000000E+00
  7.80000000E+02  4.00000000E+00  0.00000000E+00
  7.80000000E+02  2.00000000E+00  0.00000000E+00
  7.80000000E+02 -3.33066907E-14  0.00000000E+00
  7.90000000E+02  1.00000000E+02  0.00000000E+00
  7.90000000E+02  9.80000000E+01  0.00000000E+00
  7.90000000E+02  9.60000000E+01  0.00000000E+00
  7.90000000E+02  9.40000000E+01  0.00000000E+00
  7.90000000E+02  9.20000000E+01  0.00000000E+00
  7.90000000E+02  9.00000000E+01  0.00000000E+00
  7.90000000E+02  8.80000000E+01  0.00000000E+00
  7.90000000E+02  8.60000000E+01  0.00000000E+00
  7.90000000E+02  8.40000000E+01  0.00000000E+00
  7.90000000E+02  8.20000000E+01  0.00000000E+00
  7.90000000E+02  8.00000000E+01  0.00000000E+00
  7.90000000E+02  7.80000000E+01  0.00000000E+00
  7.90000000E+02  7.60000000E+01  0.00000000E+00
  7.90000000E+02  7.40000000E+01  0.00000000E+00
  7.90000000E+02  7.20000000E+01  0.00000000E+00
  7.90000000E+02  7.00000000E+01  0.00000000E+00
  7.90000000E+02  6.80000000E+01  0.00000000E+00
  7.90000000E+02  6.60000000E+01  0.00000000E+00
  7.90000000E+02  6.40000000E+01  0.00000000E+00
  7.90000000E+02  6.20000000E+01  0.00000000E+00
  7.90000000E+02  6.00000000E+01  0.00000000E+00
  7.90000000E+02  5.80000000E+01  0.00000000E+00
  7.90000000E+02  5.60000000E+01  0.00000000E+00
  7.90000000E+02  5.40000000E+01  0.00000000E+00
  7.90000000E+02  5.20000000E+01  0.00000000E+00
  7.90000000E+02  5.00000000E+01  0.00000000E+00
  7.90000000E+02  4.80000000E+01  0.00000000E+00
  7.90000000E+02  4.60000000E+01  0.00000000E+00
  7.90000000E+02  4.40000000E+01  0.00000000E+00
  7.90000000E+02  4.20000000E+01  0.00000000E+00
  7.90000000E+02  4.00000000E+01  0.00000000E+00
  7.90000000E+02  3.80000000E+01  0.00000000E+00
  7.90000000E+02  3.60000000E+01  0.00000000E+00
  7.90000000E+02  3.40000000E+01  0.00000000E+00
  7.90000000E+02  3.20000000E+01  0.00000000E+00
  7.90000000E+02  3.00000000E+01  0.00000000E+00
  7.90000000E+02  2.80000000E+01  0.00000000E+00
  7.90000000E+02  2.60000000E+01  0.00000000E+00
  7.90000000E+02  2.40000000E+01  0.00000000E+00
  7.90000000E+02  2.20000000E+01  0.00000000E+00
  7.90000000E+02  2.00000000E+01  0.00000000E+00
  7.90000000E+02  1.80000000E+01  0.00000000E+00
  7.90000000E+02  1.60000000E+01  0.00000000E+00
  7.90000000E+02  1.40000000E+01  0.00000000E+00
  7.90000000E+02  1.20000000E+01  0.00000000E+00
  7.90000000E+02  1.00000000E+01  0.00000000E+00
  7.90000000E+02  8.00000000E+00  0.00000000E+00
  7.90000000E+02  6.00000000E+00  0.00000000E+00
  7.90000000E+02  4.00000000E+00  0.00000000E+00
  7.90000000E+02  2.00000000E+00  0.00000000E+00
  7.90000000E+02 -3.33066907E-14  0.00000000E+00
  8.00000000E+02  1.00000000E+02  0.00000000E+00
  8.00000000E+02  9.80000000E+01  0.00000000E+00
  8.00000000E+02  9.60000000E+01  0.00000000E+00
  8.00000000E+02  9.40000000E+01  0.00000000E+00
  8.00000000E+02  9.20000000E+01  0.00000000E+00
  8.00000000E+02  9.00000000E+01  0.00000000E+00
  8.00000000E+02  8.80000000E+01  0.00000000E+00
  8.00000000E+02  8.60000000E+01  0.00000000E+00
  8.00000000E+02  8.40000000E+01  0.00000000E+00
  8.00000000E+02  8.20000000E+01  0.00000000E+00
  8.00000000E+02  8.00000000E+01  0.00000000E+00
  8.00000000E+02  7.80000000E+01  0.00000000E+00
  8.00000000E+02  7.60000000E+01  0.00000000E+00
  8.00000000E+02  7.40000000E+01  0.00000000E+00
  8.00000000E+02  7.20000000E+01  0.00000000E+00
  8.00000000E+02  7.00000000E+01  0.00000000E+00
  8.00000000E+02  6.80000000E+01  0.00000000E+00
  8.00000000E+02  6.60000000E+01  0.00000000E+00
  8.00000000E+02  6.40000000E+01  0.00000000E+00
  8.00000000E+02  6.20000000E+01  0.00000000E+00
  8.00000000E+02  6.00000000E+01  0.00000000E+00
  8.00000000E+02  5.80000000E+01  0.00000000E+00
  8.00000000E+02  5.60000000E+01  0.00000000E+00
  8.00000000E+02  5.40000000E+01  0.00000000E+00
  8.00000000E+02  5.20000000E+01  0.00000000E+00
  8.00000000E+02  5.00000000E+01  0.00000000E+00
  8.00000000E+02  4.80000000E+01  0.00000000E+00
  8.00000000E+02  4.60000000E+01  0.00000000E+00
  8.00000000E+02  4.40000000E+01  0.00000000E+00
  8.00000000E+02  4.20000000E+01  0.00000000E+00
  8.00000000E+02  4.00000000E+01  0.00000000E+00
  8.00000000E+02  3.80000000E+01  0.00000000E+00
  8.00000000E+02  3.60000000E+01  0.00000000E+00
  8.00000000E+02  3.40000000E+01  0.00000000E+00
  8.00000000E+02  3.20000000E+01  0.00000000E+00
  8.00000000E+02  3.00000000E+01  0.00000000E+00
  8.00000000E+02  2.80000000E+01  0.00000000E+00
  8.00000000E+02  2.60000000E+01  0.00000000E+00
  8.00000000E+02  2.40000000E+01  0.00000000E+00
  8.00000000E+02  2.20000000E+01  0.00000000E+00
  8.00000000E+02  2.00000000E+01  0.00000000E+00
  8.00000000E+02  1.80000000E+01  0.00000000E+00
  8.00000000E+02  1.60000000E+01  0.00000000E+00
  8.00000000E+02  1.40000000E+01  0.00000000E+00
  8.00000000E+02  1.20000000E+01  0.00000000E+00
  8.00000000E+02  1.00000000E+01  0.00000000E+00
  8.00000000E+02  8.00000000E+00  0.00000000E+00
  8.00000000E+02  6.00000000E+00  0.00000000E+00
  8.00000000E+02  4.00000000E+00  0.00000000E+00
  8.00000000E+02  2.00000000E+00  0.00000000E+00
  8.00000000E+02 -3.33066907E-14  0.00000000E+00
  8.10000000E+02  1.00000000E+02  0.00000000E+00
  8.10000000E+02  9.80000000E+01  0.00000000E+00
  8.10000000E+02  9.60000000E+01  0.00000000E+00
  8.10000000E+02  9.40000000E+01  0.00000000E+00
  8.10000000E+02  9.20000000E+01  0.00000000E+00
  8.10000000E+02  9.00000000E+01  0.00000000E+00
  8.10000000E+02  8.80000000E+01  0.00000000E+00
  8.10000000E+02  8.60000000E+01  0.00000000E+00
  8.10000000E+02  8.40000000E+01  0.00000000E+00
  8.10000000E+02  8.20000000E+01  0.00000000E+00
  8.10000000E+02  8.00000000E+01  0.00000000E+00
  8.10000000E+02  7.80000000E+01  0.00000000E+00
  8.10000000E+02  7.60000000E+01  0.00000000E+00
  8.10000000E+02  7.40000000E+01  0.00000000E+00
  8.10000000E+02  7.20000000E+01  0.00000000E+00
  8.10000000E+02  7.00000000E+01  0.00000000E+00
  8.10000000E+02  6.80000000E+01  0.00000000E+00
  8.10000000E+02  6.60000000E+01  0.00000000E+00
  8.10000000E+02  6.40000000E+01  0.00000000E+00
  8.10000000E+02  6.20000000E+01  0.00000000E+00
  8.10000000E+02  6.00000000E+01  0.00000000E+00
  8.10000000E+02  5.80000000E+01  0.00000000E+00
  8.10000000E+02  5.60000000E+01  0.00000000E+00
  8.10000000E+02  5.40000000E+01  0.00000000E+00
  8.10000000E+02  5.20000000E+01  0.00000000E+00
  8.10000000E+02  5.00000000E+01  0.00000000E+00
  8.10000000E+02  4.80000000E+01  0.00000000E+00
  8.10000000E+02  4.60000000E+01  0.00000000E+00
  8.10000000E+02  4.40000000E+01  0.00000000E+00
  8.10000000E+02  4.20000000E+01  0.00000000E+00
  8.10000000E+02  4.00000000E+01  0.00000000E+00
  8.10000000E+02  3.80000000E+01  0.00000000E+00
  8.10000000E+02  3.60000000E+01  0.00000000E+00
  8.10000000E+02  3.40000000E+01  0.00000000E+00
  8.10000000E+02  3.20000000E+01  0.00000000E+00
  8.10000000E+02  3.00000000E+01  0.00000000E+00
  8.10000000E+02  2.80000000E+01  0.00000000E+00
  8.10000000E+02  2.60000000E+01  0.00000000E+00
  8.10000000E+02  2.40000000E+01  0.00000000E+00
  8.10000000E+02  2.20000000E+01  0.00000000E+00
  8.10000000E+02  2.00000000E+01  0.00000000E+00
  8.10000000E+02  1.80000000E+01  0.00000000E+00
  8.10000000E+02  1.60000000E+01  0.00000000E+00
  8.10000000E+02  1.40000000E+01  0.00000000E+00
  8.10000000E+02  1.20000000E+01  0.00000000E+00
  8.10000000E+02  1.00000000E+01  0.00000000E+00
  8.10000000E+02  8.00000000E+00  0.00000000E+00
  8.10000000E+02  6.00000000E+00  0.00000000E+00
  8.10000000E+02  4.00000000E+00  0.00000000E+00
  8.10000000E+02  2.00000000E+00  0.00000000E+00
  8.10000000E+02 -3.33066907E-14  0.00000000E+00
  8.20000000E+02  1.00000000E+02  0.00000000E+00
  8.20000000E+02  9.80000000E+01  0.00000000E+00
  8.20000000E+02  9.60000000E+01  0.00000000E+00
  8.20000000E+02  9.40000000E+01  0.00000000E+00
  8.20000000E+02  9.20000000E+01  0.00000000E+00
  8.20000000E+02  9.00000000E+01  0.00000000E+00
  8.20000000E+02  8.80000000E+01  0.00000000E+00
  8.20000000E+02  8.60000000E+01  0.00000000E+00
  8.20000000E+02  8.40000000E+01  0.00000000E+00
  8.20000000E+02  8.20000000E+01  0.00000000E+00
  8.20000000E+02  8.00000000E+01  0.00000000E+00
  8.20000000E+02  7.80000000E+01  0.00000000E+00
  8.20000000E+02  7.60000000E+01  0.00000000E+00
  8.20000000E+02  7.40000000E+01  0.00000000E+00
  8.20000000E+02  7.20000000E+01  0.00000000E+00
  8.20000000E+02  7.00000000E+01  0.00000000E+00
  8.20000000E+02  6.80000000E+01  0.00000000E+00
  8.20000000E+02  6.60000000E+01  0.00000000E+00
  8.20000000E+02  6.40000000E+01  0.00000000E+00
  8.20000000E+02  6.20000000E+01  0.00000000E+00
  8.20000000E+02  6.00000000E+01  0.00000000E+00
  8.20000000E+02  5.80000000E+01  0.00000000E+00
  8.20000000E+02  5.60000000E+01  0.00000000E+00
  8.20000000E+02  5.40000000E+01  0.00000000E+00
  8.20000000E+02  5.20000000E+01  0.00000000E+00
  8.20000000E+02  5.00000000E+01  0.00000000E+00
  8.20000000E+02  4.80000000E+01  0.00000000E+00
  8.20000000E+02  4.60000000E+01  0.00000000E+00
  8.20000000E+02  4.40000000E+01  0.00000000E+00
  8.20000000E+02  4.20000000E+01  0.00000000E+00
  8.20000000E+02  4.00000000E+01  0.00000000E+00
  8.20000000E+02  3.80000000E+01  0.00000000E+00
  8.20000000E+02  3.60000000E+01  0.00000000E+00
  8.20000000E+02  3.40000000E+01  0.00000000E+00
  8.20000000E+02  3.20000000E+01  0.00000000E+00
  8.20000000E+02  3.00000000E+01  0.00000000E+00
  8.20000000E+02  2.80000000E+01  0.00000000E+00
  8.20000000E+02  2.60000000E+01  0.00000000E+00
  8.20000000E+02  2.40000000E+01  0.00000000E+00
  8.20000000E+02  2.20000000E+01  0.00000000E+00
  8.20000000E+02  2.00000000E+01  0.00000000E+00
  8.20000000E+02  1.80000000E+01  0.00000000E+00
  8.20000000E+02  1.60000000E+01  0.00000000E+00
  8.20000000E+02  1.40000000E+01  0.00000000E+00
  8.20000000E+02  1.20000000E+01  0.00000000E+00
  8.20000000E+02  1.00000000E+01  0.00000000E+00
  8.20000000E+02  8.00000000E+00  0.00000000E+00
  8.20000000E+02  6.00000000E+00  0.00000000E+00
  8.20000000E+02  4.00000000E+00  0.00000000E+00
  8.20000000E+02  2.00000000E+00  0.00000000E+00
  8.20000000E+02 -3.33066907E-14  0.00000000E+00
  8.30000000E+02  1.00000000E+02  0.00000000E+00
  8.30000000E+02  9.80000000E+01  0.00000000E+00
  8.30000000E+02  9.60000000E+01  0.00000000E+00
  8.30000000E+02  9.40000000E+01  0.00000000E+00
  8.30000000E+02  9.20000000E+01  0.00000000E+00
  8.30000000E+02  9.00000000E+01  0.00000000E+00
  8.30000000E+02  8.80000000E+01  0.00000000E+00
  8.30000000E+02  8.60000000E+01  0.00000000E+00
  8.30000000E+02  8.40000000E+01  0.00000000E+00
  8.30000000E+02  8.20000000E+01  0.00000000E+00
  8.30000000E+02  8.00000000E+01  0.00000000E+00
  8.30000000E+02  7.80000000E+01  0.00000000E+00
  8.30000000E+02  7.60000000E+01  0.00000000E+00
  8.30000000E+02  7.40000000E+01  0.00000000E+00
  8.30000000E+02  7.20000000E+01  0.00000000E+00
  8.30000000E+02  7.00000000E+01  0.00000000E+00
  8.30000000E+02  6.80000000E+01  0.00000000E+00
  8.30000000E+02  6.60000000E+01  0.00000000E+00
  8.30000000E+02  6.40000000E+01  0.00000000E+00
  8.30000000E+02  6.20000000E+01  0.00000000E+00
  8.30000000E+02  6.00000000E+01  0.00000000E+00
  8.30000000E+02  5.80000000E+01  0.00000000E+00
  8.30000000E+02  5.60000000E+01  0.00000000E+00
  8.30000000E+02  5.40000000E+01  0.00000000E+00
  8.30000000E+02  5.20000000E+01  0.00000000E+00
  8.30000000E+02  5.00000000E+01  0.00000000E+00
  8.30000000E+02  4.80000000E+01  0.00000000E+00
  8.30000000E+02  4.60000000E+01  0.00000000E+00
  8.30000000E+02  4.40000000E+01  0.00000000E+00
  8.30000000E+02  4.20000000E+01  0.00000000E+00
  8.30000000E+02  4.00000000E+01  0.00000000E+00
  8.30000000E+02  3.80000000E+01  0.00000000E+00
  8.30000000E+02  3.60000000E+01  0.00000000E+00
  8.30000000E+02  3.40000000E+01  0.00000000E+00
  8.30000000E+02  3.20000000E+01  0.00000000E+00
  8.30000000E+02  3.00000000E+01  0.00000000E+00
  8.30000000E+02  2.80000000E+01  0.00000000E+00
  8.30000000E+02  2.60000000E+01  0.00000000E+00
  8.30000000E+02  2.40000000E+01  0.00000000E+00
  8.30000000E+02  2.20000000E+01  0.00000000E+00
  8.30000000E+02  2.00000000E+01  0.00000000E+00
  8.30000000E+02  1.80000000E+01  0.00000000E+00
  8.30000000E+02  1.60000000E+01  0.00000000E+00
  8.30000000E+02  1.40000000E+01  0.00000000E+00
  8.30000000E+02  1.20000000E+01  0.00000000E+00
  8.30000000E+02  1.00000000E+01  0.00000000E+00
  8.30000000E+02  8.00000000E+00  0.00000000E+00
  8.30000000E+02  6.00000000E+00  0.00000000E+00
  8.30000000E+02  4.00000000E+00  0.00000000E+00
  8.30000000E+02  2.00000000E+00  0.00000000E+00
  8.30000000E+02 -3.33066907E-14  0.00000000E+00
  8.40000000E+02  1.00000000E+02  0.00000000E+00
  8.40000000E+02  9.80000000E+01  0.00000000E+00
  8.40000000E+02  9.60000000E+01  0.00000000E+00
  8.40000000E+02  9.40000000E+01  0.00000000E+00
  8.40000000E+02  9.20000000E+01  0.00000000E+00
  8.40000000E+02  9.00000000E+01  0.00000000E+00
  8.40000000E+02  8.80000000E+01  0.00000000E+00
  8.40000000E+02  8.60000000E+01  0.00000000E+00
  8.40000000E+02  8.40000000E+01  0.00000000E+00
  8.40000000E+02  8.20000000E+01  0.00000000E+00
  8.40000000E+02  8.00000000E+01  0.00000000E+00
  8.40000000E+02  7.80000000E+01  0.00000000E+00
  8.40000000E+02  7.60000000E+01  0.00000000E+00
  8.40000000E+02  7.40000000E+01  0.00000000E+00
  8.40000000E+02  7.20000000E+01  0.00000000E+00
  8.40000000E+02  7.00000000E+01  0.00000000E+00
  8.40000000E+02  6.80000000E+01  0.00000000E+00
  8.40000000E+02  6.60000000E+01  0.00000000E+00
  8.40000000E+02  6.40000000E+01  0.00000000E+00
  8.40000000E+02  6.20000000E+01  0.00000000E+00
  8.40000000E+02  6.00000000E+01  0.00000000E+00
  8.40000000E+02  5.80000000E+01  0.00000000E+00
  8.40000000E+02  5.60000000E+01  0.00000000E+00
  8.40000000E+02  5.40000000E+01  0.00000000E+00
  8.40000000E+02  5.20000000E+01  0.00000000E+00
  8.40000000E+02  5.00000000E+01  0.00000000E+00
  8.40000000E+02  4.80000000E+01  0.00000000E+00
  8.40000000E+02  4.60000000E+01  0.00000000E+00
  8.40000000E+02  4.40000000E+01  0.00000000E+00
  8.40000000E+02  4.20000000E+01  0.00000000E+00
  8.40000000E+02  4.00000000E+01  0.00000000E+00
  8.40000000E+02  3.80000000E+01  0.00000000E+00
  8.40000000E+02  3.60000000E+01  0.00000000E+00
  8.40000000E+02  3.40000000E+01  0.00000000E+00
  8.40000000E+02  3.20000000E+01  0.00000000E+00
  8.40000000E+02  3.00000000E+01  0.00000000E+00
  8.40000000E+02  2.80000000E+01  0.00000000E+00
  8.40000000E+02  2.60000000E+01  0.00000000E+00
  8.40000000E+02  2.40000000E+01  0.00000000E+00
  8.40000000E+02  2.20000000E+01  0.00000000E+00
  8.40000000E+02  2.00000000E+01  0.00000000E+00
  8.40000000E+02  1.80000000E+01  0.00000000E+00
  8.40000000E+02  1.60000000E+01  0.00000000E+00
  8.40000000E+02  1.40000000E+01  0.00000000E+00
  8.40000000E+02  1.20000000E+01  0.00000000E+00
  8.40000000E+02  1.00000000E+01  0.00000000E+00
  8.40000000E+02  8.00000000E+00  0.00000000E+00
  8.40000000E+02  6.00000000E+00  0.00000000E+00
  8.40000000E+02  4.00000000E+00  0.00000000E+00
  8.40000000E+02  2.00000000E+00  0.00000000E+00
  8.40000000E+02 -3.33066907E-14  0.00000000E+00
  8.50000000E+02  1.00000000E+02  0.00000000E+00
  8.50000000E+02  9.80000000E+01  0.00000000E+00
  8.50000000E+02  9.60000000E+01  0.00000000E+00
  8.50000000E+02  9.40000000E+01  0.00000000E+00
  8.50000000E+02  9.20000000E+01  0.00000000E+00
  8.50000000E+02  9.00000000E+01  0.00000000E+00
  8.50000000E+02  8.80000000E+01  0.00000000E+00
  8.50000000E+02  8.60000000E+01  0.00000000E+00
  8.50000000E+02  8.40000000E+01  0.00000000E+00
  8.50000000E+02  8.20000000E+01  0.00000000E+00
  8.50000000E+02  8.00000000E+01  0.00000000E+00
  8.50000000E+02  7.80000000E+01  0.00000000E+00
  8.50000000E+02  7.60000000E+01  0.00000000E+00
  8.50000000E+02  7.40000000E+01  0.00000000E+00
  8.50000000E+02  7.20000000E+01  0.00000000E+00
  8.50000000E+02  7.00000000E+01  0.00000000E+00
  8.50000000E+02  6.80000000E+01  0.00000000E+00
  8.50000000E+02  6.60000000E+01  0.00000000E+00
  8.50000000E+02  6.40000000E+01  0.00000000E+00
  8.50000000E+02  6.20000000E+01  0.00000000E+00
  8.50000000E+02  6.00000000E+01  0.00000000E+00
  8.50000000E+02  5.80000000E+01  0.00000000E+00
  8.50000000E+02  5.60000000E+01  0.00000000E+00
  8.50000000E+02  5.40000000E+01  0.00000000E+00
  8.50000000E+02  5.20000000E+01  0.00000000E+00
  8.50000000E+02  5.00000000E+01  0.00000000E+00
  8.50000000E+02  4.80000000E+01  0.00000000E+00
  8.50000000E+02  4.60000000E+01  0.00000000E+00
  8.50000000E+02  4.40000000E+01  0.00000000E+00
  8.50000000E+02  4.20000000E+01  0.00000000E+00
  8.50000000E+02  4.00000000E+01  0.00000000E+00
  8.50000000E+02  3.80000000E+01  0.00000000E+00
  8.50000000E+02  3.60000000E+01  0.00000000E+00
  8.50000000E+02  3.40000000E+01  0.00000000E+00
  8.50000000E+02  3.20000000E+01  0.00000000E+00
  8.50000000E+02  3.00000000E+01  0.00000000E+00
  8.50000000E+02  2.80000000E+01  0.00000000E+00
  8.50000000E+02  2.60000000E+01  0.00000000E+00
  8.50000000E+02  2.40000000E+01  0.00000000E+00
  8.50000000E+02  2.20000000E+01  0.00000000E+00
  8.50000000E+02  2.00000000E+01  0.00000000E+00
  8.50000000E+02  1.80000000E+01  0.00000000E+00
  8.50000000E+02  1.60000000E+01  0.00000000E+00
  8.50000000E+02  1.40000000E+01  0.00000000E+00
  8.50000000E+02  1.20000000E+01  0.00000000E+00
  8.50000000E+02  1.00000000E+01  0.00000000E+00
  8.50000000E+02  8.00000000E+00  0.00000000E+00
  8.50000000E+02  6.00000000E+00  0.00000000E+00
  8.50000000E+02  4.00000000E+00  0.00000000E+00
  8.50000000E+02  2.00000000E+00  0.00000000E+00
  8.50000000E+02 -3.33066907E-14  0.00000000E+00
  8.60000000E+02  1.00000000E+02  0.00000000E+00
  8.60000000E+02  9.80000000E+01  0.00000000E+00
  8.60000000E+02  9.60000000E+01  0.00000000E+00
  8.60000000E+02  9.40000000E+01  0.00000000E+00
  8.60000000E+02  9.20000000E+01  0.00000000E+00
  8.60000000E+02  9.00000000E+01  0.00000000E+00
  8.60000000E+02  8.80000000E+01  0.00000000E+00
  8.60000000E+02  8.60000000E+01  0.00000000E+00
  8.60000000E+02  8.40000000E+01  0.00000000E+00
  8.60000000E+02  8.20000000E+01  0.00000000E+00
  8.60000000E+02  8.00000000E+01  0.00000000E+00
  8.60000000E+02  7.80000000E+01  0.00000000E+00
  8.60000000E+02  7.60000000E+01  0.00000000E+00
  8.60000000E+02  7.40000000E+01  0.00000000E+00
  8.60000000E+02  7.20000000E+01  0.00000000E+00
  8.60000000E+02  7.00000000E+01  0.00000000E+00
  8.60000000E+02  6.80000000E+01  0.00000000E+00
  8.60000000E+02  6.60000000E+01  0.00000000E+00
  8.60000000E+02  6.40000000E+01  0.00000000E+00
  8.60000000E+02  6.20000000E+01  0.00000000E+00
  8.60000000E+02  6.00000000E+01  0.00000000E+00
  8.60000000E+02  5.80000000E+01  0.00000000E+00
  8.60000000E+02  5.60000000E+01  0.00000000E+00
  8.60000000E+02  5.40000000E+01  0.00000000E+00
  8.60000000E+02  5.20000000E+01  0.00000000E+00
  8.60000000E+02  5.00000000E+01  0.00000000E+00
  8.60000000E+02  4.80000000E+01  0.00000000E+00
  8.60000000E+02  4.60000000E+01  0.00000000E+00
  8.60000000E+02  4.40000000E+01  0.00000000E+00
  8.60000000E+02  4.20000000E+01  0.00000000E+00
  8.60000000E+02  4.00000000E+01  0.00000000E+00
  8.60000000E+02  3.80000000E+01  0.00000000E+00
  8.60000000E+02  3.60000000E+01  0.00000000E+00
  8.60000000E+02  3.40000000E+01  0.00000000E+00
  8.60000000E+02  3.20000000E+01  0.00000000E+00
  8.60000000E+02  3.00000000E+01  0.00000000E+00
  8.60000000E+02  2.80000000E+01  0.00000000E+00
  8.60000000E+02  2.60000000E+01  0.00000000E+00
  8.60000000E+02  2.40000000E+01  0.00000000E+00
  8.60000000E+02  2.20000000E+01  0.00000000E+00
  8.60000000E+02  2.00000000E+01  0.00000000E+00
  8.60000000E+02  1.80000000E+01  0.00000000E+00
  8.60000000E+02  1.60000000E+01  0.00000000E+00
  8.60000000E+02  1.40000000E+01  0.00000000E+00
  8.60000000E+02  1.20000000E+01  0.00000000E+00
  8.60000000E+02  1.00000000E+01  0.00000000E+00
  8.60000000E+02  8.00000000E+00  0.00000000E+00
  8.60000000E+02  6.00000000E+00  0.00000000E+00
  8.60000000E+02  4.00000000E+00  0.00000000E+00
  8.60000000E+02  2.00000000E+00  0.00000000E+00
  8.60000000E+02 -3.33066907E-14  0.00000000E+00
  8.70000000E+02  1.00000000E+02  0.00000000E+00
  8.70000000E+02  9.80000000E+01  0.00000000E+00
  8.70000000E+02  9.60000000E+01  0.00000000E+00
  8.70000000E+02  9.40000000E+01  0.00000000E+00
  8.70000000E+02  9.20000000E+01  0.00000000E+00
  8.70000000E+02  9.00000000E+01  0.00000000E+00
  8.70000000E+02  8.80000000E+01  0.00000000E+00
  8.70000000E+02  8.60000000E+01  0.00000000E+00
  8.70000000E+02  8.40000000E+01  0.00000000E+00
  8.70000000E+02  8.20000000E+01  0.00000000E+00
  8.70000000E+02  8.00000000E+01  0.00000000E+00
  8.70000000E+02  7.80000000E+01  0.00000000E+00
  8.70000000E+02  7.60000000E+01  0.00000000E+00
  8.70000000E+02  7.40000000E+01  0.00000000E+00
  8.70000000E+02  7.20000000E+01  0.00000000E+00
  8.70000000E+02  7.00000000E+01  0.00000000E+00
  8.70000000E+02  6.80000000E+01  0.00000000E+00
  8.70000000E+02  6.60000000E+01  0.00000000E+00
  8.70000000E+02  6.40000000E+01  0.00000000E+00
  8.70000000E+02  6.20000000E+01  0.00000000E+00
  8.70000000E+02  6.00000000E+01  0.00000000E+00
  8.70000000E+02  5.80000000E+01  0.00000000E+00
  8.70000000E+02  5.60000000E+01  0.00000000E+00
  8.70000000E+02  5.40000000E+01  0.00000000E+00
  8.70000000E+02  5.20000000E+01  0.00000000E+00
  8.70000000E+02  5.00000000E+01  0.00000000E+00
  8.70000000E+02  4.80000000E+01  0.00000000E+00
  8.70000000E+02  4.60000000E+01  0.00000000E+00
  8.70000000E+02  4.40000000E+01  0.00000000E+00
  8.70000000E+02  4.20000000E+01  0.00000000E+00
  8.70000000E+02  4.00000000E+01  0.00000000E+00
  8.70000000E+02  3.80000000E+01  0.00000000E+00
  8.70000000E+02  3.60000000E+01  0.00000000E+00
  8.70000000E+02  3.40000000E+01  0.00000000E+00
  8.70000000E+02  3.20000000E+01  0.00000000E+00
  8.70000000E+02  3.00000000E+01  0.00000000E+00
  8.70000000E+02  2.80000000E+01  0.00000000E+00
  8.70000000E+02  2.60000000E+01  0.00000000E+00
  8.70000000E+02  2.40000000E+01  0.00000000E+00
  8.70000000E+02  2.20000000E+01  0.00000000E+00
  8.70000000E+02  2.00000000E+01  0.00000000E+00
  8.70000000E+02  1.80000000E+01  0.00000000E+00
  8.70000000E+02  1.60000000E+01  0.00000000E+00
  8.70000000E+02  1.40000000E+01  0.00000000E+00
  8.70000000E+02  1.20000000E+01  0.00000000E+00
  8.70000000E+02  1.00000000E+01  0.00000000E+00
  8.70000000E+02  8.00000000E+00  0.00000000E+00
  8.70000000E+02  6.00000000E+00  0.00000000E+00
  8.70000000E+02  4.00000000E+00  0.00000000E+00
  8.70000000E+02  2.00000000E+00  0.00000000E+00
  8.70000000E+02 -3.33066907E-14  0.00000000E+00
  8.80000000E+02  1.00000000E+02  0.00000000E+00
  8.80000000E+02  9.80000000E+01  0.00000000E+00
  8.80000000E+02  9.60000000E+01  0.00000000E+00
  8.80000000E+02  9.40000000E+01  0.00000000E+00
  8.80000000E+02  9.20000000E+01  0.00000000E+00
  8.80000000E+02  9.00000000E+01  0.00000000E+00
  8.80000000E+02  8.80000000E+01  0.00000000E+00
  8.80000000E+02  8.60000000E+01  0.00000000E+00
  8.80000000E+02  8.40000000E+01  0.00000000E+00
  8.80000000E+02  8.20000000E+01  0.00000000E+00
  8.80000000E+02  8.00000000E+01  0.00000000E+00
  8.80000000E+02  7.80000000E+01  0.00000000E+00
  8.80000000E+02  7.60000000E+01  0.00000000E+00
  8.80000000E+02  7.40000000E+01  0.00000000E+00
  8.80000000E+02  7.20000000E+01  0.00000000E+00
  8.80000000E+02  7.00000000E+01  0.00000000E+00
  8.80000000E+02  6.80000000E+01  0.00000000E+00
  8.80000000E+02  6.60000000E+01  0.00000000E+00
  8.80000000E+02  6.40000000E+01  0.00000000E+00
  8.80000000E+02  6.20000000E+01  0.00000000E+00
  8.80000000E+02  6.00000000E+01  0.00000000E+00
  8.80000000E+02  5.80000000E+01  0.00000000E+00
  8.80000000E+02  5.60000000E+01  0.00000000E+00
  8.80000000E+02  5.40000000E+01  0.00000000E+00
  8.80000000E+02  5.20000000E+01  0.00000000E+00
  8.80000000E+02  5.00000000E+01  0.00000000E+00
  8.80000000E+02  4.80000000E+01  0.00000000E+00
  8.80000000E+02  4.60000000E+01  0.00000000E+00
  8.80000000E+02  4.40000000E+01  0.00000000E+00
  8.80000000E+02  4.20000000E+01  0.00000000E+00
  8.80000000E+02  4.00000000E+01  0.00000000E+00
  8.80000000E+02  3.80000000E+01  0.00000000E+00
  8.80000000E+02  3.60000000E+01  0.00000000E+00
  8.80000000E+02  3.40000000E+01  0.00000000E+00
  8.80000000E+02  3.20000000E+01  0.00000000E+00
  8.80000000E+02  3.00000000E+01  0.00000000E+00
  8.80000000E+02  2.80000000E+01  0.00000000E+00
  8.80000000E+02  2.60000000E+01  0.00000000E+00
  8.80000000E+02  2.40000000E+01  0.00000000E+00
  8.80000000E+02  2.20000000E+01  0.00000000E+00
  8.80000000E+02  2.00000000E+01  0.00000000E+00
  8.80000000E+02  1.80000000E+01  0.00000000E+00
  8.80000000E+02  1.60000000E+01  0.00000000E+00
  8.80000000E+02  1.40000000E+01  0.00000000E+00
  8.80000000E+02  1.20000000E+01  0.00000000E+00
  8.80000000E+02  1.00000000E+01  0.00000000E+00
  8.80000000E+02  8.00000000E+00  0.00000000E+00
  8.80000000E+02  6.00000000E+00  0.00000000E+00
  8.80000000E+02  4.00000000E+00  0.00000000E+00
  8.80000000E+02  2.00000000E+00  0.00000000E+00
  8.80000000E+02 -3.33066907E-14  0.00000000E+00
  8.90000000E+02  1.00000000E+02  0.00000000E+00
  8.90000000E+02  9.80000000E+01  0.00000000E+00
  8.90000000E+02  9.60000000E+01  0.00000000E+00
  8.90000000E+02  9.40000000E+01  0.00000000E+00
  8.90000000E+02  9.20000000E+01  0.00000000E+00
  8.90000000E+02  9.00000000E+01  0.00000000E+00
  8.90000000E+02  8.80000000E+01  0.00000000E+00
  8.90000000E+02  8.60000000E+01  0.00000000E+00
  8.90000000E+02  8.40000000E+01  0.00000000E+00
  8.90000000E+02  8.20000000E+01  0.00000000E+00
  8.90000000E+02  8.00000000E+01  0.00000000E+00
  8.90000000E+02  7.80000000E+01  0.00000000E+00
  8.90000000E+02  7.60000000E+01  0.00000000E+00
  8.90000000E+02  7.40000000E+01  0.00000000E+00
  8.90000000E+02  7.20000000E+01  0.00000000E+00
  8.90000000E+02  7.00000000E+01  0.00000000E+00
  8.90000000E+02  6.80000000E+01  0.00000000E+00
  8.90000000E+02  6.60000000E+01  0.00000000E+00
  8.90000000E+02  6.40000000E+01  0.00000000E+00
  8.90000000E+02  6.20000000E+01  0.00000000E+00
  8.90000000E+02  6.00000000E+01  0.00000000E+00
  8.90000000E+02  5.80000000E+01  0.00000000E+00
  8.90000000E+02  5.60000000E+01  0.00000000E+00
  8.90000000E+02  5.40000000E+01  0.00000000E+00
  8.90000000E+02  5.20000000E+01  0.00000000E+00
  8.90000000E+02  5.00000000E+01  0.00000000E+00
  8.90000000E+02  4.80000000E+01  0.00000000E+00
  8.90000000E+02  4.60000000E+01  0.00000000E+00
  8.90000000E+02  4.40000000E+01  0.00000000E+00
  8.90000000E+02  4.20000000E+01  0.00000000E+00
  8.90000000E+02  4.00000000E+01  0.00000000E+00
  8.90000000E+02  3.80000000E+01  0.00000000E+00
  8.90000000E+02  3.60000000E+01  0.00000000E+00
  8.90000000E+02  3.40000000E+01  0.00000000E+00
  8.90000000E+02  3.20000000E+01  0.00000000E+00
  8.90000000E+02  3.00000000E+01  0.00000000E+00
  8.90000000E+02  2.80000000E+01  0.00000000E+00
  8.90000000E+02  2.60000000E+01  0.00000000E+00
  8.90000000E+02  2.40000000E+01  0.00000000E+00
  8.90000000E+02  2.20000000E+01  0.00000000E+00
  8.90000000E+02  2.00000000E+01  0.00000000E+00
  8.90000000E+02  1.80000000E+01  0.00000000E+00
  8.90000000E+02  1.60000000E+01  0.00000000E+00
  8.90000000E+02  1.40000000E+01  0.00000000E+00
  8.90000000E+02  1.20000000E+01  0.00000000E+00
  8.90000000E+02  1.00000000E+01  0.00000000E+00
  8.90000000E+02  8.00000000E+00  0.00000000E+00
  8.90000000E+02  6.00000000E+00  0.00000000E+00
  8.90000000E+02  4.00000000E+00  0.00000000E+00
  8.90000000E+02  2.00000000E+00  0.00000000E+00
  8.90000000E+02 -3.33066907E-14  0.00000000E+00
  9.00000000E+02  1.00000000E+02  0.00000000E+00
  9.00000000E+02  9.80000000E+01  0.00000000E+00
  9.00000000E+02  9.60000000E+01  0.00000000E+00
  9.00000000E+02  9.40000000E+01  0.00000000E+00
  9.00000000E+02  9.20000000E+01  0.00000000E+00
  9.00000000E+02  9.00000000E+01  0.00000000E+00
  9.00000000E+02  8.80000000E+01  0.00000000E+00
  9.00000000E+02  8.60000000E+01  0.00000000E+00
  9.00000000E+02  8.40000000E+01  0.00000000E+00
  9.00000000E+02  8.20000000E+01  0.00000000E+00
  9.00000000E+02  8.00000000E+01  0.00000000E+00
  9.00000000E+02  7.80000000E+01  0.00000000E+00
  9.00000000E+02  7.60000000E+01  0.00000000E+00
  9.00000000E+02  7.40000000E+01  0.00000000E+00
  9.00000000E+02  7.20000000E+01  0.00000000E+00
  9.00000000E+02  7.00000000E+01  0.00000000E+00
  9.00000000E+02  6.80000000E+01  0.00000000E+00
  9.00000000E+02  6.60000000E+01  0.00000000E+00
  9.00000000E+02  6.40000000E+01  0.00000000E+00
  9.00000000E+02  6.20000000E+01  0.00000000E+00
  9.00000000E+02  6.00000000E+01  0.00000000E+00
  9.00000000E+02  5.80000000E+01  0.00000000E+00
  9.00000000E+02  5.60000000E+01  0.00000000E+00
  9.00000000E+02  5.40000000E+01  0.00000000E+00
  9.00000000E+02  5.20000000E+01  0.00000000E+00
  9.00000000E+02  5.00000000E+01  0.00000000E+00
  9.00000000E+02  4.80000000E+01  0.00000000E+00
  9.00000000E+02  4.60000000E+01  0.00000000E+00
  9.00000000E+02  4.40000000E+01  0.00000000E+00
  9.00000000E+02  4.20000000E+01  0.00000000E+00
  9.00000000E+02  4.00000000E+01  0.00000000E+00
  9.00000000E+02  3.80000000E+01  0.00000000E+00
  9.00000000E+02  3.60000000E+01  0.00000000E+00
  9.00000000E+02  3.40000000E+01  0.00000000E+00
  9.00000000E+02  3.20000000E+01  0.00000000E+00
  9.00000000E+02  3.00000000E+01  0.00000000E+00
  9.00000000E+02  2.80000000E+01  0.00000000E+00
  9.00000000E+02  2.60000000E+01  0.00000000E+00
  9.00000000E+02  2.40000000E+01  0.00000000E+00
  9.00000000E+02  2.20000000E+01  0.00000000E+00
  9.00000000E+02  2.00000000E+01  0.00000000E+00
  9.00000000E+02  1.80000000E+01  0.00000000E+00
  9.00000000E+02  1.60000000E+01  0.00000000E+00
  9.00000000E+02  1.40000000E+01  0.00000000E+00
  9.00000000E+02  1.20000000E+01  0.00000000E+00
  9.00000000E+02  1.00000000E+01  0.00000000E+00
  9.00000000E+02  8.00000000E+00  0.00000000E+00
  9.00000000E+02  6.00000000E+00  0.00000000E+00
  9.00000000E+02  4.00000000E+00  0.00000000E+00
  9.00000000E+02  2.00000000E+00  0.00000000E+00
  9.00000000E+02 -3.33066907E-14  0.00000000E+00
  9.10000000E+02  1.00000000E+02  0.00000000E+00
  9.10000000E+02  9.80000000E+01  0.00000000E+00
  9.10000000E+02  9.60000000E+01  0.00000000E+00
  9.10000000E+02  9.40000000E+01  0.00000000E+00
  9.10000000E+02  9.20000000E+01  0.00000000E+00
  9.10000000E+02  9.00000000E+01  0.00000000E+00
  9.10000000E+02  8.80000000E+01  0.00000000E+00
  9.10000000E+02  8.60000000E+01  0.00000000E+00
  9.10000000E+02  8.40000000E+01  0.00000000E+00
  9.10000000E+02  8.20000000E+01  0.00000000E+00
  9.10000000E+02  8.00000000E+01  0.00000000E+00
  9.10000000E+02  7.80000000E+01  0.00000000E+00
  9.10000000E+02  7.60000000E+01  0.00000000E+00
  9.10000000E+02  7.40000000E+01  0.00000000E+00
  9.10000000E+02  7.20000000E+01  0.00000000E+00
  9.10000000E+02  7.00000000E+01  0.00000000E+00
  9.10000000E+02  6.80000000E+01  0.00000000E+00
  9.10000000E+02  6.60000000E+01  0.00000000E+00
  9.10000000E+02  6.40000000E+01  0.00000000E+00
  9.10000000E+02  6.20000000E+01  0.00000000E+00
  9.10000000E+02  6.00000000E+01  0.00000000E+00
  9.10000000E+02  5.80000000E+01  0.00000000E+00
  9.10000000E+02  5.60000000E+01  0.00000000E+00
  9.10000000E+02  5.40000000E+01  0.00000000E+00
  9.10000000E+02  5.20000000E+01  0.00000000E+00
  9.10000000E+02  5.00000000E+01  0.00000000E+00
  9.10000000E+02  4.80000000E+01  0.00000000E+00
  9.10000000E+02  4.60000000E+01  0.00000000E+00
  9.10000000E+02  4.40000000E+01  0.00000000E+00
  9.10000000E+02  4.20000000E+01  0.00000000E+00
  9.10000000E+02  4.00000000E+01  0.00000000E+00
  9.10000000E+02  3.80000000E+01  0.00000000E+00
  9.10000000E+02  3.60000000E+01  0.00000000E+00
  9.10000000E+02  3.40000000E+01  0.00000000E+00
  9.10000000E+02  3.20000000E+01  0.00000000E+00
  9.10000000E+02  3.00000000E+01  0.00000000E+00
  9.10000000E+02  2.80000000E+01  0.00000000E+00
  9.10000000E+02  2.60000000E+01  0.00000000E+00
  9.10000000E+02  2.40000000E+01  0.00000000E+00
  9.10000000E+02  2.20000000E+01  0.00000000E+00
  9.10000000E+02  2.00000000E+01  0.00000000E+00
  9.10000000E+02  1.80000000E+01  0.00000000E+00
  9.10000000E+02  1.60000000E+01  0.00000000E+00
  9.10000000E+02  1.40000000E+01  0.00000000E+00
  9.10000000E+02  1.20000000E+01  0.00000000E+00
  9.10000000E+02  1.00000000E+01  0.00000000E+00
  9.10000000E+02  8.00000000E+00  0.00000000E+00
  9.10000000E+02  6.00000000E+00  0.00000000E+00
  9.10000000E+02  4.00000000E+00  0.00000000E+00
  9.10000000E+02  2.00000000E+00  0.00000000E+00
  9.10000000E+02 -3.33066907E-14  0.00000000E+00
  9.20000000E+02  1.00000000E+02  0.00000000E+00
  9.20000000E+02  9.80000000E+01  0.00000000E+00
  9.20000000E+02  9.60000000E+01  0.00000000E+00
  9.20000000E+02  9.40000000E+01  0.00000000E+00
  9.20000000E+02  9.20000000E+01  0.00000000E+00
  9.20000000E+02  9.00000000E+01  0.00000000E+00
  9.20000000E+02  8.80000000E+01  0.00000000E+00
  9.20000000E+02  8.60000000E+01  0.00000000E+00
  9.20000000E+02  8.40000000E+01  0.00000000E+00
  9.20000000E+02  8.20000000E+01  0.00000000E+00
  9.20000000E+02  8.00000000E+01  0.00000000E+00
  9.20000000E+02  7.80000000E+01  0.00000000E+00
  9.20000000E+02  7.60000000E+01  0.00000000E+00
  9.20000000E+02  7.40000000E+01  0.00000000E+00
  9.20000000E+02  7.20000000E+01  0.00000000E+00
  9.20000000E+02  7.00000000E+01  0.00000000E+00
  9.20000000E+02  6.80000000E+01  0.00000000E+00
  9.20000000E+02  6.60000000E+01  0.00000000E+00
  9.20000000E+02  6.40000000E+01  0.00000000E+00
  9.20000000E+02  6.20000000E+01  0.00000000E+00
  9.20000000E+02  6.00000000E+01  0.00000000E+00
  9.20000000E+02  5.80000000E+01  0.00000000E+00
  9.20000000E+02  5.60000000E+01  0.00000000E+00
  9.20000000E+02  5.40000000E+01  0.00000000E+00
  9.20000000E+02  5.20000000E+01  0.00000000E+00
  9.20000000E+02  5.00000000E+01  0.00000000E+00
  9.20000000E+02  4.80000000E+01  0.00000000E+00
  9.20000000E+02  4.60000000E+01  0.00000000E+00
  9.20000000E+02  4.40000000E+01  0.00000000E+00
  9.20000000E+02  4.20000000E+01  0.00000000E+00
  9.20000000E+02  4.00000000E+01  0.00000000E+00
  9.20000000E+02  3.80000000E+01  0.00000000E+00
  9.20000000E+02  3.60000000E+01  0.00000000E+00
  9.20000000E+02  3.40000000E+01  0.00000000E+00
  9.20000000E+02  3.20000000E+01  0.00000000E+00
  9.20000000E+02  3.00000000E+01  0.00000000E+00
  9.20000000E+02  2.80000000E+01  0.00000000E+00
  9.20000000E+02  2.60000000E+01  0.00000000E+00
  9.20000000E+02  2.40000000E+01  0.00000000E+00
  9.20000000E+02  2.20000000E+01  0.00000000E+00
  9.20000000E+02  2.00000000E+01  0.00000000E+00
  9.20000000E+02  1.80000000E+01  0.00000000E+00
  9.20000000E+02  1.60000000E+01  0.00000000E+00
  9.20000000E+02  1.40000000E+01  0.00000000E+00
  9.20000000E+02  1.20000000E+01  0.00000000E+00
  9.20000000E+02  1.00000000E+01  0.00000000E+00
  9.20000000E+02  8.00000000E+00  0.00000000E+00
  9.20000000E+02  6.00000000E+00  0.00000000E+00
  9.20000000E+02  4.00000000E+00  0.00000000E+00
  9.20000000E+02  2.00000000E+00  0.00000000E+00
  9.20000000E+02 -3.33066907E-14  0.00000000E+00
  9.30000000E+02  1.00000000E+02  0.00000000E+00
  9.30000000E+02  9.80000000E+01  0.00000000E+00
  9.30000000E+02  9.60000000E+01  0.00000000E+00
  9.30000000E+02  9.40000000E+01  0.00000000E+00
  9.30000000E+02  9.20000000E+01  0.00000000E+00
  9.30000000E+02  9.00000000E+01  0.00000000E+00
  9.30000000E+02  8.80000000E+01  0.00000000E+00
  9.30000000E+02  8.60000000E+01  0.00000000E+00
  9.30000000E+02  8.40000000E+01  0.00000000E+00
  9.30000000E+02  8.20000000E+01  0.00000000E+00
  9.30000000E+02  8.00000000E+01  0.00000000E+00
  9.30000000E+02  7.80000000E+01  0.00000000E+00
  9.30000000E+02  7.60000000E+01  0.00000000E+00
  9.30000000E+02  7.40000000E+01  0.00000000E+00
  9.30000000E+02  7.20000000E+01  0.00000000E+00
  9.30000000E+02  7.00000000E+01  0.00000000E+00
  9.30000000E+02  6.80000000E+01  0.00000000E+00
  9.30000000E+02  6.60000000E+01  0.00000000E+00
  9.30000000E+02  6.40000000E+01  0.00000000E+00
  9.30000000E+02  6.20000000E+01  0.00000000E+00
  9.30000000E+02  6.00000000E+01  0.00000000E+00
  9.30000000E+02  5.80000000E+01  0.00000000E+00
  9.30000000E+02  5.60000000E+01  0.00000000E+00
  9.30000000E+02  5.40000000E+01  0.00000000E+00
  9.30000000E+02  5.20000000E+01  0.00000000E+00
  9.30000000E+02  5.00000000E+01  0.00000000E+00
  9.30000000E+02  4.80000000E+01  0.00000000E+00
  9.30000000E+02  4.60000000E+01  0.00000000E+00
  9.30000000E+02  4.40000000E+01  0.00000000E+00
  9.30000000E+02  4.20000000E+01  0.00000000E+00
  9.30000000E+02  4.00000000E+01  0.00000000E+00
  9.30000000E+02  3.80000000E+01  0.00000000E+00
  9.30000000E+02  3.60000000E+01  0.00000000E+00
  9.30000000E+02  3.40000000E+01  0.00000000E+00
  9.30000000E+02  3.20000000E+01  0.00000000E+00
  9.30000000E+02  3.00000000E+01  0.00000000E+00
  9.30000000E+02  2.80000000E+01  0.00000000E+00
  9.30000000E+02  2.60000000E+01  0.00000000E+00
  9.30000000E+02  2.40000000E+01  0.00000000E+00
  9.30000000E+02  2.20000000E+01  0.00000000E+00
  9.30000000E+02  2.00000000E+01  0.00000000E+00
  9.30000000E+02  1.80000000E+01  0.00000000E+00
  9.30000000E+02  1.60000000E+01  0.00000000E+00
  9.30000000E+02  1.40000000E+01  0.00000000E+00
  9.30000000E+02  1.20000000E+01  0.00000000E+00
  9.30000000E+02  1.00000000E+01  0.00000000E+00
  9.30000000E+02  8.00000000E+00  0.00000000E+00
  9.30000000E+02  6.00000000E+00  0.00000000E+00
  9.30000000E+02  4.00000000E+00  0.00000000E+00
  9.30000000E+02  2.00000000E+00  0.00000000E+00
  9.30000000E+02 -3.33066907E-14  0.00000000E+00
  9.40000000E+02  1.00000000E+02  0.00000000E+00
  9.40000000E+02  9.80000000E+01  0.00000000E+00
  9.40000000E+02  9.60000000E+01  0.00000000E+00
  9.40000000E+02  9.40000000E+01  0.00000000E+00
  9.40000000E+02  9.20000000E+01  0.00000000E+00
  9.40000000E+02  9.00000000E+01  0.00000000E+00
  9.40000000E+02  8.80000000E+01  0.00000000E+00
  9.40000000E+02  8.60000000E+01  0.00000000E+00
  9.40000000E+02  8.40000000E+01  0.00000000E+00
  9.40000000E+02  8.20000000E+01  0.00000000E+00
  9.40000000E+02  8.00000000E+01  0.00000000E+00
  9.40000000E+02  7.80000000E+01  0.00000000E+00
  9.40000000E+02  7.60000000E+01  0.00000000E+00
  9.40000000E+02  7.40000000E+01  0.00000000E+00
  9.40000000E+02  7.20000000E+01  0.00000000E+00
  9.40000000E+02  7.00000000E+01  0.00000000E+00
  9.40000000E+02  6.80000000E+01  0.00000000E+00
  9.40000000E+02  6.60000000E+01  0.00000000E+00
  9.40000000E+02  6.40000000E+01  0.00000000E+00
  9.40000000E+02  6.20000000E+01  0.00000000E+00
  9.40000000E+02  6.00000000E+01  0.00000000E+00
  9.40000000E+02  5.80000000E+01  0.00000000E+00
  9.40000000E+02  5.60000000E+01  0.00000000E+00
  9.40000000E+02  5.40000000E+01  0.00000000E+00
  9.40000000E+02  5.20000000E+01  0.00000000E+00
  9.40000000E+02  5.00000000E+01  0.00000000E+00
  9.40000000E+02  4.80000000E+01  0.00000000E+00
  9.40000000E+02  4.60000000E+01  0.00000000E+00
  9.40000000E+02  4.40000000E+01  0.00000000E+00
  9.40000000E+02  4.20000000E+01  0.00000000E+00
  9.40000000E+02  4.00000000E+01  0.00000000E+00
  9.40000000E+02  3.80000000E+01  0.00000000E+00
  9.40000000E+02  3.60000000E+01  0.00000000E+00
  9.40000000E+02  3.40000000E+01  0.00000000E+00
  9.40000000E+02  3.20000000E+01  0.00000000E+00
  9.40000000E+02  3.00000000E+01  0.00000000E+00
  9.40000000E+02  2.80000000E+01  0.00000000E+00
  9.40000000E+02  2.60000000E+01  0.00000000E+00
  9.40000000E+02  2.40000000E+01  0.00000000E+00
  9.40000000E+02  2.20000000E+01  0.00000000E+00
  9.40000000E+02  2.00000000E+01  0.00000000E+00
  9.40000000E+02  1.80000000E+01  0.00000000E+00
  9.40000000E+02  1.60000000E+01  0.00000000E+00
  9.40000000E+02  1.40000000E+01  0.00000000E+00
  9.40000000E+02  1.20000000E+01  0.00000000E+00
  9.40000000E+02  1.00000000E+01  0.00000000E+00
  9.40000000E+02  8.00000000E+00  0.00000000E+00
  9.40000000E+02  6.00000000E+00  0.00000000E+00
  9.40000000E+02  4.00000000E+00  0.00000000E+00
  9.40000000E+02  2.00000000E+00  0.00000000E+00
  9.40000000E+02 -3.33066907E-14  0.00000000E+00
  9.50000000E+02  1.00000000E+02  0.00000000E+00
  9.50000000E+02  9.80000000E+01  0.00000000E+00
  9.50000000E+02  9.60000000E+01  0.00000000E+00
  9.50000000E+02  9.40000000E+01  0.00000000E+00
  9.50000000E+02  9.20000000E+01  0.00000000E+00
  9.50000000E+02  9.00000000E+01  0.00000000E+00
  9.50000000E+02  8.80000000E+01  0.00000000E+00
  9.50000000E+02  8.60000000E+01  0.00000000E+00
  9.50000000E+02  8.40000000E+01  0.00000000E+00
  9.50000000E+02  8.20000000E+01  0.00000000E+00
  9.50000000E+02  8.00000000E+01  0.00000000E+00
  9.50000000E+02  7.80000000E+01  0.00000000E+00
  9.50000000E+02  7.60000000E+01  0.00000000E+00
  9.50000000E+02  7.40000000E+01  0.00000000E+00
  9.50000000E+02  7.20000000E+01  0.00000000E+00
  9.50000000E+02  7.00000000E+01  0.00000000E+00
  9.50000000E+02  6.80000000E+01  0.00000000E+00
  9.50000000E+02  6.60000000E+01  0.00000000E+00
  9.50000000E+02  6.40000000E+01  0.00000000E+00
  9.50000000E+02  6.20000000E+01  0.00000000E+00
  9.50000000E+02  6.00000000E+01  0.00000000E+00
  9.50000000E+02  5.80000000E+01  0.00000000E+00
  9.50000000E+02  5.60000000E+01  0.00000000E+00
  9.50000000E+02  5.40000000E+01  0.00000000E+00
  9.50000000E+02  5.20000000E+01  0.00000000E+00
  9.50000000E+02  5.00000000E+01  0.00000000E+00
  9.50000000E+02  4.80000000E+01  0.00000000E+00
  9.50000000E+02  4.60000000E+01  0.00000000E+00
  9.50000000E+02  4.40000000E+01  0.00000000E+00
  9.50000000E+02  4.20000000E+01  0.00000000E+00
  9.50000000E+02  4.00000000E+01  0.00000000E+00
  9.50000000E+02  3.80000000E+01  0.00000000E+00
  9.50000000E+02  3.60000000E+01  0.00000000E+00
  9.50000000E+02  3.40000000E+01  0.00000000E+00
  9.50000000E+02  3.20000000E+01  0.00000000E+00
  9.50000000E+02  3.00000000E+01  0.00000000E+00
  9.50000000E+02  2.80000000E+01  0.00000000E+00
  9.50000000E+02  2.60000000E+01  0.00000000E+00
  9.50000000E+02  2.40000000E+01  0.00000000E+00
  9.50000000E+02  2.20000000E+01  0.00000000E+00
  9.50000000E+02  2.00000000E+01  0.00000000E+00
  9.50000000E+02  1.80000000E+01  0.00000000E+00
  9.50000000E+02  1.60000000E+01  0.00000000E+00
  9.50000000E+02  1.40000000E+01  0.00000000E+00
  9.50000000E+02  1.20000000E+01  0.00000000E+00
  9.50000000E+02  1.00000000E+01  0.00000000E+00
  9.50000000E+02  8.00000000E+00  0.00000000E+00
  9.50000000E+02  6.00000000E+00  0.00000000E+00
  9.50000000E+02  4.00000000E+00  0.00000000E+00
  9.50000000E+02  2.00000000E+00  0.00000000E+00
  9.50000000E+02 -3.33066907E-14  0.00000000E+00
  9.60000000E+02  1.00000000E+02  0.00000000E+00
  9.60000000E+02  9.80000000E+01  0.00000000E+00
  9.60000000E+02  9.60000000E+01  0.00000000E+00
  9.60000000E+02  9.40000000E+01  0.00000000E+00
  9.60000000E+02  9.20000000E+01  0.00000000E+00
  9.60000000E+02  9.00000000E+01  0.00000000E+00
  9.60000000E+02  8.80000000E+01  0.00000000E+00
  9.60000000E+02  8.60000000E+01  0.00000000E+00
  9.60000000E+02  8.40000000E+01  0.00000000E+00
  9.60000000E+02  8.20000000E+01  0.00000000E+00
  9.60000000E+02  8.00000000E+01  0.00000000E+00
  9.60000000E+02  7.80000000E+01  0.00000000E+00
  9.60000000E+02  7.60000000E+01  0.00000000E+00
  9.60000000E+02  7.40000000E+01  0.00000000E+00
  9.60000000E+02  7.20000000E+01  0.00000000E+00
  9.60000000E+02  7.00000000E+01  0.00000000E+00
  9.60000000E+02  6.80000000E+01  0.00000000E+00
  9.60000000E+02  6.60000000E+01  0.00000000E+00
  9.60000000E+02  6.40000000E+01  0.00000000E+00
  9.60000000E+02  6.20000000E+01  0.00000000E+00
  9.60000000E+02  6.00000000E+01  0.00000000E+00
  9.60000000E+02  5.80000000E+01  0.00000000E+00
  9.60000000E+02  5.60000000E+01  0.00000000E+00
  9.60000000E+02  5.40000000E+01  0.00000000E+00
  9.60000000E+02  5.20000000E+01  0.00000000E+00
  9.60000000E+02  5.00000000E+01  0.00000000E+00
  9.60000000E+02  4.80000000E+01  0.00000000E+00
  9.60000000E+02  4.60000000E+01  0.00000000E+00
  9.60000000E+02  4.40000000E+01  0.00000000E+00
  9.60000000E+02  4.20000000E+01  0.00000000E+00
  9.60000000E+02  4.00000000E+01  0.00000000E+00
  9.60000000E+02  3.80000000E+01  0.00000000E+00
  9.60000000E+02  3.60000000E+01  0.00000000E+00
  9.60000000E+02  3.40000000E+01  0.00000000E+00
  9.60000000E+02  3.20000000E+01  0.00000000E+00
  9.60000000E+02  3.00000000E+01  0.00000000E+00
  9.60000000E+02  2.80000000E+01  0.00000000E+00
  9.60000000E+02  2.60000000E+01  0.00000000E+00
  9.60000000E+02  2.40000000E+01  0.00000000E+00
  9.60000000E+02  2.20000000E+01  0.00000000E+00
  9.60000000E+02  2.00000000E+01  0.00000000E+00
  9.60000000E+02  1.80000000E+01  0.00000000E+00
  9.60000000E+02  1.60000000E+01  0.00000000E+00
  9.60000000E+02  1.40000000E+01  0.00000000E+00
  9.60000000E+02  1.20000000E+01  0.00000000E+00
  9.60000000E+02  1.00000000E+01  0.00000000E+00
  9.60000000E+02  8.00000000E+00  0.00000000E+00
  9.60000000E+02  6.00000000E+00  0.00000000E+00
  9.60000000E+02  4.00000000E+00  0.00000000E+00
  9.60000000E+02  2.00000000E+00  0.00000000E+00
  9.60000000E+02 -3.33066907E-14  0.00000000E+00
  9.70000000E+02  1.00000000E+02  0.00000000E+00
  9.70000000E+02  9.80000000E+01  0.00000000E+00
  9.70000000E+02  9.60000000E+01  0.00000000E+00
  9.70000000E+02  9.40000000E+01  0.00000000E+00
  9.70000000E+02  9.20000000E+01  0.00000000E+00
  9.70000000E+02  9.00000000E+01  0.00000000E+00
  9.70000000E+02  8.80000000E+01  0.00000000E+00
  9.70000000E+02  8.60000000E+01  0.00000000E+00
  9.70000000E+02  8.40000000E+01  0.00000000E+00
  9.70000000E+02  8.20000000E+01  0.00000000E+00
  9.70000000E+02  8.00000000E+01  0.00000000E+00
  9.70000000E+02  7.80000000E+01  0.00000000E+00
  9.70000000E+02  7.60000000E+01  0.00000000E+00
  9.70000000E+02  7.40000000E+01  0.00000000E+00
  9.70000000E+02  7.20000000E+01  0.00000000E+00
  9.70000000E+02  7.00000000E+01  0.00000000E+00
  9.70000000E+02  6.80000000E+01  0.00000000E+00
  9.70000000E+02  6.60000000E+01  0.00000000E+00
  9.70000000E+02  6.40000000E+01  0.00000000E+00
  9.70000000E+02  6.20000000E+01  0.00000000E+00
  9.70000000E+02  6.00000000E+01  0.00000000E+00
  9.70000000E+02  5.80000000E+01  0.00000000E+00
  9.70000000E+02  5.60000000E+01  0.00000000E+00
  9.70000000E+02  5.40000000E+01  0.00000000E+00
  9.70000000E+02  5.20000000E+01  0.00000000E+00
  9.70000000E+02  5.00000000E+01  0.00000000E+00
  9.70000000E+02  4.80000000E+01  0.00000000E+00
  9.70000000E+02  4.60000000E+01  0.00000000E+00
  9.70000000E+02  4.40000000E+01  0.00000000E+00
  9.70000000E+02  4.20000000E+01  0.00000000E+00
  9.70000000E+02  4.00000000E+01  0.00000000E+00
  9.70000000E+02  3.80000000E+01  0.00000000E+00
  9.70000000E+02  3.60000000E+01  0.00000000E+00
  9.70000000E+02  3.40000000E+01  0.00000000E+00
  9.70000000E+02  3.20000000E+01  0.00000000E+00
  9.70000000E+02  3.00000000E+01  0.00000000E+00
  9.70000000E+02  2.80000000E+01  0.00000000E+00
  9.70000000E+02  2.60000000E+01  0.00000000E+00
  9.70000000E+02  2.40000000E+01  0.00000000E+00
  9.70000000E+02  2.20000000E+01  0.00000000E+00
  9.70000000E+02  2.00000000E+01  0.00000000E+00
  9.70000000E+02  1.80000000E+01  0.00000000E+00
  9.70000000E+02  1.60000000E+01  0.00000000E+00
  9.70000000E+02  1.40000000E+01  0.00000000E+00
  9.70000000E+02  1.20000000E+01  0.00000000E+00
  9.70000000E+02  1.00000000E+01  0.00000000E+00
  9.70000000E+02  8.00000000E+00  0.00000000E+00
  9.70000000E+02  6.00000000E+00  0.00000000E+00
  9.70000000E+02  4.00000000E+00  0.00000000E+00
  9.70000000E+02  2.00000000E+00  0.00000000E+00
  9.70000000E+02 -3.33066907E-14  0.00000000E+00
  9.80000000E+02  1.00000000E+02  0.00000000E+00
  9.80000000E+02  9.80000000E+01  0.00000000E+00
  9.80000000E+02  9.60000000E+01  0.00000000E+00
  9.80000000E+02  9.40000000E+01  0.00000000E+00
  9.80000000E+02  9.20000000E+01  0.00000000E+00
  9.80000000E+02  9.00000000E+01  0.00000000E+00
  9.80000000E+02  8.80000000E+01  0.00000000E+00
  9.80000000E+02  8.60000000E+01  0.00000000E+00
  9.80000000E+02  8.40000000E+01  0.00000000E+00
  9.80000000E+02  8.20000000E+01  0.00000000E+00
  9.80000000E+02  8.00000000E+01  0.00000000E+00
  9.80000000E+02  7.80000000E+01  0.00000000E+00
  9.80000000E+02  7.60000000E+01  0.00000000E+00
  9.80000000E+02  7.40000000E+01  0.00000000E+00
  9.80000000E+02  7.20000000E+01  0.00000000E+00
  9.80000000E+02  7.00000000E+01  0.00000000E+00
  9.80000000E+02  6.80000000E+01  0.00000000E+00
  9.80000000E+02  6.60000000E+01  0.00000000E+00
  9.80000000E+02  6.40000000E+01  0.00000000E+00
  9.80000000E+02  6.20000000E+01  0.00000000E+00
  9.80000000E+02  6.00000000E+01  0.00000000E+00
  9.80000000E+02  5.80000000E+01  0.00000000E+00
  9.80000000E+02  5.60000000E+01  0.00000000E+00
  9.80000000E+02  5.40000000E+01  0.00000000E+00
  9.80000000E+02  5.20000000E+01  0.00000000E+00
  9.80000000E+02  5.00000000E+01  0.00000000E+00
  9.80000000E+02  4.80000000E+01  0.00000000E+00
  9.80000000E+02  4.60000000E+01  0.00000000E+00
  9.80000000E+02  4.40000000E+01  0.00000000E+00
  9.80000000E+02  4.20000000E+01  0.00000000E+00
  9.80000000E+02  4.00000000E+01  0.00000000E+00
  9.80000000E+02  3.80000000E+01  0.00000000E+00
  9.80000000E+02  3.60000000E+01  0.00000000E+00
  9.80000000E+02  3.40000000E+01  0.00000000E+00
  9.80000000E+02  3.20000000E+01  0.00000000E+00
  9.80000000E+02  3.00000000E+01  0.00000000E+00
  9.80000000E+02  2.80000000E+01  0.00000000E+00
  9.80000000E+02  2.60000000E+01  0.00000000E+00
  9.80000000E+02  2.40000000E+01  0.00000000E+00
  9.80000000E+02  2.20000000E+01  0.00000000E+00
  9.80000000E+02  2.00000000E+01  0.00000000E+00
  9.80000000E+02  1.80000000E+01  0.00000000E+00
  9.80000000E+02  1.60000000E+01  0.00000000E+00
  9.80000000E+02  1.40000000E+01  0.00000000E+00
  9.80000000E+02  1.20000000E+01  0.00000000E+00
  9.80000000E+02  1.00000000E+01  0.00000000E+00
  9.80000000E+02  8.00000000E+00  0.00000000E+00
  9.80000000E+02  6.00000000E+00  0.00000000E+00
  9.80000000E+02  4.00000000E+00  0.00000000E+00
  9.80000000E+02  2.00000000E+00  0.00000000E+00
  9.80000000E+02 -3.33066907E-14  0.00000000E+00
  9.90000000E+02  1.00000000E+02  0.00000000E+00
  9.90000000E+02  9.80000000E+01  0.00000000E+00
  9.90000000E+02  9.60000000E+01  0.00000000E+00
  9.90000000E+02  9.40000000E+01  0.00000000E+00
  9.90000000E+02  9.20000000E+01  0.00000000E+00
  9.90000000E+02  9.00000000E+01  0.00000000E+00
  9.90000000E+02  8.80000000E+01  0.00000000E+00
  9.90000000E+02  8.60000000E+01  0.00000000E+00
  9.90000000E+02  8.40000000E+01  0.00000000E+00
  9.90000000E+02  8.20000000E+01  0.00000000E+00
  9.90000000E+02  8.00000000E+01  0.00000000E+00
  9.90000000E+02  7.80000000E+01  0.00000000E+00
  9.90000000E+02  7.60000000E+01  0.00000000E+00
  9.90000000E+02  7.40000000E+01  0.00000000E+00
  9.90000000E+02  7.20000000E+01  0.00000000E+00
  9.90000000E+02  7.00000000E+01  0.00000000E+00
  9.90000000E+02  6.80000000E+01  0.00000000E+00
  9.90000000E+02  6.60000000E+01  0.00000000E+00
  9.90000000E+02  6.40000000E+01  0.00000000E+00
  9.90000000E+02  6.20000000E+01  0.00000000E+00
  9.90000000E+02  6.00000000E+01  0.00000000E+00
  9.90000000E+02  5.80000000E+01  0.00000000E+00
  9.90000000E+02  5.60000000E+01  0.00000000E+00
  9.90000000E+02  5.40000000E+01  0.00000000E+00
  9.90000000E+02  5.20000000E+01  0.00000000E+00
  9.90000000E+02  5.00000000E+01  0.00000000E+00
  9.90000000E+02  4.80000000E+01  0.00000000E+00
  9.90000000E+02  4.60000000E+01  0.00000000E+00
  9.90000000E+02  4.40000000E+01  0.00000000E+00
  9.90000000E+02  4.20000000E+01  0.00000000E+00
  9.90000000E+02  4.00000000E+01  0.00000000E+00
  9.90000000E+02  3.80000000E+01  0.00000000E+00
  9.90000000E+02  3.60000000E+01  0.00000000E+00
  9.90000000E+02  3.40000000E+01  0.00000000E+00
  9.90000000E+02  3.20000000E+01  0.00000000E+00
  9.90000000E+02  3.00000000E+01  0.00000000E+00
  9.90000000E+02  2.80000000E+01  0.00000000E+00
  9.90000000E+02  2.60000000E+01  0.00000000E+00
  9.90000000E+02  2.40000000E+01  0.00000000E+00
  9.90000000E+02  2.20000000E+01  0.00000000E+00
  9.90000000E+02  2.00000000E+01  0.00000000E+00
  9.90000000E+02  1.80000000E+01  0.00000000E+00
  9.90000000E+02  1.60000000E+01  0.00000000E+00
  9.90000000E+02  1.40000000E+01  0.00000000E+00
  9.90000000E+02  1.20000000E+01  0.00000000E+00
  9.90000000E+02  1.00000000E+01  0.00000000E+00
  9.90000000E+02  8.00000000E+00  0.00000000E+00
  9.90000000E+02  6.00000000E+00  0.00000000E+00
  9.90000000E+02  4.00000000E+00  0.00000000E+00
  9.90000000E+02  2.00000000E+00  0.00000000E+00
  9.90000000E+02 -3.33066907E-14  0.00000000E+00
  1.00000000E+03  1.00000000E+02  0.00000000E+00
  1.00000000E+03  9.80000000E+01  0.00000000E+00
  1.00000000E+03  9.60000000E+01  0.00000000E+00
  1.00000000E+03  9.40000000E+01  0.00000000E+00
  1.00000000E+03  9.20000000E+01  0.00000000E+00
  1.00000000E+03  9.00000000E+01  0.00000000E+00
  1.00000000E+03  8.80000000E+01  0.00000000E+00
  1.00000000E+03  8.60000000E+01  0.00000000E+00
  1.00000000E+03  8.40000000E+01  0.00000000E+00
  1.00000000E+03  8.20000000E+01  0.00000000E+00
  1.00000000E+03  8.00000000E+01  0.00000000E+00
  1.00000000E+03  7.80000000E+01  0.00000000E+00
  1.00000000E+03  7.60000000E+01  0.00000000E+00
  1.00000000E+03  7.40000000E+01  0.00000000E+00
  1.00000000E+03  7.20000000E+01  0.00000000E+00
  1.00000000E+03  7.00000000E+01  0.00000000E+00
  1.00000000E+03  6.80000000E+01  0.00000000E+00
  1.00000000E+03  6.60000000E+01  0.00000000E+00
  1.00000000E+03  6.40000000E+01  0.00000000E+00
  1.00000000E+03  6.20000000E+01  0.00000000E+00
  1.00000000E+03  6.00000000E+01  0.00000000E+00
  1.00000000E+03  5.80000000E+01  0.00000000E+00
  1.00000000E+03  5.60000000E+01  0.00000000E+00
  1.00000000E+03  5.40000000E+01  0.00000000E+00
  1.00000000E+03  5.20000000E+01  0.00000000E+00
  1.00000000E+03  5.00000000E+01  0.00000000E+00
  1.00000000E+03  4.80000000E+01  0.00000000E+00
  1.00000000E+03  4.60000000E+01  0.00000000E+00
  1.00000000E+03  4.40000000E+01  0.00000000E+00
  1.00000000E+03  4.20000000E+01  0.00000000E+00
  1.00000000E+03  4.00000000E+01  0.00000000E+00
  1.00000000E+03  3.80000000E+01  0.00000000E+00
  1.00000000E+03  3.60000000E+01  0.00000000E+00
  1.00000000E+03  3.40000000E+01  0.00000000E+00
  1.00000000E+03  3.20000000E+01  0.00000000E+00
  1.00000000E+03  3.00000000E+01  0.00000000E+00
  1.00000000E+03  2.80000000E+01  0.00000000E+00
  1.00000000E+03  2.60000000E+01  0.00000000E+00
  1.00000000E+03  2.40000000E+01  0.00000000E+00
  1.00000000E+03  2.20000000E+01  0.00000000E+00
  1.00000000E+03  2.00000000E+01  0.00000000E+00
  1.00000000E+03  1.80000000E+01  0.00000000E+00
  1.00000000E+03  1.60000000E+01  0.00000000E+00
  1.00000000E+03  1.40000000E+01  0.00000000E+00
  1.00000000E+03  1.20000000E+01  0.00000000E+00
  1.00000000E+03  1.00000000E+01  0.00000000E+00
  1.00000000E+03  8.00000000E+00  0.00000000E+00
  1.00000000E+03  6.00000000E+00  0.00000000E+00
  1.00000000E+03  4.00000000E+00  0.00000000E+00
  1.00000000E+03  2.00000000E+00  0.00000000E+00
  1.00000000E+03 -3.33066907E-14  0.00000000E+00
CELLS      5000     25000
         4           0           1          52          51
         4           1           2          53          52
         4           2           3          54          53
         4           3           4          55          54
         4           4           5          56          55
         4           5           6          57          56
         4           6           7          58          57
         4           7           8          59          58
         4           8           9          60          59
         4           9          10          61          60
         4          10          11          62          61
         4          11          12          63          62
         4          12          13          64          63
         4          13          14          65          64
         4          14          15          66          65
         4          15          16          67          66
         4          16          17          68          67
         4          17          18          69          68
         4          18          19          70          69
         4          19          20          71          70
         4          20          21          72          71
         4          21          22          73          72
         4          22          23          74          73
         4          23          24          75          74
         4          24          25          76          75
         4          25          26          77          76
         4          26          27          78          77
         4          27          28          79          78
         4          28          29          80          79
         4          29          30          81          80
         4          30          31          82          81
         4          31          32          83          82
         4          32          33          84          83
         4          33          34          85          84
         4          34          35          86          85
         4          35          36          87          86
         4          36          37          88          87
         4          37          38          89          88
         4          38          39          90          89
         4          39          40          91          90
         4          40          41          92          91
         4          41          42          93          92
         4          42          43          94          93
         4          43          44          95          94
         4          44          45          96          95
         4          45          46          97          96
         4          46          47          98          97
         4          47          48          99          98
         4          48          49         100          99
         4          49          50         101         100
         4          51          52         103         102
         4          52          53         104         103
         4          53          54         105         104
         4          54          55         106         105
         4          55          56         107         106
         4          56          57         108         107
         4          57          58         109         108
         4          58          59         110         109
         4          59          60         111         110
         4          60          61         112         111
         4          61          62         113         112
         4          62          63         114         113
         4          63          64         115         114
         4          64          65         116         115
         4          65          66         117         116
         4          66          67         118         117
         4          67          68         119         118
         4          68          69         120         119
         4          69          70         121         120
         4          70          71         122         121
         4          71          72         123         122
         4          72          73         124         123
         4          73          74         125         124
         4          74          75         126         125
         4          75          76         127         126
         4          76          77         128         127
         4          77          78         129         128
         4          78          79         130         129
         4          79          80         131         130
         4          80          81         132         131
         4          81          82         133         132
         4          82          83         134         133
         4          83          84         135         134
         4          84          85         136         135
         4          85          86         137         136
         4          86          87         138         137
         4          87          88         139         138
         4          88          89         140         139
         4          89          90         141         140
         4          90          91         142         141
         4          91          92         143         142
         4          92          93         144         143
         4          93          94         145         144
         4          94          95         146         145
         4          95          96         147         146
         4          96          97         148         147
         4          97          98         149         148
         4          98          99         150         149
         4          99         100         151         150
         4         100         101         152         151
         4         102         103         154         153
         4         103         104         155         154
         4         104         105         156         155
         4         105         106         157         156
         4         106         107         158         157
         4         107         108         159         158
         4         108         109         160         159
         4         109         110         161         160
         4         110         111         162         161
         4         111         112         163         162
         4         112         113         164         163
         4         113         114         165         164
         4         114         115         166         165
         4         115         116         167         166
         4         116         117         168         167
         4         117         118         169         168
         4         118         119         170         169
         4         119         120         171         170
         4         120         121         172         171
         4         121         122         173         172
         4         122         123         174         173
         4         123         124         175         174
         4         124         125         176         175
         4         125         126         177         176
         4         126         127         178         177
         4         127         128         179         178
         4         128         129         180         179
         4         129         130         181         180
         4         130         131         182         181
         4         131         132         183         182
         4         132         133         184         183
         4         133         134         185         184
         4         134         135         186         185
         4         135         136         187         186
         4         136         137         188         187
         4         137         138         189         188
         4         138         139         190         189
         4         139         140         191         190
         4         140         141         192         191
         4         141         142         193         192
         4         142         143         194         193
         4         143         144         195         194
         4         144         145         196         195
         4         145         146         197         196
         4         146         147         198         197
         4         147         148         199         198
         4         148         149         200         199
         4         149         150         201         200
         4         150         151         202         201
         4         151         152         203         202
         4         153         154         205         204
         4         154         155         206         205
         4         155         156         207         206
         4         156         157         208         207
         4         157         158         209         208
         4         158         159         210         209
         4         159         160         211         210
         4         160         161         212         211
         4         161         162         213         212
         4         162         163         214         213
         4         163         164         215         214
         4         164         165         216         215
         4         165         166         217         216
         4         166         167         218         217
         4         167         168         219         218
         4         168         169         220         219
         4         169         170         221         220
         4         170         171         222         221
         4         171         172         223         222
         4         172         173         224         223
         4         173         174         225         224
         4         174         175         226         225
         4         175         176         227         226
         4         176         177         228         227
         4         177         178         229         228
         4         178         179         230         229
         4         179         180         231         230
         4         180         181         232         231
         4         181         182         233         232
         4         182         183         234         233
         4         183         184         235         234
         4         184         185         236         235
         4         185         186         237         236
         4         186         187         238         237
         4         187         188         239         238
         4         188         189         240         239
         4         189         190         241         240
         4         190         191         242         241
         4         191         192         243         242
         4         192         193         244         243
         4         193         194         245         244
         4         194         195         246         245
         4         195         196         247         246
         4         196         197         248         247
         4         197         198         249         248
         4         198         199         250         249
         4         199         200         251         250
         4         200         201         252         251
         4         201         202         253         252
         4         202         203         254         253
         4         204         205         256         255
         4         205         206         257         256
         4         206         207         258         257
         4         207         208         259         258
         4         208         209         260         259
         4         209         210         261         260
         4         210         211         262         261
         4         211         212         263         262
         4         212         213         264         263
         4         213         214         265         264
         4         214         215         266         265
         4         215         216         267         266
         4         216         217         268         267
         4         217         218         269         268
         4         218         219         270         269
         4         219         220         271         270
         4         220         221         272         271
         4         221         222         273         272
         4         222         223         274         273
         4         223         224         275         274
         4         224         225         276         275
         4         225         226         277         276
         4         226         227         278         277
         4         227         228         279         278
         4         228         229         280         279
         4         229         230         281         280
         4         230         231         282         281
         4         231         232         283         282
         4         232         233         284         283
         4         233         234         285         284
         4         234         235         286         285
         4         235         236         287         286
         4         236         237         288         287
         4         237         238         289         288
         4         238         239         290         289
         4         239         240         291         290
         4         240         241         292         291
         4         241         242         293         292
         4         242         243         294         293
         4         243         244         295         294
         4         244         245         296         295
         4         245         246         297         296
         4         246         247         298         297
         4         247         248         299         298
         4         248         249         300         299
         4         249         250         301         300
         4         250         251         302         301
         4         251         252         303         302
         4         252         253         304         303
         4         253         254         305         304
         4         255         256         307         306
         4         256         257         308         307
         4         257         258         309         308
         4         258         259         310         309
         4         259         260         311         310
         4         260         261         312         311
         4         261         262         313         312
         4         262         263         314         313
         4         263         264         315         314
         4         264         265         316         315
         4         265         266         317         316
         4         266         267         318         317
         4         267         268         319         318
         4         268         269         320         319
         4         269         270         321         320
         4         270         271         322         321
         4         271         272         323         322
         4         272         273         324         323
         4         273         274         325         324
         4         274         275         326         325
         4         275         276         327         326
         4         276         277         328         327
         4         277         278         329         328
         4         278         279         330         329
         4         279         280         331         330
         4         280         281         332         331
         4         281         282         333         332
         4         282         283         334         333
         4         283         284         335         334
         4         284         285         336         335
         4         285         286         337         336
         4         286         287         338         337
         4         287         288         339         338
         4         288         289         340         339
         4         289         290         341         340
         4         290         291         342         341
         4         291         292         343         342
         4         292         293         344         343
         4         293         294         345         344
         4         294         295         346         345
         4         295         296         347         346
         4         296         297         348         347
         4         297         298         349         348
         4         298         299         350         349
         4         299         300         351         350
         4         300         301         352         351
         4         301         302         353         352
         4         302         303         354         353
         4         303         304         355         354
         4         304         305         356         355
         4         306         307         358         357
         4         307         308         359         358
         4         308         309         360         359
         4         309         310         361         360
         4         310         311         362         361
         4         311         312         363         362
         4         312         313         364         363
         4         313         314         365         364
         4         314         315         366         365
         4         315         316         367         366
         4         316         317         368         367
         4         317         318         369         368
         4         318         319         370         369
         4         319         320         371         370
         4         320         321         372         371
         4         321         322         373         372
         4         322         323         374         373
         4         323         324         375         374
         4         324         325         376         375
         4         325         326         377         376
         4         326         327         378         377
         4         327         328         379         378
         4         328         329         380         379
         4         329         330         381         380
         4         330         331         382         381
         4         331         332         383         382
         4         332         333         384         383
         4         333         334         385         384
         4         334         335         386         385
         4         335         336         387         386
         4         336         337         388         387
         4         337         338         389         388
         4         338         339         390         389
         4         339         340         391         390
         4         340         341         392         391
         4         341         342         393         392
         4         342         343         394         393
         4         343         344         395         394
         4         344         345         396         395
         4         345         346         397         396
         4         346         347         398         397
         4         347         348         399         398
         4         348         349         400         399
         4         349         350         401         400
         4         350         351         402         401
         4         351         352         403         402
         4         352         353         404         403
         4         353         354         405         404
         4         354         355         406         405
         4         355         356         407         406
         4         357         358         409         408
         4         358         359         410         409
         4         359         360         411         410
         4         360         361         412         411
         4         361         362         413         412
         4         362         363         414         413
         4         363         364         415         414
         4         364         365         416         415
         4         365         366         417         416
         4         366         367         418         417
         4         367         368         419         418
         4         368         369         420         419
         4         369         370         421         420
         4         370         371         422         421
         4         371         372         423         422
         4         372         373         424         423
         4         373         374         425         424
         4         374         375         426         425
         4         375         376         427         426
         4         376         377         428         427
         4         377         378         429         428
         4         378         379         430         429
         4         379         380         431         430
         4         380         381         432         431
         4         381         382         433         432
         4         382         383         434         433
         4         383         384         435         434
         4         384         385         436         435
         4         385         386         437         436
         4         386         387         438         437
         4         387         388         439         438
         4         388         389         440         439
         4         389         390         441         440
         4         390         391         442         441
         4         391         392         443         442
         4         392         393         444         443
         4         393         394         445         444
         4         394         395         446         445
         4         395         396         447         446
         4         396         397         448         447
         4         397         398         449         448
         4         398         399         450         449
         4         399         400         451         450
         4         400         401         452         451
         4         401         402         453         452
         4         402         403         454         453
         4         403         404         455         454
         4         404         405         456         455
         4         405         406         457         456
         4         406         407         458         457
         4         408         409         460         459
         4         409         410         461         460
         4         410         411         462         461
         4         411         412         463         462
         4         412         413         464         463
         4         413         414         465         464
         4         414         415         466         465
         4         415         416         467         466
         4         416         417         468         467
         4         417         418         469         468
         4         418         419         470         469
         4         419         420         471         470
         4         420         421         472         471
         4         421         422         473         472
         4         422         423         474         473
         4         423         424         475         474
         4         424         425         476         475
         4         425         426         477         476
         4         426         427         478         477
         4         427         428         479         478
         4         428         429         480         479
         4         429         430         481         480
         4         430         431         482         481
         4         431         432         483         482
         4         432         433         484         483
         4         433         434         485         484
         4         434         435         486         485
         4         435         436         487         486
         4         436         437         488         487
         4         437         438         489         488
         4         438         439         490         489
         4         439         440         491         490
         4         440         441         492         491
         4         441         442         493         492
         4         442         443         494         493
         4         443         444         495         494
         4         444         445         496         495
         4         445         446         497         496
         4         446         447         498         497
         4         447         448         499         498
         4         448         449         500         499
         4         449         450         501         500
         4         450         451         502         501
         4         451         452         503         502
         4         452         453         504         503
         4         453         454         505         504
         4         454         455         506         505
         4         455         456         507         506
         4         456         457         508         507
         4         457         458         509         508
         4         459         460         511         510
         4         460         461         512         511
         4         461         462         513         512
         4         462         463         514         513
         4         463         464         515         514
         4         464         465         516         515
         4         465         466         517         516
         4         466         467         518         517
         4         467         468         519         518
         4         468         469         520         519
         4         469         470         521         520
         4         470         471         522         521
         4         471         472         523         522
         4         472         473         524         523
         4         473         474         525         524
         4         474         475         526         525
         4         475         476         527         526
         4         476         477         528         527
         4         477         478         529         528
         4         478         479         530         529
         4         479         480         531         530
         4         480         481         532         531
         4         481         482         533         532
         4         482         483         534         533
         4         483         484         535         534
         4         484         485         536         535
         4         485         486         537         536
         4         486         487         538         537
         4         487         488         539         538
         4         488         489         540         539
         4         489         490         541         540
         4         490         491         542         541
         4         491         492         543         542
         4         492         493         544         543
         4         493         494         545         544
         4         494         495         546         545
         4         495         496         547         546
         4         496         497         548         547
         4         497         498         549         548
         4         498         499         550         549
         4         499         500         551         550
         4         500         501         552         551
         4         501         502         553         552
         4         502         503         554         553
         4         503         504         555         554
         4         504         505         556         555
         4         505         506         557         556
         4         506         507         558         557
         4         507         508         559         558
         4         508         509         560         559
         4         510         511         562         561
         4         511         512         563         562
         4         512         513         564         563
         4         513         514         565         564
         4         514         515         566         565
         4         515         516         567         566
         4         516         517         568         567
         4         517         518         569         568
         4         518         519         570         569
         4         519         520         571         570
         4         520         521         572         571
         4         521         522         573         572
         4         522         523         574         573
         4         523         524         575         574
         4         524         525         576         575
         4         525         526         577         576
         4         526         527         578         577
         4         527         528         579         578
         4         528         529         580         579
         4         529         530         581         580
         4         530         531         582         581
         4         531         532         583         582
         4         532         533         584         583
         4         533         534         585         584
         4         534         535         586         585
         4         535         536         587         586
         4         536         537         588         587
         4         537         538         589         588
         4         538         539         590         589
         4         539         540         591         590
         4         540         541         592         591
         4         541         542         593         592
         4         542         543         594         593
         4         543         544         595         594
         4         544         545         596         595
         4         545         546         597         596
         4         546         547         598         597
         4         547         548         599         598
         4         548         549         600         599
         4         549         550         601         600
         4         550         551         602         601
         4         551         552         603         602
         4         552         553         604         603
         4         553         554         605         604
         4         554         555         606         605
         4         555         556         607         606
         4         556         557         608         607
         4         557         558         609         608
         4         558         559         610         609
         4         559         560         611         610
         4         561         562         613         612
         4         562         563         614         613
         4         563         564         615         614
         4         564         565         616         615
         4         565         566         617         616
         4         566         567         618         617
         4         567         568         619         618
         4         568         569         620         619
         4         569         570         621         620
         4         570         571         622         621
         4         571         572         623         622
         4         572         573         624         623
         4         573         574         625         624
         4         574         575         626         625
         4         575         576         627         626
         4         576         577         628         627
         4         577         578         629         628
         4         578         579         630         629
         4         579         580         631         630
         4         580         581         632         631
         4         581         582         633         632
         4         582         583         634         633
         4         583         584         635         634
         4         584         585         636         635
         4         585         586         637         636
         4         586         587         638         637
         4         587         588         639         638
         4         588         589         640         639
         4         589         590         641         640
         4         590         591         642         641
         4         591         592         643         642
         4         592         593         644         643
         4         593         594         645         644
         4         594         595         646         645
         4         595         596         647         646
         4         596         597         648         647
         4         597         598         649         648
         4         598         599         650         649
         4         599         600         651         650
         4         600         601         652         651
         4         601         602         653         652
         4         602         603         654         653
         4         603         604         655         654
         4         604         605         656         655
         4         605         606         657         656
         4         606         607         658         657
         4         607         608         659         658
         4         608         609         660         659
         4         609         610         661         660
         4         610         611         662         661
         4         612         613         664         663
         4         613         614         665         664
         4         614         615         666         665
         4         615         616         667         666
         4         616         617         668         667
         4         617         618         669         668
         4         618         619         670         669
         4         619         620         671         670
         4         620         621         672         671
         4         621         622         673         672
         4         622         623         674         673
         4         623         624         675         674
         4         624         625         676         675
         4         625         626         677         676
         4         626         627         678         677
         4         627         628         679         678
         4         628         629         680         679
         4         629         630         681         680
         4         630         631         682         681
         4         631         632         683         682
         4         632         633         684         683
         4         633         634         685         684
         4         634         635         686         685
         4         635         636         687         686
         4         636         637         688         687
         4         637         638         689         688
         4         638         639         690         689
         4         639         640         691         690
         4         640         641         692         691
         4         641         642         693         692
         4         642         643         694         693
         4         643         644         695         694
         4         644         645         696         695
         4         645         646         697         696
         4         646         647         698         697
         4         647         648         699         698
         4         648         649         700         699
         4         649         650         701         700
         4         650         651         702         701
         4         651         652         703         702
         4         652         653         704         703
         4         653         654         705         704
         4         654         655         706         705
         4         655         656         707         706
         4         656         657         708         707
         4         657         658         709         708
         4         658         659         710         709
         4         659         660         711         710
         4         660         661         712         711
         4         661         662         713         712
         4         663         664         715         714
         4         664         665         716         715
         4         665         666         717         716
         4         666         667         718         717
         4         667         668         719         718
         4         668         669         720         719
         4         669         670         721         720
         4         670         671         722         721
         4         671         672         723         722
         4         672         673         724         723
         4         673         674         725         724
         4         674         675         726         725
         4         675         676         727         726
         4         676         677         728         727
         4         677         678         729         728
         4         678         679         730         729
         4         679         680         731         730
         4         680         681         732         731
         4         681         682         733         732
         4         682         683         734         733
         4         683         684         735         734
         4         684         685         736         735
         4         685         686         737         736
         4         686         687         738         737
         4         687         688         739         738
         4         688         689         740         739
         4         689         690         741         740
         4         690         691         742         741
         4         691         692         743         742
         4         692         693         744         743
         4         693         694         745         744
         4         694         695         746         745
         4         695         696         747         746
         4         696         697         748         747
         4         697         698         749         748
         4         698         699         750         749
         4         699         700         751         750
         4         700         701         752         751
         4         701         702         753         752
         4         702         703         754         753
         4         703         704         755         754
         4         704         705         756         755
         4         705         706         757         756
         4         706         707         758         757
         4         707         708         759         758
         4         708         709         760         759
         4         709         710         761         760
         4         710         711         762         761
         4         711         712         763         762
         4         712         713         764         763
         4         714         715         766         765
         4         715         716         767         766
         4         716         717         768         767
         4         717         718         769         768
         4         718         719         770         769
         4         719         720         771         770
         4         720         721         772         771
         4         721         722         773         772
         4         722         723         774         773
         4         723         724         775         774
         4         724         725         776         775
         4         725         726         777         776
         4         726         727         778         777
         4         727         728         779         778
         4         728         729         780         779
         4         729         730         781         780
         4         730         731         782         781
         4         731         732         783         782
         4         732         733         784         783
         4         733         734         785         784
         4         734         735         786         785
         4         735         736         787         786
         4         736         737         788         787
         4         737         738         789         788
         4         738         739         790         789
         4         739         740         791         790
         4         740         741         792         791
         4         741         742         793         792
         4         742         743         794         793
         4         743         744         795         794
         4         744         745         796         795
         4         745         746         797         796
         4         746         747         798         797
         4         747         748         799         798
         4         748         749         800         799
         4         749         750         801         800
         4         750         751         802         801
         4         751         752         803         802
         4         752         753         804         803
         4         753         754         805         804
         4         754         755         806         805
         4         755         756         807         806
         4         756         757         808         807
         4         757         758         809         808
         4         758         759         810         809
         4         759         760         811         810
         4         760         761         812         811
         4         761         762         813         812
         4         762         763         814         813
         4         763         764         815         814
         4         765         766         817         816
         4         766         767         818         817
         4         767         768         819         818
         4         768         769         820         819
         4         769         770         821         820
         4         770         771         822         821
         4         771         772         823         822
         4         772         773         824         823
         4         773         774         825         824
         4         774         775         826         825
         4         775         776         827         826
         4         776         777         828         827
         4         777         778         829         828
         4         778         779         830         829
         4         779         780         831         830
         4         780         781         832         831
         4         781         782         833         832
         4         782         783         834         833
         4         783         784         835         834
         4         784         785         836         835
         4         785         786         837         836
         4         786         787         838         837
         4         787         788         839         838
         4         788         789         840         839
         4         789         790         841         840
         4         790         791         842         841
         4         791         792         843         842
         4         792         793         844         843
         4         793         794         845         844
         4         794         795         846         845
         4         795         796         847         846
         4         796         797         848         847
         4         797         798         849         848
         4         798         799         850         849
         4         799         800         851         850
         4         800         801         852         851
         4         801         802         853         852
         4         802         803         854         853
         4         803         804         855         854
         4         804         805         856         855
         4         805         806         857         856
         4         806         807         858         857
         4         807         808         859         858
         4         808         809         860         859
         4         809         810         861         860
         4         810         811         862         861
         4         811         812         863         862
         4         812         813         864         863
         4         813         814         865         864
         4         814         815         866         865
         4         816         817         868         867
         4         817         818         869         868
         4         818         819         870         869
         4         819         820         871         870
         4         820         821         872         871
         4         821         822         873         872
         4         822         823         874         873
         4         823         824         875         874
         4         824         825         876         875
         4         825         826         877         876
         4         826         827         878         877
         4         827         828         879         878
         4         828         829         880         879
         4         829         830         881         880
         4         830         831         882         881
         4         831         832         883         882
         4         832         833         884         883
         4         833         834         885         884
         4         834         835         886         885
         4         835         836         887         886
         4         836         837         888         887
         4         837         838         889         888
         4         838         839         890         889
         4         839         840         891         890
         4         840         841         892         891
         4         841         842         893         892
         4         842         843         894         893
         4         843         844         895         894
         4         844         845         896         895
         4         845         846         897         896
         4         846         847         898         897
         4         847         848         899         898
         4         848         849         900         899
         4         849         850         901         900
         4         850         851         902         901
         4         851         852         903         902
         4         852         853         904         903
         4         853         854         905         904
         4         854         855         906         905
         4         855         856         907         906
         4         856         857         908         907
         4         857         858         909         908
         4         858         859         910         909
         4         859         860         911         910
         4         860         861         912         911
         4         861         862         913         912
         4         862         863         914         913
         4         863         864         915         914
         4         864         865         916         915
         4         865         866         917         916
         4         867         868         919         918
         4         868         869         920         919
         4         869         870         921         920
         4         870         871         922         921
         4         871         872         923         922
         4         872         873         924         923
         4         873         874         925         924
         4         874         875         926         925
         4         875         876         927         926
         4         876         877         928         927
         4         877         878         929         928
         4         878         879         930         929
         4         879         880         931         930
         4         880         881         932         931
         4         881         882         933         932
         4         882         883         934         933
         4         883         884         935         934
         4         884         885         936         935
         4         885         886         937         936
         4         886         887         938         937
         4         887         888         939         938
         4         888         889         940         939
         4         889         890         941         940
         4         890         891         942         941
         4         891         892         943         942
         4         892         893         944         943
         4         893         894         945         944
         4         894         895         946         945
         4         895         896         947         946
         4         896         897         948         947
         4         897         898         949         948
         4         898         899         950         949
         4         899         900         951         950
         4         900         901         952         951
         4         901         902         953         952
         4         902         903         954         953
         4         903         904         955         954
         4         904         905         956         955
         4         905         906         957         956
         4         906         907         958         957
         4         907         908         959         958
         4         908         909         960         959
         4         909         910         961         960
         4         910         911         962         961
         4         911         912         963         962
         4         912         913         964         963
         4         913         914         965         964
         4         914         915         966         965
         4         915         916         967         966
         4         916         917         968         967
         4         918         919         970         969
         4         919         920         971         970
         4         920         921         972         971
         4         921         922         973         972
         4         922         923         974         973
         4         923         924         975         974
         4         924         925         976         975
         4         925         926         977         976
         4         926         927         978         977
         4         927         928         979         978
         4         928         929         980         979
         4         929         930         981         980
         4         930         931         982         981
         4         931         932         983         982
         4         932         933         984         983
         4         933         934         985         984
         4         934         935         986         985
         4         935         936         987         986
         4         936         937         988         987
         4         937         938         989         988
         4         938         939         990         989
         4         939         940         991         990
         4         940         941         992         991
         4         941         942         993         992
         4         942         943         994         993
         4         943         944         995         994
         4         944         945         996         995
         4         945         946         997         996
         4         946         947         998         997
         4         947         948         999         998
         4         948         949        1000         999
         4         949         950        1001        1000
         4         950         951        1002        1001
         4         951         952        1003        1002
         4         952         953        1004        1003
         4         953         954        1005        1004
         4         954         955        1006        1005
         4         955         956        1007        1006
         4         956         957        1008        1007
         4         957         958        1009        1008
         4         958         959        1010        1009
         4         959         960        1011        1010
         4         960         961        1012        1011
         4         961         962        1013        1012
         4         962         963        1014        1013
         4         963         964        1015        1014
         4         964         965        1016        1015
         4         965         966        1017        1016
         4         966         967        1018        1017
         4         967         968        1019        1018
         4         969         970        1021        1020
         4         970         971        1022        1021
         4         971         972        1023        1022
         4         972         973        1024        1023
         4         973         974        1025        1024
         4         974         975        1026        1025
         4         975         976        1027        1026
         4         976         977        1028        1027
         4         977         978        1029        1028
         4         978         979        1030        1029
         4         979         980        1031        1030
         4         980         981        1032        1031
         4         981         982        1033        1032
         4         982         983        1034        1033
         4         983         984        1035        1034
         4         984         985        1036        1035
         4         985         986        1037        1036
         4         986         987        1038        1037
         4         987         988        1039        1038
         4         988         989        1040        1039
         4         989         990        1041        1040
         4         990         991        1042        1041
         4         991         992        1043        1042
         4         992         993        1044        1043
         4         993         994        1045        1044
         4         994         995        1046        1045
         4         995         996        1047        1046
         4         996         997        1048        1047
         4         997         998        1049        1048
         4         998         999        1050        1049
         4         999        1000        1051        1050
         4        1000        1001        1052        1051
         4        1001        1002        1053        1052
         4        1002        1003        1054        1053
         4        1003        1004        1055        1054
         4        1004        1005        1056        1055
         4        1005        1006        1057        1056
         4        1006        1007        1058        1057
         4        1007        1008        1059        1058
         4        1008        1009        1060        1059
         4        1009        1010        1061        1060
         4        1010        1011        1062        1061
         4        1011        1012        1063        1062
         4        1012        1013        1064        1063
         4        1013        1014        1065        1064
         4        1014        1015        1066        1065
         4        1015        1016        1067        1066
         4        1016        1017        1068        1067
         4        1017        1018        1069        1068
         4        1018        1019        1070        1069
         4        1020        1021        1072        1071
         4        1021        1022        1073        1072
         4        1022        1023        1074        1073
         4        1023        1024        1075        1074
         4        1024        1025        1076        1075
         4        1025        1026        1077        1076
         4        1026        1027        1078        1077
         4        1027        1028        1079        1078
         4        1028        1029        1080        1079
         4        1029        1030        1081        1080
         4        1030        1031        1082        1081
         4        1031        1032        1083        1082
         4        1032        1033        1084        1083
         4        1033        1034        1085        1084
         4        1034        1035        1086        1085
         4        1035        1036        1087        1086
         4        1036        1037        1088        1087
         4        1037        1038        1089        1088
         4        1038        1039        1090        1089
         4        1039        1040        1091        1090
         4        1040        1041        1092        1091
         4        1041        1042        1093        1092
         4        1042        1043        1094        1093
         4        1043        1044        1095        1094
         4        1044        1045        1096        1095
         4        1045        1046        1097        1096
         4        1046        1047        1098        1097
         4        1047        1048        1099        1098
         4        1048        1049        1100        1099
         4        1049        1050        1101        1100
         4        1050        1051        1102        1101
         4        1051        1052        1103        1102
         4        1052        1053        1104        1103
         4        1053        1054        1105        1104
         4        1054        1055        1106        1105
         4        1055        1056        1107        1106
         4        1056        1057        1108        1107
         4        1057        1058        1109        1108
         4        1058        1059        1110        1109
         4        1059        1060        1111        1110
         4        1060        1061        1112        1111
         4        1061        1062        1113        1112
         4        1062        1063        1114        1113
         4        1063        1064        1115        1114
         4        1064        1065        1116        1115
         4        1065        1066        1117        1116
         4        1066        1067        1118        1117
         4        1067        1068        1119        1118
         4        1068        1069        1120        1119
         4        1069        1070        1121        1120
         4        1071        1072        1123        1122
         4        1072        1073        1124        1123
         4        1073        1074        1125        1124
         4        1074        1075        1126        1125
         4        1075        1076        1127        1126
         4        1076        1077        1128        1127
         4        1077        1078        1129        1128
         4        1078        1079        1130        1129
         4        1079        1080        1131        1130
         4        1080        1081        1132        1131
         4        1081        1082        1133        1132
         4        1082        1083        1134        1133
         4        1083        1084        1135        1134
         4        1084        1085        1136        1135
         4        1085        1086        1137        1136
         4        1086        1087        1138        1137
         4        1087        1088        1139        1138
         4        1088        1089        1140        1139
         4        1089        1090        1141        1140
         4        1090        1091        1142        1141
         4        1091        1092        1143        1142
         4        1092        1093        1144        1143
         4        1093        1094        1145        1144
         4        1094        1095        1146        1145
         4        1095        1096        1147        1146
         4        1096        1097        1148        1147
         4        1097        1098        1149        1148
         4        1098        1099        1150        1149
         4        1099        1100        1151        1150
         4        1100        1101        1152        1151
         4        1101        1102        1153        1152
         4        1102        1103        1154        1153
         4        1103        1104        1155        1154
         4        1104        1105        1156        1155
         4        1105        1106        1157        1156
         4        1106        1107        1158        1157
         4        1107        1108        1159        1158
         4        1108        1109        1160        1159
         4        1109        1110        1161        1160
         4        1110        1111        1162        1161
         4        1111        1112        1163        1162
         4        1112        1113        1164        1163
         4        1113        1114        1165        1164
         4        1114        1115        1166        1165
         4        1115        1116        1167        1166
         4        1116        1117        1168        1167
         4        1117        1118        1169        1168
         4        1118        1119        1170        1169
         4        1119        1120        1171        1170
         4        1120        1121        1172        1171
         4        1122        1123        1174        1173
         4        1123        1124        1175        1174
         4        1124        1125        1176        1175
         4        1125        1126        1177        1176
         4        1126        1127        1178        1177
         4        1127        1128        1179        1178
         4        1128        1129        1180        1179
         4        1129        1130        1181        1180
         4        1130        1131        1182        1181
         4        1131        1132        1183        1182
         4        1132        1133        1184        1183
         4        1133        1134        1185        1184
         4        1134        1135        1186        1185
         4        1135        1136        1187        1186
         4        1136        1137        1188        1187
         4        1137        1138        1189        1188
         4        1138        1139        1190        1189
         4        1139        1140        1191        1190
         4        1140        1141        1192        1191
         4        1141        1142        1193        1192
         4        1142        1143        1194        1193
         4        1143        1144        1195        1194
         4        1144        1145        1196        1195
         4        1145        1146        1197        1196
         4        1146        1147        1198        1197
         4        1147        1148        1199        1198
         4        1148        1149        1200        1199
         4        1149        1150        1201        1200
         4        1150        1151        1202        1201
         4        1151        1152        1203        1202
         4        1152        1153        1204        1203
         4        1153        1154        1205        1204
         4        1154        1155        1206        1205
         4        1155        1156        1207        1206
         4        1156        1157        1208        1207
         4        1157        1158        1209        1208
         4        1158        1159        1210        1209
         4        1159        1160        1211        1210
         4        1160        1161        1212        1211
         4        1161        1162        1213        1212
         4        1162        1163        1214        1213
         4        1163        1164        1215        1214
         4        1164        1165        1216        1215
         4        1165        1166        1217        1216
         4        1166        1167        1218        1217
         4        1167        1168        1219        1218
         4        1168        1169        1220        1219
         4        1169        1170        1221        1220
         4        1170        1171        1222        1221
         4        1171        1172        1223        1222
         4        1173        1174        1225        1224
         4        1174        1175        1226        1225
         4        1175        1176        1227        1226
         4        1176        1177        1228        1227
         4        1177        1178        1229        1228
         4        1178        1179        1230        1229
         4        1179        1180        1231        1230
         4        1180        1181        1232        1231
         4        1181        1182        1233        1232
         4        1182        1183        1234        1233
         4        1183        1184        1235        1234
         4        1184        1185        1236        1235
         4        1185        1186        1237        1236
         4        1186        1187        1238        1237
         4        1187        1188        1239        1238
         4        1188        1189        1240        1239
         4        1189        1190        1241        1240
         4        1190        1191        1242        1241
         4        1191        1192        1243        1242
         4        1192        1193        1244        1243
         4        1193        1194        1245        1244
         4        1194        1195        1246        1245
         4        1195        1196        1247        1246
         4        1196        1197        1248        1247
         4        1197        1198        1249        1248
         4        1198        1199        1250        1249
         4        1199        1200        1251        1250
         4        1200        1201        1252        1251
         4        1201        1202        1253        1252
         4        1202        1203        1254        1253
         4        1203        1204        1255        1254
         4        1204        1205        1256        1255
         4        1205        1206        1257        1256
         4        1206        1207        1258        1257
         4        1207        1208        1259        1258
         4        1208        1209        1260        1259
         4        1209        1210        1261        1260
         4        1210        1211        1262        1261
         4        1211        1212        1263        1262
         4        1212        1213        1264        1263
         4        1213        1214        1265        1264
         4        1214        1215        1266        1265
         4        1215        1216        1267        1266
         4        1216        1217        1268        1267
         4        1217        1218        1269        1268
         4        1218        1219        1270        1269
         4        1219        1220        1271        1270
         4        1220        1221        1272        1271
         4        1221        1222        1273        1272
         4        1222        1223        1274        1273
         4        1224        1225        1276        1275
         4        1225        1226        1277        1276
         4        1226        1227        1278        1277
         4        1227        1228        1279        1278
         4        1228        1229        1280        1279
         4        1229        1230        1281        1280
         4        1230        1231        1282        1281
         4        1231        1232        1283        1282
         4        1232        1233        1284        1283
         4        1233        1234        1285        1284
         4        1234        1235        1286        1285
         4        1235        1236        1287        1286
         4        1236        1237        1288        1287
         4        1237        1238        1289        1288
         4        1238        1239        1290        1289
         4        1239        1240        1291        1290
         4        1240        1241        1292        1291
         4        1241        1242        1293        1292
         4        1242        1243        1294        1293
         4        1243        1244        1295        1294
         4        1244        1245        1296        1295
         4        1245        1246        1297        1296
         4        1246        1247        1298        1297
         4        1247        1248        1299        1298
         4        1248        1249        1300        1299
         4        1249        1250        1301        1300
         4        1250        1251        1302        1301
         4        1251        1252        1303        1302
         4        1252        1253        1304        1303
         4        1253        1254        1305        1304
         4        1254        1255        1306        1305
         4        1255        1256        1307        1306
         4        1256        1257        1308        1307
         4        1257        1258        1309        1308
         4        1258        1259        1310        1309
         4        1259        1260        1311        1310
         4        1260        1261        1312        1311
         4        1261        1262        1313        1312
         4        1262        1263        1314        1313
         4        1263        1264        1315        1314
         4        1264        1265        1316        1315
         4        1265        1266        1317        1316
         4        1266        1267        1318        1317
         4        1267        1268        1319        1318
         4        1268        1269        1320        1319
         4        1269        1270        1321        1320
         4        1270        1271        1322        1321
         4        1271        1272        1323        1322
         4        1272        1273        1324        1323
         4        1273        1274        1325        1324
         4        1275        1276        1327        1326
         4        1276        1277        1328        1327
         4        1277        1278        1329        1328
         4        1278        1279        1330        1329
         4        1279        1280        1331        1330
         4        1280        1281        1332        1331
         4        1281        1282        1333        1332
         4        1282        1283        1334        1333
         4        1283        1284        1335        1334
         4        1284        1285        1336        1335
         4        1285        1286        1337        1336
         4        1286        1287        1338        1337
         4        1287        1288        1339        1338
         4        1288        1289        1340        1339
         4        1289        1290        1341        1340
         4        1290        1291        1342        1341
         4        1291        1292        1343        1342
         4        1292        1293        1344        1343
         4        1293        1294        1345        1344
         4        1294        1295        1346        1345
         4        1295        1296        1347        1346
         4        1296        1297        1348        1347
         4        1297        1298        1349        1348
         4        1298        1299        1350        1349
         4        1299        1300        1351        1350
         4        1300        1301        1352        1351
         4        1301        1302        1353        1352
         4        1302        1303        1354        1353
         4        1303        1304        1355        1354
         4        1304        1305        1356        1355
         4        1305        1306        1357        1356
         4        1306        1307        1358        1357
         4        1307        1308        1359        1358
         4        1308        1309        1360        1359
         4        1309        1310        1361        1360
         4        1310        1311        1362        1361
         4        1311        1312        1363        1362
         4        1312        1313        1364        1363
         4        1313        1314        1365        1364
         4        1314        1315        1366        1365
         4        1315        1316        1367        1366
         4        1316        1317        1368        1367
         4        1317        1318        1369        1368
         4        1318        1319        1370        1369
         4        1319        1320        1371        1370
         4        1320        1321        1372        1371
         4        1321        1322        1373        1372
         4        1322        1323        1374        1373
         4        1323        1324        1375        1374
         4        1324        1325        1376        1375
         4        1326        1327        1378        1377
         4        1327        1328        1379        1378
         4        1328        1329        1380        1379
         4        1329        1330        1381        1380
         4        1330        1331        1382        1381
         4        1331        1332        1383        1382
         4        1332        1333        1384        1383
         4        1333        1334        1385        1384
         4        1334        1335        1386        1385
         4        1335        1336        1387        1386
         4        1336        1337        1388        1387
         4        1337        1338        1389        1388
         4        1338        1339        1390        1389
         4        1339        1340        1391        1390
         4        1340        1341        1392        1391
         4        1341        1342        1393        1392
         4        1342        1343        1394        1393
         4        1343        1344        1395        1394
         4        1344        1345        1396        1395
         4        1345        1346        1397        1396
         4        1346        1347        1398        1397
         4        1347        1348        1399        1398
         4        1348        1349        1400        1399
         4        1349        1350        1401        1400
         4        1350        1351        1402        1401
         4        1351        1352        1403        1402
         4        1352        1353        1404        1403
         4        1353        1354        1405        1404
         4        1354        1355        1406        1405
         4        1355        1356        1407        1406
         4        1356        1357        1408        1407
         4        1357        1358        1409        1408
         4        1358        1359        1410        1409
         4        1359        1360        1411        1410
         4        1360        1361        1412        1411
         4        1361        1362        1413        1412
         4        1362        1363        1414        1413
         4        1363        1364        1415        1414
         4        1364        1365        1416        1415
         4        1365        1366        1417        1416
         4        1366        1367        1418        1417
         4        1367        1368        1419        1418
         4        1368        1369        1420        1419
         4        1369        1370        1421        1420
         4        1370        1371        1422        1421
         4        1371        1372        1423        1422
         4        1372        1373        1424        1423
         4        1373        1374        1425        1424
         4        1374        1375        1426        1425
         4        1375        1376        1427        1426
         4        1377        1378        1429        1428
         4        1378        1379        1430        1429
         4        1379        1380        1431        1430
         4        1380        1381        1432        1431
         4        1381        1382        1433        1432
         4        1382        1383        1434        1433
         4        1383        1384        1435        1434
         4        1384        1385        1436        1435
         4        1385        1386        1437        1436
         4        1386        1387        1438        1437
         4        1387        1388        1439        1438
         4        1388        1389        1440        1439
         4        1389        1390        1441        1440
         4        1390        1391        1442        1441
         4        1391        1392        1443        1442
         4        1392        1393        1444        1443
         4        1393        1394        1445        1444
         4        1394        1395        1446        1445
         4        1395        1396        1447        1446
         4        1396        1397        1448        1447
         4        1397        1398        1449        1448
         4        1398        1399        1450        1449
         4        1399        1400        1451        1450
         4        1400        1401        1452        1451
         4        1401        1402        1453        1452
         4        1402        1403        1454        1453
         4        1403        1404        1455        1454
         4        1404        1405        1456        1455
         4        1405        1406        1457        1456
         4        1406        1407        1458        1457
         4        1407        1408        1459        1458
         4        1408        1409        1460        1459
         4        1409        1410        1461        1460
         4        1410        1411        1462        1461
         4        1411        1412        1463        1462
         4        1412        1413        1464        1463
         4        1413        1414        1465        1464
         4        1414        1415        1466        1465
         4        1415        1416        1467        1466
         4        1416        1417        1468        1467
         4        1417        1418        1469        1468
         4        1418        1419        1470        1469
         4        1419        1420        1471        1470
         4        1420        1421        1472        1471
         4        1421        1422        1473        1472
         4        1422        1423        1474        1473
         4        1423        1424        1475        1474
         4        1424        1425        1476        1475
         4        1425        1426        1477        1476
         4        1426        1427        1478        1477
         4        1428        1429        1480        1479
         4        1429        1430        1481        1480
         4        1430        1431        1482        1481
         4        1431        1432        1483        1482
         4        1432        1433        1484        1483
         4        1433        1434        1485        1484
         4        1434        1435        1486        1485
         4        1435        1436        1487        1486
         4        1436        1437        1488        1487
         4        1437        1438        1489        1488
         4        1438        1439        1490        1489
         4        1439        1440        1491        1490
         4        1440        1441        1492        1491
         4        1441        1442        1493        1492
         4        1442        1443        1494        1493
         4        1443        1444        1495        1494
         4        1444        1445        1496        1495
         4        1445        1446        1497        1496
         4        1446        1447        1498        1497
         4        1447        1448        1499        1498
         4        1448        1449        1500        1499
         4        1449        1450        1501        1500
         4        1450        1451        1502        1501
         4        1451        1452        1503        1502
         4        1452        1453        1504        1503
         4        1453        1454        1505        1504
         4        1454        1455        1506        1505
         4        1455        1456        1507        1506
         4        1456        1457        1508        1507
         4        1457        1458        1509        1508
         4        1458        1459        1510        1509
         4        1459        1460        1511        1510
         4        1460        1461        1512        1511
         4        1461        1462        1513        1512
         4        1462        1463        1514        1513
         4        1463        1464        1515        1514
         4        1464        1465        1516        1515
         4        1465        1466        1517        1516
         4        1466        1467        1518        1517
         4        1467        1468        1519        1518
         4        1468        1469        1520        1519
         4        1469        1470        1521        1520
         4        1470        1471        1522        1521
         4        1471        1472        1523        1522
         4        1472        1473        1524        1523
         4        1473        1474        1525        1524
         4        1474        1475        1526        1525
         4        1475        1476        1527        1526
         4        1476        1477        1528        1527
         4        1477        1478        1529        1528
         4        1479        1480        1531        1530
         4        1480        1481        1532        1531
         4        1481        1482        1533        1532
         4        1482        1483        1534        1533
         4        1483        1484        1535        1534
         4        1484        1485        1536        1535
         4        1485        1486        1537        1536
         4        1486        1487        1538        1537
         4        1487        1488        1539        1538
         4        1488        1489        1540        1539
         4        1489        1490        1541        1540
         4        1490        1491        1542        1541
         4        1491        1492        1543        1542
         4        1492        1493        1544        1543
         4        1493        1494        1545        1544
         4        1494        1495        1546        1545
         4        1495        1496        1547        1546
         4        1496        1497        1548        1547
         4        1497        1498        1549        1548
         4        1498        1499        1550        1549
         4        1499        1500        1551        1550
         4        1500        1501        1552        1551
         4        1501        1502        1553        1552
         4        1502        1503        1554        1553
         4        1503        1504        1555        1554
         4        1504        1505        1556        1555
         4        1505        1506        1557        1556
         4        1506        1507        1558        1557
         4        1507        1508        1559        1558
         4        1508        1509        1560        1559
         4        1509        1510        1561        1560
         4        1510        1511        1562        1561
         4        1511        1512        1563        1562
         4        1512        1513        1564        1563
         4        1513        1514        1565        1564
         4        1514        1515        1566        1565
         4        1515        1516        1567        1566
         4        1516        1517        1568        1567
         4        1517        1518        1569        1568
         4        1518        1519        1570        1569
         4        1519        1520        1571        1570
         4        1520        1521        1572        1571
         4        1521        1522        1573        1572
         4        1522        1523        1574        1573
         4        1523        1524        1575        1574
         4        1524        1525        1576        1575
         4        1525        1526        1577        1576
         4        1526        1527        1578        1577
         4        1527        1528        1579        1578
         4        1528        1529        1580        1579
         4        1530        1531        1582        1581
         4        1531        1532        1583        1582
         4        1532        1533        1584        1583
         4        1533        1534        1585        1584
         4        1534        1535        1586        1585
         4        1535        1536        1587        1586
         4        1536        1537        1588        1587
         4        1537        1538        1589        1588
         4        1538        1539        1590        1589
         4        1539        1540        1591        1590
         4        1540        1541        1592        1591
         4        1541        1542        1593        1592
         4        1542        1543        1594        1593
         4        1543        1544        1595        1594
         4        1544        1545        1596        1595
         4        1545        1546        1597        1596
         4        1546        1547        1598        1597
         4        1547        1548        1599        1598
         4        1548        1549        1600        1599
         4        1549        1550        1601        1600
         4        1550        1551        1602        1601
         4        1551        1552        1603        1602
         4        1552        1553        1604        1603
         4        1553        1554        1605        1604
         4        1554        1555        1606        1605
         4        1555        1556        1607        1606
         4        1556        1557        1608        1607
         4        1557        1558        1609        1608
         4        1558        1559        1610        1609
         4        1559        1560        1611        1610
         4        1560        1561        1612        1611
         4        1561        1562        1613        1612
         4        1562        1563        1614        1613
         4        1563        1564        1615        1614
         4        1564        1565        1616        1615
         4        1565        1566        1617        1616
         4        1566        1567        1618        1617
         4        1567        1568        1619        1618
         4        1568        1569        1620        1619
         4        1569        1570        1621        1620
         4        1570        1571        1622        1621
         4        1571        1572        1623        1622
         4        1572        1573        1624        1623
         4        1573        1574        1625        1624
         4        1574        1575        1626        1625
         4        1575        1576        1627        1626
         4        1576        1577        1628        1627
         4        1577        1578        1629        1628
         4        1578        1579        1630        1629
         4        1579        1580        1631        1630
         4        1581        1582        1633        1632
         4        1582        1583        1634        1633
         4        1583        1584        1635        1634
         4        1584        1585        1636        1635
         4        1585        1586        1637        1636
         4        1586        1587        1638        1637
         4        1587        1588        1639        1638
         4        1588        1589        1640        1639
         4        1589        1590        1641        1640
         4        1590        1591        1642        1641
         4        1591        1592        1643        1642
         4        1592        1593        1644        1643
         4        1593        1594        1645        1644
         4        1594        1595        1646        1645
         4        1595        1596        1647        1646
         4        1596        1597        1648        1647
         4        1597        1598        1649        1648
         4        1598        1599        1650        1649
         4        1599        1600        1651        1650
         4        1600        1601        1652        1651
         4        1601        1602        1653        1652
         4        1602        1603        1654        1653
         4        1603        1604        1655        1654
         4        1604        1605        1656        1655
         4        1605        1606        1657        1656
         4        1606        1607        1658        1657
         4        1607        1608        1659        1658
         4        1608        1609        1660        1659
         4        1609        1610        1661        1660
         4        1610        1611        1662        1661
         4        1611        1612        1663        1662
         4        1612        1613        1664        1663
         4        1613        1614        1665        1664
         4        1614        1615        1666        1665
         4        1615        1616        1667        1666
         4        1616        1617        1668        1667
         4        1617        1618        1669        1668
         4        1618        1619        1670        1669
         4        1619        1620        1671        1670
         4        1620        1621        1672        1671
         4        1621        1622        1673        1672
         4        1622        1623        1674        1673
         4        1623        1624        1675        1674
         4        1624        1625        1676        1675
         4        1625        1626        1677        1676
         4        1626        1627        1678        1677
         4        1627        1628        1679        1678
         4        1628        1629        1680        1679
         4        1629        1630        1681        1680
         4        1630        1631        1682        1681
         4        1632        1633        1684        1683
         4        1633        1634        1685        1684
         4        1634        1635        1686        1685
         4        1635        1636        1687        1686
         4        1636        1637        1688        1687
         4        1637        1638        1689        1688
         4        1638        1639        1690        1689
         4        1639        1640        1691        1690
         4        1640        1641        1692        1691
         4        1641        1642        1693        1692
         4        1642        1643        1694        1693
         4        1643        1644        1695        1694
         4        1644        1645        1696        1695
         4        1645        1646        1697        1696
         4        1646        1647        1698        1697
         4        1647        1648        1699        1698
         4        1648        1649        1700        1699
         4        1649        1650        1701        1700
         4        1650        1651        1702        1701
         4        1651        1652        1703        1702
         4        1652        1653        1704        1703
         4        1653        1654        1705        1704
         4        1654        1655        1706        1705
         4        1655        1656        1707        1706
         4        1656        1657        1708        1707
         4        1657        1658        1709        1708
         4        1658        1659        1710        1709
         4        1659        1660        1711        1710
         4        1660        1661        1712        1711
         4        1661        1662        1713        1712
         4        1662        1663        1714        1713
         4        1663        1664        1715        1714
         4        1664        1665        1716        1715
         4        1665        1666        1717        1716
         4        1666        1667        1718        1717
         4        1667        1668        1719        1718
         4        1668        1669        1720        1719
         4        1669        1670        1721        1720
         4        1670        1671        1722        1721
         4        1671        1672        1723        1722
         4        1672        1673        1724        1723
         4        1673        1674        1725        1724
         4        1674        1675        1726        1725
         4        1675        1676        1727        1726
         4        1676        1677        1728        1727
         4        1677        1678        1729        1728
         4        1678        1679        1730        1729
         4        1679        1680        1731        1730
         4        1680        1681        1732        1731
         4        1681        1682        1733        1732
         4        1683        1684        1735        1734
         4        1684        1685        1736        1735
         4        1685        1686        1737        1736
         4        1686        1687        1738        1737
         4        1687        1688        1739        1738
         4        1688        1689        1740        1739
         4        1689        1690        1741        1740
         4        1690        1691        1742        1741
         4        1691        1692        1743        1742
         4        1692        1693        1744        1743
         4        1693        1694        1745        1744
         4        1694        1695        1746        1745
         4        1695        1696        1747        1746
         4        1696        1697        1748        1747
         4        1697        1698        1749        1748
         4        1698        1699        1750        1749
         4        1699        1700        1751        1750
         4        1700        1701        1752        1751
         4        1701        1702        1753        1752
         4        1702        1703        1754        1753
         4        1703        1704        1755        1754
         4        1704        1705        1756        1755
         4        1705        1706        1757        1756
         4        1706        1707        1758        1757
         4        1707        1708        1759        1758
         4        1708        1709        1760        1759
         4        1709        1710        1761        1760
         4        1710        1711        1762        1761
         4        1711        1712        1763        1762
         4        1712        1713        1764        1763
         4        1713        1714        1765        1764
         4        1714        1715        1766        1765
         4        1715        1716        1767        1766
         4        1716        1717        1768        1767
         4        1717        1718        1769        1768
         4        1718        1719        1770        1769
         4        1719        1720        1771        1770
         4        1720        1721        1772        1771
         4        1721        1722        1773        1772
         4        1722        1723        1774        1773
         4        1723        1724        1775        1774
         4        1724        1725        1776        1775
         4        1725        1726        1777        1776
         4        1726        1727        1778        1777
         4        1727        1728        1779        1778
         4        1728        1729        1780        1779
         4        1729        1730        1781        1780
         4        1730        1731        1782        1781
         4        1731        1732        1783        1782
         4        1732        1733        1784        1783
         4        1734        1735        1786        1785
         4        1735        1736        1787        1786
         4        1736        1737        1788        1787
         4        1737        1738        1789        1788
         4        1738        1739        1790        1789
         4        1739        1740        1791        1790
         4        1740        1741        1792        1791
         4        1741        1742        1793        1792
         4        1742        1743        1794        1793
         4        1743        1744        1795        1794
         4        1744        1745        1796        1795
         4        1745        1746        1797        1796
         4        1746        1747        1798        1797
         4        1747        1748        1799        1798
         4        1748        1749        1800        1799
         4        1749        1750        1801        1800
         4        1750        1751        1802        1801
         4        1751        1752        1803        1802
         4        1752        1753        1804        1803
         4        1753        1754        1805        1804
         4        1754        1755        1806        1805
         4        1755        1756        1807        1806
         4        1756        1757        1808        1807
         4        1757        1758        1809        1808
         4        1758        1759        1810        1809
         4        1759        1760        1811        1810
         4        1760        1761        1812        1811
         4        1761        1762        1813        1812
         4        1762        1763        1814        1813
         4        1763        1764        1815        1814
         4        1764        1765        1816        1815
         4        1765        1766        1817        1816
         4        1766        1767        1818        1817
         4        1767        1768        1819        1818
         4        1768        1769        1820        1819
         4        1769        1770        1821        1820
         4        1770        1771        1822        1821
         4        1771        1772        1823        1822
         4        1772        1773        1824        1823
         4        1773        1774        1825        1824
         4        1774        1775        1826        1825
         4        1775        1776        1827        1826
         4        1776        1777        1828        1827
         4        1777        1778        1829        1828
         4        1778        1779        1830        1829
         4        1779        1780        1831        1830
         4        1780        1781        1832        1831
         4        1781        1782        1833        1832
         4        1782        1783        1834        1833
         4        1783        1784        1835        1834
         4        1785        1786        1837        1836
         4        1786        1787        1838        1837
         4        1787        1788        1839        1838
         4        1788        1789        1840        1839
         4        1789        1790        1841        1840
         4        1790        1791        1842        1841
         4        1791        1792        1843        1842
         4        1792        1793        1844        1843
         4        1793        1794        1845        1844
         4        1794        1795        1846        1845
         4        1795        1796        1847        1846
         4        1796        1797        1848        1847
         4        1797        1798        1849        1848
         4        1798        1799        1850        1849
         4        1799        1800        1851        1850
         4        1800        1801        1852        1851
         4        1801        1802        1853        1852
         4        1802        1803        1854        1853
         4        1803        1804        1855        1854
         4        1804        1805        1856        1855
         4        1805        1806        1857        1856
         4        1806        1807        1858        1857
         4        1807        1808        1859        1858
         4        1808        1809        1860        1859
         4        1809        1810        1861        1860
         4        1810        1811        1862        1861
         4        1811        1812        1863        1862
         4        1812        1813        1864        1863
         4        1813        1814        1865        1864
         4        1814        1815        1866        1865
         4        1815        1816        1867        1866
         4        1816        1817        1868        1867
         4        1817        1818        1869        1868
         4        1818        1819        1870        1869
         4        1819        1820        1871        1870
         4        1820        1821        1872        1871
         4        1821        1822        1873        1872
         4        1822        1823        1874        1873
         4        1823        1824        1875        1874
         4        1824        1825        1876        1875
         4        1825        1826        1877        1876
         4        1826        1827        1878        1877
         4        1827        1828        1879        1878
         4        1828        1829        1880        1879
         4        1829        1830        1881        1880
         4        1830        1831        1882        1881
         4        1831        1832        1883        1882
         4        1832        1833        1884        1883
         4        1833        1834        1885        1884
         4        1834        1835        1886        1885
         4        1836        1837        1888        1887
         4        1837        1838        1889        1888
         4        1838        1839        1890        1889
         4        1839        1840        1891        1890
         4        1840        1841        1892        1891
         4        1841        1842        1893        1892
         4        1842        1843        1894        1893
         4        1843        1844        1895        1894
         4        1844        1845        1896        1895
         4        1845        1846        1897        1896
         4        1846        1847        1898        1897
         4        1847        1848        1899        1898
         4        1848        1849        1900        1899
         4        1849        1850        1901        1900
         4        1850        1851        1902        1901
         4        1851        1852        1903        1902
         4        1852        1853        1904        1903
         4        1853        1854        1905        1904
         4        1854        1855        1906        1905
         4        1855        1856        1907        1906
         4        1856        1857        1908        1907
         4        1857        1858        1909        1908
         4        1858        1859        1910        1909
         4        1859        1860        1911        1910
         4        1860        1861        1912        1911
         4        1861        1862        1913        1912
         4        1862        1863        1914        1913
         4        1863        1864        1915        1914
         4        1864        1865        1916        1915
         4        1865        1866        1917        1916
         4        1866        1867        1918        1917
         4        1867        1868        1919        1918
         4        1868        1869        1920        1919
         4        1869        1870        1921        1920
         4        1870        1871        1922        1921
         4        1871        1872        1923        1922
         4        1872        1873        1924        1923
         4        1873        1874        1925        1924
         4        1874        1875        1926        1925
         4        1875        1876        1927        1926
         4        1876        1877        1928        1927
         4        1877        1878        1929        1928
         4        1878        1879        1930        1929
         4        1879        1880        1931        1930
         4        1880        1881        1932        1931
         4        1881        1882        1933        1932
         4        1882        1883        1934        1933
         4        1883        1884        1935        1934
         4        1884        1885        1936        1935
         4        1885        1886        1937        1936
         4        1887        1888        1939        1938
         4        1888        1889        1940        1939
         4        1889        1890        1941        1940
         4        1890        1891        1942        1941
         4        1891        1892        1943        1942
         4        1892        1893        1944        1943
         4        1893        1894        1945        1944
         4        1894        1895        1946        1945
         4        1895        1896        1947        1946
         4        1896        1897        1948        1947
         4        1897        1898        1949        1948
         4        1898        1899        1950        1949
         4        1899        1900        1951        1950
         4        1900        1901        1952        1951
         4        1901        1902        1953        1952
         4        1902        1903        1954        1953
         4        1903        1904        1955        1954
         4        1904        1905        1956        1955
         4        1905        1906        1957        1956
         4        1906        1907        1958        1957
         4        1907        1908        1959        1958
         4        1908        1909        1960        1959
         4        1909        1910        1961        1960
         4        1910        1911        1962        1961
         4        1911        1912        1963        1962
         4        1912        1913        1964        1963
         4        1913        1914        1965        1964
         4        1914        1915        1966        1965
         4        1915        1916        1967        1966
         4        1916        1917        1968        1967
         4        1917        1918        1969        1968
         4        1918        1919        1970        1969
         4        1919        1920        1971        1970
         4        1920        1921        1972        1971
         4        1921        1922        1973        1972
         4        1922        1923        1974        1973
         4        1923        1924        1975        1974
         4        1924        1925        1976        1975
         4        1925        1926        1977        1976
         4        1926        1927        1978        1977
         4        1927        1928        1979        1978
         4        1928        1929        1980        1979
         4        1929        1930        1981        1980
         4        1930        1931        1982        1981
         4        1931        1932        1983        1982
         4        1932        1933        1984        1983
         4        1933        1934        1985        1984
         4        1934        1935        1986        1985
         4        1935        1936        1987        1986
         4        1936        1937        1988        1987
         4        1938        1939        1990        1989
         4        1939        1940        1991        1990
         4        1940        1941        1992        1991
         4        1941        1942        1993        1992
         4        1942        1943        1994        1993
         4        1943        1944        1995        1994
         4        1944        1945        1996        1995
         4        1945        1946        1997        1996
         4        1946        1947        1998        1997
         4        1947        1948        1999        1998
         4        1948        1949        2000        1999
         4        1949        1950        2001        2000
         4        1950        1951        2002        2001
         4        1951        1952        2003        2002
         4        1952        1953        2004        2003
         4        1953        1954        2005        2004
         4        1954        1955        2006        2005
         4        1955        1956        2007        2006
         4        1956        1957        2008        2007
         4        1957        1958        2009        2008
         4        1958        1959        2010        2009
         4        1959        1960        2011        2010
         4        1960        1961        2012        2011
         4        1961        1962        2013        2012
         4        1962        1963        2014        2013
         4        1963        1964        2015        2014
         4        1964        1965        2016        2015
         4        1965        1966        2017        2016
         4        1966        1967        2018        2017
         4        1967        1968        2019        2018
         4        1968        1969        2020        2019
         4        1969        1970        2021        2020
         4        1970        1971        2022        2021
         4        1971        1972        2023        2022
         4        1972        1973        2024        2023
         4        1973        1974        2025        2024
         4        1974        1975        2026        2025
         4        1975        1976        2027        2026
         4        1976        1977        2028        2027
         4        1977        1978        2029        2028
         4        1978        1979        2030        2029
         4        1979        1980        2031        2030
         4        1980        1981        2032        2031
         4        1981        1982        2033        2032
         4        1982        1983        2034        2033
         4        1983        1984        2035        2034
         4        1984        1985        2036        2035
         4        1985        1986        2037        2036
         4        1986        1987        2038        2037
         4        1987        1988        2039        2038
         4        1989        1990        2041        2040
         4        1990        1991        2042        2041
         4        1991        1992        2043        2042
         4        1992        1993        2044        2043
         4        1993        1994        2045        2044
         4        1994        1995        2046        2045
         4        1995        1996        2047        2046
         4        1996        1997        2048        2047
         4        1997        1998        2049        2048
         4        1998        1999        2050        2049
         4        1999        2000        2051        2050
         4        2000        2001        2052        2051
         4        2001        2002        2053        2052
         4        2002        2003        2054        2053
         4        2003        2004        2055        2054
         4        2004        2005        2056        2055
         4        2005        2006        2057        2056
         4        2006        2007        2058        2057
         4        2007        2008        2059        2058
         4        2008        2009        2060        2059
         4        2009        2010        2061        2060
         4        2010        2011        2062        2061
         4        2011        2012        2063        2062
         4        2012        2013        2064        2063
         4        2013        2014        2065        2064
         4        2014        2015        2066        2065
         4        2015        2016        2067        2066
         4        2016        2017        2068        2067
         4        2017        2018        2069        2068
         4        2018        2019        2070        2069
         4        2019        2020        2071        2070
         4        2020        2021        2072        2071
         4        2021        2022        2073        2072
         4        2022        2023        2074        2073
         4        2023        2024        2075        2074
         4        2024        2025        2076        2075
         4        2025        2026        2077        2076
         4        2026        2027        2078        2077
         4        2027        2028        2079        2078
         4        2028        2029        2080        2079
         4        2029        2030        2081        2080
         4        2030        2031        2082        2081
         4        2031        2032        2083        2082
         4        2032        2033        2084        2083
         4        2033        2034        2085        2084
         4        2034        2035        2086        2085
         4        2035        2036        2087        2086
         4        2036        2037        2088        2087
         4        2037        2038        2089        2088
         4        2038        2039        2090        2089
         4        2040        2041        2092        2091
         4        2041        2042        2093        2092
         4        2042        2043        2094        2093
         4        2043        2044        2095        2094
         4        2044        2045        2096        2095
         4        2045        2046        2097        2096
         4        2046        2047        2098        2097
         4        2047        2048        2099        2098
         4        2048        2049        2100        2099
         4        2049        2050        2101        2100
         4        2050        2051        2102        2101
         4        2051        2052        2103        2102
         4        2052        2053        2104        2103
         4        2053        2054        2105        2104
         4        2054        2055        2106        2105
         4        2055        2056        2107        2106
         4        2056        2057        2108        2107
         4        2057        2058        2109        2108
         4        2058        2059        2110        2109
         4        2059        2060        2111        2110
         4        2060        2061        2112        2111
         4        2061        2062        2113        2112
         4        2062        2063        2114        2113
         4        2063        2064        2115        2114
         4        2064        2065        2116        2115
         4        2065        2066        2117        2116
         4        2066        2067        2118        2117
         4        2067        2068        2119        2118
         4        2068        2069        2120        2119
         4        2069        2070        2121        2120
         4        2070        2071        2122        2121
         4        2071        2072        2123        2122
         4        2072        2073        2124        2123
         4        2073        2074        2125        2124
         4        2074        2075        2126        2125
         4        2075        2076        2127        2126
         4        2076        2077        2128        2127
         4        2077        2078        2129        2128
         4        2078        2079        2130        2129
         4        2079        2080        2131        2130
         4        2080        2081        2132        2131
         4        2081        2082        2133        2132
         4        2082        2083        2134        2133
         4        2083        2084        2135        2134
         4        2084        2085        2136        2135
         4        2085        2086        2137        2136
         4        2086        2087        2138        2137
         4        2087        2088        2139        2138
         4        2088        2089        2140        2139
         4        2089        2090        2141        2140
         4        2091        2092        2143        2142
         4        2092        2093        2144        2143
         4        2093        2094        2145        2144
         4        2094        2095        2146        2145
         4        2095        2096        2147        2146
         4        2096        2097        2148        2147
         4        2097        2098        2149        2148
         4        2098        2099        2150        2149
         4        2099        2100        2151        2150
         4        2100        2101        2152        2151
         4        2101        2102        2153        2152
         4        2102        2103        2154        2153
         4        2103        2104        2155        2154
         4        2104        2105        2156        2155
         4        2105        2106        2157        2156
         4        2106        2107        2158        2157
         4        2107        2108        2159        2158
         4        2108        2109        2160        2159
         4        2109        2110        2161        2160
         4        2110        2111        2162        2161
         4        2111        2112        2163        2162
         4        2112        2113        2164        2163
         4        2113        2114        2165        2164
         4        2114        2115        2166        2165
         4        2115        2116        2167        2166
         4        2116        2117        2168        2167
         4        2117        2118        2169        2168
         4        2118        2119        2170        2169
         4        2119        2120        2171        2170
         4        2120        2121        2172        2171
         4        2121        2122        2173        2172
         4        2122        2123        2174        2173
         4        2123        2124        2175        2174
         4        2124        2125        2176        2175
         4        2125        2126        2177        2176
         4        2126        2127        2178        2177
         4        2127        2128        2179        2178
         4        2128        2129        2180        2179
         4        2129        2130        2181        2180
         4        2130        2131        2182        2181
         4        2131        2132        2183        2182
         4        2132        2133        2184        2183
         4        2133        2134        2185        2184
         4        2134        2135        2186        2185
         4        2135        2136        2187        2186
         4        2136        2137        2188        2187
         4        2137        2138        2189        2188
         4        2138        2139        2190        2189
         4        2139        2140        2191        2190
         4        2140        2141        2192        2191
         4        2142        2143        2194        2193
         4        2143        2144        2195        2194
         4        2144        2145        2196        2195
         4        2145        2146        2197        2196
         4        2146        2147        2198        2197
         4        2147        2148        2199        2198
         4        2148        2149        2200        2199
         4        2149        2150        2201        2200
         4        2150        2151        2202        2201
         4        2151        2152        2203        2202
         4        2152        2153        2204        2203
         4        2153        2154        2205        2204
         4        2154        2155        2206        2205
         4        2155        2156        2207        2206
         4        2156        2157        2208        2207
         4        2157        2158        2209        2208
         4        2158        2159        2210        2209
         4        2159        2160        2211        2210
         4        2160        2161        2212        2211
         4        2161        2162        2213        2212
         4        2162        2163        2214        2213
         4        2163        2164        2215        2214
         4        2164        2165        2216        2215
         4        2165        2166        2217        2216
         4        2166        2167        2218        2217
         4        2167        2168        2219        2218
         4        2168        2169        2220        2219
         4        2169        2170        2221        2220
         4        2170        2171        2222        2221
         4        2171        2172        2223        2222
         4        2172        2173        2224        2223
         4        2173        2174        2225        2224
         4        2174        2175        2226        2225
         4        2175        2176        2227        2226
         4        2176        2177        2228        2227
         4        2177        2178        2229        2228
         4        2178        2179        2230        2229
         4        2179        2180        2231        2230
         4        2180        2181        2232        2231
         4        2181        2182        2233        2232
         4        2182        2183        2234        2233
         4        2183        2184        2235        2234
         4        2184        2185        2236        2235
         4        2185        2186        2237        2236
         4        2186        2187        2238        2237
         4        2187        2188        2239        2238
         4        2188        2189        2240        2239
         4        2189        2190        2241        2240
         4        2190        2191        2242        2241
         4        2191        2192        2243        2242
         4        2193        2194        2245        2244
         4        2194        2195        2246        2245
         4        2195        2196        2247        2246
         4        2196        2197        2248        2247
         4        2197        2198        2249        2248
         4        2198        2199        2250        2249
         4        2199        2200        2251        2250
         4        2200        2201        2252        2251
         4        2201        2202        2253        2252
         4        2202        2203        2254        2253
         4        2203        2204        2255        2254
         4        2204        2205        2256        2255
         4        2205        2206        2257        2256
         4        2206        2207        2258        2257
         4        2207        2208        2259        2258
         4        2208        2209        2260        2259
         4        2209        2210        2261        2260
         4        2210        2211        2262        2261
         4        2211        2212        2263        2262
         4        2212        2213        2264        2263
         4        2213        2214        2265        2264
         4        2214        2215        2266        2265
         4        2215        2216        2267        2266
         4        2216        2217        2268        2267
         4        2217        2218        2269        2268
         4        2218        2219        2270        2269
         4        2219        2220        2271        2270
         4        2220        2221        2272        2271
         4        2221        2222        2273        2272
         4        2222        2223        2274        2273
         4        2223        2224        2275        2274
         4        2224        2225        2276        2275
         4        2225        2226        2277        2276
         4        2226        2227        2278        2277
         4        2227        2228        2279        2278
         4        2228        2229        2280        2279
         4        2229        2230        2281        2280
         4        2230        2231        2282        2281
         4        2231        2232        2283        2282
         4        2232        2233        2284        2283
         4        2233        2234        2285        2284
         4        2234        2235        2286        2285
         4        2235        2236        2287        2286
         4        2236        2237        2288        2287
         4        2237        2238        2289        2288
         4        2238        2239        2290        2289
         4        2239        2240        2291        2290
         4        2240        2241        2292        2291
         4        2241        2242        2293        2292
         4        2242        2243        2294        2293
         4        2244        2245        2296        2295
         4        2245        2246        2297        2296
         4        2246        2247        2298        2297
         4        2247        2248        2299        2298
         4        2248        2249        2300        2299
         4        2249        2250        2301        2300
         4        2250        2251        2302        2301
         4        2251        2252        2303        2302
         4        2252        2253        2304        2303
         4        2253        2254        2305        2304
         4        2254        2255        2306        2305
         4        2255        2256        2307        2306
         4        2256        2257        2308        2307
         4        2257        2258        2309        2308
         4        2258        2259        2310        2309
         4        2259        2260        2311        2310
         4        2260        2261        2312        2311
         4        2261        2262        2313        2312
         4        2262        2263        2314        2313
         4        2263        2264        2315        2314
         4        2264        2265        2316        2315
         4        2265        2266        2317        2316
         4        2266        2267        2318        2317
         4        2267        2268        2319        2318
         4        2268        2269        2320        2319
         4        2269        2270        2321        2320
         4        2270        2271        2322        2321
         4        2271        2272        2323        2322
         4        2272        2273        2324        2323
         4        2273        2274        2325        2324
         4        2274        2275        2326        2325
         4        2275        2276        2327        2326
         4        2276        2277        2328        2327
         4        2277        2278        2329        2328
         4        2278        2279        2330        2329
         4        2279        2280        2331        2330
         4        2280        2281        2332        2331
         4        2281        2282        2333        2332
         4        2282        2283        2334        2333
         4        2283        2284        2335        2334
         4        2284        2285        2336        2335
         4        2285        2286        2337        2336
         4        2286        2287        2338        2337
         4        2287        2288        2339        2338
         4        2288        2289        2340        2339
         4        2289        2290        2341        2340
         4        2290        2291        2342        2341
         4        2291        2292        2343        2342
         4        2292        2293        2344        2343
         4        2293        2294        2345        2344
         4        2295        2296        2347        2346
         4        2296        2297        2348        2347
         4        2297        2298        2349        2348
         4        2298        2299        2350        2349
         4        2299        2300        2351        2350
         4        2300        2301        2352        2351
         4        2301        2302        2353        2352
         4        2302        2303        2354        2353
         4        2303        2304        2355        2354
         4        2304        2305        2356        2355
         4        2305        2306        2357        2356
         4        2306        2307        2358        2357
         4        2307        2308        2359        2358
         4        2308        2309        2360        2359
         4        2309        2310        2361        2360
         4        2310        2311        2362        2361
         4        2311        2312        2363        2362
         4        2312        2313        2364        2363
         4        2313        2314        2365        2364
         4        2314        2315        2366        2365
         4        2315        2316        2367        2366
         4        2316        2317        2368        2367
         4        2317        2318        2369        2368
         4        2318        2319        2370        2369
         4        2319        2320        2371        2370
         4        2320        2321        2372        2371
         4        2321        2322        2373        2372
         4        2322        2323        2374        2373
         4        2323        2324        2375        2374
         4        2324        2325        2376        2375
         4        2325        2326        2377        2376
         4        2326        2327        2378        2377
         4        2327        2328        2379        2378
         4        2328        2329        2380        2379
         4        2329        2330        2381        2380
         4        2330        2331        2382        2381
         4        2331        2332        2383        2382
         4        2332        2333        2384        2383
         4        2333        2334        2385        2384
         4        2334        2335        2386        2385
         4        2335        2336        2387        2386
         4        2336        2337        2388        2387
         4        2337        2338        2389        2388
         4        2338        2339        2390        2389
         4        2339        2340        2391        2390
         4        2340        2341        2392        2391
         4        2341        2342        2393        2392
         4        2342        2343        2394        2393
         4        2343        2344        2395        2394
         4        2344        2345        2396        2395
         4        2346        2347        2398        2397
         4        2347        2348        2399        2398
         4        2348        2349        2400        2399
         4        2349        2350        2401        2400
         4        2350        2351        2402        2401
         4        2351        2352        2403        2402
         4        2352        2353        2404        2403
         4        2353        2354        2405        2404
         4        2354        2355        2406        2405
         4        2355        2356        2407        2406
         4        2356        2357        2408        2407
         4        2357        2358        2409        2408
         4        2358        2359        2410        2409
         4        2359        2360        2411        2410
         4        2360        2361        2412        2411
         4        2361        2362        2413        2412
         4        2362        2363        2414        2413
         4        2363        2364        2415        2414
         4        2364        2365        2416        2415
         4        2365        2366        2417        2416
         4        2366        2367        2418        2417
         4        2367        2368        2419        2418
         4        2368        2369        2420        2419
         4        2369        2370        2421        2420
         4        2370        2371        2422        2421
         4        2371        2372        2423        2422
         4        2372        2373        2424        2423
         4        2373        2374        2425        2424
         4        2374        2375        2426        2425
         4        2375        2376        2427        2426
         4        2376        2377        2428        2427
         4        2377        2378        2429        2428
         4        2378        2379        2430        2429
         4        2379        2380        2431        2430
         4        2380        2381        2432        2431
         4        2381        2382        2433        2432
         4        2382        2383        2434        2433
         4        2383        2384        2435        2434
         4        2384        2385        2436        2435
         4        2385        2386        2437        2436
         4        2386        2387        2438        2437
         4        2387        2388        2439        2438
         4        2388        2389        2440        2439
         4        2389        2390        2441        2440
         4        2390        2391        2442        2441
         4        2391        2392        2443        2442
         4        2392        2393        2444        2443
         4        2393        2394        2445        2444
         4        2394        2395        2446        2445
         4        2395        2396        2447        2446
         4        2397        2398        2449        2448
         4        2398        2399        2450        2449
         4        2399        2400        2451        2450
         4        2400        2401        2452        2451
         4        2401        2402        2453        2452
         4        2402        2403        2454        2453
         4        2403        2404        2455        2454
         4        2404        2405        2456        2455
         4        2405        2406        2457        2456
         4        2406        2407        2458        2457
         4        2407        2408        2459        2458
         4        2408        2409        2460        2459
         4        2409        2410        2461        2460
         4        2410        2411        2462        2461
         4        2411        2412        2463        2462
         4        2412        2413        2464        2463
         4        2413        2414        2465        2464
         4        2414        2415        2466        2465
         4        2415        2416        2467        2466
         4        2416        2417        2468        2467
         4        2417        2418        2469        2468
         4        2418        2419        2470        2469
         4        2419        2420        2471        2470
         4        2420        2421        2472        2471
         4        2421        2422        2473        2472
         4        2422        2423        2474        2473
         4        2423        2424        2475        2474
         4        2424        2425        2476        2475
         4        2425        2426        2477        2476
         4        2426        2427        2478        2477
         4        2427        2428        2479        2478
         4        2428        2429        2480        2479
         4        2429        2430        2481        2480
         4        2430        2431        2482        2481
         4        2431        2432        2483        2482
         4        2432        2433        2484        2483
         4        2433        2434        2485        2484
         4        2434        2435        2486        2485
         4        2435        2436        2487        2486
         4        2436        2437        2488        2487
         4        2437        2438        2489        2488
         4        2438        2439        2490        2489
         4        2439        2440        2491        2490
         4        2440        2441        2492        2491
         4        2441        2442        2493        2492
         4        2442        2443        2494        2493
         4        2443        2444        2495        2494
         4        2444        2445        2496        2495
         4        2445        2446        2497        2496
         4        2446        2447        2498        2497
         4        2448        2449        2500        2499
         4        2449        2450        2501        2500
         4        2450        2451        2502        2501
         4        2451        2452        2503        2502
         4        2452        2453        2504        2503
         4        2453        2454        2505        2504
         4        2454        2455        2506        2505
         4        2455        2456        2507        2506
         4        2456        2457        2508        2507
         4        2457        2458        2509        2508
         4        2458        2459        2510        2509
         4        2459        2460        2511        2510
         4        2460        2461        2512        2511
         4        2461        2462        2513        2512
         4        2462        2463        2514        2513
         4        2463        2464        2515        2514
         4        2464        2465        2516        2515
         4        2465        2466        2517        2516
         4        2466        2467        2518        2517
         4        2467        2468        2519        2518
         4        2468        2469        2520        2519
         4        2469        2470        2521        2520
         4        2470        2471        2522        2521
         4        2471        2472        2523        2522
         4        2472        2473        2524        2523
         4        2473        2474        2525        2524
         4        2474        2475        2526        2525
         4        2475        2476        2527        2526
         4        2476        2477        2528        2527
         4        2477        2478        2529        2528
         4        2478        2479        2530        2529
         4        2479        2480        2531        2530
         4        2480        2481        2532        2531
         4        2481        2482        2533        2532
         4        2482        2483        2534        2533
         4        2483        2484        2535        2534
         4        2484        2485        2536        2535
         4        2485        2486        2537        2536
         4        2486        2487        2538        2537
         4        2487        2488        2539        2538
         4        2488        2489        2540        2539
         4        2489        2490        2541        2540
         4        2490        2491        2542        2541
         4        2491        2492        2543        2542
         4        2492        2493        2544        2543
         4        2493        2494        2545        2544
         4        2494        2495        2546        2545
         4        2495        2496        2547        2546
         4        2496        2497        2548        2547
         4        2497        2498        2549        2548
         4        2499        2500        2551        2550
         4        2500        2501        2552        2551
         4        2501        2502        2553        2552
         4        2502        2503        2554        2553
         4        2503        2504        2555        2554
         4        2504        2505        2556        2555
         4        2505        2506        2557        2556
         4        2506        2507        2558        2557
         4        2507        2508        2559        2558
         4        2508        2509        2560        2559
         4        2509        2510        2561        2560
         4        2510        2511        2562        2561
         4        2511        2512        2563        2562
         4        2512        2513        2564        2563
         4        2513        2514        2565        2564
         4        2514        2515        2566        2565
         4        2515        2516        2567        2566
         4        2516        2517        2568        2567
         4        2517        2518        2569        2568
         4        2518        2519        2570        2569
         4        2519        2520        2571        2570
         4        2520        2521        2572        2571
         4        2521        2522        2573        2572
         4        2522        2523        2574        2573
         4        2523        2524        2575        2574
         4        2524        2525        2576        2575
         4        2525        2526        2577        2576
         4        2526        2527        2578        2577
         4        2527        2528        2579        2578
         4        2528        2529        2580        2579
         4        2529        2530        2581        2580
         4        2530        2531        2582        2581
         4        2531        2532        2583        2582
         4        2532        2533        2584        2583
         4        2533        2534        2585        2584
         4        2534        2535        2586        2585
         4        2535        2536        2587        2586
         4        2536        2537        2588        2587
         4        2537        2538        2589        2588
         4        2538        2539        2590        2589
         4        2539        2540        2591        2590
         4        2540        2541        2592        2591
         4        2541        2542        2593        2592
         4        2542        2543        2594        2593
         4        2543        2544        2595        2594
         4        2544        2545        2596        2595
         4        2545        2546        2597        2596
         4        2546        2547        2598        2597
         4        2547        2548        2599        2598
         4        2548        2549        2600        2599
         4        2550        2551        2602        2601
         4        2551        2552        2603        2602
         4        2552        2553        2604        2603
         4        2553        2554        2605        2604
         4        2554        2555        2606        2605
         4        2555        2556        2607        2606
         4        2556        2557        2608        2607
         4        2557        2558        2609        2608
         4        2558        2559        2610        2609
         4        2559        2560        2611        2610
         4        2560        2561        2612        2611
         4        2561        2562        2613        2612
         4        2562        2563        2614        2613
         4        2563        2564        2615        2614
         4        2564        2565        2616        2615
         4        2565        2566        2617        2616
         4        2566        2567        2618        2617
         4        2567        2568        2619        2618
         4        2568        2569        2620        2619
         4        2569        2570        2621        2620
         4        2570        2571        2622        2621
         4        2571        2572        2623        2622
         4        2572        2573        2624        2623
         4        2573        2574        2625        2624
         4        2574        2575        2626        2625
         4        2575        2576        2627        2626
         4        2576        2577        2628        2627
         4        2577        2578        2629        2628
         4        2578        2579        2630        2629
         4        2579        2580        2631        2630
         4        2580        2581        2632        2631
         4        2581        2582        2633        2632
         4        2582        2583        2634        2633
         4        2583        2584        2635        2634
         4        2584        2585        2636        2635
         4        2585        2586        2637        2636
         4        2586        2587        2638        2637
         4        2587        2588        2639        2638
         4        2588        2589        2640        2639
         4        2589        2590        2641        2640
         4        2590        2591        2642        2641
         4        2591        2592        2643        2642
         4        2592        2593        2644        2643
         4        2593        2594        2645        2644
         4        2594        2595        2646        2645
         4        2595        2596        2647        2646
         4        2596        2597        2648        2647
         4        2597        2598        2649        2648
         4        2598        2599        2650        2649
         4        2599        2600        2651        2650
         4        2601        2602        2653        2652
         4        2602        2603        2654        2653
         4        2603        2604        2655        2654
         4        2604        2605        2656        2655
         4        2605        2606        2657        2656
         4        2606        2607        2658        2657
         4        2607        2608        2659        2658
         4        2608        2609        2660        2659
         4        2609        2610        2661        2660
         4        2610        2611        2662        2661
         4        2611        2612        2663        2662
         4        2612        2613        2664        2663
         4        2613        2614        2665        2664
         4        2614        2615        2666        2665
         4        2615        2616        2667        2666
         4        2616        2617        2668        2667
         4        2617        2618        2669        2668
         4        2618        2619        2670        2669
         4        2619        2620        2671        2670
         4        2620        2621        2672        2671
         4        2621        2622        2673        2672
         4        2622        2623        2674        2673
         4        2623        2624        2675        2674
         4        2624        2625        2676        2675
         4        2625        2626        2677        2676
         4        2626        2627        2678        2677
         4        2627        2628        2679        2678
         4        2628        2629        2680        2679
         4        2629        2630        2681        2680
         4        2630        2631        2682        2681
         4        2631        2632        2683        2682
         4        2632        2633        2684        2683
         4        2633        2634        2685        2684
         4        2634        2635        2686        2685
         4        2635        2636        2687        2686
         4        2636        2637        2688        2687
         4        2637        2638        2689        2688
         4        2638        2639        2690        2689
         4        2639        2640        2691        2690
         4        2640        2641        2692        2691
         4        2641        2642        2693        2692
         4        2642        2643        2694        2693
         4        2643        2644        2695        2694
         4        2644        2645        2696        2695
         4        2645        2646        2697        2696
         4        2646        2647        2698        2697
         4        2647        2648        2699        2698
         4        2648        2649        2700        2699
         4        2649        2650        2701        2700
         4        2650        2651        2702        2701
         4        2652        2653        2704        2703
         4        2653        2654        2705        2704
         4        2654        2655        2706        2705
         4        2655        2656        2707        2706
         4        2656        2657        2708        2707
         4        2657        2658        2709        2708
         4        2658        2659        2710        2709
         4        2659        2660        2711        2710
         4        2660        2661        2712        2711
         4        2661        2662        2713        2712
         4        2662        2663        2714        2713
         4        2663        2664        2715        2714
         4        2664        2665        2716        2715
         4        2665        2666        2717        2716
         4        2666        2667        2718        2717
         4        2667        2668        2719        2718
         4        2668        2669        2720        2719
         4        2669        2670        2721        2720
         4        2670        2671        2722        2721
         4        2671        2672        2723        2722
         4        2672        2673        2724        2723
         4        2673        2674        2725        2724
         4        2674        2675        2726        2725
         4        2675        2676        2727        2726
         4        2676        2677        2728        2727
         4        2677        2678        2729        2728
         4        2678        2679        2730        2729
         4        2679        2680        2731        2730
         4        2680        2681        2732        2731
         4        2681        2682        2733        2732
         4        2682        2683        2734        2733
         4        2683        2684        2735        2734
         4        2684        2685        2736        2735
         4        2685        2686        2737        2736
         4        2686        2687        2738        2737
         4        2687        2688        2739        2738
         4        2688        2689        2740        2739
         4        2689        2690        2741        2740
         4        2690        2691        2742        2741
         4        2691        2692        2743        2742
         4        2692        2693        2744        2743
         4        2693        2694        2745        2744
         4        2694        2695        2746        2745
         4        2695        2696        2747        2746
         4        2696        2697        2748        2747
         4        2697        2698        2749        2748
         4        2698        2699        2750        2749
         4        2699        2700        2751        2750
         4        2700        2701        2752        2751
         4        2701        2702        2753        2752
         4        2703        2704        2755        2754
         4        2704        2705        2756        2755
         4        2705        2706        2757        2756
         4        2706        2707        2758        2757
         4        2707        2708        2759        2758
         4        2708        2709        2760        2759
         4        2709        2710        2761        2760
         4        2710        2711        2762        2761
         4        2711        2712        2763        2762
         4        2712        2713        2764        2763
         4        2713        2714        2765        2764
         4        2714        2715        2766        2765
         4        2715        2716        2767        2766
         4        2716        2717        2768        2767
         4        2717        2718        2769        2768
         4        2718        2719        2770        2769
         4        2719        2720        2771        2770
         4        2720        2721        2772        2771
         4        2721        2722        2773        2772
         4        2722        2723        2774        2773
         4        2723        2724        2775        2774
         4        2724        2725        2776        2775
         4        2725        2726        2777        2776
         4        2726        2727        2778        2777
         4        2727        2728        2779        2778
         4        2728        2729        2780        2779
         4        2729        2730        2781        2780
         4        2730        2731        2782        2781
         4        2731        2732        2783        2782
         4        2732        2733        2784        2783
         4        2733        2734        2785        2784
         4        2734        2735        2786        2785
         4        2735        2736        2787        2786
         4        2736        2737        2788        2787
         4        2737        2738        2789        2788
         4        2738        2739        2790        2789
         4        2739        2740        2791        2790
         4        2740        2741        2792        2791
         4        2741        2742        2793        2792
         4        2742        2743        2794        2793
         4        2743        2744        2795        2794
         4        2744        2745        2796        2795
         4        2745        2746        2797        2796
         4        2746        2747        2798        2797
         4        2747        2748        2799        2798
         4        2748        2749        2800        2799
         4        2749        2750        2801        2800
         4        2750        2751        2802        2801
         4        2751        2752        2803        2802
         4        2752        2753        2804        2803
         4        2754        2755        2806        2805
         4        2755        2756        2807        2806
         4        2756        2757        2808        2807
         4        2757        2758        2809        2808
         4        2758        2759        2810        2809
         4        2759        2760        2811        2810
         4        2760        2761        2812        2811
         4        2761        2762        2813        2812
         4        2762        2763        2814        2813
         4        2763        2764        2815        2814
         4        2764        2765        2816        2815
         4        2765        2766        2817        2816
         4        2766        2767        2818        2817
         4        2767        2768        2819        2818
         4        2768        2769        2820        2819
         4        2769        2770        2821        2820
         4        2770        2771        2822        2821
         4        2771        2772        2823        2822
         4        2772        2773        2824        2823
         4        2773        2774        2825        2824
         4        2774        2775        2826        2825
         4        2775        2776        2827        2826
         4        2776        2777        2828        2827
         4        2777        2778        2829        2828
         4        2778        2779        2830        2829
         4        2779        2780        2831        2830
         4        2780        2781        2832        2831
         4        2781        2782        2833        2832
         4        2782        2783        2834        2833
         4        2783        2784        2835        2834
         4        2784        2785        2836        2835
         4        2785        2786        2837        2836
         4        2786        2787        2838        2837
         4        2787        2788        2839        2838
         4        2788        2789        2840        2839
         4        2789        2790        2841        2840
         4        2790        2791        2842        2841
         4        2791        2792        2843        2842
         4        2792        2793        2844        2843
         4        2793        2794        2845        2844
         4        2794        2795        2846        2845
         4        2795        2796        2847        2846
         4        2796        2797        2848        2847
         4        2797        2798        2849        2848
         4        2798        2799        2850        2849
         4        2799        2800        2851        2850
         4        2800        2801        2852        2851
         4        2801        2802        2853        2852
         4        2802        2803        2854        2853
         4        2803        2804        2855        2854
         4        2805        2806        2857        2856
         4        2806        2807        2858        2857
         4        2807        2808        2859        2858
         4        2808        2809        2860        2859
         4        2809        2810        2861        2860
         4        2810        2811        2862        2861
         4        2811        2812        2863        2862
         4        2812        2813        2864        2863
         4        2813        2814        2865        2864
         4        2814        2815        2866        2865
         4        2815        2816        2867        2866
         4        2816        2817        2868        2867
         4        2817        2818        2869        2868
         4        2818        2819        2870        2869
         4        2819        2820        2871        2870
         4        2820        2821        2872        2871
         4        2821        2822        2873        2872
         4        2822        2823        2874        2873
         4        2823        2824        2875        2874
         4        2824        2825        2876        2875
         4        2825        2826        2877        2876
         4        2826        2827        2878        2877
         4        2827        2828        2879        2878
         4        2828        2829        2880        2879
         4        2829        2830        2881        2880
         4        2830        2831        2882        2881
         4        2831        2832        2883        2882
         4        2832        2833        2884        2883
         4        2833        2834        2885        2884
         4        2834        2835        2886        2885
         4        2835        2836        2887        2886
         4        2836        2837        2888        2887
         4        2837        2838        2889        2888
         4        2838        2839        2890        2889
         4        2839        2840        2891        2890
         4        2840        2841        2892        2891
         4        2841        2842        2893        2892
         4        2842        2843        2894        2893
         4        2843        2844        2895        2894
         4        2844        2845        2896        2895
         4        2845        2846        2897        2896
         4        2846        2847        2898        2897
         4        2847        2848        2899        2898
         4        2848        2849        2900        2899
         4        2849        2850        2901        2900
         4        2850        2851        2902        2901
         4        2851        2852        2903        2902
         4        2852        2853        2904        2903
         4        2853        2854        2905        2904
         4        2854        2855        2906        2905
         4        2856        2857        2908        2907
         4        2857        2858        2909        2908
         4        2858        2859        2910        2909
         4        2859        2860        2911        2910
         4        2860        2861        2912        2911
         4        2861        2862        2913        2912
         4        2862        2863        2914        2913
         4        2863        2864        2915        2914
         4        2864        2865        2916        2915
         4        2865        2866        2917        2916
         4        2866        2867        2918        2917
         4        2867        2868        2919        2918
         4        2868        2869        2920        2919
         4        2869        2870        2921        2920
         4        2870        2871        2922        2921
         4        2871        2872        2923        2922
         4        2872        2873        2924        2923
         4        2873        2874        2925        2924
         4        2874        2875        2926        2925
         4        2875        2876        2927        2926
         4        2876        2877        2928        2927
         4        2877        2878        2929        2928
         4        2878        2879        2930        2929
         4        2879        2880        2931        2930
         4        2880        2881        2932        2931
         4        2881        2882        2933        2932
         4        2882        2883        2934        2933
         4        2883        2884        2935        2934
         4        2884        2885        2936        2935
         4        2885        2886        2937        2936
         4        2886        2887        2938        2937
         4        2887        2888        2939        2938
         4        2888        2889        2940        2939
         4        2889        2890        2941        2940
         4        2890        2891        2942        2941
         4        2891        2892        2943        2942
         4        2892        2893        2944        2943
         4        2893        2894        2945        2944
         4        2894        2895        2946        2945
         4        2895        2896        2947        2946
         4        2896        2897        2948        2947
         4        2897        2898        2949        2948
         4        2898        2899        2950        2949
         4        2899        2900        2951        2950
         4        2900        2901        2952        2951
         4        2901        2902        2953        2952
         4        2902        2903        2954        2953
         4        2903        2904        2955        2954
         4        2904        2905        2956        2955
         4        2905        2906        2957        2956
         4        2907        2908        2959        2958
         4        2908        2909        2960        2959
         4        2909        2910        2961        2960
         4        2910        2911        2962        2961
         4        2911        2912        2963        2962
         4        2912        2913        2964        2963
         4        2913        2914        2965        2964
         4        2914        2915        2966        2965
         4        2915        2916        2967        2966
         4        2916        2917        2968        2967
         4        2917        2918        2969        2968
         4        2918        2919        2970        2969
         4        2919        2920        2971        2970
         4        2920        2921        2972        2971
         4        2921        2922        2973        2972
         4        2922        2923        2974        2973
         4        2923        2924        2975        2974
         4        2924        2925        2976        2975
         4        2925        2926        2977        2976
         4        2926        2927        2978        2977
         4        2927        2928        2979        2978
         4        2928        2929        2980        2979
         4        2929        2930        2981        2980
         4        2930        2931        2982        2981
         4        2931        2932        2983        2982
         4        2932        2933        2984        2983
         4        2933        2934        2985        2984
         4        2934        2935        2986        2985
         4        2935        2936        2987        2986
         4        2936        2937        2988        2987
         4        2937        2938        2989        2988
         4        2938        2939        2990        2989
         4        2939        2940        2991        2990
         4        2940        2941        2992        2991
         4        2941        2942        2993        2992
         4        2942        2943        2994        2993
         4        2943        2944        2995        2994
         4        2944        2945        2996        2995
         4        2945        2946        2997        2996
         4        2946        2947        2998        2997
         4        2947        2948        2999        2998
         4        2948        2949        3000        2999
         4        2949        2950        3001        3000
         4        2950        2951        3002        3001
         4        2951        2952        3003        3002
         4        2952        2953        3004        3003
         4        2953        2954        3005        3004
         4        2954        2955        3006        3005
         4        2955        2956        3007        3006
         4        2956        2957        3008        3007
         4        2958        2959        3010        3009
         4        2959        2960        3011        3010
         4        2960        2961        3012        3011
         4        2961        2962        3013        3012
         4        2962        2963        3014        3013
         4        2963        2964        3015        3014
         4        2964        2965        3016        3015
         4        2965        2966        3017        3016
         4        2966        2967        3018        3017
         4        2967        2968        3019        3018
         4        2968        2969        3020        3019
         4        2969        2970        3021        3020
         4        2970        2971        3022        3021
         4        2971        2972        3023        3022
         4        2972        2973        3024        3023
         4        2973        2974        3025        3024
         4        2974        2975        3026        3025
         4        2975        2976        3027        3026
         4        2976        2977        3028        3027
         4        2977        2978        3029        3028
         4        2978        2979        3030        3029
         4        2979        2980        3031        3030
         4        2980        2981        3032        3031
         4        2981        2982        3033        3032
         4        2982        2983        3034        3033
         4        2983        2984        3035        3034
         4        2984        2985        3036        3035
         4        2985        2986        3037        3036
         4        2986        2987        3038        3037
         4        2987        2988        3039        3038
         4        2988        2989        3040        3039
         4        2989        2990        3041        3040
         4        2990        2991        3042        3041
         4        2991        2992        3043        3042
         4        2992        2993        3044        3043
         4        2993        2994        3045        3044
         4        2994        2995        3046        3045
         4        2995        2996        3047        3046
         4        2996        2997        3048        3047
         4        2997        2998        3049        3048
         4        2998        2999        3050        3049
         4        2999        3000        3051        3050
         4        3000        3001        3052        3051
         4        3001        3002        3053        3052
         4        3002        3003        3054        3053
         4        3003        3004        3055        3054
         4        3004        3005        3056        3055
         4        3005        3006        3057        3056
         4        3006        3007        3058        3057
         4        3007        3008        3059        3058
         4        3009        3010        3061        3060
         4        3010        3011        3062        3061
         4        3011        3012        3063        3062
         4        3012        3013        3064        3063
         4        3013        3014        3065        3064
         4        3014        3015        3066        3065
         4        3015        3016        3067        3066
         4        3016        3017        3068        3067
         4        3017        3018        3069        3068
         4        3018        3019        3070        3069
         4        3019        3020        3071        3070
         4        3020        3021        3072        3071
         4        3021        3022        3073        3072
         4        3022        3023        3074        3073
         4        3023        3024        3075        3074
         4        3024        3025        3076        3075
         4        3025        3026        3077        3076
         4        3026        3027        3078        3077
         4        3027        3028        3079        3078
         4        3028        3029        3080        3079
         4        3029        3030        3081        3080
         4        3030        3031        3082        3081
         4        3031        3032        3083        3082
         4        3032        3033        3084        3083
         4        3033        3034        3085        3084
         4        3034        3035        3086        3085
         4        3035        3036        3087        3086
         4        3036        3037        3088        3087
         4        3037        3038        3089        3088
         4        3038        3039        3090        3089
         4        3039        3040        3091        3090
         4        3040        3041        3092        3091
         4        3041        3042        3093        3092
         4        3042        3043        3094        3093
         4        3043        3044        3095        3094
         4        3044        3045        3096        3095
         4        3045        3046        3097        3096
         4        3046        3047        3098        3097
         4        3047        3048        3099        3098
         4        3048        3049        3100        3099
         4        3049        3050        3101        3100
         4        3050        3051        3102        3101
         4        3051        3052        3103        3102
         4        3052        3053        3104        3103
         4        3053        3054        3105        3104
         4        3054        3055        3106        3105
         4        3055        3056        3107        3106
         4        3056        3057        3108        3107
         4        3057        3058        3109        3108
         4        3058        3059        3110        3109
         4        3060        3061        3112        3111
         4        3061        3062        3113        3112
         4        3062        3063        3114        3113
         4        3063        3064        3115        3114
         4        3064        3065        3116        3115
         4        3065        3066        3117        3116
         4        3066        3067        3118        3117
         4        3067        3068        3119        3118
         4        3068        3069        3120        3119
         4        3069        3070        3121        3120
         4        3070        3071        3122        3121
         4        3071        3072        3123        3122
         4        3072        3073        3124        3123
         4        3073        3074        3125        3124
         4        3074        3075        3126        3125
         4        3075        3076        3127        3126
         4        3076        3077        3128        3127
         4        3077        3078        3129        3128
         4        3078        3079        3130        3129
         4        3079        3080        3131        3130
         4        3080        3081        3132        3131
         4        3081        3082        3133        3132
         4        3082        3083        3134        3133
         4        3083        3084        3135        3134
         4        3084        3085        3136        3135
         4        3085        3086        3137        3136
         4        3086        3087        3138        3137
         4        3087        3088        3139        3138
         4        3088        3089        3140        3139
         4        3089        3090        3141        3140
         4        3090        3091        3142        3141
         4        3091        3092        3143        3142
         4        3092        3093        3144        3143
         4        3093        3094        3145        3144
         4        3094        3095        3146        3145
         4        3095        3096        3147        3146
         4        3096        3097        3148        3147
         4        3097        3098        3149        3148
         4        3098        3099        3150        3149
         4        3099        3100        3151        3150
         4        3100        3101        3152        3151
         4        3101        3102        3153        3152
         4        3102        3103        3154        3153
         4        3103        3104        3155        3154
         4        3104        3105        3156        3155
         4        3105        3106        3157        3156
         4        3106        3107        3158        3157
         4        3107        3108        3159        3158
         4        3108        3109        3160        3159
         4        3109        3110        3161        3160
         4        3111        3112        3163        3162
         4        3112        3113        3164        3163
         4        3113        3114        3165        3164
         4        3114        3115        3166        3165
         4        3115        3116        3167        3166
         4        3116        3117        3168        3167
         4        3117        3118        3169        3168
         4        3118        3119        3170        3169
         4        3119        3120        3171        3170
         4        3120        3121        3172        3171
         4        3121        3122        3173        3172
         4        3122        3123        3174        3173
         4        3123        3124        3175        3174
         4        3124        3125        3176        3175
         4        3125        3126        3177        3176
         4        3126        3127        3178        3177
         4        3127        3128        3179        3178
         4        3128        3129        3180        3179
         4        3129        3130        3181        3180
         4        3130        3131        3182        3181
         4        3131        3132        3183        3182
         4        3132        3133        3184        3183
         4        3133        3134        3185        3184
         4        3134        3135        3186        3185
         4        3135        3136        3187        3186
         4        3136        3137        3188        3187
         4        3137        3138        3189        3188
         4        3138        3139        3190        3189
         4        3139        3140        3191        3190
         4        3140        3141        3192        3191
         4        3141        3142        3193        3192
         4        3142        3143        3194        3193
         4        3143        3144        3195        3194
         4        3144        3145        3196        3195
         4        3145        3146        3197        3196
         4        3146        3147        3198        3197
         4        3147        3148        3199        3198
         4        3148        3149        3200        3199
         4        3149        3150        3201        3200
         4        3150        3151        3202        3201
         4        3151        3152        3203        3202
         4        3152        3153        3204        3203
         4        3153        3154        3205        3204
         4        3154        3155        3206        3205
         4        3155        3156        3207        3206
         4        3156        3157        3208        3207
         4        3157        3158        3209        3208
         4        3158        3159        3210        3209
         4        3159        3160        3211        3210
         4        3160        3161        3212        3211
         4        3162        3163        3214        3213
         4        3163        3164        3215        3214
         4        3164        3165        3216        3215
         4        3165        3166        3217        3216
         4        3166        3167        3218        3217
         4        3167        3168        3219        3218
         4        3168        3169        3220        3219
         4        3169        3170        3221        3220
         4        3170        3171        3222        3221
         4        3171        3172        3223        3222
         4        3172        3173        3224        3223
         4        3173        3174        3225        3224
         4        3174        3175        3226        3225
         4        3175        3176        3227        3226
         4        3176        3177        3228        3227
         4        3177        3178        3229        3228
         4        3178        3179        3230        3229
         4        3179        3180        3231        3230
         4        3180        3181        3232        3231
         4        3181        3182        3233        3232
         4        3182        3183        3234        3233
         4        3183        3184        3235        3234
         4        3184        3185        3236        3235
         4        3185        3186        3237        3236
         4        3186        3187        3238        3237
         4        3187        3188        3239        3238
         4        3188        3189        3240        3239
         4        3189        3190        3241        3240
         4        3190        3191        3242        3241
         4        3191        3192        3243        3242
         4        3192        3193        3244        3243
         4        3193        3194        3245        3244
         4        3194        3195        3246        3245
         4        3195        3196        3247        3246
         4        3196        3197        3248        3247
         4        3197        3198        3249        3248
         4        3198        3199        3250        3249
         4        3199        3200        3251        3250
         4        3200        3201        3252        3251
         4        3201        3202        3253        3252
         4        3202        3203        3254        3253
         4        3203        3204        3255        3254
         4        3204        3205        3256        3255
         4        3205        3206        3257        3256
         4        3206        3207        3258        3257
         4        3207        3208        3259        3258
         4        3208        3209        3260        3259
         4        3209        3210        3261        3260
         4        3210        3211        3262        3261
         4        3211        3212        3263        3262
         4        3213        3214        3265        3264
         4        3214        3215        3266        3265
         4        3215        3216        3267        3266
         4        3216        3217        3268        3267
         4        3217        3218        3269        3268
         4        3218        3219        3270        3269
         4        3219        3220        3271        3270
         4        3220        3221        3272        3271
         4        3221        3222        3273        3272
         4        3222        3223        3274        3273
         4        3223        3224        3275        3274
         4        3224        3225        3276        3275
         4        3225        3226        3277        3276
         4        3226        3227        3278        3277
         4        3227        3228        3279        3278
         4        3228        3229        3280        3279
         4        3229        3230        3281        3280
         4        3230        3231        3282        3281
         4        3231        3232        3283        3282
         4        3232        3233        3284        3283
         4        3233        3234        3285        3284
         4        3234        3235        3286        3285
         4        3235        3236        3287        3286
         4        3236        3237        3288        3287
         4        3237        3238        3289        3288
         4        3238        3239        3290        3289
         4        3239        3240        3291        3290
         4        3240        3241        3292        3291
         4        3241        3242        3293        3292
         4        3242        3243        3294        3293
         4        3243        3244        3295        3294
         4        3244        3245        3296        3295
         4        3245        3246        3297        3296
         4        3246        3247        3298        3297
         4        3247        3248        3299        3298
         4        3248        3249        3300        3299
         4        3249        3250        3301        3300
         4        3250        3251        3302        3301
         4        3251        3252        3303        3302
         4        3252        3253        3304        3303
         4        3253        3254        3305        3304
         4        3254        3255        3306        3305
         4        3255        3256        3307        3306
         4        3256        3257        3308        3307
         4        3257        3258        3309        3308
         4        3258        3259        3310        3309
         4        3259        3260        3311        3310
         4        3260        3261        3312        3311
         4        3261        3262        3313        3312
         4        3262        3263        3314        3313
         4        3264        3265        3316        3315
         4        3265        3266        3317        3316
         4        3266        3267        3318        3317
         4        3267        3268        3319        3318
         4        3268        3269        3320        3319
         4        3269        3270        3321        3320
         4        3270        3271        3322        3321
         4        3271        3272        3323        3322
         4        3272        3273        3324        3323
         4        3273        3274        3325        3324
         4        3274        3275        3326        3325
         4        3275        3276        3327        3326
         4        3276        3277        3328        3327
         4        3277        3278        3329        3328
         4        3278        3279        3330        3329
         4        3279        3280        3331        3330
         4        3280        3281        3332        3331
         4        3281        3282        3333        3332
         4        3282        3283        3334        3333
         4        3283        3284        3335        3334
         4        3284        3285        3336        3335
         4        3285        3286        3337        3336
         4        3286        3287        3338        3337
         4        3287        3288        3339        3338
         4        3288        3289        3340        3339
         4        3289        3290        3341        3340
         4        3290        3291        3342        3341
         4        3291        3292        3343        3342
         4        3292        3293        3344        3343
         4        3293        3294        3345        3344
         4        3294        3295        3346        3345
         4        3295        3296        3347        3346
         4        3296        3297        3348        3347
         4        3297        3298        3349        3348
         4        3298        3299        3350        3349
         4        3299        3300        3351        3350
         4        3300        3301        3352        3351
         4        3301        3302        3353        3352
         4        3302        3303        3354        3353
         4        3303        3304        3355        3354
         4        3304        3305        3356        3355
         4        3305        3306        3357        3356
         4        3306        3307        3358        3357
         4        3307        3308        3359        3358
         4        3308        3309        3360        3359
         4        3309        3310        3361        3360
         4        3310        3311        3362        3361
         4        3311        3312        3363        3362
         4        3312        3313        3364        3363
         4        3313        3314        3365        3364
         4        3315        3316        3367        3366
         4        3316        3317        3368        3367
         4        3317        3318        3369        3368
         4        3318        3319        3370        3369
         4        3319        3320        3371        3370
         4        3320        3321        3372        3371
         4        3321        3322        3373        3372
         4        3322        3323        3374        3373
         4        3323        3324        3375        3374
         4        3324        3325        3376        3375
         4        3325        3326        3377        3376
         4        3326        3327        3378        3377
         4        3327        3328        3379        3378
         4        3328        3329        3380        3379
         4        3329        3330        3381        3380
         4        3330        3331        3382        3381
         4        3331        3332        3383        3382
         4        3332        3333        3384        3383
         4        3333        3334        3385        3384
         4        3334        3335        3386        3385
         4        3335        3336        3387        3386
         4        3336        3337        3388        3387
         4        3337        3338        3389        3388
         4        3338        3339        3390        3389
         4        3339        3340        3391        3390
         4        3340        3341        3392        3391
         4        3341        3342        3393        3392
         4        3342        3343        3394        3393
         4        3343        3344        3395        3394
         4        3344        3345        3396        3395
         4        3345        3346        3397        3396
         4        3346        3347        3398        3397
         4        3347        3348        3399        3398
         4        3348        3349        3400        3399
         4        3349        3350        3401        3400
         4        3350        3351        3402        3401
         4        3351        3352        3403        3402
         4        3352        3353        3404        3403
         4        3353        3354        3405        3404
         4        3354        3355        3406        3405
         4        3355        3356        3407        3406
         4        3356        3357        3408        3407
         4        3357        3358        3409        3408
         4        3358        3359        3410        3409
         4        3359        3360        3411        3410
         4        3360        3361        3412        3411
         4        3361        3362        3413        3412
         4        3362        3363        3414        3413
         4        3363        3364        3415        3414
         4        3364        3365        3416        3415
         4        3366        3367        3418        3417
         4        3367        3368        3419        3418
         4        3368        3369        3420        3419
         4        3369        3370        3421        3420
         4        3370        3371        3422        3421
         4        3371        3372        3423        3422
         4        3372        3373        3424        3423
         4        3373        3374        3425        3424
         4        3374        3375        3426        3425
         4        3375        3376        3427        3426
         4        3376        3377        3428        3427
         4        3377        3378        3429        3428
         4        3378        3379        3430        3429
         4        3379        3380        3431        3430
         4        3380        3381        3432        3431
         4        3381        3382        3433        3432
         4        3382        3383        3434        3433
         4        3383        3384        3435        3434
         4        3384        3385        3436        3435
         4        3385        3386        3437        3436
         4        3386        3387        3438        3437
         4        3387        3388        3439        3438
         4        3388        3389        3440        3439
         4        3389        3390        3441        3440
         4        3390        3391        3442        3441
         4        3391        3392        3443        3442
         4        3392        3393        3444        3443
         4        3393        3394        3445        3444
         4        3394        3395        3446        3445
         4        3395        3396        3447        3446
         4        3396        3397        3448        3447
         4        3397        3398        3449        3448
         4        3398        3399        3450        3449
         4        3399        3400        3451        3450
         4        3400        3401        3452        3451
         4        3401        3402        3453        3452
         4        3402        3403        3454        3453
         4        3403        3404        3455        3454
         4        3404        3405        3456        3455
         4        3405        3406        3457        3456
         4        3406        3407        3458        3457
         4        3407        3408        3459        3458
         4        3408        3409        3460        3459
         4        3409        3410        3461        3460
         4        3410        3411        3462        3461
         4        3411        3412        3463        3462
         4        3412        3413        3464        3463
         4        3413        3414        3465        3464
         4        3414        3415        3466        3465
         4        3415        3416        3467        3466
         4        3417        3418        3469        3468
         4        3418        3419        3470        3469
         4        3419        3420        3471        3470
         4        3420        3421        3472        3471
         4        3421        3422        3473        3472
         4        3422        3423        3474        3473
         4        3423        3424        3475        3474
         4        3424        3425        3476        3475
         4        3425        3426        3477        3476
         4        3426        3427        3478        3477
         4        3427        3428        3479        3478
         4        3428        3429        3480        3479
         4        3429        3430        3481        3480
         4        3430        3431        3482        3481
         4        3431        3432        3483        3482
         4        3432        3433        3484        3483
         4        3433        3434        3485        3484
         4        3434        3435        3486        3485
         4        3435        3436        3487        3486
         4        3436        3437        3488        3487
         4        3437        3438        3489        3488
         4        3438        3439        3490        3489
         4        3439        3440        3491        3490
         4        3440        3441        3492        3491
         4        3441        3442        3493        3492
         4        3442        3443        3494        3493
         4        3443        3444        3495        3494
         4        3444        3445        3496        3495
         4        3445        3446        3497        3496
         4        3446        3447        3498        3497
         4        3447        3448        3499        3498
         4        3448        3449        3500        3499
         4        3449        3450        3501        3500
         4        3450        3451        3502        3501
         4        3451        3452        3503        3502
         4        3452        3453        3504        3503
         4        3453        3454        3505        3504
         4        3454        3455        3506        3505
         4        3455        3456        3507        3506
         4        3456        3457        3508        3507
         4        3457        3458        3509        3508
         4        3458        3459        3510        3509
         4        3459        3460        3511        3510
         4        3460        3461        3512        3511
         4        3461        3462        3513        3512
         4        3462        3463        3514        3513
         4        3463        3464        3515        3514
         4        3464        3465        3516        3515
         4        3465        3466        3517        3516
         4        3466        3467        3518        3517
         4        3468        3469        3520        3519
         4        3469        3470        3521        3520
         4        3470        3471        3522        3521
         4        3471        3472        3523        3522
         4        3472        3473        3524        3523
         4        3473        3474        3525        3524
         4        3474        3475        3526        3525
         4        3475        3476        3527        3526
         4        3476        3477        3528        3527
         4        3477        3478        3529        3528
         4        3478        3479        3530        3529
         4        3479        3480        3531        3530
         4        3480        3481        3532        3531
         4        3481        3482        3533        3532
         4        3482        3483        3534        3533
         4        3483        3484        3535        3534
         4        3484        3485        3536        3535
         4        3485        3486        3537        3536
         4        3486        3487        3538        3537
         4        3487        3488        3539        3538
         4        3488        3489        3540        3539
         4        3489        3490        3541        3540
         4        3490        3491        3542        3541
         4        3491        3492        3543        3542
         4        3492        3493        3544        3543
         4        3493        3494        3545        3544
         4        3494        3495        3546        3545
         4        3495        3496        3547        3546
         4        3496        3497        3548        3547
         4        3497        3498        3549        3548
         4        3498        3499        3550        3549
         4        3499        3500        3551        3550
         4        3500        3501        3552        3551
         4        3501        3502        3553        3552
         4        3502        3503        3554        3553
         4        3503        3504        3555        3554
         4        3504        3505        3556        3555
         4        3505        3506        3557        3556
         4        3506        3507        3558        3557
         4        3507        3508        3559        3558
         4        3508        3509        3560        3559
         4        3509        3510        3561        3560
         4        3510        3511        3562        3561
         4        3511        3512        3563        3562
         4        3512        3513        3564        3563
         4        3513        3514        3565        3564
         4        3514        3515        3566        3565
         4        3515        3516        3567        3566
         4        3516        3517        3568        3567
         4        3517        3518        3569        3568
         4        3519        3520        3571        3570
         4        3520        3521        3572        3571
         4        3521        3522        3573        3572
         4        3522        3523        3574        3573
         4        3523        3524        3575        3574
         4        3524        3525        3576        3575
         4        3525        3526        3577        3576
         4        3526        3527        3578        3577
         4        3527        3528        3579        3578
         4        3528        3529        3580        3579
         4        3529        3530        3581        3580
         4        3530        3531        3582        3581
         4        3531        3532        3583        3582
         4        3532        3533        3584        3583
         4        3533        3534        3585        3584
         4        3534        3535        3586        3585
         4        3535        3536        3587        3586
         4        3536        3537        3588        3587
         4        3537        3538        3589        3588
         4        3538        3539        3590        3589
         4        3539        3540        3591        3590
         4        3540        3541        3592        3591
         4        3541        3542        3593        3592
         4        3542        3543        3594        3593
         4        3543        3544        3595        3594
         4        3544        3545        3596        3595
         4        3545        3546        3597        3596
         4        3546        3547        3598        3597
         4        3547        3548        3599        3598
         4        3548        3549        3600        3599
         4        3549        3550        3601        3600
         4        3550        3551        3602        3601
         4        3551        3552        3603        3602
         4        3552        3553        3604        3603
         4        3553        3554        3605        3604
         4        3554        3555        3606        3605
         4        3555        3556        3607        3606
         4        3556        3557        3608        3607
         4        3557        3558        3609        3608
         4        3558        3559        3610        3609
         4        3559        3560        3611        3610
         4        3560        3561        3612        3611
         4        3561        3562        3613        3612
         4        3562        3563        3614        3613
         4        3563        3564        3615        3614
         4        3564        3565        3616        3615
         4        3565        3566        3617        3616
         4        3566        3567        3618        3617
         4        3567        3568        3619        3618
         4        3568        3569        3620        3619
         4        3570        3571        3622        3621
         4        3571        3572        3623        3622
         4        3572        3573        3624        3623
         4        3573        3574        3625        3624
         4        3574        3575        3626        3625
         4        3575        3576        3627        3626
         4        3576        3577        3628        3627
         4        3577        3578        3629        3628
         4        3578        3579        3630        3629
         4        3579        3580        3631        3630
         4        3580        3581        3632        3631
         4        3581        3582        3633        3632
         4        3582        3583        3634        3633
         4        3583        3584        3635        3634
         4        3584        3585        3636        3635
         4        3585        3586        3637        3636
         4        3586        3587        3638        3637
         4        3587        3588        3639        3638
         4        3588        3589        3640        3639
         4        3589        3590        3641        3640
         4        3590        3591        3642        3641
         4        3591        3592        3643        3642
         4        3592        3593        3644        3643
         4        3593        3594        3645        3644
         4        3594        3595        3646        3645
         4        3595        3596        3647        3646
         4        3596        3597        3648        3647
         4        3597        3598        3649        3648
         4        3598        3599        3650        3649
         4        3599        3600        3651        3650
         4        3600        3601        3652        3651
         4        3601        3602        3653        3652
         4        3602        3603        3654        3653
         4        3603        3604        3655        3654
         4        3604        3605        3656        3655
         4        3605        3606        3657        3656
         4        3606        3607        3658        3657
         4        3607        3608        3659        3658
         4        3608        3609        3660        3659
         4        3609        3610        3661        3660
         4        3610        3611        3662        3661
         4        3611        3612        3663        3662
         4        3612        3613        3664        3663
         4        3613        3614        3665        3664
         4        3614        3615        3666        3665
         4        3615        3616        3667        3666
         4        3616        3617        3668        3667
         4        3617        3618        3669        3668
         4        3618        3619        3670        3669
         4        3619        3620        3671        3670
         4        3621        3622        3673        3672
         4        3622        3623        3674        3673
         4        3623        3624        3675        3674
         4        3624        3625        3676        3675
         4        3625        3626        3677        3676
         4        3626        3627        3678        3677
         4        3627        3628        3679        3678
         4        3628        3629        3680        3679
         4        3629        3630        3681        3680
         4        3630        3631        3682        3681
         4        3631        3632        3683        3682
         4        3632        3633        3684        3683
         4        3633        3634        3685        3684
         4        3634        3635        3686        3685
         4        3635        3636        3687        3686
         4        3636        3637        3688        3687
         4        3637        3638        3689        3688
         4        3638        3639        3690        3689
         4        3639        3640        3691        3690
         4        3640        3641        3692        3691
         4        3641        3642        3693        3692
         4        3642        3643        3694        3693
         4        3643        3644        3695        3694
         4        3644        3645        3696        3695
         4        3645        3646        3697        3696
         4        3646        3647        3698        3697
         4        3647        3648        3699        3698
         4        3648        3649        3700        3699
         4        3649        3650        3701        3700
         4        3650        3651        3702        3701
         4        3651        3652        3703        3702
         4        3652        3653        3704        3703
         4        3653        3654        3705        3704
         4        3654        3655        3706        3705
         4        3655        3656        3707        3706
         4        3656        3657        3708        3707
         4        3657        3658        3709        3708
         4        3658        3659        3710        3709
         4        3659        3660        3711        3710
         4        3660        3661        3712        3711
         4        3661        3662        3713        3712
         4        3662        3663        3714        3713
         4        3663        3664        3715        3714
         4        3664        3665        3716        3715
         4        3665        3666        3717        3716
         4        3666        3667        3718        3717
         4        3667        3668        3719        3718
         4        3668        3669        3720        3719
         4        3669        3670        3721        3720
         4        3670        3671        3722        3721
         4        3672        3673        3724        3723
         4        3673        3674        3725        3724
         4        3674        3675        3726        3725
         4        3675        3676        3727        3726
         4        3676        3677        3728        3727
         4        3677        3678        3729        3728
         4        3678        3679        3730        3729
         4        3679        3680        3731        3730
         4        3680        3681        3732        3731
         4        3681        3682        3733        3732
         4        3682        3683        3734        3733
         4        3683        3684        3735        3734
         4        3684        3685        3736        3735
         4        3685        3686        3737        3736
         4        3686        3687        3738        3737
         4        3687        3688        3739        3738
         4        3688        3689        3740        3739
         4        3689        3690        3741        3740
         4        3690        3691        3742        3741
         4        3691        3692        3743        3742
         4        3692        3693        3744        3743
         4        3693        3694        3745        3744
         4        3694        3695        3746        3745
         4        3695        3696        3747        3746
         4        3696        3697        3748        3747
         4        3697        3698        3749        3748
         4        3698        3699        3750        3749
         4        3699        3700        3751        3750
         4        3700        3701        3752        3751
         4        3701        3702        3753        3752
         4        3702        3703        3754        3753
         4        3703        3704        3755        3754
         4        3704        3705        3756        3755
         4        3705        3706        3757        3756
         4        3706        3707        3758        3757
         4        3707        3708        3759        3758
         4        3708        3709        3760        3759
         4        3709        3710        3761        3760
         4        3710        3711        3762        3761
         4        3711        3712        3763        3762
         4        3712        3713        3764        3763
         4        3713        3714        3765        3764
         4        3714        3715        3766        3765
         4        3715        3716        3767        3766
         4        3716        3717        3768        3767
         4        3717        3718        3769        3768
         4        3718        3719        3770        3769
         4        3719        3720        3771        3770
         4        3720        3721        3772        3771
         4        3721        3722        3773        3772
         4        3723        3724        3775        3774
         4        3724        3725        3776        3775
         4        3725        3726        3777        3776
         4        3726        3727        3778        3777
         4        3727        3728        3779        3778
         4        3728        3729        3780        3779
         4        3729        3730        3781        3780
         4        3730        3731        3782        3781
         4        3731        3732        3783        3782
         4        3732        3733        3784        3783
         4        3733        3734        3785        3784
         4        3734        3735        3786        3785
         4        3735        3736        3787        3786
         4        3736        3737        3788        3787
         4        3737        3738        3789        3788
         4        3738        3739        3790        3789
         4        3739        3740        3791        3790
         4        3740        3741        3792        3791
         4        3741        3742        3793        3792
         4        3742        3743        3794        3793
         4        3743        3744        3795        3794
         4        3744        3745        3796        3795
         4        3745        3746        3797        3796
         4        3746        3747        3798        3797
         4        3747        3748        3799        3798
         4        3748        3749        3800        3799
         4        3749        3750        3801        3800
         4        3750        3751        3802        3801
         4        3751        3752        3803        3802
         4        3752        3753        3804        3803
         4        3753        3754        3805        3804
         4        3754        3755        3806        3805
         4        3755        3756        3807        3806
         4        3756        3757        3808        3807
         4        3757        3758        3809        3808
         4        3758        3759        3810        3809
         4        3759        3760        3811        3810
         4        3760        3761        3812        3811
         4        3761        3762        3813        3812
         4        3762        3763        3814        3813
         4        3763        3764        3815        3814
         4        3764        3765        3816        3815
         4        3765        3766        3817        3816
         4        3766        3767        3818        3817
         4        3767        3768        3819        3818
         4        3768        3769        3820        3819
         4        3769        3770        3821        3820
         4        3770        3771        3822        3821
         4        3771        3772        3823        3822
         4        3772        3773        3824        3823
         4        3774        3775        3826        3825
         4        3775        3776        3827        3826
         4        3776        3777        3828        3827
         4        3777        3778        3829        3828
         4        3778        3779        3830        3829
         4        3779        3780        3831        3830
         4        3780        3781        3832        3831
         4        3781        3782        3833        3832
         4        3782        3783        3834        3833
         4        3783        3784        3835        3834
         4        3784        3785        3836        3835
         4        3785        3786        3837        3836
         4        3786        3787        3838        3837
         4        3787        3788        3839        3838
         4        3788        3789        3840        3839
         4        3789        3790        3841        3840
         4        3790        3791        3842        3841
         4        3791        3792        3843        3842
         4        3792        3793        3844        3843
         4        3793        3794        3845        3844
         4        3794        3795        3846        3845
         4        3795        3796        3847        3846
         4        3796        3797        3848        3847
         4        3797        3798        3849        3848
         4        3798        3799        3850        3849
         4        3799        3800        3851        3850
         4        3800        3801        3852        3851
         4        3801        3802        3853        3852
         4        3802        3803        3854        3853
         4        3803        3804        3855        3854
         4        3804        3805        3856        3855
         4        3805        3806        3857        3856
         4        3806        3807        3858        3857
         4        3807        3808        3859        3858
         4        3808        3809        3860        3859
         4        3809        3810        3861        3860
         4        3810        3811        3862        3861
         4        3811        3812        3863        3862
         4        3812        3813        3864        3863
         4        3813        3814        3865        3864
         4        3814        3815        3866        3865
         4        3815        3816        3867        3866
         4        3816        3817        3868        3867
         4        3817        3818        3869        3868
         4        3818        3819        3870        3869
         4        3819        3820        3871        3870
         4        3820        3821        3872        3871
         4        3821        3822        3873        3872
         4        3822        3823        3874        3873
         4        3823        3824        3875        3874
         4        3825        3826        3877        3876
         4        3826        3827        3878        3877
         4        3827        3828        3879        3878
         4        3828        3829        3880        3879
         4        3829        3830        3881        3880
         4        3830        3831        3882        3881
         4        3831        3832        3883        3882
         4        3832        3833        3884        3883
         4        3833        3834        3885        3884
         4        3834        3835        3886        3885
         4        3835        3836        3887        3886
         4        3836        3837        3888        3887
         4        3837        3838        3889        3888
         4        3838        3839        3890        3889
         4        3839        3840        3891        3890
         4        3840        3841        3892        3891
         4        3841        3842        3893        3892
         4        3842        3843        3894        3893
         4        3843        3844        3895        3894
         4        3844        3845        3896        3895
         4        3845        3846        3897        3896
         4        3846        3847        3898        3897
         4        3847        3848        3899        3898
         4        3848        3849        3900        3899
         4        3849        3850        3901        3900
         4        3850        3851        3902        3901
         4        3851        3852        3903        3902
         4        3852        3853        3904        3903
         4        3853        3854        3905        3904
         4        3854        3855        3906        3905
         4        3855        3856        3907        3906
         4        3856        3857        3908        3907
         4        3857        3858        3909        3908
         4        3858        3859        3910        3909
         4        3859        3860        3911        3910
         4        3860        3861        3912        3911
         4        3861        3862        3913        3912
         4        3862        3863        3914        3913
         4        3863        3864        3915        3914
         4        3864        3865        3916        3915
         4        3865        3866        3917        3916
         4        3866        3867        3918        3917
         4        3867        3868        3919        3918
         4        3868        3869        3920        3919
         4        3869        3870        3921        3920
         4        3870        3871        3922        3921
         4        3871        3872        3923        3922
         4        3872        3873        3924        3923
         4        3873        3874        3925        3924
         4        3874        3875        3926        3925
         4        3876        3877        3928        3927
         4        3877        3878        3929        3928
         4        3878        3879        3930        3929
         4        3879        3880        3931        3930
         4        3880        3881        3932        3931
         4        3881        3882        3933        3932
         4        3882        3883        3934        3933
         4        3883        3884        3935        3934
         4        3884        3885        3936        3935
         4        3885        3886        3937        3936
         4        3886        3887        3938        3937
         4        3887        3888        3939        3938
         4        3888        3889        3940        3939
         4        3889        3890        3941        3940
         4        3890        3891        3942        3941
         4        3891        3892        3943        3942
         4        3892        3893        3944        3943
         4        3893        3894        3945        3944
         4        3894        3895        3946        3945
         4        3895        3896        3947        3946
         4        3896        3897        3948        3947
         4        3897        3898        3949        3948
         4        3898        3899        3950        3949
         4        3899        3900        3951        3950
         4        3900        3901        3952        3951
         4        3901        3902        3953        3952
         4        3902        3903        3954        3953
         4        3903        3904        3955        3954
         4        3904        3905        3956        3955
         4        3905        3906        3957        3956
         4        3906        3907        3958        3957
         4        3907        3908        3959        3958
         4        3908        3909        3960        3959
         4        3909        3910        3961        3960
         4        3910        3911        3962        3961
         4        3911        3912        3963        3962
         4        3912        3913        3964        3963
         4        3913        3914        3965        3964
         4        3914        3915        3966        3965
         4        3915        3916        3967        3966
         4        3916        3917        3968        3967
         4        3917        3918        3969        3968
         4        3918        3919        3970        3969
         4        3919        3920        3971        3970
         4        3920        3921        3972        3971
         4        3921        3922        3973        3972
         4        3922        3923        3974        3973
         4        3923        3924        3975        3974
         4        3924        3925        3976        3975
         4        3925        3926        3977        3976
         4        3927        3928        3979        3978
         4        3928        3929        3980        3979
         4        3929        3930        3981        3980
         4        3930        3931        3982        3981
         4        3931        3932        3983        3982
         4        3932        3933        3984        3983
         4        3933        3934        3985        3984
         4        3934        3935        3986        3985
         4        3935        3936        3987        3986
         4        3936        3937        3988        3987
         4        3937        3938        3989        3988
         4        3938        3939        3990        3989
         4        3939        3940        3991        3990
         4        3940        3941        3992        3991
         4        3941        3942        3993        3992
         4        3942        3943        3994        3993
         4        3943        3944        3995        3994
         4        3944        3945        3996        3995
         4        3945        3946        3997        3996
         4        3946        3947        3998        3997
         4        3947        3948        3999        3998
         4        3948        3949        4000        3999
         4        3949        3950        4001        4000
         4        3950        3951        4002        4001
         4        3951        3952        4003        4002
         4        3952        3953        4004        4003
         4        3953        3954        4005        4004
         4        3954        3955        4006        4005
         4        3955        3956        4007        4006
         4        3956        3957        4008        4007
         4        3957        3958        4009        4008
         4        3958        3959        4010        4009
         4        3959        3960        4011        4010
         4        3960        3961        4012        4011
         4        3961        3962        4013        4012
         4        3962        3963        4014        4013
         4        3963        3964        4015        4014
         4        3964        3965        4016        4015
         4        3965        3966        4017        4016
         4        3966        3967        4018        4017
         4        3967        3968        4019        4018
         4        3968        3969        4020        4019
         4        3969        3970        4021        4020
         4        3970        3971        4022        4021
         4        3971        3972        4023        4022
         4        3972        3973        4024        4023
         4        3973        3974        4025        4024
         4        3974        3975        4026        4025
         4        3975        3976        4027        4026
         4        3976        3977        4028        4027
         4        3978        3979        4030        4029
         4        3979        3980        4031        4030
         4        3980        3981        4032        4031
         4        3981        3982        4033        4032
         4        3982        3983        4034        4033
         4        3983        3984        4035        4034
         4        3984        3985        4036        4035
         4        3985        3986        4037        4036
         4        3986        3987        4038        4037
         4        3987        3988        4039        4038
         4        3988        3989        4040        4039
         4        3989        3990        4041        4040
         4        3990        3991        4042        4041
         4        3991        3992        4043        4042
         4        3992        3993        4044        4043
         4        3993        3994        4045        4044
         4        3994        3995        4046        4045
         4        3995        3996        4047        4046
         4        3996        3997        4048        4047
         4        3997        3998        4049        4048
         4        3998        3999        4050        4049
         4        3999        4000        4051        4050
         4        4000        4001        4052        4051
         4        4001        4002        4053        4052
         4        4002        4003        4054        4053
         4        4003        4004        4055        4054
         4        4004        4005        4056        4055
         4        4005        4006        4057        4056
         4        4006        4007        4058        4057
         4        4007        4008        4059        4058
         4        4008        4009        4060        4059
         4        4009        4010        4061        4060
         4        4010        4011        4062        4061
         4        4011        4012        4063        4062
         4        4012        4013        4064        4063
         4        4013        4014        4065        4064
         4        4014        4015        4066        4065
         4        4015        4016        4067        4066
         4        4016        4017        4068        4067
         4        4017        4018        4069        4068
         4        4018        4019        4070        4069
         4        4019        4020        4071        4070
         4        4020        4021        4072        4071
         4        4021        4022        4073        4072
         4        4022        4023        4074        4073
         4        4023        4024        4075        4074
         4        4024        4025        4076        4075
         4        4025        4026        4077        4076
         4        4026        4027        4078        4077
         4        4027        4028        4079        4078
         4        4029        4030        4081        4080
         4        4030        4031        4082        4081
         4        4031        4032        4083        4082
         4        4032        4033        4084        4083
         4        4033        4034        4085        4084
         4        4034        4035        4086        4085
         4        4035        4036        4087        4086
         4        4036        4037        4088        4087
         4        4037        4038        4089        4088
         4        4038        4039        4090        4089
         4        4039        4040        4091        4090
         4        4040        4041        4092        4091
         4        4041        4042        4093        4092
         4        4042        4043        4094        4093
         4        4043        4044        4095        4094
         4        4044        4045        4096        4095
         4        4045        4046        4097        4096
         4        4046        4047        4098        4097
         4        4047        4048        4099        4098
         4        4048        4049        4100        4099
         4        4049        4050        4101        4100
         4        4050        4051        4102        4101
         4        4051        4052        4103        4102
         4        4052        4053        4104        4103
         4        4053        4054        4105        4104
         4        4054        4055        4106        4105
         4        4055        4056        4107        4106
         4        4056        4057        4108        4107
         4        4057        4058        4109        4108
         4        4058        4059        4110        4109
         4        4059        4060        4111        4110
         4        4060        4061        4112        4111
         4        4061        4062        4113        4112
         4        4062        4063        4114        4113
         4        4063        4064        4115        4114
         4        4064        4065        4116        4115
         4        4065        4066        4117        4116
         4        4066        4067        4118        4117
         4        4067        4068        4119        4118
         4        4068        4069        4120        4119
         4        4069        4070        4121        4120
         4        4070        4071        4122        4121
         4        4071        4072        4123        4122
         4        4072        4073        4124        4123
         4        4073        4074        4125        4124
         4        4074        4075        4126        4125
         4        4075        4076        4127        4126
         4        4076        4077        4128        4127
         4        4077        4078        4129        4128
         4        4078        4079        4130        4129
         4        4080        4081        4132        4131
         4        4081        4082        4133        4132
         4        4082        4083        4134        4133
         4        4083        4084        4135        4134
         4        4084        4085        4136        4135
         4        4085        4086        4137        4136
         4        4086        4087        4138        4137
         4        4087        4088        4139        4138
         4        4088        4089        4140        4139
         4        4089        4090        4141        4140
         4        4090        4091        4142        4141
         4        4091        4092        4143        4142
         4        4092        4093        4144        4143
         4        4093        4094        4145        4144
         4        4094        4095        4146        4145
         4        4095        4096        4147        4146
         4        4096        4097        4148        4147
         4        4097        4098        4149        4148
         4        4098        4099        4150        4149
         4        4099        4100        4151        4150
         4        4100        4101        4152        4151
         4        4101        4102        4153        4152
         4        4102        4103        4154        4153
         4        4103        4104        4155        4154
         4        4104        4105        4156        4155
         4        4105        4106        4157        4156
         4        4106        4107        4158        4157
         4        4107        4108        4159        4158
         4        4108        4109        4160        4159
         4        4109        4110        4161        4160
         4        4110        4111        4162        4161
         4        4111        4112        4163        4162
         4        4112        4113        4164        4163
         4        4113        4114        4165        4164
         4        4114        4115        4166        4165
         4        4115        4116        4167        4166
         4        4116        4117        4168        4167
         4        4117        4118        4169        4168
         4        4118        4119        4170        4169
         4        4119        4120        4171        4170
         4        4120        4121        4172        4171
         4        4121        4122        4173        4172
         4        4122        4123        4174        4173
         4        4123        4124        4175        4174
         4        4124        4125        4176        4175
         4        4125        4126        4177        4176
         4        4126        4127        4178        4177
         4        4127        4128        4179        4178
         4        4128        4129        4180        4179
         4        4129        4130        4181        4180
         4        4131        4132        4183        4182
         4        4132        4133        4184        4183
         4        4133        4134        4185        4184
         4        4134        4135        4186        4185
         4        4135        4136        4187        4186
         4        4136        4137        4188        4187
         4        4137        4138        4189        4188
         4        4138        4139        4190        4189
         4        4139        4140        4191        4190
         4        4140        4141        4192        4191
         4        4141        4142        4193        4192
         4        4142        4143        4194        4193
         4        4143        4144        4195        4194
         4        4144        4145        4196        4195
         4        4145        4146        4197        4196
         4        4146        4147        4198        4197
         4        4147        4148        4199        4198
         4        4148        4149        4200        4199
         4        4149        4150        4201        4200
         4        4150        4151        4202        4201
         4        4151        4152        4203        4202
         4        4152        4153        4204        4203
         4        4153        4154        4205        4204
         4        4154        4155        4206        4205
         4        4155        4156        4207        4206
         4        4156        4157        4208        4207
         4        4157        4158        4209        4208
         4        4158        4159        4210        4209
         4        4159        4160        4211        4210
         4        4160        4161        4212        4211
         4        4161        4162        4213        4212
         4        4162        4163        4214        4213
         4        4163        4164        4215        4214
         4        4164        4165        4216        4215
         4        4165        4166        4217        4216
         4        4166        4167        4218        4217
         4        4167        4168        4219        4218
         4        4168        4169        4220        4219
         4        4169        4170        4221        4220
         4        4170        4171        4222        4221
         4        4171        4172        4223        4222
         4        4172        4173        4224        4223
         4        4173        4174        4225        4224
         4        4174        4175        4226        4225
         4        4175        4176        4227        4226
         4        4176        4177        4228        4227
         4        4177        4178        4229        4228
         4        4178        4179        4230        4229
         4        4179        4180        4231        4230
         4        4180        4181        4232        4231
         4        4182        4183        4234        4233
         4        4183        4184        4235        4234
         4        4184        4185        4236        4235
         4        4185        4186        4237        4236
         4        4186        4187        4238        4237
         4        4187        4188        4239        4238
         4        4188        4189        4240        4239
         4        4189        4190        4241        4240
         4        4190        4191        4242        4241
         4        4191        4192        4243        4242
         4        4192        4193        4244        4243
         4        4193        4194        4245        4244
         4        4194        4195        4246        4245
         4        4195        4196        4247        4246
         4        4196        4197        4248        4247
         4        4197        4198        4249        4248
         4        4198        4199        4250        4249
         4        4199        4200        4251        4250
         4        4200        4201        4252        4251
         4        4201        4202        4253        4252
         4        4202        4203        4254        4253
         4        4203        4204        4255        4254
         4        4204        4205        4256        4255
         4        4205        4206        4257        4256
         4        4206        4207        4258        4257
         4        4207        4208        4259        4258
         4        4208        4209        4260        4259
         4        4209        4210        4261        4260
         4        4210        4211        4262        4261
         4        4211        4212        4263        4262
         4        4212        4213        4264        4263
         4        4213        4214        4265        4264
         4        4214        4215        4266        4265
         4        4215        4216        4267        4266
         4        4216        4217        4268        4267
         4        4217        4218        4269        4268
         4        4218        4219        4270        4269
         4        4219        4220        4271        4270
         4        4220        4221        4272        4271
         4        4221        4222        4273        4272
         4        4222        4223        4274        4273
         4        4223        4224        4275        4274
         4        4224        4225        4276        4275
         4        4225        4226        4277        4276
         4        4226        4227        4278        4277
         4        4227        4228        4279        4278
         4        4228        4229        4280        4279
         4        4229        4230        4281        4280
         4        4230        4231        4282        4281
         4        4231        4232        4283        4282
         4        4233        4234        4285        4284
         4        4234        4235        4286        4285
         4        4235        4236        4287        4286
         4        4236        4237        4288        4287
         4        4237        4238        4289        4288
         4        4238        4239        4290        4289
         4        4239        4240        4291        4290
         4        4240        4241        4292        4291
         4        4241        4242        4293        4292
         4        4242        4243        4294        4293
         4        4243        4244        4295        4294
         4        4244        4245        4296        4295
         4        4245        4246        4297        4296
         4        4246        4247        4298        4297
         4        4247        4248        4299        4298
         4        4248        4249        4300        4299
         4        4249        4250        4301        4300
         4        4250        4251        4302        4301
         4        4251        4252        4303        4302
         4        4252        4253        4304        4303
         4        4253        4254        4305        4304
         4        4254        4255        4306        4305
         4        4255        4256        4307        4306
         4        4256        4257        4308        4307
         4        4257        4258        4309        4308
         4        4258        4259        4310        4309
         4        4259        4260        4311        4310
         4        4260        4261        4312        4311
         4        4261        4262        4313        4312
         4        4262        4263        4314        4313
         4        4263        4264        4315        4314
         4        4264        4265        4316        4315
         4        4265        4266        4317        4316
         4        4266        4267        4318        4317
         4        4267        4268        4319        4318
         4        4268        4269        4320        4319
         4        4269        4270        4321        4320
         4        4270        4271        4322        4321
         4        4271        4272        4323        4322
         4        4272        4273        4324        4323
         4        4273        4274        4325        4324
         4        4274        4275        4326        4325
         4        4275        4276        4327        4326
         4        4276        4277        4328        4327
         4        4277        4278        4329        4328
         4        4278        4279        4330        4329
         4        4279        4280        4331        4330
         4        4280        4281        4332        4331
         4        4281        4282        4333        4332
         4        4282        4283        4334        4333
         4        4284        4285        4336        4335
         4        4285        4286        4337        4336
         4        4286        4287        4338        4337
         4        4287        4288        4339        4338
         4        4288        4289        4340        4339
         4        4289        4290        4341        4340
         4        4290        4291        4342        4341
         4        4291        4292        4343        4342
         4        4292        4293        4344        4343
         4        4293        4294        4345        4344
         4        4294        4295        4346        4345
         4        4295        4296        4347        4346
         4        4296        4297        4348        4347
         4        4297        4298        4349        4348
         4        4298        4299        4350        4349
         4        4299        4300        4351        4350
         4        4300        4301        4352        4351
         4        4301        4302        4353        4352
         4        4302        4303        4354        4353
         4        4303        4304        4355        4354
         4        4304        4305        4356        4355
         4        4305        4306        4357        4356
         4        4306        4307        4358        4357
         4        4307        4308        4359        4358
         4        4308        4309        4360        4359
         4        4309        4310        4361        4360
         4        4310        4311        4362        4361
         4        4311        4312        4363        4362
         4        4312        4313        4364        4363
         4        4313        4314        4365        4364
         4        4314        4315        4366        4365
         4        4315        4316        4367        4366
         4        4316        4317        4368        4367
         4        4317        4318        4369        4368
         4        4318        4319        4370        4369
         4        4319        4320        4371        4370
         4        4320        4321        4372        4371
         4        4321        4322        4373        4372
         4        4322        4323        4374        4373
         4        4323        4324        4375        4374
         4        4324        4325        4376        4375
         4        4325        4326        4377        4376
         4        4326        4327        4378        4377
         4        4327        4328        4379        4378
         4        4328        4329        4380        4379
         4        4329        4330        4381        4380
         4        4330        4331        4382        4381
         4        4331        4332        4383        4382
         4        4332        4333        4384        4383
         4        4333        4334        4385        4384
         4        4335        4336        4387        4386
         4        4336        4337        4388        4387
         4        4337        4338        4389        4388
         4        4338        4339        4390        4389
         4        4339        4340        4391        4390
         4        4340        4341        4392        4391
         4        4341        4342        4393        4392
         4        4342        4343        4394        4393
         4        4343        4344        4395        4394
         4        4344        4345        4396        4395
         4        4345        4346        4397        4396
         4        4346        4347        4398        4397
         4        4347        4348        4399        4398
         4        4348        4349        4400        4399
         4        4349        4350        4401        4400
         4        4350        4351        4402        4401
         4        4351        4352        4403        4402
         4        4352        4353        4404        4403
         4        4353        4354        4405        4404
         4        4354        4355        4406        4405
         4        4355        4356        4407        4406
         4        4356        4357        4408        4407
         4        4357        4358        4409        4408
         4        4358        4359        4410        4409
         4        4359        4360        4411        4410
         4        4360        4361        4412        4411
         4        4361        4362        4413        4412
         4        4362        4363        4414        4413
         4        4363        4364        4415        4414
         4        4364        4365        4416        4415
         4        4365        4366        4417        4416
         4        4366        4367        4418        4417
         4        4367        4368        4419        4418
         4        4368        4369        4420        4419
         4        4369        4370        4421        4420
         4        4370        4371        4422        4421
         4        4371        4372        4423        4422
         4        4372        4373        4424        4423
         4        4373        4374        4425        4424
         4        4374        4375        4426        4425
         4        4375        4376        4427        4426
         4        4376        4377        4428        4427
         4        4377        4378        4429        4428
         4        4378        4379        4430        4429
         4        4379        4380        4431        4430
         4        4380        4381        4432        4431
         4        4381        4382        4433        4432
         4        4382        4383        4434        4433
         4        4383        4384        4435        4434
         4        4384        4385        4436        4435
         4        4386        4387        4438        4437
         4        4387        4388        4439        4438
         4        4388        4389        4440        4439
         4        4389        4390        4441        4440
         4        4390        4391        4442        4441
         4        4391        4392        4443        4442
         4        4392        4393        4444        4443
         4        4393        4394        4445        4444
         4        4394        4395        4446        4445
         4        4395        4396        4447        4446
         4        4396        4397        4448        4447
         4        4397        4398        4449        4448
         4        4398        4399        4450        4449
         4        4399        4400        4451        4450
         4        4400        4401        4452        4451
         4        4401        4402        4453        4452
         4        4402        4403        4454        4453
         4        4403        4404        4455        4454
         4        4404        4405        4456        4455
         4        4405        4406        4457        4456
         4        4406        4407        4458        4457
         4        4407        4408        4459        4458
         4        4408        4409        4460        4459
         4        4409        4410        4461        4460
         4        4410        4411        4462        4461
         4        4411        4412        4463        4462
         4        4412        4413        4464        4463
         4        4413        4414        4465        4464
         4        4414        4415        4466        4465
         4        4415        4416        4467        4466
         4        4416        4417        4468        4467
         4        4417        4418        4469        4468
         4        4418        4419        4470        4469
         4        4419        4420        4471        4470
         4        4420        4421        4472        4471
         4        4421        4422        4473        4472
         4        4422        4423        4474        4473
         4        4423        4424        4475        4474
         4        4424        4425        4476        4475
         4        4425        4426        4477        4476
         4        4426        4427        4478        4477
         4        4427        4428        4479        4478
         4        4428        4429        4480        4479
         4        4429        4430        4481        4480
         4        4430        4431        4482        4481
         4        4431        4432        4483        4482
         4        4432        4433        4484        4483
         4        4433        4434        4485        4484
         4        4434        4435        4486        4485
         4        4435        4436        4487        4486
         4        4437        4438        4489        4488
         4        4438        4439        4490        4489
         4        4439        4440        4491        4490
         4        4440        4441        4492        4491
         4        4441        4442        4493        4492
         4        4442        4443        4494        4493
         4        4443        4444        4495        4494
         4        4444        4445        4496        4495
         4        4445        4446        4497        4496
         4        4446        4447        4498        4497
         4        4447        4448        4499        4498
         4        4448        4449        4500        4499
         4        4449        4450        4501        4500
         4        4450        4451        4502        4501
         4        4451        4452        4503        4502
         4        4452        4453        4504        4503
         4        4453        4454        4505        4504
         4        4454        4455        4506        4505
         4        4455        4456        4507        4506
         4        4456        4457        4508        4507
         4        4457        4458        4509        4508
         4        4458        4459        4510        4509
         4        4459        4460        4511        4510
         4        4460        4461        4512        4511
         4        4461        4462        4513        4512
         4        4462        4463        4514        4513
         4        4463        4464        4515        4514
         4        4464        4465        4516        4515
         4        4465        4466        4517        4516
         4        4466        4467        4518        4517
         4        4467        4468        4519        4518
         4        4468        4469        4520        4519
         4        4469        4470        4521        4520
         4        4470        4471        4522        4521
         4        4471        4472        4523        4522
         4        4472        4473        4524        4523
         4        4473        4474        4525        4524
         4        4474        4475        4526        4525
         4        4475        4476        4527        4526
         4        4476        4477        4528        4527
         4        4477        4478        4529        4528
         4        4478        4479        4530        4529
         4        4479        4480        4531        4530
         4        4480        4481        4532        4531
         4        4481        4482        4533        4532
         4        4482        4483        4534        4533
         4        4483        4484        4535        4534
         4        4484        4485        4536        4535
         4        4485        4486        4537        4536
         4        4486        4487        4538        4537
         4        4488        4489        4540        4539
         4        4489        4490        4541        4540
         4        4490        4491        4542        4541
         4        4491        4492        4543        4542
         4        4492        4493        4544        4543
         4        4493        4494        4545        4544
         4        4494        4495        4546        4545
         4        4495        4496        4547        4546
         4        4496        4497        4548        4547
         4        4497        4498        4549        4548
         4        4498        4499        4550        4549
         4        4499        4500        4551        4550
         4        4500        4501        4552        4551
         4        4501        4502        4553        4552
         4        4502        4503        4554        4553
         4        4503        4504        4555        4554
         4        4504        4505        4556        4555
         4        4505        4506        4557        4556
         4        4506        4507        4558        4557
         4        4507        4508        4559        4558
         4        4508        4509        4560        4559
         4        4509        4510        4561        4560
         4        4510        4511        4562        4561
         4        4511        4512        4563        4562
         4        4512        4513        4564        4563
         4        4513        4514        4565        4564
         4        4514        4515        4566        4565
         4        4515        4516        4567        4566
         4        4516        4517        4568        4567
         4        4517        4518        4569        4568
         4        4518        4519        4570        4569
         4        4519        4520        4571        4570
         4        4520        4521        4572        4571
         4        4521        4522        4573        4572
         4        4522        4523        4574        4573
         4        4523        4524        4575        4574
         4        4524        4525        4576        4575
         4        4525        4526        4577        4576
         4        4526        4527        4578        4577
         4        4527        4528        4579        4578
         4        4528        4529        4580        4579
         4        4529        4530        4581        4580
         4        4530        4531        4582        4581
         4        4531        4532        4583        4582
         4        4532        4533        4584        4583
         4        4533        4534        4585        4584
         4        4534        4535        4586        4585
         4        4535        4536        4587        4586
         4        4536        4537        4588        4587
         4        4537        4538        4589        4588
         4        4539        4540        4591        4590
         4        4540        4541        4592        4591
         4        4541        4542        4593        4592
         4        4542        4543        4594        4593
         4        4543        4544        4595        4594
         4        4544        4545        4596        4595
         4        4545        4546        4597        4596
         4        4546        4547        4598        4597
         4        4547        4548        4599        4598
         4        4548        4549        4600        4599
         4        4549        4550        4601        4600
         4        4550        4551        4602        4601
         4        4551        4552        4603        4602
         4        4552        4553        4604        4603
         4        4553        4554        4605        4604
         4        4554        4555        4606        4605
         4        4555        4556        4607        4606
         4        4556        4557        4608        4607
         4        4557        4558        4609        4608
         4        4558        4559        4610        4609
         4        4559        4560        4611        4610
         4        4560        4561        4612        4611
         4        4561        4562        4613        4612
         4        4562        4563        4614        4613
         4        4563        4564        4615        4614
         4        4564        4565        4616        4615
         4        4565        4566        4617        4616
         4        4566        4567        4618        4617
         4        4567        4568        4619        4618
         4        4568        4569        4620        4619
         4        4569        4570        4621        4620
         4        4570        4571        4622        4621
         4        4571        4572        4623        4622
         4        4572        4573        4624        4623
         4        4573        4574        4625        4624
         4        4574        4575        4626        4625
         4        4575        4576        4627        4626
         4        4576        4577        4628        4627
         4        4577        4578        4629        4628
         4        4578        4579        4630        4629
         4        4579        4580        4631        4630
         4        4580        4581        4632        4631
         4        4581        4582        4633        4632
         4        4582        4583        4634        4633
         4        4583        4584        4635        4634
         4        4584        4585        4636        4635
         4        4585        4586        4637        4636
         4        4586        4587        4638        4637
         4        4587        4588        4639        4638
         4        4588        4589        4640        4639
         4        4590        4591        4642        4641
         4        4591        4592        4643        4642
         4        4592        4593        4644        4643
         4        4593        4594        4645        4644
         4        4594        4595        4646        4645
         4        4595        4596        4647        4646
         4        4596        4597        4648        4647
         4        4597        4598        4649        4648
         4        4598        4599        4650        4649
         4        4599        4600        4651        4650
         4        4600        4601        4652        4651
         4        4601        4602        4653        4652
         4        4602        4603        4654        4653
         4        4603        4604        4655        4654
         4        4604        4605        4656        4655
         4        4605        4606        4657        4656
         4        4606        4607        4658        4657
         4        4607        4608        4659        4658
         4        4608        4609        4660        4659
         4        4609        4610        4661        4660
         4        4610        4611        4662        4661
         4        4611        4612        4663        4662
         4        4612        4613        4664        4663
         4        4613        4614        4665        4664
         4        4614        4615        4666        4665
         4        4615        4616        4667        4666
         4        4616        4617        4668        4667
         4        4617        4618        4669        4668
         4        4618        4619        4670        4669
         4        4619        4620        4671        4670
         4        4620        4621        4672        4671
         4        4621        4622        4673        4672
         4        4622        4623        4674        4673
         4        4623        4624        4675        4674
         4        4624        4625        4676        4675
         4        4625        4626        4677        4676
         4        4626        4627        4678        4677
         4        4627        4628        4679        4678
         4        4628        4629        4680        4679
         4        4629        4630        4681        4680
         4        4630        4631        4682        4681
         4        4631        4632        4683        4682
         4        4632        4633        4684        4683
         4        4633        4634        4685        4684
         4        4634        4635        4686        4685
         4        4635        4636        4687        4686
         4        4636        4637        4688        4687
         4        4637        4638        4689        4688
         4        4638        4639        4690        4689
         4        4639        4640        4691        4690
         4        4641        4642        4693        4692
         4        4642        4643        4694        4693
         4        4643        4644        4695        4694
         4        4644        4645        4696        4695
         4        4645        4646        4697        4696
         4        4646        4647        4698        4697
         4        4647        4648        4699        4698
         4        4648        4649        4700        4699
         4        4649        4650        4701        4700
         4        4650        4651        4702        4701
         4        4651        4652        4703        4702
         4        4652        4653        4704        4703
         4        4653        4654        4705        4704
         4        4654        4655        4706        4705
         4        4655        4656        4707        4706
         4        4656        4657        4708        4707
         4        4657        4658        4709        4708
         4        4658        4659        4710        4709
         4        4659        4660        4711        4710
         4        4660        4661        4712        4711
         4        4661        4662        4713        4712
         4        4662        4663        4714        4713
         4        4663        4664        4715        4714
         4        4664        4665        4716        4715
         4        4665        4666        4717        4716
         4        4666        4667        4718        4717
         4        4667        4668        4719        4718
         4        4668        4669        4720        4719
         4        4669        4670        4721        4720
         4        4670        4671        4722        4721
         4        4671        4672        4723        4722
         4        4672        4673        4724        4723
         4        4673        4674        4725        4724
         4        4674        4675        4726        4725
         4        4675        4676        4727        4726
         4        4676        4677        4728        4727
         4        4677        4678        4729        4728
         4        4678        4679        4730        4729
         4        4679        4680        4731        4730
         4        4680        4681        4732        4731
         4        4681        4682        4733        4732
         4        4682        4683        4734        4733
         4        4683        4684        4735        4734
         4        4684        4685        4736        4735
         4        4685        4686        4737        4736
         4        4686        4687        4738        4737
         4        4687        4688        4739        4738
         4        4688        4689        4740        4739
         4        4689        4690        4741        4740
         4        4690        4691        4742        4741
         4        4692        4693        4744        4743
         4        4693        4694        4745        4744
         4        4694        4695        4746        4745
         4        4695        4696        4747        4746
         4        4696        4697        4748        4747
         4        4697        4698        4749        4748
         4        4698        4699        4750        4749
         4        4699        4700        4751        4750
         4        4700        4701        4752        4751
         4        4701        4702        4753        4752
         4        4702        4703        4754        4753
         4        4703        4704        4755        4754
         4        4704        4705        4756        4755
         4        4705        4706        4757        4756
         4        4706        4707        4758        4757
         4        4707        4708        4759        4758
         4        4708        4709        4760        4759
         4        4709        4710        4761        4760
         4        4710        4711        4762        4761
         4        4711        4712        4763        4762
         4        4712        4713        4764        4763
         4        4713        4714        4765        4764
         4        4714        4715        4766        4765
         4        4715        4716        4767        4766
         4        4716        4717        4768        4767
         4        4717        4718        4769        4768
         4        4718        4719        4770        4769
         4        4719        4720        4771        4770
         4        4720        4721        4772        4771
         4        4721        4722        4773        4772
         4        4722        4723        4774        4773
         4        4723        4724        4775        4774
         4        4724        4725        4776        4775
         4        4725        4726        4777        4776
         4        4726        4727        4778        4777
         4        4727        4728        4779        4778
         4        4728        4729        4780        4779
         4        4729        4730        4781        4780
         4        4730        4731        4782        4781
         4        4731        4732        4783        4782
         4        4732        4733        4784        4783
         4        4733        4734        4785        4784
         4        4734        4735        4786        4785
         4        4735        4736        4787        4786
         4        4736        4737        4788        4787
         4        4737        4738        4789        4788
         4        4738        4739        4790        4789
         4        4739        4740        4791        4790
         4        4740        4741        4792        4791
         4        4741        4742        4793        4792
         4        4743        4744        4795        4794
         4        4744        4745        4796        4795
         4        4745        4746        4797        4796
         4        4746        4747        4798        4797
         4        4747        4748        4799        4798
         4        4748        4749        4800        4799
         4        4749        4750        4801        4800
         4        4750        4751        4802        4801
         4        4751        4752        4803        4802
         4        4752        4753        4804        4803
         4        4753        4754        4805        4804
         4        4754        4755        4806        4805
         4        4755        4756        4807        4806
         4        4756        4757        4808        4807
         4        4757        4758        4809        4808
         4        4758        4759        4810        4809
         4        4759        4760        4811        4810
         4        4760        4761        4812        4811
         4        4761        4762        4813        4812
         4        4762        4763        4814        4813
         4        4763        4764        4815        4814
         4        4764        4765        4816        4815
         4        4765        4766        4817        4816
         4        4766        4767        4818        4817
         4        4767        4768        4819        4818
         4        4768        4769        4820        4819
         4        4769        4770        4821        4820
         4        4770        4771        4822        4821
         4        4771        4772        4823        4822
         4        4772        4773        4824        4823
         4        4773        4774        4825        4824
         4        4774        4775        4826        4825
         4        4775        4776        4827        4826
         4        4776        4777        4828        4827
         4        4777        4778        4829        4828
         4        4778        4779        4830        4829
         4        4779        4780        4831        4830
         4        4780        4781        4832        4831
         4        4781        4782        4833        4832
         4        4782        4783        4834        4833
         4        4783        4784        4835        4834
         4        4784        4785        4836        4835
         4        4785        4786        4837        4836
         4        4786        4787        4838        4837
         4        4787        4788        4839        4838
         4        4788        4789        4840        4839
         4        4789        4790        4841        4840
         4        4790        4791        4842        4841
         4        4791        4792        4843        4842
         4        4792        4793        4844        4843
         4        4794        4795        4846        4845
         4        4795        4796        4847        4846
         4        4796        4797        4848        4847
         4        4797        4798        4849        4848
         4        4798        4799        4850        4849
         4        4799        4800        4851        4850
         4        4800        4801        4852        4851
         4        4801        4802        4853        4852
         4        4802        4803        4854        4853
         4        4803        4804        4855        4854
         4        4804        4805        4856        4855
         4        4805        4806        4857        4856
         4        4806        4807        4858        4857
         4        4807        4808        4859        4858
         4        4808        4809        4860        4859
         4        4809        4810        4861        4860
         4        4810        4811        4862        4861
         4        4811        4812        4863        4862
         4        4812        4813        4864        4863
         4        4813        4814        4865        4864
         4        4814        4815        4866        4865
         4        4815        4816        4867        4866
         4        4816        4817        4868        4867
         4        4817        4818        4869        4868
         4        4818        4819        4870        4869
         4        4819        4820        4871        4870
         4        4820        4821        4872        4871
         4        4821        4822        4873        4872
         4        4822        4823        4874        4873
         4        4823        4824        4875        4874
         4        4824        4825        4876        4875
         4        4825        4826        4877        4876
         4        4826        4827        4878        4877
         4        4827        4828        4879        4878
         4        4828        4829        4880        4879
         4        4829        4830        4881        4880
         4        4830        4831        4882        4881
         4        4831        4832        4883        4882
         4        4832        4833        4884        4883
         4        4833        4834        4885        4884
         4        4834        4835        4886        4885
         4        4835        4836        4887        4886
         4        4836        4837        4888        4887
         4        4837        4838        4889        4888
         4        4838        4839        4890        4889
         4        4839        4840        4891        4890
         4        4840        4841        4892        4891
         4        4841        4842        4893        4892
         4        4842        4843        4894        4893
         4        4843        4844        4895        4894
         4        4845        4846        4897        4896
         4        4846        4847        4898        4897
         4        4847        4848        4899        4898
         4        4848        4849        4900        4899
         4        4849        4850        4901        4900
         4        4850        4851        4902        4901
         4        4851        4852        4903        4902
         4        4852        4853        4904        4903
         4        4853        4854        4905        4904
         4        4854        4855        4906        4905
         4        4855        4856        4907        4906
         4        4856        4857        4908        4907
         4        4857        4858        4909        4908
         4        4858        4859        4910        4909
         4        4859        4860        4911        4910
         4        4860        4861        4912        4911
         4        4861        4862        4913        4912
         4        4862        4863        4914        4913
         4        4863        4864        4915        4914
         4        4864        4865        4916        4915
         4        4865        4866        4917        4916
         4        4866        4867        4918        4917
         4        4867        4868        4919        4918
         4        4868        4869        4920        4919
         4        4869        4870        4921        4920
         4        4870        4871        4922        4921
         4        4871        4872        4923        4922
         4        4872        4873        4924        4923
         4        4873        4874        4925        4924
         4        4874        4875        4926        4925
         4        4875        4876        4927        4926
         4        4876        4877        4928        4927
         4        4877        4878        4929        4928
         4        4878        4879        4930        4929
         4        4879        4880        4931        4930
         4        4880        4881        4932        4931
         4        4881        4882        4933        4932
         4        4882        4883        4934        4933
         4        4883        4884        4935        4934
         4        4884        4885        4936        4935
         4        4885        4886        4937        4936
         4        4886        4887        4938        4937
         4        4887        4888        4939        4938
         4        4888        4889        4940        4939
         4        4889        4890        4941        4940
         4        4890        4891        4942        4941
         4        4891        4892        4943        4942
         4        4892        4893        4944        4943
         4        4893        4894        4945        4944
         4        4894        4895        4946        4945
         4        4896        4897        4948        4947
         4        4897        4898        4949        4948
         4        4898        4899        4950        4949
         4        4899        4900        4951        4950
         4        4900        4901        4952        4951
         4        4901        4902        4953        4952
         4        4902        4903        4954        4953
         4        4903        4904        4955        4954
         4        4904        4905        4956        4955
         4        4905        4906        4957        4956
         4        4906        4907        4958        4957
         4        4907        4908        4959        4958
         4        4908        4909        4960        4959
         4        4909        4910        4961        4960
         4        4910        4911        4962        4961
         4        4911        4912        4963        4962
         4        4912        4913        4964        4963
         4        4913        4914        4965        4964
         4        4914        4915        4966        4965
         4        4915        4916        4967        4966
         4        4916        4917        4968        4967
         4        4917        4918        4969        4968
         4        4918        4919        4970        4969
         4        4919        4920        4971        4970
         4        4920        4921        4972        4971
         4        4921        4922        4973        4972
         4        4922        4923        4974        4973
         4        4923        4924        4975        4974
         4        4924        4925        4976        4975
         4        4925        4926        4977        4976
         4        4926        4927        4978        4977
         4        4927        4928        4979        4978
         4        4928        4929        4980        4979
         4        4929        4930        4981        4980
         4        4930        4931        4982        4981
         4        4931        4932        4983        4982
         4        4932        4933        4984        4983
         4        4933        4934        4985        4984
         4        4934        4935        4986        4985
         4        4935        4936        4987        4986
         4        4936        4937        4988        4987
         4        4937        4938        4989        4988
         4        4938        4939        4990        4989
         4        4939        4940        4991        4990
         4        4940        4941        4992        4991
         4        4941        4942        4993        4992
         4        4942        4943        4994        4993
         4        4943        4944        4995        4994
         4        4944        4945        4996        4995
         4        4945        4946        4997        4996
         4        4947        4948        4999        4998
         4        4948        4949        5000        4999
         4        4949        4950        5001        5000
         4        4950        4951        5002        5001
         4        4951        4952        5003        5002
         4        4952        4953        5004        5003
         4        4953        4954        5005        5004
         4        4954        4955        5006        5005
         4        4955        4956        5007        5006
         4        4956        4957        5008        5007
         4        4957        4958        5009        5008
         4        4958        4959        5010        5009
         4        4959        4960        5011        5010
         4        4960        4961        5012        5011
         4        4961        4962        5013        5012
         4        4962        4963        5014        5013
         4        4963        4964        5015        5014
         4        4964        4965        5016        5015
         4        4965        4966        5017        5016
         4        4966        4967        5018        5017
         4        4967        4968        5019        5018
         4        4968        4969        5020        5019
         4        4969        4970        5021        5020
         4        4970        4971        5022        5021
         4        4971        4972        5023        5022
         4        4972        4973        5024        5023
         4        4973        4974        5025        5024
         4        4974        4975        5026        5025
         4        4975        4976        5027        5026
         4        4976        4977        5028        5027
         4        4977        4978        5029        5028
         4        4978        4979        5030        5029
         4        4979        4980        5031        5030
         4        4980        4981        5032        5031
         4        4981        4982        5033        5032
         4        4982        4983        5034        5033
         4        4983        4984        5035        5034
         4        4984        4985        5036        5035
         4        4985        4986        5037        5036
         4        4986        4987        5038        5037
         4        4987        4988        5039        5038
         4        4988        4989        5040        5039
         4        4989        4990        5041        5040
         4        4990        4991        5042        5041
         4        4991        4992        5043        5042
         4        4992        4993        5044        5043
         4        4993        4994        5045        5044
         4        4994        4995        5046        5045
         4        4995        4996        5047        5046
         4        4996        4997        5048        5047
         4        4998        4999        5050        5049
         4        4999        5000        5051        5050
         4        5000        5001        5052        5051
         4        5001        5002        5053        5052
         4        5002        5003        5054        5053
         4        5003        5004        5055        5054
         4        5004        5005        5056        5055
         4        5005        5006        5057        5056
         4        5006        5007        5058        5057
         4        5007        5008        5059        5058
         4        5008        5009        5060        5059
         4        5009        5010        5061        5060
         4        5010        5011        5062        5061
         4        5011        5012        5063        5062
         4        5012        5013        5064        5063
         4        5013        5014        5065        5064
         4        5014        5015        5066        5065
         4        5015        5016        5067        5066
         4        5016        5017        5068        5067
         4        5017        5018        5069        5068
         4        5018        5019        5070        5069
         4        5019        5020        5071        5070
         4        5020        5021        5072        5071
         4        5021        5022        5073        5072
         4        5022        5023        5074        5073
         4        5023        5024        5075        5074
         4        5024        5025        5076        5075
         4        5025        5026        5077        5076
         4        5026        5027        5078        5077
         4        5027        5028        5079        5078
         4        5028        5029        5080        5079
         4        5029        5030        5081        5080
         4        5030        5031        5082        5081
         4        5031        5032        5083        5082
         4        5032        5033        5084        5083
         4        5033        5034        5085        5084
         4        5034        5035        5086        5085
         4        5035        5036        5087        5086
         4        5036        5037        5088        5087
         4        5037        5038        5089        5088
         4        5038        5039        5090        5089
         4        5039        5040        5091        5090
         4        5040        5041        5092        5091
         4        5041        5042        5093        5092
         4        5042        5043        5094        5093
         4        5043        5044        5095        5094
         4        5044        5045        5096        5095
         4        5045        5046        5097        5096
         4        5046        5047        5098        5097
         4        5047        5048        5099        5098
         4        5049        5050        5101        5100
         4        5050        5051        5102        5101
         4        5051        5052        5103        5102
         4        5052        5053        5104        5103
         4        5053        5054        5105        5104
         4        5054        5055        5106        5105
         4        5055        5056        5107        5106
         4        5056        5057        5108        5107
         4        5057        5058        5109        5108
         4        5058        5059        5110        5109
         4        5059        5060        5111        5110
         4        5060        5061        5112        5111
         4        5061        5062        5113        5112
         4        5062        5063        5114        5113
         4        5063        5064        5115        5114
         4        5064        5065        5116        5115
         4        5065        5066        5117        5116
         4        5066        5067        5118        5117
         4        5067        5068        5119        5118
         4        5068        5069        5120        5119
         4        5069        5070        5121        5120
         4        5070        5071        5122        5121
         4        5071        5072        5123        5122
         4        5072        5073        5124        5123
         4        5073        5074        5125        5124
         4        5074        5075        5126        5125
         4        5075        5076        5127        5126
         4        5076        5077        5128        5127
         4        5077        5078        5129        5128
         4        5078        5079        5130        5129
         4        5079        5080        5131        5130
         4        5080        5081        5132        5131
         4        5081        5082        5133        5132
         4        5082        5083        5134        5133
         4        5083        5084        5135        5134
         4        5084        5085        5136        5135
         4        5085        5086        5137        5136
         4        5086        5087        5138        5137
         4        5087        5088        5139        5138
         4        5088        5089        5140        5139
         4        5089        5090        5141        5140
         4        5090        5091        5142        5141
         4        5091        5092        5143        5142
         4        5092        5093        5144        5143
         4        5093        5094        5145        5144
         4        5094        5095        5146        5145
         4        5095        5096        5147        5146
         4        5096        5097        5148        5147
         4        5097        5098        5149        5148
         4        5098        5099        5150        5149
CELL_TYPES       5000
9
9
9
9
9
9
9
9
9
9
9
9
9
9
9
9
9
9
9
9
9
9
9
9
9
9
9
9
9
9
9
9
9
9
9
9
9
9
9
9
9
9
9
9
9
9
9
9
9
9
9
9
9
9
9
9
9
9
9
9
9
9
9
9
9
9
9
9
9
9
9
9
9
9
9
9
9
9
9
9
9
9
9
9
9
9
9
9
9
9
9
9
9
9
9
9
9
9
9
9
9
9
9
9
9
9
9
9
9
9
9
9
9
9
9
9
9
9
9
9
9
9
9
9
9
9
9
9
9
9
9
9
9
9
9
9
9
9
9
9
9
9
9
9
9
9
9
9
9
9
9
9
9
9
9
9
9
9
9
9
9
9
9
9
9
9
9
9
9
9
9
9
9
9
9
9
9
9
9
9
9
9
9
9
9
9
9
9
9
9
9
9
9
9
9
9
9
9
9
9
9
9
9
9
9
9
9
9
9
9
9
9
9
9
9
9
9
9
9
9
9
9
9
9
9
9
9
9
9
9
9
9
9
9
9
9
9
9
9
9
9
9
9
9
9
9
9
9
9
9
9
9
9
9
9
9
9
9
9
9
9
9
9
9
9
9
9
9
9
9
9
9
9
9
9
9
9
9
9
9
9
9
9
9
9
9
9
9
9
9
9
9
9
9
9
9
9
9
9
9
9
9
9
9
9
9
9
9
9
9
9
9
9
9
9
9
9
9
9
9
9
9
9
9
9
9
9
9
9
9
9
9
9
9
9
9
9
9
9
9
9
9
9
9
9
9
9
9
9
9
9
9
9
9
9
9
9
9
9
9
9
9
9
9
9
9
9
9
9
9
9
9
9
9
9
9
9
9
9
9
9
9
9
9
9
9
9
9
9
9
9
9
9
9
9
9
9
9
9
9
9
9
9
9
9
9
9
9
9
9
9
9
9
9
9
9
9
9
9
9
9
9
9
9
9
9
9
9
9
9
9
9
9
9
9
9
9
9
9
9
9
9
9
9
9
9
9
9
9
9
9
9
9
9
9
9
9
9
9
9
9
9
9
9
9
9
9
9
9
9
9
9
9
9
9
9
9
9
9
9
9
9
9
9
9
9
9
9
9
9
9
9
9
9
9
9
9
9
9
9
9
9
9
9
9
9
9
9
9
9
9
9
9
9
9
9
9
9
9
9
9
9
9
9
9
9
9
9
9
9
9
9
9
9
9
9
9
9
9
9
9
9
9
9
9
9
9
9
9
9
9
9
9
9
9
9
9
9
9
9
9
9
9
9
9
9
9
9
9
9
9
9
9
9
9
9
9
9
9
9
9
9
9
9
9
9
9
9
9
9
9
9
9
9
9
9
9
9
9
9
9
9
9
9
9
9
9
9
9
9
9
9
9
9
9
9
9
9
9
9
9
9
9
9
9
9
9
9
9
9
9
9
9
9
9
9
9
9
9
9
9
9
9
9
9
9
9
9
9
9
9
9
9
9
9
9
9
9
9
9
9
9
9
9
9
9
9
9
9
9
9
9
9
9
9
9
9
9
9
9
9
9
9
9
9
9
9
9
9
9
9
9
9
9
9
9
9
9
9
9
9
9
9
9
9
9
9
9
9
9
9
9
9
9
9
9
9
9
9
9
9
9
9
9
9
9
9
9
9
9
9
9
9
9
9
9
9
9
9
9
9
9
9
9
9
9
9
9
9
9
9
9
9
9
9
9
9
9
9
9
9
9
9
9
9
9
9
9
9
9
9
9
9
9
9
9
9
9
9
9
9
9
9
9
9
9
9
9
9
9
9
9
9
9
9
9
9
9
9
9
9
9
9
9
9
9
9
9
9
9
9
9
9
9
9
9
9
9
9
9
9
9
9
9
9
9
9
9
9
9
9
9
9
9
9
9
9
9
9
9
9
9
9
9
9
9
9
9
9
9
9
9
9
9
9
9
9
9
9
9
9
9
9
9
9
9
9
9
9
9
9
9
9
9
9
9
9
9
9
9
9
9
9
9
9
9
9
9
9
9
9
9
9
9
9
9
9
9
9
9
9
9
9
9
9
9
9
9
9
9
9
9
9
9
9
9
9
9
9
9
9
9
9
9
9
9
9
9
9
9
9
9
9
9
9
9
9
9
9
9
9
9
9
9
9
9
9
9
9
9
9
9
9
9
9
9
9
9
9
9
9
9
9
9
9
9
9
9
9
9
9
9
9
9
9
9
9
9
9
9
9
9
9
9
9
9
9
9
9
9
9
9
9
9
9
9
9
9
9
9
9
9
9
9
9
9
9
9
9
9
9
9
9
9
9
9
9
9
9
9
9
9
9
9
9
9
9
9
9
9
9
9
9
9
9
9
9
9
9
9
9
9
9
9
9
9
9
9
9
9
9
9
9
9
9
9
9
9
9
9
9
9
9
9
9
9
9
9
9
9
9
9
9
9
9
9
9
9
9
9
9
9
9
9
9
9
9
9
9
9
9
9
9
9
9
9
9
9
9
9
9
9
9
9
9
9
9
9
9
9
9
9
9
9
9
9
9
9
9
9
9
9
9
9
9
9
9
9
9
9
9
9
9
9
9
9
9
9
9
9
9
9
9
9
9
9
9
9
9
9
9
9
9
9
9
9
9
9
9
9
9
9
9
9
9
9
9
9
9
9
9
9
9
9
9
9
9
9
9
9
9
9
9
9
9
9
9
9
9
9
9
9
9
9
9
9
9
9
9
9
9
9
9
9
9
9
9
9
9
9
9
9
9
9
9
9
9
9
9
9
9
9
9
9
9
9
9
9
9
9
9
9
9
9
9
9
9
9
9
9
9
9
9
9
9
9
9
9
9
9
9
9
9
9
9
9
9
9
9
9
9
9
9
9
9
9
9
9
9
9
9
9
9
9
9
9
9
9
9
9
9
9
9
9
9
9
9
9
9
9
9
9
9
9
9
9
9
9
9
9
9
9
9
9
9
9
9
9
9
9
9
9
9
9
9
9
9
9
9
9
9
9
9
9
9
9
9
9
9
9
9
9
9
9
9
9
9
9
9
9
9
9
9
9
9
9
9
9
9
9
9
9
9
9
9
9
9
9
9
9
9
9
9
9
9
9
9
9
9
9
9
9
9
9
9
9
9
9
9
9
9
9
9
9
9
9
9
9
9
9
9
9
9
9
9
9
9
9
9
9
9
9
9
9
9
9
9
9
9
9
9
9
9
9
9
9
9
9
9
9
9
9
9
9
9
9
9
9
9
9
9
9
9
9
9
9
9
9
9
9
9
9
9
9
9
9
9
9
9
9
9
9
9
9
9
9
9
9
9
9
9
9
9
9
9
9
9
9
9
9
9
9
9
9
9
9
9
9
9
9
9
9
9
9
9
9
9
9
9
9
9
9
9
9
9
9
9
9
9
9
9
9
9
9
9
9
9
9
9
9
9
9
9
9
9
9
9
9
9
9
9
9
9
9
9
9
9
9
9
9
9
9
9
9
9
9
9
9
9
9
9
9
9
9
9
9
9
9
9
9
9
9
9
9
9
9
9
9
9
9
9
9
9
9
9
9
9
9
9
9
9
9
9
9
9
9
9
9
9
9
9
9
9
9
9
9
9
9
9
9
9
9
9
9
9
9
9
9
9
9
9
9
9
9
9
9
9
9
9
9
9
9
9
9
9
9
9
9
9
9
9
9
9
9
9
9
9
9
9
9
9
9
9
9
9
9
9
9
9
9
9
9
9
9
9
9
9
9
9
9
9
9
9
9
9
9
9
9
9
9
9
9
9
9
9
9
9
9
9
9
9
9
9
9
9
9
9
9
9
9
9
9
9
9
9
9
9
9
9
9
9
9
9
9
9
9
9
9
9
9
9
9
9
9
9
9
9
9
9
9
9
9
9
9
9
9
9
9
9
9
9
9
9
9
9
9
9
9
9
9
9
9
9
9
9
9
9
9
9
9
9
9
9
9
9
9
9
9
9
9
9
9
9
9
9
9
9
9
9
9
9
9
9
9
9
9
9
9
9
9
9
9
9
9
9
9
9
9
9
9
9
9
9
9
9
9
9
9
9
9
9
9
9
9
9
9
9
9
9
9
9
9
9
9
9
9
9
9
9
9
9
9
9
9
9
9
9
9
9
9
9
9
9
9
9
9
9
9
9
9
9
9
9
9
9
9
9
9
9
9
9
9
9
9
9
9
9
9
9
9
9
9
9
9
9
9
9
9
9
9
9
9
9
9
9
9
9
9
9
9
9
9
9
9
9
9
9
9
9
9
9
9
9
9
9
9
9
9
9
9
9
9
9
9
9
9
9
9
9
9
9
9
9
9
9
9
9
9
9
9
9
9
9
9
9
9
9
9
9
9
9
9
9
9
9
9
9
9
9
9
9
9
9
9
9
9
9
9
9
9
9
9
9
9
9
9
9
9
9
9
9
9
9
9
9
9
9
9
9
9
9
9
9
9
9
9
9
9
9
9
9
9
9
9
9
9
9
9
9
9
9
9
9
9
9
9
9
9
9
9
9
9
9
9
9
9
9
9
9
9
9
9
9
9
9
9
9
9
9
9
9
9
9
9
9
9
9
9
9
9
9
9
9
9
9
9
9
9
9
9
9
9
9
9
9
9
9
9
9
9
9
9
9
9
9
9
9
9
9
9
9
9
9
9
9
9
9
9
9
9
9
9
9
9
9
9
9
9
9
9
9
9
9
9
9
9
9
9
9
9
9
9
9
9
9
9
9
9
9
9
9
9
9
9
9
9
9
9
9
9
9
9
9
9
9
9
9
9
9
9
9
9
9
9
9
9
9
9
9
9
9
9
9
9
9
9
9
9
9
9
9
9
9
9
9
9
9
9
9
9
9
9
9
9
9
9
9
9
9
9
9
9
9
9
9
9
9
9
9
9
9
9
9
9
9
9
9
9
9
9
9
9
9
9
9
9
9
9
9
9
9
9
9
9
9
9
9
9
9
9
9
9
9
9
9
9
9
9
9
9
9
9
9
9
9
9
9
9
9
9
9
9
9
9
9
9
9
9
9
9
9
9
9
9
9
9
9
9
9
9
9
9
9
9
9
9
9
9
9
9
9
9
9
9
9
9
9
9
9
9
9
9
9
9
9
9
9
9
9
9
9
9
9
9
9
9
9
9
9
9
9
9
9
9
9
9
9
9
9
9
9
9
9
9
9
9
9
9
9
9
9
9
9
9
9
9
9
9
9
9
9
9
9
9
9
9
9
9
9
9
9
9
9
9
9
9
9
9
9
9
9
9
9
9
9
9
9
9
9
9
9
9
9
9
9
9
9
9
9
9
9
9
9
9
9
9
9
9
9
9
9
9
9
9
9
9
9
9
9
9
9
9
9
9
9
9
9
9
9
9
9
9
9
9
9
9
9
9
9
9
9
9
9
9
9
9
9
9
9
9
9
9
9
9
9
9
9
9
9
9
9
9
9
9
9
9
9
9
9
9
9
9
9
9
9
9
9
9
9
9
9
9
9
9
9
9
9
9
9
9
9
9
9
9
9
9
9
9
9
9
9
9
9
9
9
9
9
9
9
9
9
9
9
9
9
9
9
9
9
9
9
9
9
9
9
9
9
9
9
9
9
9
9
9
9
9
9
9
9
9
9
9
9
9
9
9
9
9
9
9
9
9
9
9
9
9
9
9
9
9
9
9
9
9
9
9
9
9
9
9
9
9
9
9
9
9
9
9
9
9
9
9
9
9
9
9
9
9
9
9
9
9
9
9
9
9
9
9
9
9
9
9
9
9
9
9
9
9
9
9
9
9
9
9
9
9
9
9
9
9
9
9
9
9
9
9
9
9
9
9
9
9
9
9
9
9
9
9
9
9
9
9
9
9
9
9
9
9
9
9
9
9
9
9
9
9
9
9
9
9
9
9
9
9
9
9
9
9
9
9
9
9
9
9
9
9
9
9
9
9
9
9
9
9
9
9
9
9
9
9
9
9
9
9
9
9
9
9
9
9
9
9
9
9
9
9
9
9
9
9
9
9
9
9
9
9
9
9
9
9
9
9
9
9
9
9
9
9
9
9
9
9
9
9
9
9
9
9
9
9
9
9
9
9
9
9
9
9
9
9
9
9
9
9
9
9
9
9
9
9
9
9
9
9
9
9
9
9
9
9
9
9
9
9
9
9
9
9
9
9
9
9
9
9
9
9
9
9
9
9
9
9
9
9
9
9
9
9
9
9
9
9
9
9
9
9
9
9
9
9
9
9
9
9
9
9
9
9
9
9
9
9
9
9
9
9
9
9
9
9
9
9
9
9
9
9
9
9
9
9
9
9
9
9
9
9
9
9
9
9
9
9
9
9
9
9
9
9
9
9
9
9
9
9
9
9
9
9
9
9
9
9
9
9
9
9
9
9
9
9
9
9
9
9
9
9
9
9
9
9
9
9
9
9
9
9
9
9
9
9
9
9
9
9
9
9
9
9
9
9
9
9
9
9
9
9
9
9
9
9
9
9
9
9
9
9
9
9
9
9
9
9
9
9
9
9
9
9
9
9
9
9
9
9
9
9
9
9
9
9
9
9
9
9
9
9
9
9
9
9
9
9
9
9
9
9
9
9
9
9
9
9
9
9
9
9
9
9
9
9
9
9
9
9
9
9
9
9
9
9
9
9
9
9
9
9
9
9
9
9
9
9
9
9
9
9
9
9
9
9
9
9
9
9
9
9
9
9
9
9
9
9
9
9
9
9
9
9
9
9
9
9
9
9
9
9
9
9
9
9
9
9
9
9
9
9
9
9
9
9
9
9
9
9
9
9
9
9
9
9
9
9
9
9
9
9
9
9
9
9
9
9
9
9
9
9
9
9
9
9
9
9
9
9
9
9
9
9
9
9
9
9
9
9
9
9
9
9
9
9
9
9
9
9
9
9
9
9
9
9
9
9
9
9
9
9
9
9
9
9
9
9
9
9
9
9
9
9
9
9
9
9
9
9
9
9
9
9
9
9
9
9
9
9
9
9
9
9
9
9
9
9
9
9
9
9
9
9
9
9
9
9
9
9
9
9
9
9
9
9
9
9
9
9
9
9
9
9
9
9
9
9
9
9
9
9
9
9
9
9
9
9
9
9
9
9
9
9
9
9
9
9
9
9
9
9
9
9
9
9
9
9
9
9
9
9
9
9
9
9
9
9
9
9
9
9
9
9
9
9
9
9
9
9
9
9
9
9
9
9
9
9
9
9
9
9
9
9
9
9
9
9
9
9
9
9
9
9
9
9
9
9
9
9
9
9
9
9
9
9
9
9
9
9
9
9
9
9
9
9
9
9
9
9
9
9
9
9
9
9
9
9
9
9
9
9
9
9
9
9
9
9
9
9
9
9
9
9
9
9
9
9
9
9
9
9
9
9
9
9
9
9
9
9
9
9
9
9
9
9
9
9
9
9
9
9
9
9
9
9
9
9
9
9
9
9
9
9
9
9
9
9
9
9
9
9
9
9
9
9
9
9
9
9
9
9
9
9
9
9
9
9
9
9
9
9
9
9
9
9
9
9
9
9
9
9
9
9
9
9
9
9
9
9
9
9
9
9
9
9
9
9
9
9
9
9
9
9
9
9
9
9
9
9
9
9
9
9
9
9
9
9
9
9
9
9
9
9
9
9
9
9
9
9
9
9
9
9
9
9
9
9
9
9
9
9
9
9
9
9
9
9
9
9
9
9
9
9
9
9
9
9
9
9
9
9
9
9
9
9
9
9
9
9
9
9
9
9
9
9
9
9
9
9
9
9
9
9
9
9
9
9
9
9
9
9
9
9
9
9
9
9
9
9
9
9
9
9
9
9
9
9
9
9
9
9
9
9
9
9
9
9
9
9
9
9
9
9
9
9
9
9
9
9
9
9
9
9
9
9
9
9
9
9
9
9
9
9
9
9
9
9
9
9
9
9
9
9
9
9
9
9
9
9
9
9
9
9
9
9
9
9
9
9
9
9
9
9
9
9
9
9
9
9
9
9
9
9
9
9
9
9
9
9
9
9
9
9
9
9
9
9
9
9
9
9
9
9
9
9
9
9
9
9
9
9
9
9
9
9
9
9
9
9
9
9
9
9
9
9
9
9
9
9
9
9
9
9
9
9
9
9
9
9
9
9
9
9
9
9
9
9
9
9
9
9
9
9
9
9
9
9
9
9
9
9
9
9
9
9
9
9
9
9
9
9
9
9
9
9
9
9
9
9
9
9
9
9
9
9
9
9
9
9
9
9
9
9
9
9
9
9
9
9
9
9
9
9
9
9
9
9
9
9
9
9
9
9
9
9
9
9
9
9
9
9
9
9
9
9
9
9
9
9
9
9
9
9
9
9
9
9
9
9
9
9
9
9
9
9
9
9
9
9
9
9
9
9
9
9
9
9
9
9
9
9
9
9
9
9
9
9
9
9
9
9
9
9
9
9
9
9
9
9
9
9
9
9
9
9
9
9
9
9
9
9
9
9
9
9
9
9
9
9
9
9
9
9
9
9
9
9
9
9
9
9
9
9
9
9
9
9
9
9
9
9
9
9
9
9
9
9
9
9
9
9
9
9
9
9
9
9
9
9
9
9
9
9
9
9
9
9
9
9
9
9
9
9
9
9
9
9
9
9
9
9
9
9
9
9
9
9
9
9
9
9
9
9
9
9
9
9
9
9
9
9
9
9
9
9
9
9
9
9
9
9
9
9
9
9
9
9
9
9
9
9
9
9
9
9
9
9
9
9
9
9
9
9
9
9
9
9
9
9
9
9
9
9
9
9
9
9
9
9
9
9
9
9
9
9
9
9
9
9
9
9
9
9
9
9
9
9
9
9
9
9
9
9
9
9
9
9
9
9
9
9
9
9
9
9
9
9
9
9
9
9
9
9
9
9
9
9
9
9
9
9
9
9
9
9
9
9
9
9
9
9
9
9
9
9
9
9
9
9
9
9
9
9
9
9
9
9
9
9
9
9
9
9
9
9
9
9
9
9
9
9
9
9
9
9
9
9
9
9
9
9
9
9
9
9
9
9
9
9
9
9
9
9
9
9
9
9
9
9
9
9
9
9
9
9
9
9
9
9
9
9
9
9
9
9
9
9
9
9
9
9
9
9
9
9
9
9
9
9
9
9
9
9
9
9
9
9
9
9
9
9
9
9
9
9
9
9
9
9
9
9
9
9
9
9
9
9
9
9
9
9
9
9
9
9
9
9
9
9
9
9
9
9
9
9
9
9
9
9
9
9
9
9
9
9
9
9
9
9
9
9
9
9
9
9
9
9
9
9
9
9
9
9
9
9
9
9
9
9
9
9
9
9
9
9
9
9
9
9
9
9
9
9
9
9
9
9
9
9
9
9
9
9
9
9
9
9
9
9
9
9
9
9
9
9
9
9
9
9
9
9
9
9
9
9
9
9
9
9
9
9
9
9
9
9
9
9
9
9
9
9
9
9
9
9
9
9
9
9
9
9
9
9
9
9
9
9
9
9
9
9
9
9
9
9
9
9
9
9
9
9
9
9
9
9
9
9
9
9
9
9
9
9
9
9
9
9
9
9
9
9
9
9
9
9
9
9
9
9
9
9
9
9
9
9
9
9
9
9
9
9
9
9
9
9
9
9
9
9
9
9
9
9
9
9
9
9
9
9
9
9
9
9
9
9
9
9
9
9
9
9
9
9
9
9
9
9
9
9
9
9
9
9
9
9
9
9
9
9
9
9
9
9
9
9
9
9
9
9
9
9
9
9
9
9
9
9
9
9
9
9
9
9
9
9
9
9
9
9
9
9
9
9
9
9
9
9
9
9
9
9
9
9
9
9
9
9
9
9
9
9
9
9
9
9
9
9
9
9
9
9
9
9
9
9
9
9
9
9
9
9
9
9
9
9
9
9
9
9
9
9
9
9
9
9
9
9
9
9
9
9
9
9
9
9
9
9
9
9
9
9
9
9
9
9
9
9
9
9
9
9
9
9
9
9
9
9
9
9
9
9
9
9
9
9
9
9
9
9
9
9
9
9
9
9
9
9
9
9
9
9
9
9
9
9
9
9
9
9
9
9
9
9
9
9
9
9
9
9
9
9
9
9
9
9
9
9
9
9
9
9
9
9
9
9
9
9
9
9
9
9
9
9
9
9
9
9
9
9
9
9
9
9
9
9
9
9
9
9
9
9
9
9
9
9
9
9
9
9
9
9
9
9
9
9
9
9
9
9
9
9
9
9
9
9
9
9
9
9
9
9
9
9
9
9
9
9
9
9
9
9
9
9
9
9
9
9
9
9
9
9
9
9
9
9
9
9
9
9
9
9
9
9
9
9
9
9
9
9
9
9
9
9
9
9
9
9
9
9
9
9
9
9
9
9
9
9
9
9
9
9
9
9
9
9
9
9
9
9
9
9
9
9
9
9
9
9
9
9
9
9
9
9
9
9
9
9
9
9
9
9
9
9
9
9
9
9
9
9
9
9
9
9
9
9
9
9
9
9
9
9
9
9
9
9
9
9
9
9
9
9
9
9
9
9
9
9
9
9
9
9
9
9
9
9
9
9
9
9
9
9
9
9
9
9
9
9
9
9
9
9
9
9
9
9
9
9
9
9
9
9
9
9
9
9
9
9
9
9
9
9
9
9
9
9
9
9
9
9
9
9
9
9
9
9
9
9
9
9
9
9
9
9
9
9
9
9
9
9
9
9
9
9
9
9
9
9
9
9
9
9
9
9
9
9
9
9
9
9
9
9
9
9
9
9
9
9
9
9
9
9
9
9
9
9
9
9
9
9
9
9
9
9
9
9
9
9
9
9
9
9
9
9
9
9
9
9
9
9
9
9
9
9
9
9
9
9
9
9
9
9
9
9
9
9
9
9
9
9
9
9
9
9
9
9
9
9
9
9
9
9
9
9
9
9
9
9
9
9
9
9
9
9
9
9
9
9
9
9
9
9
9
9
9
9
9
9
9
9
9
9
9
9
9
9
9
9
9
9
9
9
9
9
9
9
9
9
9
9
9
9
9
9
9
9
9
9
9
9
9
9
9
9
9
9
9
9
9
9
9
9
9
9
9
9
9
9
9
9
9
9
9
9
9
9
9
9
9
9
9
9
9
9
9
9
9
9
9
9
9
9
9
9
9
9
9
9
9
9
9
9
9
9
9
9
9
9
9
9
9
9
9
9
9
9
9
9
9
9
9
9
9
9
9
9
9
9
9
9
9
9
9
9
9
9
9
9
9
9
9
9
9
9
9
9
9
9
9
9
9
9
9
9
9
9
9
9
9
9
9
9
9
9
9
9
9
9
9
9
9
9
9
9
9
9
9
9
9
9
9
9
9
9
9
9
POINT_DATA      5151
SCALARS p double 
LOOKUP_TABLE default
   70000000.0000000     
   70000000.0000000     
   70000000.0000000     
   70000000.0000000     
   70000000.0000000     
   70000000.0000000     
   70000000.0000000     
   70000000.0000000     
   70000000.0000000     
   70000000.0000000     
   70000000.0000000     
   70000000.0000000     
   70000000.0000000     
   70000000.0000000     
   70000000.0000000     
   70000000.0000000     
   70000000.0000000     
   70000000.0000000     
   70000000.0000000     
   70000000.0000000     
   70000000.0000000     
   70000000.0000000     
   70000000.0000000     
   70000000.0000000     
   70000000.0000000     
   70000000.0000000     
   70000000.0000000     
   70000000.0000000     
   70000000.0000000     
   70000000.0000000     
   70000000.0000000     
   70000000.0000000     
   70000000.0000000     
   70000000.0000000     
   70000000.0000000     
   70000000.0000000     
   70000000.0000000     
   70000000.0000000     
   70000000.0000000     
   70000000.0000000     
   70000000.0000000     
   70000000.0000000     
   70000000.0000000     
   70000000.0000000     
   70000000.0000000     
   70000000.0000000     
   70000000.0000000     
   70000000.0000000     
   70000000.0000000     
   70000000.0000000     
   70000000.0000000     
   64237896.8868956     
   64238685.8522796     
   64242095.5324777     
   64249099.2495425     
   64260205.7903552     
   64275648.6418010     
   64295392.5054707     
   64317980.8506263     
   64341652.6682802     
   64365943.4777207     
   64390758.4551874     
   64416001.1193999     
   64441548.8278894     
   64467273.8076130     
   64493054.5785066     
   64518781.6792615     
   64544360.0104696     
   64569709.1961581     
   64594762.8218783     
   64619467.0767305     
   64643779.1213732     
   64667665.3749407     
   64691099.8319570     
   64714062.4683283     
   64736537.7625836     
   64758513.3379878     
   64779978.7187220     
   64800924.1863064     
   64821339.7190931     
   64841213.9969051     
   64860533.4541058     
   64879281.3672011     
   64897436.9674460     
   64914974.5749602     
   64931862.7589349     
   64948063.5392670     
   64963531.6593881     
   64978213.9797185     
   64992049.0684030     
   65004967.1043696     
   65016890.2628640     
   65027733.8341444     
   65037408.4457840     
   65045823.9400862     
   65052895.7360437     
   65058554.9376287     
   65062764.1298887     
   65065541.8793519     
   65067000.6538282     
   65067405.5244926     
   65067264.9883604     
   59279505.3367626     
   59285233.8387203     
   59300232.4334894     
   59322170.4620406     
   59349337.0031761     
   59380393.6433464     
   59414243.0503128     
   59450287.7487253     
   59488190.8216363     
   59527449.0962360     
   59567580.6119852     
   59608201.0710492     
   59649011.6663416     
   59689779.1195883     
   59730321.5619350     
   59770498.1192393     
   59810200.9286701     
   59849348.8165587     
   59887882.1637226     
   59925758.6592475     
   59962949.7466280     
   59999437.6267062     
   60035212.7175780     
   60070271.4930286     
   60104614.6343016     
   60138245.4387424     
   60171168.4351986     
   60203388.1612238     
   60234908.0618344     
   60265729.4742040     
   60295850.6675148     
   60325265.9123741     
   60353964.5598637     
   60381930.1164979     
   60409139.3081527     
   60435561.1333049     
   60461155.9134684     
   60485874.3559328     
   60509656.6496545     
   60532431.6171810     
   60554115.9396830     
   60574613.4510042     
   60593814.4465022     
   60611594.8488261     
   60627814.8713803     
   60642316.4411241     
   60654917.9408716     
   60665403.5456137     
   60673502.0854354     
   60678846.1261207     
   60680894.3446454     
   55565757.1229035     
   55571695.7885008     
   55587618.8389859     
   55611213.9441799     
   55640586.0410054     
   55674229.3200554     
   55710977.1724397     
   55749854.2255367     
   55790068.8027310     
   55831071.8621538     
   55872461.0100420     
   55913926.0267576     
   55955228.6615181     
   55996189.6844491     
   56036677.8156358     
   56076600.3035365     
   56115894.9862519     
   56154523.6712976     
   56192466.6669175     
   56229718.3027249     
   56266283.2888186     
   56302173.7772091     
   56337407.0047451     
   56372003.4111881     
   56405985.1389260     
   56439374.8318782     
   56472194.6605029     
   56504465.5076656     
   56536206.2566749     
   56567433.1281828     
   56598159.0170105     
   56628392.7832914     
   56658138.4545670     
   56687394.2964313     
   56716151.7086459     
   56744393.9008011     
   56772094.2957744     
   56799214.5992984     
   56825702.4583530     
   56851488.6078638     
   56876483.3719552     
   56900572.3403693     
   56923610.9811572     
   56945417.8791833     
   56965766.2168010     
   56984373.0689621     
   57000886.1457489     
   57014867.9538141     
   57025778.3432697     
   57032958.8674209     
   57035628.0084780     
   53179391.3677011     
   53183221.8626833     
   53193541.7345128     
   53208943.6034572     
   53228244.2885033     
   53250454.0739326     
   53274752.4000473     
   53300492.4277868     
   53327168.5973011     
   53354370.2452665     
   53381782.5460692     
   53409175.7311061     
   53436387.6439062     
   53463308.4264061     
   53489868.3530316     
   53516028.2000794     
   53541771.6070067     
   53567099.0104428     
   53592022.8372130     
   53616563.7184167     
   53640747.5382503     
   53664603.1663922     
   53688160.7472872     
   53711450.4374454     
   53734501.4953016     
   53757341.6386573     
   53779996.5930785     
   53802489.7613260     
   53824841.9492225     
   53847071.0874894     
   53869191.8920993     
   53891215.4076332     
   53913148.3790256     
   53934992.3969145     
   53956742.7605779     
   53978387.0001577     
   53999902.9966054     
   54021256.6337813     
   54042398.9128512     
   54063262.4555255     
   54083757.3214411     
   54103766.0689169     
   54123138.0018201     
   54141682.5745980     
   54159161.9802757     
   54175283.0282647     
   54189688.5243391     
   54201948.4488081     
   54211551.1346572     
   54217893.9319697     
   54220270.3513368     
   51884897.7156181     
   51885691.1207598     
   51887868.6128639     
   51891152.4928386     
   51895279.2355511     
   51900013.2178241     
   51905153.9630000     
   51910531.6029467     
   51916010.6267049     
   51921495.0903104     
   51926919.2676087     
   51932242.7770969     
   51937447.5593553     
   51942534.2737074     
   51947518.3143228     
   51952425.9297132     
   51957290.7272261     
   51962150.6895908     
   51967045.7355770     
   51972015.8045554     
   51977099.4183788     
   51982332.6620501     
   51987748.5203244     
   51993376.5069333     
   51999242.5245359     
   52005368.8957434     
   52011774.5080950     
   52018475.0184021     
   52025483.0642730     
   52032808.4328296     
   52040458.1386066     
   52048436.3644216     
   52056744.2207077     
   52065379.2805216     
   52074334.8493858     
   52083598.9315457     
   52093152.8574644     
   52102969.5418814     
   52113011.3480483     
   52123227.5424151     
   52133551.3356098     
   52143896.5203532     
   52154153.7346396     
   52164186.3974868     
   52173826.3809755     
   52182869.4892275     
   52191070.8031544     
   52198139.9151536     
   52203736.0511776     
   52207463.2193005     
   52208866.4027875     
   51317155.8102496     
   51315469.6109456     
   51310821.0355850     
   51303705.4904657     
   51294533.9946584     
   51283650.9497191     
   51271348.4553982     
   51257879.7694900     
   51243466.8628619     
   51228305.1126367     
   51212570.0761587     
   51196420.9403707     
   51180002.4400886     
   51163446.2862288     
   51146872.2143179     
   51130388.7001588     
   51114093.4392389     
   51098073.6966218     
   51082406.6186218     
   51067159.5726740     
   51052390.5568202     
   51038148.6990549     
   51024474.8503563     
   51011402.2631737     
   50998957.3386758     
   50987160.4203616     
   50976026.6079954     
   50965566.5637298     
   50955787.2813135     
   50946692.7891948     
   50938284.7589397     
   50930562.9916114     
   50923525.7565702     
   50917169.9595910     
   50911491.1203260     
   50906483.1430605     
   50902137.8695437     
   50898444.4085047     
   50895388.2433576     
   50892950.1275163     
   50891104.7855287     
   50889819.4475923     
   50889052.2545087     
   50888750.5794087     
   50888849.3218245     
   50889269.2405473     
   50889915.4086027     
   50890675.9039961     
   50891420.8967742     
   50892002.3174839     
   50892254.0706830     
   51143741.1934919     
   51140642.7862395     
   51131991.4908878     
   51118595.1825390     
   51101164.7583597     
   51080326.8650341     
   51056634.9735816     
   51030578.2463772     
   51002589.9701136     
   50973054.8742475     
   50942314.2817390     
   50910671.0221424     
   50878393.6446043     
   50845719.8831342     
   50812859.5720524     
   50779997.1641148     
   50747293.9509616     
   50714890.0581889     
   50682906.2722023     
   50651445.7449363     
   50620595.6124195     
   50590428.5534801     
   50561004.3058838     
   50532371.1492554     
   50504567.3574791     
   50477622.6179588     
   50451559.4110933     
   50426394.3404766     
   50402139.4025129     
   50378803.1832383     
   50356391.9700280     
   50334910.7664760     
   50314364.2000016     
   50294757.3136160     
   50276096.2357692     
   50258388.7252714     
   50241644.5919333     
   50225875.9977811     
   50211097.6484469     
   50197326.8895755     
   50184583.7287926     
   50172890.8099545     
   50162273.3731088     
   50152759.2409972     
   50144378.8812117     
   50137165.6021495     
   50131155.9495276     
   50126390.3749064     
   50122914.2426873     
   50120779.2304368     
   50120045.2319312     
   51136318.1799801     
   51132749.1038553     
   51122667.3856723     
   51106880.5879552     
   51086125.9975135     
   51061075.4759942     
   51032340.1492789     
   51000475.0763202     
   50965983.3701258     
   50929320.0098172     
   50890895.6641089     
   50851080.0055175     
   50810204.7656855     
   50768566.5934187     
   50726429.7127454     
   50684028.3995773     
   50641569.3063203     
   50599233.6628575     
   50557179.3776451     
   50515543.0576310     
   50474441.9612340     
   50433975.8947270     
   50394229.0589460     
   50355271.8502239     
   50317162.6168293     
   50279949.3700142     
   50243671.4470470     
   50208361.1223735     
   50174045.1622805     
   50140746.3181366     
   50108484.7534285     
   50077279.4003605     
   50047149.2427377     
   50018114.5231603     
   49990197.8742150     
   49963425.3753303     
   49937827.5392507     
   49913440.2346602     
   49890305.5543383     
   49868472.6413373     
   49847998.4890177     
   49828948.7343326     
   49811398.4674560     
   49795433.0845790     
   49781149.2142247     
   49768655.7504924     
   49758075.0290984     
   49749544.1847278     
   49743216.7336371     
   49739264.4362612     
   49737879.4910431     
   51169786.6896327     
   51166329.1712353     
   51156465.0138664     
   51140866.6088540     
   51120167.1369740     
   51094960.3941843     
   51065801.0786998     
   51033205.3658939     
   50997651.8304301     
   50959582.5730640     
   50919404.4171895     
   50877490.2937140     
   50834180.7058626     
   50789785.2498524     
   50744584.1871592     
   50698830.0586249     
   50652749.3302686     
   50606544.0627995     
   50560393.5986539     
   50514456.2613210     
   50468871.0620033     
   50423759.4086052     
   50379226.8118653     
   50335364.5832749     
   50292251.5193078     
   50249955.5664683     
   50208535.4617629     
   50168042.3434203     
   50128521.3270518     
   50090013.0429404     
   50052555.1307962     
   50016183.6890901     
   49980934.6769924     
   49946845.2679770     
   49913955.1552985     
   49882307.8108044     
   49851951.6998825     
   49822941.4567642     
   49795339.0258756     
   49769214.7764344     
   49744648.5989881     
   49721730.9940417     
   49700564.1642634     
   49681263.1229411     
   49663956.8323451     
   49648789.3864474     
   49635921.2530835     
   49625530.5909031     
   49617814.6553050     
   49612991.3028107     
   49611300.5986787     
   51190361.4392940     
   51187282.6543592     
   51178429.0161021     
   51164317.2740447     
   51145446.5508351     
   51122296.1978704     
   51095324.1162349     
   51064965.5155993     
   51031632.0232114     
   50995711.1232505     
   50957565.9105007     
   50917535.0787985     
   50875933.1399343     
   50833050.8440380     
   50789155.7734173     
   50744493.0878276     
   50699286.4018751     
   50653738.7767216     
   50608033.8095427     
   50562336.8054578     
   50516796.0178286     
   50471543.9439053     
   50426698.6637855     
   50382365.2115784     
   50338636.9685604     
   50295597.0689945     
   50253319.8101709     
   50211872.0591158     
   50171314.6493163     
   50131703.7617096     
   50093092.2850894     
   50055531.1519814     
   50019070.6469284     
   49983761.6849981     
   49949657.0591751     
   49916812.6561102     
   49885288.6404730     
   49855150.6088633     
   49826470.7148785     
   49799328.7674831     
   49773813.3052647     
   49750022.6494666     
   49728065.9388388     
   49708064.1493163     
   49690151.1012932     
   49674474.4567476     
   49661196.7075916     
   49650496.1553057     
   49642567.8803585     
   49637624.6990306     
   49635898.1048773     
   51182908.1908138     
   51180283.6733080     
   51172692.2393469     
   51160520.7450519     
   51144149.9349224     
   51123952.1017910     
   51100289.0674369     
   51073510.4644712     
   51043952.3173800     
   51011935.9007344     
   50977766.8522777     
   50941734.5366444     
   50904111.6339564     
   50865153.9369601     
   50825100.3402072     
   50784173.0038198     
   50742577.6746709     
   50700504.1483835     
   50658126.8561407     
   50615605.5609052     
   50573086.1483212     
   50530701.4983238     
   50488572.4242959     
   50446808.6674856     
   50405509.9353016     
   50364766.9730417     
   50324662.6595539     
   50285273.1182758     
   50246668.8360388     
   50208915.7829314     
   50172076.5274009     
   50136211.3416006     
   50101379.2927701     
   50067639.3171460     
   50035051.2735343     
   50003676.9742253     
   49973581.1913863     
   49944832.6374152     
   49917504.9179779     
   49891677.4565610     
   49867436.3893541     
   49844875.4291147     
   49824096.6963530     
   49805211.5156946     
   49788341.1746267     
   49773617.6409987     
   49761184.2346486     
   49751196.2473933     
   49743821.5043169     
   49739240.8574789     
   49737648.6005030     
   51148983.7268921     
   51146799.1832428     
   51140455.0364740     
   51130241.4116575     
   51116447.3249397     
   51099358.8024268     
   51079257.1726885     
   51056417.5426872     
   51031107.4578792     
   51003585.7495090     
   50974101.5691749     
   50942893.6033323     
   50910189.4645755     
   50876205.2517562     
   50841145.2699488     
   50805201.9005198     
   50768555.6106996     
   50731375.0914229     
   50693817.5118489     
   50656028.8788355     
   50618144.4896933     
   50580289.4667581     
   50542579.3626730     
   50505120.8257414     
   50468012.3152815     
   50431344.8575506     
   50395202.8335034     
   50359664.7903685     
   50324804.2697603     
   50290690.6457713     
   50257389.9671887     
   50224965.7986427     
   50193480.0561030     
   50162993.8326832     
   50133568.2111830     
   50105265.0601746     
   50078147.8107355     
   50052282.2111076     
   50027737.0566484     
   50004584.8924030     
   49982902.6854808     
   49962772.4641526     
   49944281.9202074     
   49927524.9706113     
   49912602.2739142     
   49899621.6961529     
   49888698.7202122     
   49879956.7917314     
   49873527.5936883     
   49869551.2408934     
   49868176.3850461     
   51095351.4838368     
   51093560.4872398     
   51088345.3793280     
   51079926.0224544     
   51068522.9573123     
   51054356.0502571     
   51037643.2266579     
   51018599.3015024     
   50997434.9176404     
   50974355.5981316     
   50949560.9169460     
   50923243.7914768     
   50895589.8965547     
   50866777.1988198     
   50836975.6085294     
   50806346.7443984     
   50775043.8059311     
   50743211.5467721     
   50710986.3418759     
   50678496.3407696     
   50645861.6988559     
   50613194.8785432     
   50580601.0119945     
   50548178.3174204     
   50516018.5610901     
   50484207.5575725     
   50452825.7011318     
   50421948.5216597     
   50391647.2590158     
   50361989.4501490     
   50333039.5238706     
   50304859.3986213     
   50277509.0790191     
   50251047.2473682     
   50225531.8466452     
   50201020.6517528     
   50177571.8260260     
   50155244.4600963     
   50134099.0902541     
   50114198.1933995     
   50095606.6555370     
   50078392.2105525     
   50062625.8457154     
   50048382.1699812     
   50035739.7407442     
   50024781.3442090     
   50015594.2240402     
   50008270.2524230     
   50002906.0371575     
   49999602.9579064     
   49998467.1241230     
   51029138.7459104     
   51027688.0851334     
   51023456.2248905     
   51016610.9487595     
   51007321.2304175     
   50995756.2911052     
   50982084.6986479     
   50966473.5186571     
   50949087.5264916     
   50930088.4873676     
   50909634.5103527     
   50887879.4800073     
   50864972.5683976     
   50841057.8284560     
   50816273.8684038     
   50790753.6057664     
   50764624.0984512     
   50738006.4494514     
   50711015.7810009     
   50683761.2734195     
   50656346.2634562     
   50628868.3966424     
   50601419.8280093     
   50574087.4654744     
   50546953.2502593     
   50520094.4688430     
   50493584.0911605     
   50467491.1300234     
   50441881.0170310     
   50416815.9905668     
   50392355.4917970     
   50368556.5649117     
   50345474.2581530     
   50323162.0224506     
   50301672.1047252     
   50281055.9331126     
   50261364.4915112     
   50242648.6809368     
   50224959.6652091     
   50208349.1984583     
   50192869.9318617     
   50178575.6968753     
   50165521.7620388     
   50153765.0601945     
   50143364.3827019     
   50134380.5369351     
   50126876.4630586     
   50120917.3057879     
   50116570.4365687     
   50113905.4213828     
   50112993.9292649     
   50956272.3959464     
   50955110.7862285     
   50951717.3093034     
   50946219.8561737     
   50938747.6214732     
   50929430.4385985     
   50918398.1373995     
   50905779.9317728     
   50891703.8437746     
   50876296.1698041     
   50859680.9934138     
   50841979.7483730     
   50823310.8344448     
   50803789.2874257     
   50783526.5040205     
   50762630.0212426     
   50741203.3492365     
   50719345.8557184     
   50697152.6996351     
   50674714.8111427     
   50652118.9146218     
   50629447.5911574     
   50606779.3767153     
   50584188.8921470     
   50561747.0011237     
   50539520.9921388     
   50517574.7808181     
   50495969.1289130     
   50474761.8765279     
   50454008.1843306     
   50433760.7827024     
   50414070.2249936     
   50394985.1422586     
   50376552.4970314     
   50358817.8338717     
   50341825.5245536     
   50325619.0058749     
   50310241.0081410     
   50295733.7724098     
   50282139.2545842     
   50269499.3143948     
   50257855.8872430     
   50247251.1367665     
   50237727.5858586     
   50229328.2237246     
   50222096.5863985     
   50216076.8079874     
   50211313.6397669     
   50207852.4341272     
   50205739.0902907     
   50205019.9586655     
   50881228.2035378     
   50880308.5006714     
   50877618.2016732     
   50873253.9004750     
   50867313.5155318     
   50859895.8066116     
   50851099.9063190     
   50841024.8711801     
   50829769.2566026     
   50817430.7195104     
   50804105.6518474     
   50789888.8474820     
   50774873.2044291     
   50759149.4636333     
   50742805.9849356     
   50725928.5602538     
   50708600.2634546     
   50690901.3359080     
   50672909.1062781     
   50654697.9427484     
   50636339.2355767     
   50617901.4076500     
   50599449.9505443     
   50581047.4834871     
   50562753.8325748     
   50544626.1275918     
   50526718.9138193     
   50509084.2762969     
   50491771.9740973     
   50474829.5822951     
   50458302.6394441     
   50442234.7985091     
   50426667.9793377     
   50411642.5208850     
   50397197.3315206     
   50383370.0358498     
   50370197.1165617     
   50357714.0498801     
   50345955.4332276     
   50334955.1037302     
   50324746.2461809     
   50315361.4890494     
   50306832.9870803     
   50299192.4889572     
   50292471.3884432     
   50286700.7573292     
   50281911.3584562     
   50278133.6370135     
   50275397.6882768     
   50273733.1999308     
   50273169.3671467     
   50807193.8969836     
   50806473.4762079     
   50804363.2087858     
   50800934.9522553     
   50796261.8871701     
   50790418.1554770     
   50783478.5101563     
   50775517.9790944     
   50766611.5459066     
   50756833.8501060     
   50746258.9086535     
   50734959.8605485     
   50723008.7357023     
   50710476.2489392     
   50697431.6195648     
   50683942.4165546     
   50670074.4290627     
   50655891.5616157     
   50641455.7530730     
   50626826.9181824     
   50612062.9103508     
   50597219.5040898     
   50582350.3954670     
   50567507.2188135     
   50552739.5778902     
   50538095.0896967     
   50523619.4391247     
   50509356.4426904     
   50495348.1196391     
   50481634.7687835     
   50468255.0495198     
   50455246.0655486     
   50442643.4499179     
   50430481.4500882     
   50418793.0118022     
   50407609.8606122     
   50396962.5799789     
   50386880.6849113     
   50377392.6901489     
   50368526.1719174     
   50360307.8223014     
   50352763.4952799     
   50345918.2434630     
   50339796.3445557     
   50334421.3165571     
   50329815.9206866     
   50326002.1510137     
   50323001.2097643     
   50320833.4672831     
   50319518.4056528     
   50319074.5450169     
   50736312.5768755     
   50735753.4390925     
   50734113.0508021     
   50731443.8593468     
   50727799.6108026     
   50723235.0740178     
   50717805.7738296     
   50711567.7352621     
   50704577.2403518     
   50696890.5990629     
   50688563.9355405     
   50679652.9907088     
   50670212.9419821     
   50660298.2405934     
   50649962.4668007     
   50639258.2029836     
   50628236.9244136     
   50616948.9072718     
   50605443.1532943     
   50593767.3302626     
   50581967.7274150     
   50570089.2247414     
   50558175.2750338     
   50546267.8975042     
   50534407.6817379     
   50522633.8007313     
   50510984.0317627     
   50499494.7838575     
   50488201.1306366     
   50477136.8473757     
   50466334.4511469     
   50455825.2429648     
   50445639.3509117     
   50435805.7732712     
   50426352.4207522     
   50417306.1569340     
   50408692.8361119     
   50400537.3377645     
   50392863.5969013     
   50385694.6295838     
   50379052.5529424     
   50372958.5990363     
   50367433.1219282     
   50362495.5973675     
   50358164.6144985     
   50354457.8590346     
   50351392.0873692     
   50348983.0911253     
   50347245.6516916     
   50346193.4843380     
   50345839.1715674     
   50669910.3956731     
   50669479.2849211     
   50668212.2255401     
   50666146.6983425     
   50663321.4273271     
   50659776.1672303     
   50655551.4986139     
   50650688.6315714     
   50645229.2190453     
   50639215.1806313     
   50632688.5376163     
   50625691.2598516     
   50618265.1249118     
   50610451.5898319     
   50602291.6755566     
   50593825.8640853     
   50585094.0081480     
   50576135.2531132     
   50566987.9707035     
   50557689.7039861     
   50548277.1230112     
   50538785.9903892     
   50529251.1360366     
   50519706.4402674     
   50510184.8243749     
   50500718.2478217     
   50491337.7111459     
   50482073.2636919     
   50472954.0152754     
   50464008.1509124     
   50455262.9477568     
   50446744.7934187     
   50438479.2048608     
   50430490.8471030     
   50422803.5509956     
   50415440.3293576     
   50408423.3908108     
   50401774.1506772     
   50395513.2383460     
   50389660.5005560     
   50384235.0000804     
   50379255.0093473     
   50374737.9985741     
   50370700.6180454     
   50367158.6742203     
   50364127.0994088     
   50361619.9148229     
   50359650.1868714     
   50358229.9766384     
   50357370.2825550     
   50357080.9763512     
   50608691.3737242     
   50608359.8329547     
   50607383.4189357     
   50605788.3507271     
   50603602.0030396     
   50600852.7425249     
   50597569.7701795     
   50593782.9705186     
   50589522.7681184     
   50584819.9920572     
   50579705.7487034     
   50574211.3032087     
   50568367.9699743     
   50562207.0122540     
   50555759.5509675     
   50549056.4826929     
   50542128.4067206     
   50535005.5609582     
   50527717.7663955     
   50520294.3797659     
   50512764.2539733     
   50505155.7057926     
   50497496.4903088     
   50489813.7815100     
   50482134.1584239     
   50474483.5961527     
   50466887.4611493     
   50459370.5100557     
   50451956.8914226     
   50444670.1496214     
   50437533.2302618     
   50430568.4864345     
   50423797.6851056     
   50417242.0130037     
   50410922.0813600     
   50404857.9288808     
   50399069.0223626     
   50393574.2543899     
   50388391.9375967     
   50383539.7950185     
   50379034.9461109     
   50374893.8880738     
   50371132.4721833     
   50367765.8749086     
   50364808.5636708     
   50362274.2571821     
   50360175.8803968     
   50358525.5141941     
   50357334.3400070     
   50356612.5796999     
   50356369.4310894     
   50552901.0464950     
   50552645.3241140     
   50551890.5036637     
   50550654.5788934     
   50548956.5862981     
   50546816.4793643     
   50544255.0077194     
   50541293.6015953     
   50537954.2619821     
   50534259.4568004     
   50530232.0233734     
   50525895.0774195     
   50521271.9287321     
   50516386.0036471     
   50511260.7743388     
   50505919.6949212     
   50500386.1442706     
   50494683.3754277     
   50488834.4713778     
   50482862.3069592     
   50476789.5165965     
   50470638.4675126     
   50464431.2380311     
   50458189.6005418     
   50451935.0086708     
   50445688.5881631     
   50439471.1309617     
   50433303.0919411     
   50427204.5877361     
   50421195.3970865     
   50415294.9621097     
   50409522.3899010     
   50403896.4538582     
   50398435.5941323     
   50393157.9166054     
   50388081.1898209     
   50383222.8393036     
   50378599.9387466     
   50374229.1975747     
   50370126.9444498     
   50366309.1063392     
   50362791.1828445     
   50359588.2155633     
   50356714.7523519     
   50354184.8064537     
   50352011.8105625     
   50350208.5660019     
   50348787.1873119     
   50347759.0426440     
   50347134.6904752     
   50346923.8132460     
   50502462.2421241     
   50502263.0251518     
   50501673.6170216     
   50500706.2123774     
   50499373.9203470     
   50497690.6683317     
   50495671.1097216     
   50493330.5358123     
   50490684.7921785     
   50487750.1997221     
   50484543.4805869     
   50481081.6890886     
   50477382.1477732     
   50473462.3886755     
   50469340.0998071     
   50465033.0768605     
   50460559.1800737     
   50455936.2961587     
   50451182.3051526     
   50446315.0520140     
   50441352.3227425     
   50436311.8247667     
   50431211.1713022     
   50426067.8693520     
   50420899.3109805     
   50415722.7674652     
   50410555.3858916     
   50405414.1877336     
   50400316.0689278     
   50395277.8009284     
   50390316.0322059     
   50385447.2896354     
   50380687.9792059     
   50376054.3854777     
   50371562.6692133     
   50367228.8626167     
   50363068.8616362     
   50359098.4148126     
   50355333.1081984     
   50351788.3459258     
   50348479.3260700     
   50345421.0115310     
   50342628.0957512     
   50340114.9631893     
   50337895.6445829     
   50335983.7671511     
   50334392.5000180     
   50333134.4952572     
   50332221.8250865     
   50331665.9158576     
   50331477.4795915     
   50457085.2534906     
   50456927.2549254     
   50456458.7573530     
   50455688.0377655     
   50454624.1541571     
   50453276.8720826     
   50451656.5943921     
   50449774.2943518     
   50447641.4523420     
   50445269.9962991     
   50442672.2460460     
   50439860.8616266     
   50436848.7957324     
   50433649.2502796     
   50430275.6371638     
   50426741.5431888     
   50423060.6991308     
   50419246.9528707     
   50415314.2464896     
   50411276.5971906     
   50407148.0818772     
   50402942.8251810     
   50398674.9906987     
   50394358.7751633     
   50390008.4052366     
   50385638.1365785     
   50381262.2548091     
   50376895.0779506     
   50372550.9598970     
   50368244.2944343     
   50363989.5193030     
   50359801.1197709     
   50355693.6311676     
   50351681.6398195     
   50347779.7818189     
   50344002.7390697     
   50340365.2320657     
   50336882.0088903     
   50333567.8299638     
   50330437.4481261     
   50327505.5837097     
   50324786.8943443     
   50322295.9393350     
   50320047.1385635     
   50318054.7259875     
   50316332.6979402     
   50314894.7565681     
   50313754.2488776     
   50312924.1019957     
   50312416.7553729     
   50312244.0907665     
   50416354.3462622     
   50416225.7981134     
   50415843.9223605     
   50415214.4893666     
   50414343.9202343     
   50413239.2306501     
   50411907.9773571     
   50410358.2074401     
   50408598.4105853     
   50406637.4744612     
   50404484.6433452     
   50402149.4800964     
   50399641.8315547     
   50396971.7974169     
   50394149.7026198     
   50391186.0732296     
   50388091.6158107     
   50384877.2002190     
   50381553.8457353     
   50378132.7104228     
   50374625.0835631     
   50371042.3809917     
   50367396.1431206     
   50363698.0354010     
   50359959.8509432     
   50356193.5149765     
   50352411.0907922     
   50348624.7867793     
   50344846.9641266     
   50341090.1447294     
   50337367.0188120     
   50333690.4517471     
   50330073.4895330     
   50326529.3623772     
   50323071.4858264     
   50319713.4588887     
   50316469.0586099     
   50313352.2305933     
   50310377.0749961     
   50307557.8275947     
   50304908.8355802     
   50302444.5278390     
   50300179.3795706     
   50298127.8712144     
   50296304.4417803     
   50294723.4368140     
   50293399.0513658     
   50292345.2684704     
   50291575.7937822     
   50291103.9871342     
   50290942.7919072     
   50379792.9177630     
   50379685.0238809     
   50379364.1104680     
   50378834.4601085     
   50378100.8851623     
   50377168.6845037     
   50376043.6025072     
   50374731.7904544     
   50373239.7705209     
   50371574.4024826     
   50369742.8532610     
   50367752.5694050     
   50365611.2525848     
   50363326.8381488     
   50360907.4767710     
   50358361.5191908     
   50355697.5040216     
   50352924.1485769     
   50350050.3426360     
   50347085.1450416     
   50344037.7829939     
   50340917.6538702     
   50337734.3293727     
   50334497.5617674     
   50331217.2919466     
   50327903.6590085     
   50324567.0110134     
   50321217.9165370     
   50317867.1766085     
   50314525.8365841     
   50311205.1974772     
   50307916.8262383     
   50304672.5644561     
   50301484.5349347     
   50298365.1455986     
   50295327.0901779     
   50292383.3451416     
   50289547.1623787     
   50286832.0571657     
   50284251.7910203     
   50281820.3491124     
   50279551.9119927     
   50277460.8215044     
   50275561.5408557     
   50273868.6089610     
   50272396.5892927     
   50271160.0136221     
   50270173.3211709     
   50269450.7938262     
   50269006.4882017     
   50268854.1654364     
   50346910.1441305     
   50346816.5382256     
   50346537.9874800     
   50346077.9898742     
   50345440.4652474     
   50344629.7214831     
   50343650.4226818     
   50342507.5594993     
   50341206.4218126     
   50339752.5738567     
   50338151.8319522     
   50336410.2449230     
   50334534.0772788     
   50332529.7952121     
   50330404.0554371     
   50328163.6968687     
   50325815.7351177     
   50323367.3597484     
   50320825.9342196     
   50318198.9984020     
   50315494.2735335     
   50312719.6694483     
   50309883.2938783     
   50306993.4635983     
   50304058.7171497     
   50301087.8288428     
   50298089.8237030     
   50295073.9929917     
   50292049.9098961     
   50289027.4449496     
   50286016.7807157     
   50283028.4252375     
   50280073.2237387     
   50277162.3680423     
   50274307.4031711     
   50271520.2305950     
   50268813.1076073     
   50266198.6423402     
   50263689.7839707     
   50261299.8077276     
   50259042.2943805     
   50256931.1039804     
   50254980.3437227     
   50253204.3299169     
   50251617.5441721     
   50250234.5840403     
   50249070.1084939     
   50248138.7787508     
   50247455.1950931     
   50247033.8304468     
   50246888.9615994     
   50317232.2810395     
   50317148.5224497     
   50316899.3336452     
   50316487.8858185     
   50315917.6789382     
   50315192.5147350     
   50314316.4715007     
   50313293.8808882     
   50312129.3068825     
   50310827.5270886     
   50309393.5164641     
   50307832.4335950     
   50306149.6095903     
   50304350.5396457     
   50302440.8772984     
   50300426.4313700     
   50298313.1655670     
   50296107.2006811     
   50293814.8193058     
   50291442.4729549     
   50288996.7914449     
   50286484.5943671     
   50283912.9044533     
   50281288.9626003     
   50278620.2442911     
   50275914.4771158     
   50273179.6590626     
   50270424.0772142     
   50267656.3264548     
   50264885.3277592     
   50262120.3456079     
   50259371.0040467     
   50256647.3008892     
   50253959.6195475     
   50251318.7379700     
   50248735.8341723     
   50246222.4878574     
   50243790.6776551     
   50241452.7735478     
   50239221.5241060     
   50237110.0382291     
   50235131.7611684     
   50233300.4447106     
   50231630.1115056     
   50230135.0136477     
   50228829.5857424     
   50227728.3928219     
   50226846.0736065     
   50226197.2797308     
   50225796.6116746     
   50225658.5522408     
   50290321.8173373     
   50290244.9444135     
   50290016.4211069     
   50289639.3657420     
   50289117.1474695     
   50288453.3640739     
   50287651.8214763     
   50286716.5151297     
   50285651.6134844     
   50284461.4436746     
   50283150.4795575     
   50281723.3322050     
   50280184.7429256     
   50278539.5788613     
   50276792.8311820     
   50274949.6158663     
   50273015.1770348     
   50270994.8927717     
   50268894.2833430     
   50266719.0216931     
   50264474.9460735     
   50262168.0746285     
   50259804.6217346     
   50257391.0158602     
   50254933.9186829     
   50252440.2451701     
   50249917.1842984     
   50247372.2200549     
   50244813.1523359     
   50242248.1173253     
   50239685.6069143     
   50237134.4866956     
   50234604.0120499     
   50232103.8418321     
   50229644.0491556     
   50227235.1287832     
   50224888.0006450     
   50222614.0090309     
   50220424.9170471     
   50218332.8959778     
   50216350.5092593     
   50214490.6908570     
   50212766.7179251     
   50211192.1777379     
   50209780.9289913     
   50208547.0576952     
   50207504.8280021     
   50206668.6284395     
   50206052.9141337     
   50205672.1457216     
   50205540.7257500     
   50265787.4623560     
   50265715.6127582     
   50265502.2613918     
   50265150.6152097     
   50264664.0684487     
   50264046.1838176     
   50263300.6752993     
   50262431.3927678     
   50261442.3086021     
   50260337.5064543     
   50259121.1723030     
   50257797.5878951     
   50256371.1266493     
   50254846.2520685     
   50253227.5186743     
   50251519.5754527     
   50249727.1717678     
   50247855.1656753     
   50245908.5345378     
   50243892.3878171     
   50241811.9818940     
   50239672.7367349     
   50237480.2542013     
   50235240.3377671     
   50232959.0133848     
   50230642.5512083     
   50228297.4878556     
   50225930.6488654     
   50223549.1709728     
   50221160.5238043     
   50218772.5305688     
   50216393.3873002     
   50214031.6801903     
   50211696.4005433     
   50209396.9568761     
   50207143.1836981     
   50204945.3465150     
   50202814.1426318     
   50200760.6973632     
   50198796.5553139     
   50196933.6664534     
   50195184.3667831     
   50193561.3534862     
   50192077.6545434     
   50190746.5929083     
   50189581.7454468     
   50188596.8969617     
   50187805.9897382     
   50187223.0691589     
   50186862.2260388     
   50186737.5364229     
   50243287.5666267     
   50243219.6659613     
   50243018.2920603     
   50242686.7910713     
   50242228.6459272     
   50241647.4599043     
   50240946.9417259     
   50240130.8924182     
   50239203.1941018     
   50238167.8008765     
   50237028.7319322     
   50235790.0669866     
   50234455.9441223     
   50233030.5600661     
   50231518.1729223     
   50229923.1073416     
   50228249.7620813     
   50226502.6198793     
   50224686.2595443     
   50222805.3701291     
   50220864.7670374     
   50218869.4098799     
   50216824.4218770     
   50214735.1105743     
   50212606.9896159     
   50210445.8012907     
   50208257.5395431     
   50206048.4731161     
   50203825.1684639     
   50201594.5120550     
   50199363.7316612     
   50197140.4162106     
   50194932.5337699     
   50192748.4472105     
   50190596.9271153     
   50188487.1614819     
   50186428.7617998     
   50184431.7650991     
   50182506.6316067     
   50180664.2376905     
   50178915.8638352     
   50177273.1774597     
   50175748.2104705     
   50174353.3315341     
   50173101.2131543     
   50172004.7937398     
   50171077.2349586     
   50170331.8747817     
   50169782.1767201     
   50169441.6758575     
   50169323.9223623     
   50222529.1211649     
   50222464.6361197     
   50222273.6271432     
   50221959.5714613     
   50221526.0439437     
   50220976.7023429     
   50220315.2740182     
   50219545.5443518     
   50218671.3470369     
   50217696.5563967     
   50216625.0818619     
   50215460.8647077     
   50214207.8771199     
   50212870.1236271     
   50211451.6449105     
   50209956.5239674     
   50208388.8945801     
   50206752.9520123     
   50205052.9658287     
   50203293.2947067     
   50201478.4030874     
   50199612.8794844     
   50197701.4562482     
   50195749.0305594     
   50193760.6864001     
   50191741.7172298     
   50189697.6490682     
   50187634.2636667     
   50185557.6214254     
   50183474.0836934     
   50181390.3340728     
   50179313.3983281     
   50177250.6624931     
   50175209.8887594     
   50173199.2287306     
   50171227.2336294     
   50169302.8610626     
   50167435.4779714     
   50165634.8594251     
   50163911.1829645     
   50162275.0182533     
   50160737.3118612     
   50159309.3670787     
   50158002.8187469     
   50156829.6031756     
   50155801.9233222     
   50154932.2094986     
   50154233.0759751     
   50153717.2739415     
   50153397.6413774     
   50153287.0504567     
   50203264.0201524     
   50203202.7691726     
   50203021.5440201     
   50202723.9103585     
   50202313.5019149     
   50201794.0069549     
   50201169.1561820     
   50200442.7122618     
   50199618.4611498     
   50198700.2053759     
   50197691.7594091     
   50196596.9472015     
   50195419.6019739     
   50194163.5682817     
   50192832.7063640     
   50191430.8987542     
   50189962.0590976     
   50188430.1431003     
   50186839.1615006     
   50185193.1949369     
   50183496.4105564     
   50181753.0801911     
   50179967.5999003     
   50178144.5106630     
   50176288.5199762     
   50174404.5240994     
   50172497.6306615     
   50170573.1813267     
   50168636.7741975     
   50166694.2856142     
   50164751.8909946     
   50162816.0843420     
   50160893.6960424     
   50158991.9085638     
   50157118.2696714     
   50155280.7027776     
   50153487.5140608     
   50151747.3960071     
   50150069.4270622     
   50148463.0671184     
   50146938.1486151     
   50145504.8630893     
   50144173.7430811     
   50142955.6393763     
   50141861.6936538     
   50140903.3066884     
   50140092.1023548     
   50139439.8877653     
   50138958.6099603     
   50138660.3096509     
   50138557.0725852     
   50185283.8489199     
   50185225.8619960     
   50185054.4628715     
   50184773.2458563     
   50184385.8515579     
   50183895.9543211     
   50183307.2510269     
   50182623.4514432     
   50181848.2702982     
   50180985.4212243     
   50180038.6126910     
   50179011.5460185     
   50177907.9155338     
   50176731.4109003     
   50175485.7216257     
   50174174.5437202     
   50172801.5884536     
   50171370.5931331     
   50169885.3337962     
   50168349.6396945     
   50166767.4094175     
   50165142.6284876     
   50163479.3882362     
   50161781.9057484     
   50160054.5446505     
   50158301.8364894     
   50156528.5024377     
   50154739.4750410     
   50152939.9197048     
   50151135.2556032     
   50149331.1756798     
   50147533.6653949     
   50145749.0198689     
   50143983.8590646     
   50142245.1406529     
   50140540.1702110     
   50138876.6084163     
   50137262.4749202     
   50135706.1486113     
   50134216.3640189     
   50132802.2036505     
   50131473.0861133     
   50130238.7499309     
   50129109.2330380     
   50128094.8480092     
   50127206.1531612     
   50126453.9197456     
   50125849.0955331     
   50125402.7651683     
   50125126.1077462     
   50125030.3521240     
   50168414.0962275     
   50168359.5150492     
   50168198.3164259     
   50167934.0582789     
   50167570.3292676     
   50167110.7370454     
   50166558.8978027     
   50165918.4272795     
   50165192.9334099     
   50164386.0107379     
   50163501.2367155     
   50162542.1699710     
   50161512.3506019     
   50160415.3025228     
   50159254.5378688     
   50158033.5634259     
   50156755.8890401     
   50155425.0379232     
   50154044.5587597     
   50152618.0394894     
   50151149.1226254     
   50149641.5219437     
   50148099.0403648     
   50146525.5888287     
   50144925.2059462     
   50143302.0781956     
   50141660.5604142     
   50140005.1963211     
   50138340.7387901     
   50136672.1695809     
   50135004.7182215     
   50133343.8797263     
   50131695.4308272     
   50130065.4443907     
   50128460.3016948     
   50126886.7022467     
   50125351.6708323     
   50123862.5615086     
   50122427.0582765     
   50121053.1722036     
   50119749.2348107     
   50118523.8875825     
   50117386.0675219     
   50116344.9887291     
   50115410.1200555     
   50114591.1589553     
   50113898.0017291     
   50113340.7104304     
   50112929.4767741     
   50112674.5834527     
   50112586.3633230     
   50152508.3946334     
   50152457.4048018     
   50152306.9154616     
   50152060.3855189     
   50151721.2938498     
   50151293.1283054     
   50150779.3759241     
   50150183.5145234     
   50149509.0058229     
   50148759.2902270     
   50147937.7833726     
   50147047.8745212     
   50146092.9268471     
   50145076.2796464     
   50144001.2524676     
   50142871.1511347     
   50141689.2756151     
   50140458.9296552     
   50139183.4320904     
   50137866.1297130     
   50136510.4115630     
   50135119.7244904     
   50133697.5898179     
   50132247.6209205     
   50130773.5415192     
   50129279.2044742     
   50127768.6108464     
   50126245.9289842     
   50124715.5133768     
   50123181.9230057     
   50121649.9389157     
   50120124.5807139     
   50118611.1217061     
   50117115.1023697     
   50115642.3418691     
   50114198.9473229     
   50112791.3205416     
   50111426.1619758     
   50110110.4716346     
   50108851.5467672     
   50107656.9761359     
   50106534.6307559     
   50105492.6510258     
   50104539.4302318     
   50103683.5944676     
   50102933.9790786     
   50102299.6018053     
   50101789.6328653     
   50101413.3622781     
   50101180.1647952     
   50101099.4628503     
   50137443.1635174     
   50137395.9513762     
   50137256.6879949     
   50137028.6775048     
   50136715.2368295     
   50136319.6854216     
   50135845.3361221     
   50135295.4873021     
   50134673.4164254     
   50133982.3751506     
   50133225.5860713     
   50132406.2411638     
   50131527.5019910     
   50130592.5016851     
   50129604.3487057     
   50128566.1323477     
   50127480.9299515     
   50126351.8157442     
   50125181.8712233     
   50123974.1969741     
   50122731.9257957     
   50121458.2369934     
   50120156.3716816     
   50118829.6489250     
   50117481.4825328     
   50116115.3983094     
   50114735.0515486     
   50113344.2445494     
   50111946.9439188     
   50110547.2974167     
   50109149.6500884     
   50107758.5594246     
   50106378.8092809     
   50105015.4222895     
   50103673.6704945     
   50102359.0839494     
   50101077.4570248     
   50099834.8521895     
   50098637.6010501     
   50097492.3024614     
   50096405.8175542     
   50095385.2615648     
   50094437.9924000     
   50093571.5959175     
   50092793.8679614     
   50092112.7932457     
   50091536.5212415     
   50091073.3392812     
   50090731.6431488     
   50090519.9054803     
   50090446.6423422     
   50123112.8590688     
   50123069.5867958     
   50122942.0006469     
   50122733.2032446     
   50122446.3054254     
   50122084.4167219     
   50121650.6368787     
   50121148.0485460     
   50120579.7112777     
   50119948.6569434     
   50119257.8866409     
   50118510.3691745     
   50117709.0411412     
   50116856.8086443     
   50115956.5506317     
   50115011.1238333     
   50114023.3692521     
   50112996.1201454     
   50111932.2114118     
   50110834.4902839     
   50109705.8282138     
   50108549.1338182     
   50107367.3667420     
   50106163.5522834     
   50104940.7966115     
   50103702.3023971     
   50102451.3846647     
   50101191.4866644     
   50099926.1955521     
   50098659.2576569     
   50097394.5931069     
   50096136.3095799     
   50094888.7149375     
   50093656.3285044     
   50092443.8907507     
   50091256.3711442     
   50090098.9739471     
   50088977.1417442     
   50087896.5565118     
   50086863.1380582     
   50085883.0396976     
   50084962.6410559     
   50084108.5379451     
   50083327.5292900     
   50082626.6011392     
   50082012.9078432     
   50081493.7505361     
   50081076.5531083     
   50080768.8359102     
   50080578.1874712     
   50080512.2345621     
   50109425.9149151     
   50109386.7086400     
   50109271.1502446     
   50109082.1037053     
   50108822.4384422     
   50108495.0205754     
   50108102.7051226     
   50107648.3292648     
   50107134.7067973     
   50106564.6238617     
   50105940.8360380     
   50105266.0668531     
   50104543.0077461     
   50103774.3195041     
   50102962.6351664     
   50102110.5643735     
   50101220.6991196     
   50100295.6208472     
   50099337.9088114     
   50098350.1496201     
   50097334.9478471     
   50096294.9376011     
   50095232.7949185     
   50094151.2508423     
   50093053.1050326     
   50091941.2397492     
   50090818.6340329     
   50089688.3779064     
   50088553.6864050     
   50087417.9132392     
   50086284.5638876     
   50085157.3079086     
   50084039.9902597     
   50082936.6414099     
   50081851.4860321     
   50080788.9500674     
   50079753.6659606     
   50078750.4758806     
   50077784.4327531     
   50076860.7989568     
   50075985.0425613     
   50075162.8310134     
   50074400.0222182     
   50073702.6529967     
   50073076.9249489     
   50072529.1877939     
   50072065.9203058     
   50071693.7090105     
   50071419.2248537     
   50071249.1980898     
   50071190.3916799     
   50096301.3762801     
   50096266.3230698     
   50096163.0327201     
   50095994.1025669     
   50095762.1338120     
   50095469.7235888     
   50095119.4578722     
   50094713.9053474     
   50094255.6123388     
   50093747.0988858     
   50093190.8560336     
   50092589.3443912     
   50091944.9939882     
   50091260.2054454     
   50090537.3524544     
   50089778.7855457     
   50088986.8371070     
   50088163.8275972     
   50087312.0728901     
   50086433.8926647     
   50085531.6197502     
   50084607.6103193     
   50083664.2548148     
   50082703.9894855     
   50081729.3083940     
   50080742.7757560     
   50079747.0384562     
   50078744.8385841     
   50077739.0258198     
   50076732.5694980     
   50075728.5701690     
   50074730.2704743     
   50073741.0651479     
   50072764.5099560     
   50071804.3293873     
   50070864.4229118     
   50069948.8696314     
   50069061.9311569     
   50068208.0525626     
   50067391.8612858     
   50066618.1638642     
   50065891.9404283     
   50065218.3369025     
   50064602.6548962     
   50064050.3393113     
   50063566.9637253     
   50063158.2136554     
   50062829.8678453     
   50062587.7777583     
   50062437.8454940     
   50062386.0003810     
   50083666.1804175     
   50083635.3309316     
   50083544.4458029     
   50083395.8358144     
   50083191.8147665     
   50082934.6923855     
   50082626.7679805     
   50082270.3249444     
   50081867.6261924     
   50081420.9106084     
   50080932.3905630     
   50080404.2505454     
   50079838.6469375     
   50079237.7089424     
   50078603.5406635     
   50077938.2243137     
   50077243.8245226     
   50076522.3936920     
   50075775.9783427     
   50075006.6263778     
   50074216.3951829     
   50073407.3604694     
   50072581.6257605     
   50071741.3324090     
   50070888.6700312     
   50070025.8872287     
   50069155.3024683     
   50068279.3149789     
   50067400.4155205     
   50066521.1968739     
   50065644.3638951     
   50064772.7429745     
   50063909.2907379     
   50063057.1018254     
   50062219.4155875     
   50061399.6215377     
   50060601.2634102     
   50059828.0416783     
   50059083.8144042     
   50058372.5963060     
   50057698.5559463     
   50057066.0109738     
   50056479.4213724     
   50055943.3807057     
   50055462.6053749     
   50055041.9219432     
   50054686.2526147     
   50054400.5989914     
   50054190.0242650     
   50054059.6340311     
   50054014.5559426     
   50071453.0085630     
   50071426.3830075     
   50071347.9539604     
   50071219.7324580     
   50071043.7320959     
   50070821.9628138     
   50070556.4253273     
   50070249.1062935     
   50069901.9742857     
   50069516.9766417     
   50069096.0372370     
   50068641.0552198     
   50068153.9047320     
   50067636.4356256     
   50067090.4751713     
   50066517.8307405     
   50065920.2934330     
   50065299.6426078     
   50064657.6512664     
   50063996.0922249     
   50063316.7450062     
   50062621.4033706     
   50061911.8833994     
   50061190.0320361     
   50060457.7359849     
   50059716.9308579     
   50058969.6104587     
   50058217.8360814     
   50057463.7457029     
   50056709.5629368     
   50055957.6056166     
   50055210.2938722     
   50054470.1575585     
   50053739.8428998     
   50053022.1182087     
   50052319.8785450     
   50051636.1491845     
   50050974.0877752     
   50050336.9850685     
   50049728.2641297     
   50049151.4779451     
   50048610.3053658     
   50048108.5453507     
   50047650.1094960     
   50047239.0128657     
   50046879.3631692     
   50046575.3483581     
   50046331.2227477     
   50046151.2917948     
   50046039.8956924     
   50046001.3919635     
   50059598.6231624     
   50059576.2188461     
   50059510.2319854     
   50059402.3659353     
   50059254.3263093     
   50059067.8156653     
   50058844.5287397     
   50058586.1483027     
   50058294.3416976     
   50057970.7581172     
   50057617.0266605     
   50057234.7551997     
   50056825.5300792     
   50056390.9166509     
   50055932.4606448     
   50055451.6903592     
   50054950.1196449     
   50054429.2516482     
   50053890.5832706     
   50053335.6102908     
   50052765.8330904     
   50052182.7629167     
   50051587.9286085     
   50050982.8837069     
   50050369.2138652     
   50049748.5444686     
   50049122.5483688     
   50048492.9536329     
   50047861.5512038     
   50047230.2023627     
   50046600.8458839     
   50045975.5047661     
   50045356.2924261     
   50044745.4182367     
   50044145.1922953     
   50043558.0293072     
   50042986.4514781     
   50042433.0903103     
   50041900.6872123     
   50041392.0928379     
   50040910.2650876     
   50040458.2657218     
   50040039.2555529     
   50039656.4882052     
   50039313.3024548     
   50039013.1131855     
   50038759.4010213     
   50038555.7007215     
   50038405.5884484     
   50038312.6680390     
   50038280.5564337     
   50048042.6033474     
   50048024.4026860     
   50047970.8023022     
   50047883.1937817     
   50047762.9706692     
   50047611.5240767     
   50047430.2387430     
   50047220.4896003     
   50046983.6389012     
   50046721.0339478     
   50046434.0054570     
   50046123.8665878     
   50045791.9126453     
   50045439.4214663     
   50045067.6544848     
   50044677.8584633     
   50044271.2678702     
   50043849.1078735     
   50043412.5979163     
   50042962.9558304     
   50042501.4024391     
   50042029.1665966     
   50041547.4906023     
   50041057.6359279     
   50040560.8891872     
   50040058.5682760     
   50039552.0286060     
   50039042.6693512     
   50038531.9396233     
   50038021.3444878     
   50037512.4507331     
   50037006.8922982     
   50036506.3752662     
   50036012.6823302     
   50035527.6766374     
   50035053.3049207     
   50034591.5998284     
   50034144.6813712     
   50033714.7574090     
   50033304.1231123     
   50032915.1593424     
   50032550.3299082     
   50032212.1776742     
   50031903.3195075     
   50031626.4400751     
   50031384.2845176     
   50031179.6500497     
   50031015.3765524     
   50030894.3362492     
   50030819.4225677     
   50030793.5383129     
   50036726.3975351     
   50036712.3757555     
   50036671.0864732     
   50036603.6079716     
   50036511.0201024     
   50036394.4008346     
   50036254.8231554     
   50036093.3523681     
   50035911.0438255     
   50035708.9411325     
   50035488.0748430     
   50035249.4616708     
   50034994.1042241     
   50034722.9912698     
   50034437.0985230     
   50034137.3899508     
   50033824.8195772     
   50033500.3337621     
   50033164.8739303     
   50032819.3797153     
   50032464.7924806     
   50032102.0591767     
   50031732.1364881     
   50031355.9952202     
   50030974.6248734     
   50030589.0383492     
   50030200.2767280     
   50029809.4140574     
   50029417.5620860     
   50029025.8748770     
   50028635.5532303     
   50028247.8488446     
   50027864.0681469     
   50027485.5757161     
   50027113.7972314     
   50026750.2218720     
   50026396.4041033     
   50026053.9647831     
   50025724.5915314     
   50025410.0383108     
   50025112.1241750     
   50024832.7311530     
   50024573.8012454     
   50024337.3325275     
   50024125.3743623     
   50023940.0217449     
   50023783.4088142     
   50023657.7015838     
   50023565.0899578     
   50023507.7791123     
   50023487.9803372     
   50025592.6215891     
   50025582.7536938     
   50025553.7005262     
   50025506.2269680     
   50025441.0989415     
   50025359.0809130     
   50025260.9336499     
   50025147.4122647     
   50025019.2645714     
   50024877.2297789     
   50024722.0375380     
   50024554.4073558     
   50024375.0483847     
   50024184.6595874     
   50023983.9302757     
   50023773.5410165     
   50023554.1648905     
   50023326.4690892     
   50023091.1168295     
   50022848.7695615     
   50022600.0894436     
   50022345.7420543     
   50022086.3993081     
   50021822.7425419     
   50021555.4657321     
   50021285.2788055     
   50021012.9109999     
   50020739.1142338     
   50020464.6664365     
   50020190.3747941     
   50019917.0788620     
   50019645.6534934     
   50019377.0115353     
   50019112.1062378     
   50018851.9333304     
   50018597.5327109     
   50018349.9897027     
   50018110.4358323     
   50017880.0490870     
   50017660.0536150     
   50017451.7188363     
   50017256.3579414     
   50017075.3257602     
   50016910.0159945     
   50016761.8578175     
   50016632.3118519     
   50016522.8655520     
   50016435.0280242     
   50016370.3243322     
   50016330.2893418     
   50016316.4611724     
   50014584.5420984     
   50014578.8088573     
   50014561.9344850     
   50014534.3708577     
   50014496.5702154     
   50014448.9836319     
   50014392.0596400     
   50014326.2430338     
   50014251.9738619     
   50014169.6866256     
   50014079.8096921     
   50013982.7649292     
   50013878.9675658     
   50013768.8262777     
   50013652.7434979     
   50013531.1159445     
   50013404.3353590     
   50013272.7894454     
   50013136.8629965     
   50012996.9391937     
   50012853.4010639     
   50012706.6330750     
   50012557.0228525     
   50012404.9629940     
   50012250.8529613     
   50012095.1010271     
   50011938.1262502     
   50011780.3604558     
   50011622.2501930     
   50011464.2586429     
   50011306.8674482     
   50011150.5784358     
   50010995.9152022     
   50010843.4245330     
   50010693.6776243     
   50010547.2710795     
   50010404.8276500     
   50010266.9966941     
   50010134.4543290     
   50010007.9032512     
   50009888.0722082     
   50009775.7151044     
   50009671.6097298     
   50009576.5561068     
   50009491.3744538     
   50009416.9027724     
   50009353.9940694     
   50009303.5132334     
   50009266.3335918     
   50009243.3331790     
   50009235.3907540     
   50003645.6955232     
   50003644.0884002     
   50003639.3673938     
   50003631.6715119     
   50003621.1393150     
   50003607.9083606     
   50003592.1147086     
   50003573.8924922     
   50003553.3735590     
   50003530.6871862     
   50003505.9598722     
   50003479.3152048     
   50003450.8738079     
   50003420.7533627     
   50003389.0687047     
   50003355.9319911     
   50003321.4529360     
   50003285.7391095     
   50003248.8962954     
   50003211.0289020     
   50003172.2404217     
   50003132.6339317     
   50003092.3126308     
   50003051.3804055     
   50003009.9424184     
   50002968.1057116     
   50002925.9798193     
   50002883.6773800     
   50002841.3147421     
   50002799.0125547     
   50002756.8963334     
   50002715.0969959     
   50002673.7513548     
   50002633.0025608     
   50002593.0004861     
   50002553.9020391     
   50002515.8713992     
   50002479.0801655     
   50002443.7074064     
   50002409.9396050     
   50002377.9704895     
   50002348.0007432     
   50002320.2375872     
   50002294.8942314     
   50002272.1891905     
   50002252.3454639     
   50002235.5895800     
   50002222.1505081     
   50002212.2584437     
   50002206.1434742     
   50002204.0341364     
   49992719.6042922     
   49992722.1292947     
   49992729.5792345     
   49992741.7795545     
   49992758.5543322     
   49992779.7267102     
   49992805.1192909     
   49992834.5544856     
   49992867.8548132     
   49992904.8431427     
   49992945.3428722     
   49992989.1780416     
   49993036.1733744     
   49993086.1542461     
   49993138.9465775     
   49993194.3766529     
   49993252.2708626     
   49993312.4553739     
   49993374.7557307     
   49993438.9963877     
   49993505.0001835     
   49993572.5877583     
   49993641.5769233     
   49993711.7819894     
   49993783.0130634     
   49993855.0753210     
   49993927.7682666     
   49994000.8849901     
   49994074.2114307     
   49994147.5256608     
   49994220.5971999     
   49994293.1863709     
   49994365.0437106     
   49994435.9094449     
   49994505.5130417     
   49994573.5728502     
   49994639.7958365     
   49994703.8774254     
   49994765.5014533     
   49994824.3402387     
   49994880.0547743     
   49994932.2950404     
   49994980.7004399     
   49995024.9003505     
   49995064.5147891     
   49995099.1551782     
   49995128.4252059     
   49995151.9217648     
   49995169.2359553     
   49995179.9541398     
   49995183.6590268     
   49981749.5598055     
   49981756.2402791     
   49981775.9298375     
   49981808.1384136     
   49981852.3735934     
   49981908.1420433     
   49981974.9508020     
   49982052.3084183     
   49982139.7259162     
   49982236.7175709     
   49982342.8014844     
   49982457.4999490     
   49982580.3395907     
   49982710.8512903     
   49982848.5698785     
   49982993.0336094     
   49983143.7834151     
   49983300.3619511     
   49983462.3124422     
   49983629.1773420     
   49983800.4968225     
   49983975.8071100     
   49984154.6386890     
   49984336.5143947     
   49984520.9474181     
   49984707.4392492     
   49984895.4775848     
   49985084.5342295     
   49985274.0630194     
   49985463.4977988     
   49985652.2504819     
   49985839.7092314     
   49986025.2367859     
   49986208.1689690     
   49986387.8134116     
   49986563.4485169     
   49986734.3226986     
   49986899.6539167     
   49987058.6295353     
   49987210.4065213     
   49987354.1119995     
   49987488.8441724     
   49987613.6736104     
   49987727.6449089     
   49987829.7787031     
   49987919.0740268     
   49987994.5109899     
   49988055.0537490     
   49988099.6537339     
   49988127.2530921     
   49988136.7883068     
   49970678.4493728     
   49970689.3277712     
   49970721.3818321     
   49970773.8025308     
   49970845.7775001     
   49970936.4934646     
   49971045.1384412     
   49971170.9036727     
   49971312.9852669     
   49971470.5855141     
   49971642.9138635     
   49971829.1875406     
   49972028.6317965     
   49972240.4797813     
   49972463.9720421     
   49972698.3556491     
   49972942.8829603     
   49973196.8100372     
   49973459.3947316     
   49973729.8944638     
   49974007.5637214     
   49974291.6513059     
   49974581.3973613     
   49974876.0302208     
   49975174.7631111     
   49975476.7907548     
   49975781.2859155     
   49976087.3959329     
   49976394.2392942     
   49976700.9022947     
   49977006.4358367     
   49977309.8524205     
   49977610.1233814     
   49977906.1764239     
   49978196.8935073     
   49978481.1091321     
   49978757.6090754     
   49979025.1296200     
   49979282.3573162     
   49979527.9293100     
   49979760.4342643     
   49979978.4138910     
   49980180.3651029     
   49980364.7427847     
   49980529.9631705     
   49980674.4078062     
   49980796.4280607     
   49980894.3501432     
   49980966.4805713     
   49981011.1120251     
   49981026.5295168     
   49959448.6091938     
   49959463.7478333     
   49959508.3496781     
   49959581.2816911     
   49959681.4065374     
   49959807.5860359     
   49959958.6842782     
   49960133.5703677     
   49960331.1207387     
   49960550.2210199     
   49960789.7674146     
   49961048.6675739     
   49961325.8409490     
   49961620.2186143     
   49961930.7425617     
   49962256.3644730     
   49962596.0439828     
   49962948.7464541     
   49963313.4402903     
   49963689.0938188     
   49964074.6717798     
   49964469.1314655     
   49964871.4185536     
   49965280.4626881     
   49965695.1728596     
   49966114.4326460     
   49966537.0953721     
   49966961.9792558     
   49967387.8626070     
   49967813.4791483     
   49968237.5135316     
   49968658.5971229     
   49969075.3041295     
   49969486.1481443     
   49969889.5791806     
   49970283.9812676     
   49970667.6706754     
   49971038.8948305     
   49971395.8319791     
   49971736.5916453     
   49972059.2159229     
   49972361.6816268     
   49972641.9033187     
   49972897.7372065     
   49973126.9859039     
   49973327.4040172     
   49973496.7045169     
   49973632.5658303     
   49973732.6395815     
   49973794.5588892     
   49973815.9471250     
   49948001.6884579     
   49948021.1692350     
   49948078.5597315     
   49948172.3962866     
   49948301.2100799     
   49948463.5316134     
   49948657.8947579     
   49948882.8403053     
   49949136.9189731     
   49949418.6938182     
   49949726.7420201     
   49950059.6560072     
   49950416.0439072     
   49950794.5293112     
   49951193.7503535     
   49951612.3581139     
   49952049.0143636     
   49952502.3886786     
   49952971.1549564     
   49953453.9873768     
   49953949.5558565     
   49954456.5210493     
   49954973.5289551     
   49955499.2052008     
   49956032.1490653     
   49956570.9273227     
   49957114.0679835     
   49957660.0540178     
   49958207.3171464     
   49958754.2317908     
   49959299.1092755     
   49959840.1923764     
   49960375.6503119     
   49960903.5742719     
   49961421.9735803     
   49961928.7725822     
   49962421.8083436     
   49962898.8292438     
   49963357.4945355     
   49963795.3749322     
   49964209.9542758     
   49964598.6323172     
   49964958.7286322     
   49965287.4876697     
   49965582.0849194     
   49965839.6341565     
   49966057.1957079     
   49966231.7856626     
   49966360.3859279     
   49966439.9550210     
   49966467.4394662     
   49936278.5104196     
   49936302.4334343     
   49936372.9070614     
   49936488.1290609     
   49936646.2913174     
   49936845.5853638     
   49937084.2073646     
   49937360.3624877     
   49937672.2685995     
   49938018.1592278     
   49938396.2857467     
   49938804.9187495     
   49939242.3485872     
   49939706.8850597     
   49940196.8562631     
   49940710.6066017     
   49941246.4939910     
   49941802.8862804     
   49942378.1569432     
   49942970.6800801     
   49943578.8248007     
   49944200.9490460     
   49944835.3929298     
   49945480.4716768     
   49946134.4682467     
   49946795.6257342     
   49947462.1396458     
   49948132.1501535     
   49948803.7344336     
   49949474.8992018     
   49950143.5735587     
   49950807.6022624     
   49951464.7395460     
   49952112.6435989     
   49952748.8718275     
   49953370.8770094     
   49953976.0044487     
   49954561.4902321     
   49955124.4606776     
   49955661.9330509     
   49956170.8176142     
   49956647.9210501     
   49957089.9512857     
   49957493.5237199     
   49957855.1688313     
   49958171.3411229     
   49958438.4293318     
   49958652.7678093     
   49958810.6489552     
   49958908.3365652     
   49958942.0799375     
   49924218.9148155     
   49924247.3958058     
   49924331.2932453     
   49924468.4574074     
   49924656.7321652     
   49924893.9615661     
   49925177.9957603     
   49925506.6961968     
   49925877.9400101     
   49926289.6235307     
   49926739.6648652     
   49927226.0055052     
   49927746.6109390     
   49928299.4702508     
   49928882.5947112     
   49929494.0153711     
   49930131.7796878     
   49930793.9472221     
   49931478.5844583     
   49932183.7588079     
   49932907.5318688     
   49933647.9520207     
   49934403.0464443     
   49935170.8126626     
   49935949.2097063     
   49936736.1490147     
   49937529.4851884     
   49938327.0067169     
   49939126.4268082     
   49939925.3744536     
   49940721.3858638     
   49941511.8964158     
   49942294.2332510     
   49943065.6086662     
   49943823.1144370     
   49944563.7172075     
   49945284.2550771     
   49945981.4355036     
   49946651.8346308     
   49947291.8981329     
   49947897.9436516     
   49948466.1648793     
   49948992.6373177     
   49949473.3257163     
   49949904.0931657     
   49950280.7117929     
   49950598.8749736     
   49950854.2109514     
   49951042.2977225     
   49951158.6790210     
   49951198.8812181     
   49911761.5621418     
   49911794.7286124     
   49911892.4255702     
   49912052.1465380     
   49912271.3783340     
   49912547.6087054     
   49912878.3332066     
   49913261.0612223     
   49913693.3210430     
   49914172.6639172     
   49914696.6670168     
   49915262.9352661     
   49915869.1020067     
   49916512.8284797     
   49917191.8021282     
   49917903.7337378     
   49918646.3534459     
   49919417.4056666     
   49920214.6429924     
   49921035.8191428     
   49921878.6810446     
   49922740.9601379     
   49923620.3630108     
   49924514.5614763     
   49925421.1822121     
   49926337.7960928     
   49927261.9073499     
   49928190.9427045     
   49929122.2406194     
   49930053.0408283     
   49930980.4742993     
   49931901.5537962     
   49932813.1652030     
   49933712.0597747     
   49934594.8474789     
   49935457.9915858     
   49936297.8046577     
   49937110.4460784     
   49937891.9212490     
   49938638.0825594     
   49939344.6322236     
   49940007.1270409     
   49940620.9851211     
   49941181.4945749     
   49941683.8241455     
   49942123.0357164     
   49942494.0986000     
   49942791.9054765     
   49943011.2898189     
   49943147.0446131     
   49943193.9421538     
   49898843.6740150     
   49898881.6599355     
   49898993.5518446     
   49899176.4777143     
   49899427.5587376     
   49899743.9180236     
   49900122.6884275     
   49900561.0193969     
   49901056.0827312     
   49901605.0771645     
   49902205.2317001     
   49902853.8076404     
   49903548.0992775     
   49904285.4332276     
   49905063.1664089     
   49905878.6826851     
   49906729.3882101     
   49907612.7055285     
   49908526.0664990     
   49909466.9041266     
   49910432.6433964     
   49911420.6912199     
   49912428.4256112     
   49913453.1842235     
   49914492.2523854     
   49915542.8507847     
   49916602.1229567     
   49917667.1227422     
   49918734.8018851     
   49919801.9979499     
   49920865.4227403     
   49921921.6514076     
   49922967.1124372     
   49923998.0787032     
   49925010.6597791     
   49926000.7956859     
   49926964.2522520     
   49927896.6182473     
   49928793.3044353     
   49929649.5446725     
   49930460.3991528     
   49931220.7598731     
   49931925.3583603     
   49932568.7756659     
   49933145.4545963     
   49933649.7141092     
   49934075.7657639     
   49934417.7320761     
   49934669.6665901     
   49934825.5754475     
   49934879.4402007     
   49885400.6750299     
   49885443.6140093     
   49885570.0963465     
   49885776.8772026     
   49886060.7050875     
   49886418.3316172     
   49886846.5202887     
   49887342.0541433     
   49887901.7421973     
   49888522.4245398     
   49889200.9760152     
   49889934.3084267     
   49890719.3712231     
   49891553.1506450     
   49892432.6673364     
   49893354.9724421     
   49894317.1422326     
   49895316.2713189     
   49896349.4645346     
   49897413.8275787     
   49898506.4565302     
   49899624.4263549     
   49900764.7785412     
   49901924.5080121     
   49903100.5494708     
   49904289.7633485     
   49905488.9215328     
   49906694.6930631     
   49907903.6299877     
   49909112.1535860     
   49910316.5411621     
   49911512.9136249     
   49912697.2240673     
   49913865.2475623     
   49915012.5723882     
   49916134.5928902     
   49917226.5041764     
   49918283.2988328     
   49919299.7658223     
   49920270.4917130     
   49921189.8643493     
   49922052.0790516     
   49922851.1473910     
   49923580.9085465     
   49924235.0432094     
   49924807.0899544     
   49925290.4639530     
   49925678.4778564     
   49925964.3646382     
   49926141.3021437     
   49926202.4390601     
   49871365.6902317     
   49871413.7071453     
   49871555.1513127     
   49871786.4007077     
   49872103.8269103     
   49872503.8059153     
   49872982.7278419     
   49873537.0053992     
   49874163.0809697     
   49874857.4322002     
   49875616.5760045     
   49876437.0709101     
   49877315.5177012     
   49878248.5583363     
   49879232.8731434     
   49880265.1763165     
   49881342.2097616     
   49882460.7353602     
   49883617.5257379     
   49884809.3536441     
   49886032.9800652     
   49887285.1412088     
   49888562.5345114     
   49889861.8038347     
   49891179.5240282     
   49892512.1850479     
   49893856.1758291     
   49895207.7681270     
   49896563.1005411     
   49897918.1629521     
   49899268.7816067     
   49900610.6050879     
   49901939.0914148     
   49903249.4965132     
   49904536.8642996     
   49905796.0186092     
   49907021.5571941     
   49908207.8479968     
   49909349.0278883     
   49910439.0040318     
   49911471.4580030     
   49912439.8527619     
   49913337.4425295     
   49914157.2855782     
   49914892.2598969     
   49915535.0816395     
   49916078.3262158     
   49916514.4518336     
   49916835.8252520     
   49917034.7494616     
   49917103.4929711     
   49856668.8386858     
   49856722.0398701     
   49856878.7649889     
   49857135.0149573     
   49857486.7845396     
   49857930.0741911     
   49858460.9006842     
   49859075.3063516     
   49859769.3668002     
   49860539.1969646     
   49861380.9553989     
   49862290.8467280     
   49863265.1222059     
   49864300.0783574     
   49865392.0537042     
   49866537.4236035     
   49867732.5932522     
   49868973.9889303     
   49870258.0475843     
   49871581.2048648     
   49872939.8817566     
   49874330.4699544     
   49875749.3161520     
   49877192.7054317     
   49878656.8439488     
   49880137.8411246     
   49881631.6915699     
   49883134.2569730     
   49884641.2481983     
   49886148.2078481     
   49887650.4935504     
   49889143.2622396     
   49890621.4557017     
   49892079.7876552     
   49893512.7326362     
   49894914.5169497     
   49896279.1119367     
   49897600.2297897     
   49898871.3221256     
   49900085.5814994     
   49901235.9460034     
   49902315.1070586     
   49903315.5204603     
   49904229.4206842     
   49905048.8384134     
   49905765.6211811     
   49906371.4569736     
   49906857.9005772     
   49907216.4024017     
   49907438.3394616     
   49907515.0481557     
   49841236.2481060     
   49841294.7104576     
   49841466.9520692     
   49841748.6033023     
   49842135.2883610     
   49842622.6381392     
   49843206.3017344     
   49843881.9564420     
   49844645.3160642     
   49845492.1373950     
   49846418.2247627     
   49847419.4325453     
   49848491.6656001     
   49849630.8775806     
   49850833.0671412     
   49852094.2720609     
   49853410.5613432     
   49854778.0253747     
   49856192.7642514     
   49857650.8743997     
   49859148.4336455     
   49860681.4848972     
   49862246.0186326     
   49863837.9543911     
   49865453.1214905     
   49867087.2392030     
   49868735.8966355     
   49870394.5325750     
   49872058.4155708     
   49873722.6245338     
   49875382.0301455     
   49877031.2773715     
   49878664.7693826     
   49880276.6531841     
   49881860.8072525     
   49883410.8314709     
   49884920.0396400     
   49886381.4548240     
   49887787.8077665     
   49889131.5385753     
   49890404.8018427     
   49891599.4753176     
   49892707.1721971     
   49893719.2570493     
   49894626.8653170     
   49895420.9262904     
   49896092.1893721     
   49896631.2533953     
   49897028.5986946     
   49897274.6215768     
   49897359.6707878     
   49824988.6988826     
   49825052.4585256     
   49825240.3361517     
   49825547.6065102     
   49825969.5375786     
   49826501.4043812     
   49827138.5013535     
   49827876.1530507     
   49828709.7230180     
   49829634.6206669     
   49830646.3060306     
   49831740.2923023     
   49832912.1460937     
   49834157.4853811     
   49835471.9751404     
   49836851.3207048     
   49838291.2589059     
   49839787.5470896     
   49841335.9501234     
   49842932.2255376     
   49844572.1069633     
   49846251.2860532     
   49847965.3930908     
   49849709.9765094     
   49851480.4815629     
   49853272.2284038     
   49855080.3898409     
   49856899.9690618     
   49858725.7776201     
   49860552.4139968     
   49862374.2430584     
   49864185.3767377     
   49865979.6562716     
   49867750.6363293     
   49869491.5713610     
   49871195.4044898     
   49872854.7592538     
   49874461.9344849     
   49876008.9025851     
   49877487.3114215     
   49878888.4900224     
   49880203.4582059     
   49881422.9402144     
   49882537.3823678     
   49883536.9746801     
   49884411.6763140     
   49885151.2446779     
   49885745.2678986     
   49886183.2003364     
   49886454.4007508     
   49886548.1726659     
   49807839.7895644     
   49807908.8312159     
   49808112.3180770     
   49808445.1947850     
   49808902.3974729     
   49809478.8685156     
   49810169.5697054     
   49810969.4936355     
   49811873.6730930     
   49812877.1882903     
   49813975.1717972     
   49815162.8110665     
   49816435.3484849     
   49817788.0789127     
   49819216.3447132     
   49820715.5283055     
   49822281.0423085     
   49823908.3173729     
   49825592.7878276     
   49827329.8752947     
   49829114.9704507     
   49830943.4131345     
   49832810.4710272     
   49834711.3171435     
   49836641.0064005     
   49838594.4515408     
   49840566.3987090     
   49842551.4029934     
   49844543.8042614     
   49846537.7036283     
   49848526.9409140     
   49850505.0734448     
   49852465.3565692     
   49854400.7262538     
   49856303.7841242     
   49858166.7853046     
   49859981.6293961     
   49861739.8549097     
   49863432.6374405     
   49865050.7918277     
   49866584.7785032     
   49868024.7141703     
   49869360.3868965     
   49870581.2756317     
   49871676.5740920     
   49872635.2188679     
   49873445.9215414     
   49874097.2045153     
   49874577.4401864     
   49874874.8930250     
   49874977.7640662     
   49789693.5020278     
   49789767.7508149     
   49789986.6508230     
   49790344.8546162     
   49790837.0026996     
   49791457.7391493     
   49792201.7255595     
   49793063.6530645     
   49794038.2522206     
   49795120.3005648     
   49796304.6276962     
   49797586.1177675     
   49798959.7093086     
   49800420.3923429     
   49801963.2027953     
   49803583.2142283     
   49805275.5269755     
   49807035.2547785     
   49808857.5090609     
   49810737.3810045     
   49812669.9216203     
   49814650.1200298     
   49816672.8801977     
   49818732.9963797     
   49820825.1275677     
   49822943.7712377     
   49825083.2367225     
   49827237.6185501     
   49829400.7701047     
   49831566.2779827     
   49833727.4374285     
   49835877.2292443     
   49838008.2985752     
   49840112.9359718     
   49842183.0611316     
   49844210.2097050     
   49846185.5235431     
   49848099.7447307     
   49849943.2137207     
   49851705.8718414     
   49853377.2683939     
   49854946.5725001     
   49856402.5897909     
   49857733.7839454     
   49858928.3030157     
   49859974.0103813     
   49860858.5200908     
   49861569.2362670     
   49862093.3961639     
   49862418.1163944     
   49862530.4417795     
   49770441.0364407     
   49770520.3547369     
   49770754.2942368     
   49771137.2675270     
   49771663.6688230     
   49772327.8904492     
   49773124.3375265     
   49774047.4406089     
   49775091.6660385     
   49776251.5238186     
   49777521.5728422     
   49778896.4233511     
   49780370.7365416     
   49781939.2212723     
   49783596.6278723     
   49785337.7390855     
   49787157.3582240     
   49789050.2946424     
   49791011.3466745     
   49793035.2822085     
   49795116.8171047     
   49797250.5916868     
   49799431.1455657     
   49801652.8910770     
   49803910.0856378     
   49806196.8033504     
   49808506.9062017     
   49810834.0152269     
   49813171.4820247     
   49815512.3610278     
   49817849.3829482     
   49820174.9298261     
   49822481.0121198     
   49824759.2482773     
   49827000.8472252     
   49829196.5942006     
   49831336.8403355     
   49833411.4963713     
   49835410.0308504     
   49837321.4730794     
   49839134.4211045     
   49840837.0548735     
   49842417.1546801     
   49843862.1249043     
   49845159.0229731     
   49846294.5933688     
   49847255.3064187     
   49848027.4015045     
   49848596.9342412     
   49848949.8270896     
   49849071.9227987     
   49749956.7881963     
   49750040.9810655     
   49750289.4257586     
   49750696.3616351     
   49751255.9994107     
   49751962.5384746     
   49752810.1823139     
   49753793.1517698     
   49754905.6958780     
   49756142.1000816     
   49757496.6916396     
   49758963.8420993     
   49760537.9667386     
   49762213.5209315     
   49763984.9934315     
   49765846.8966061     
   49767793.7537030     
   49769820.0832582     
   49771920.3807983     
   49774089.0980206     
   49776320.6196666     
   49778609.2383338     
   49780949.1274998     
   49783334.3130594     
   49785758.6437002     
   49788215.7604672     
   49790699.0658921     
   49793201.6930813     
   49795716.4751833     
   49798235.9156694     
   49800752.1598823     
   49803256.9683185     
   49805741.6921191     
   49808197.2512474     
   49810614.1158287     
   49812982.2911159     
   49815291.3065264     
   49817530.2091646     
   49819687.5622050     
   49821751.4484612     
   49823709.4793999     
   49825548.8097918     
   49827256.1581010     
   49828817.8326281     
   49830219.7633201     
   49831447.5390576     
   49832486.4501233     
   49833321.5354542     
   49833937.6341779     
   49834319.4408464     
   49834451.5636974     
   49728093.3573502     
   49728182.1914238     
   49728444.5024888     
   49728874.4371291     
   49729466.0975422     
   49730213.5597300     
   49731110.8897045     
   49732152.1574188     
   49733331.4481612     
   49734642.8711882     
   49736080.5654090     
   49737638.7019804     
   49739311.4837113     
   49741093.1412248     
   49742977.9258681     
   49744960.0994049     
   49747033.9205681     
   49749193.6285896     
   49751433.4238619     
   49753747.4459234     
   49756129.7489920     
   49758574.2753046     
   49761074.8265501     
   49763625.0337127     
   49766218.3256712     
   49768847.8969276     
   49771506.6748623     
   49774187.2869417     
   49776882.0283242     
   49779582.8303357     
   49782281.2303003     
   49784968.3432321     
   49787634.8358990     
   49790270.9037780     
   49792866.2514165     
   49795410.0767044     
   49797891.0595383     
   49800297.3553310     
   49802616.5937720     
   49804835.8831929     
   49806941.8208202     
   49808920.5091216     
   49810757.5783562     
   49812438.2153422     
   49813947.1983459     
   49815268.9378794     
   49816387.5230839     
   49817286.7732566     
   49817950.2939741     
   49818361.5371638     
   49818503.8643897     
   49704675.5236940     
   49704768.7657469     
   49705044.3133457     
   49705496.3110988     
   49706118.8361822     
   49706905.9175208     
   49707851.5529013     
   49708949.7237168     
   49710194.4070681     
   49711579.5849861     
   49713099.2505803     
   49714747.4109610     
   49716518.0868309     
   49718405.3086856     
   49720403.1096108     
   49722505.5147082     
   49724706.5272263     
   49727000.1115147     
   49729380.1729597     
   49731840.5350974     
   49734374.9141355     
   49736976.8911531     
   49739639.8822742     
   49742357.1071503     
   49745121.5561129     
   49747925.9563882     
   49750762.7377985     
   49753623.9983980     
   49756501.4705216     
   49759386.4877477     
   49762269.9532969     
   49765142.3104092     
   49767993.5152493     
   49770813.0129012     
   49773589.7170062     
   49776311.9935897     
   49778967.6496000     
   49781543.9266461     
   49784027.5003768     
   49786404.4858826     
   49788660.4494266     
   49790780.4267254     
   49792748.9478994     
   49794550.0691039     
   49796167.4107318     
   49797584.2019557     
   49798783.3312498     
   49799747.4024083     
   49800458.7954579     
   49800899.7317517     
   49801052.3424394     
   49679493.1974204     
   49679590.6805166     
   49679879.0375006     
   49680352.5053262     
   49681005.2210050     
   49681831.2420207     
   49682824.5646046     
   49683979.1395588     
   49685288.8853472     
   49686747.6982070     
   49688349.4590804     
   49690088.0372059     
   49691957.2902574     
   49693951.0609669     
   49696063.1702121     
   49698287.4065972     
   49700617.5126025     
   49703047.1674166     
   49705569.9666125     
   49708179.3988644     
   49710868.8199412     
   49713631.4242508     
   49716460.2142434     
   49719347.9680163     
   49722287.2054998     
   49725270.1536319     
   49728288.7109678     
   49731334.4121975     
   49734398.3930764     
   49737471.3563023     
   49740543.5388937     
   49743604.6816493     
   49746644.0012775     
   49749650.1657967     
   49752611.2738027     
   49755514.8381905     
   49758347.7748918     
   49761096.3971553     
   49763746.4158454     
   49766282.9461702     
   49768690.5211693     
   49770953.1121971     
   49773054.1565300     
   49774976.5921044     
   49776702.8992653     
   49778215.1492674     
   49779495.0591359     
   49780524.0523539     
   49781283.3247193     
   49781753.9145891     
   49781916.7766306     
   49652293.4783853     
   49652395.2051356     
   49652696.4486007     
   49653191.6242797     
   49653875.0032959     
   49654740.7344802     
   49655782.8642502     
   49656995.3539654     
   49658372.0944732     
   49659906.9175947     
   49661593.6043431     
   49663425.8897071     
   49665397.4638856     
   49667501.9698989     
   49669732.9975561     
   49672084.0737992     
   49674548.6494965     
   49677120.0827942     
   49679791.6191858     
   49682556.3684943     
   49685407.2790051     
   49688337.1090256     
   49691338.3961855     
   49694403.4248296     
   49697524.1918922     
   49700692.3716781     
   49703899.2800126     
   49707135.8382566     
   49710392.5377172     
   49713659.4050169     
   49716925.9690081     
   49720181.2298486     
   49723413.6308658     
   49726611.0338487     
   49729760.6984064     
   49732849.2660209     
   49735862.7493954     
   49738786.5276637     
   49741605.3479702     
   49744303.3338616     
   49746864.0008427     
   49749270.2793501     
   49751504.5452763     
   49753548.6580504     
   49755384.0061390     
   49756991.5596862     
   49758351.9298599     
   49759445.4343245     
   49760252.1681218     
   49760752.0791077     
   49760925.0469851     
   49622772.1399844     
   49622878.4340531     
   49623193.5869735     
   49623712.2528159     
   49624428.8822391     
   49625337.7469521     
   49626432.9619050     
   49627708.5048908     
   49629158.2332706     
   49630775.8975688     
   49632555.1517286     
   49634489.5598573     
   49636572.5993411     
   49638797.6602500     
   49641158.0410066     
   49643646.9403322     
   49646257.4455354     
   49648982.5172488     
   49651814.9707643     
   49654747.4541598     
   49657772.4234529     
   49660882.1150546     
   49664068.5158419     
   49667323.3312034     
   49670637.9514556     
   49674003.4170668     
   49677410.3831653     
   49680849.0838472     
   49684309.2968382     
   49687780.3090961     
   49691250.8839749     
   49694709.2305967     
   49698142.9760958     
   49701539.1414145     
   49704884.1213257     
   49708163.6693528     
   49711362.8882249     
   49714466.2264722     
   49717457.4817027     
   49720319.8110306     
   49723035.7490341     
   49725587.2335065     
   49727955.6391442     
   49730121.8191714     
   49732066.1547513     
   49733768.6118761     
   49735208.8052645     
   49736366.0686391     
   49737219.5306005     
   49737748.1951778     
   49737931.0260129     
   49590565.1112552     
   49590676.8295207     
   49591008.4783272     
   49591554.9578857     
   49592310.8886028     
   49593270.6390070     
   49594428.3513290     
   49595777.9644204     
   49597313.2337262     
   49599027.7480611     
   49600914.9429772     
   49602968.1105537     
   49605180.4054805     
   49607544.8473571     
   49610054.3191681     
   49612701.5619454     
   49615479.1656721     
   49618379.5565252     
   49621394.9806012     
   49624517.4843087     
   49627738.8916566     
   49631050.7787109     
   49634444.4455317     
   49637910.8859501     
   49641440.7555851     
   49645024.3385445     
   49648651.5132999     
   49652311.7182650     
   49655993.9176516     
   49659686.5682141     
   49663377.5875289     
   49667054.3244873     
   49670703.5326989     
   49674311.3475186     
   49677863.2674140     
   49681344.1403754     
   49684738.1560486     
   49688028.8442263     
   49691199.0802732     
   49694231.0979829     
   49697106.5102634     
   49699806.3379318     
   49702311.0467667     
   49704600.5928114     
   49706654.4757679     
   49708451.8001438     
   49709971.3436449     
   49711191.6321372     
   49712091.0203346     
   49712647.7772211     
   49712840.1750866     
   49555240.8768270     
   49555359.6952034     
   49555712.8208581     
   49556295.3187792     
   49557101.8777975     
   49558126.8435733     
   49559364.2491324     
   49560807.8426430     
   49562451.1121582     
   49564287.3070759     
   49566309.4561088     
   49568510.3815927     
   49570882.7100065     
   49573418.8786169     
   49576111.1382050     
   49578951.5518772     
   49581931.9900052     
   49585044.1213830     
   49588279.4007350     
   49591629.0527501     
   49595084.0528635     
   49598635.1050487     
   49602272.6169320     
   49605986.6725835     
   49609767.0033870     
   49613602.9574389     
   49617483.4679718     
   49621397.0213470     
   49625331.6252031     
   49629274.7773946     
   49633213.4363878     
   49637133.9938198     
   49641022.2499477     
   49644863.3927324     
   49648641.9813065     
   49652341.9345627     
   49655946.5255761     
   49659438.3825272     
   49662799.4967305     
   49666011.2382911     
   49669054.3798046     
   49671909.1283958     
   49674555.1662471     
   49676971.6996080     
   49679137.5161099     
   49681031.0500252     
   49682630.4549299     
   49683913.6830449     
   49684858.5703590     
   49685442.9264767     
   49685644.6279945     
   49516295.1590474     
   49516423.9444278     
   49516807.0029044     
   49517439.3453147     
   49518315.4879201     
   49519429.4927083     
   49520775.0050857     
   49522345.2886622     
   49524133.2568609     
   49526131.5011113     
   49528332.3154241     
   49530727.7171769     
   49533309.4639828     
   49536069.0665525     
   49538997.7975011     
   49542086.6960947     
   49545326.5689732     
   49548707.9869268     
   49552221.2778520     
   49555856.5160509     
   49559603.5080877     
   49563451.7754584     
   49567390.5343791     
   49571408.6730448     
   49575494.7267616     
   49579636.8514035     
   49583822.7956976     
   49588039.8728890     
   49592274.9323879     
   49596514.3320470     
   49600743.9117573     
   49604948.9690886     
   49609114.2377285     
   49613223.8694894     
   49617261.4206612     
   49621209.8434748     
   49625051.4834174     
   49628768.0830937     
   49632340.7932622     
   49635750.1915891     
   49638976.3095536     
   49641998.6678092     
   49644796.3201573     
   49647347.9061213     
   49649631.7119339     
   49651625.7395563     
   49653307.7831602     
   49654655.5123077     
   49655646.5608874     
   49656258.6206915     
   49656469.5383780     
   49473149.7922638     
   49473293.0707444     
   49473719.3520858     
   49474423.1740002     
   49475398.4379929     
   49476638.4600743     
   49478136.0186092     
   49479883.3990179     
   49481872.4350665     
   49484094.5465140     
   49486540.7729159     
   49489201.8034172     
   49492068.0024066     
   49495129.4309391     
   49498375.8638762     
   49501796.8027313     
   49505381.4842521     
   49509118.8848104     
   49512997.7207171     
   49517006.4446204     
   49521133.2381956     
   49525366.0013776     
   49529692.3384384     
   49534099.5412618     
   49538574.5702183     
   49543104.0330954     
   49547674.1625930     
   49552270.7929452     
   49556879.3362805     
   49561484.7593818     
   49566071.5615525     
   49570623.7543305     
   49575124.8438230     
   49579557.8164552     
   49583905.1289281     
   49588148.7031759     
   49592269.9270827     
   49596249.6616746     
   49600068.2554348     
   49603705.5663002     
   49607140.9917862     
   49610353.5075543     
   49613321.7145821     
   49616023.8949236     
   49618438.0758656     
   49620542.1020859     
   49622313.7152234     
   49623730.6400708     
   49624770.6764133     
   49625411.7953611     
   49625632.2388733     
   49425158.3338178     
   49425322.8605714     
   49425812.1417745     
   49426619.5455684     
   49427737.6394663     
   49429158.2555962     
   49430872.5526900     
   49432871.0745352     
   49435143.8046277     
   49437680.2167937     
   49440469.3215811     
   49443499.7082527     
   49446759.5822525     
   49450236.7980503     
   49453918.8873132     
   49457793.0823899     
   49461846.3351369     
   49466065.3311588     
   49470436.4995783     
   49474946.0184965     
   49479579.8163528     
   49484323.5694403     
   49489162.6958830     
   49494082.3464334     
   49499067.3925018     
   49504102.4118810     
   49509171.6726867     
   49514259.1160860     
   49519348.3384383     
   49524422.5735246     
   49529464.6755831     
   49534457.1039089     
   49539381.9098052     
   49544220.7266923     
   49548954.7641870     
   49553564.8069541     
   49558031.2191056     
   49562333.9548761     
   49566452.5762332     
   49570366.2779941     
   49574053.9209022     
   49577494.0729871     
   49580665.0593729     
   49583545.0205257     
   49586111.9787465     
   49588343.9125131     
   49590218.8380764     
   49591714.8975134     
   49592810.4522476     
   49593484.1808733     
   49593715.1799610     
   49371621.6454283     
   49371817.0735425     
   49372397.5571802     
   49373354.2286701     
   49374677.2351985     
   49376355.8239355     
   49378378.4233200     
   49380732.7202001     
   49383405.7325559     
   49386383.8775569     
   49389653.0347472     
   49393198.6041815     
   49397005.5593787     
   49401058.4949981     
   49405341.6691860     
   49409839.0405835     
   49414534.3000334     
   49419410.8970655     
   49424452.0612909     
   49429640.8188805     
   49434960.0043541     
   49440392.2679552     
   49445920.0789379     
   49451525.7251469     
   49457191.3093214     
   49462898.7426108     
   49468629.7358412     
   49474365.7891265     
   49480088.1804677     
   49485777.9540325     
   49491415.9088490     
   49496982.5886864     
   49502458.2739208     
   49507822.9762019     
   49513056.4367439     
   49518138.1290472     
   49523047.2668346     
   49527762.8179342     
   49532263.5247749     
   49536527.9320690     
   49540534.4221449     
   49544261.2582568     
   49547686.6360478     
   49550788.7431670     
   49553545.8268568     
   49555936.2691315     
   49557938.6689657     
   49559531.9307138     
   49560695.3577908     
   49561408.7504691     
   49561652.5064905     
   49311817.3569311     
   49312056.9905670     
   49312767.4864703     
   49313936.1996500     
   49315549.3010784     
   49317591.8894909     
   49320048.0984944     
   49322901.1986284     
   49326133.6940573     
   49329727.4136131     
   49333663.5959430     
   49337922.9685688     
   49342485.8207056     
   49347332.0697420     
   49352441.3213308     
   49357792.9230945     
   49363366.0120003     
   49369139.5555125     
   49375092.3866839     
   49381203.2334015     
   49387450.7420518     
   49393813.4959294     
   49400270.0287595     
   49406798.8337633     
   49413378.3687444     
   49419987.0577274     
   49426603.2897304     
   49433205.4153042     
   49439771.7415137     
   49446280.5260852     
   49452709.9714758     
   49459038.2196573     
   49465243.3484269     
   49471303.3700702     
   49477196.2332052     
   49482899.8286166     
   49488391.9998654     
   49493650.5594057     
   49498653.3108745     
   49503378.0781325     
   49507802.7415223     
   49511905.2816844     
   49515663.8311187     
   49519056.7335171     
   49522062.6107133     
   49524660.4369065     
   49526829.6196236     
   49528550.0866961     
   49529802.3783390     
   49530567.7432542     
   49530828.2375300     
   49245047.6898959     
   49245349.2910750     
   49246241.5520533     
   49247705.9192242     
   49249722.4509810     
   49252269.9646396     
   49255326.1774914     
   49258867.8415219     
   49262870.8713716     
   49267310.4651698     
   49272161.2179290     
   49277397.2272507     
   49282992.1911563     
   49288919.4979278     
   49295152.3079107     
   49301663.6272985     
   49308426.3739909     
   49315413.4356803     
   49322597.7203925     
   49329952.1997635     
   49337449.9454028     
   49345064.1587468     
   49352768.1948646     
   49360535.5807307     
   49368340.0285315     
   49376155.4446190     
   49383955.9347715     
   49391715.8064644     
   49399409.5688896     
   49407011.9314995     
   49414497.8018768     
   49421842.2837570     
   49429020.6760407     
   49436008.4736394     
   49442781.3709929     
   49449315.2690742     
   49455586.2866656     
   49461570.7766405     
   49467245.3479176     
   49472586.8936681     
   49477572.6262556     
   49482180.1192660     
   49486387.3568461     
   49490172.7904184     
   49493515.4026733     
   49496394.7785669     
   49498791.1828764     
   49500685.6436856     
   49502060.0410073     
   49502897.1995877     
   49503180.9847988     
   49170710.4381936     
   49171097.0373054     
   49172238.1043463     
   49174106.3391510     
   49176672.8575201     
   49179907.3836517     
   49183778.4351583     
   49188253.4999890     
   49193299.2046426     
   49198881.4731307     
   49204965.6762429     
   49211516.7707529     
   49218499.4283085     
   49225878.1538448     
   49233617.3934655     
   49241681.6318341     
   49250035.4792171     
   49258643.7484124     
   49267471.5218861     
   49276484.2095205     
   49285647.5974533     
   49294927.8885572     
   49304291.7351679     
   49313706.2647287     
   49323139.0990646     
   49332558.3680443     
   49341932.7184243     
   49351231.3187018     
   49360423.8608264     
   49369480.5596446     
   49378372.1509586     
   49387069.8890953     
   49395545.5448742     
   49403771.4048599     
   49411720.2727637     
   49419365.4738325     
   49426680.8630220     
   49433640.8377017     
   49440220.3555703     
   49446394.9583818     
   49452140.8019892     
   49457434.6931016     
   49462254.1330317     
   49466577.3685732     
   49470383.4500083     
   49473652.2960894     
   49476364.7656902     
   49478502.7356617     
   49480049.1842853     
   49480988.2795680     
   49481305.4715041     
   49088397.8421827     
   49088898.4829005     
   49090372.8388160     
   49092781.2080766     
   49096082.1324214     
   49100232.6479457     
   49105188.5265275     
   49110904.5068536     
   49117334.5140828     
   49124431.8673042     
   49132149.4740819     
   49140440.0115264     
   49149256.0934849     
   49158550.4236000     
   49168275.9341461     
   49178385.9107014     
   49188834.1028649     
   49199574.8213622     
   49210563.0220100     
   49221754.3771263     
   49233105.3350708     
   49244573.1686887     
   49256116.0135039     
   49267692.8965704     
   49279263.7569351     
   49290789.4587053     
   49302231.7977384     
   49313553.5029873     
   49324718.2335439     
   49335690.5724216     
   49346436.0181103     
   49356920.9749242     
   49367112.7431384     
   49376979.5098879     
   49386490.3417637     
   49395615.1800025     
   49404324.8391165     
   49412591.0097555     
   49420386.2665260     
   49427684.0814203     
   49434458.8434263     
   49440685.8847956     
   49446341.5143487     
   49451403.0580861     
   49455848.9072623     
   49459658.5739553     
   49462812.7540439     
   49465293.3973805     
   49467083.7848237     
   49468168.6116793     
   49468534.0769882     
   48998027.5945356     
   48998677.9306243     
   49000589.2210922     
   49003704.7932996     
   49007966.0852673     
   49013312.9711068     
   49019684.0748355     
   49027017.0708605     
   49035248.9695722     
   49044316.3866764     
   49054155.7951109     
   49064703.7586228     
   49075897.1463292     
   49087673.3278344     
   49099970.3487205     
   49112727.0864723     
   49125883.3871204     
   49139380.1830987     
   49153159.5930015     
   49167165.0040906     
   49181341.1385488     
   49195634.1045930     
   49209991.4336566     
   49224362.1049206     
   49238696.5585257     
   49252946.6988258     
   49267065.8890571     
   49281008.9387926     
   49294732.0855381     
   49308192.9717938     
   49321350.6188747     
   49334165.3987323     
   49346599.0049780     
   49358614.4242476     
   49370175.9089953     
   49381248.9527427     
   49391800.2687469     
   49401797.7729930     
   49411210.5723452     
   49420008.9586310     
   49428164.4093611     
   49435649.5957179     
   49442438.3983741     
   49448505.9316252     
   49453828.5762436     
   49458384.0213774     
   49462151.3157371     
   49465110.9282212     
   49467244.8180482     
   49468536.5143695     
   49468971.2052472     
   48900009.4342649     
   48900852.0997818     
   48903324.1862218     
   48907346.4819190     
   48912837.8033607     
   48919715.4175132     
   48927895.4498940     
   48937293.2755789     
   48947823.8905930     
   48959402.2614300     
   48971943.6507994     
   48985363.9180670     
   48999579.7932516     
   49014509.1238345     
   49030071.0940316     
   49046186.4165543     
   49062777.4972397     
   49079768.5732537     
   49097085.8258616     
   49114657.4690112     
   49132413.8151817     
   49150287.3201281     
   49168212.6082732     
   49186126.4805989     
   49203967.9069396     
   49221678.0046086     
   49239200.0052838     
   49256479.2120501     
   49273462.9484493     
   49290100.5013249     
   49306343.0591713     
   49322143.6476168     
   49337457.0635790     
   49352239.8095429     
   49366450.0293261     
   49380047.4466072     
   49392993.3074181     
   49405250.3277269     
   49416782.6471726     
   49427555.7899570     
   49437536.6338451     
   49446693.3881860     
   49454995.5818228     
   49462414.0617273     
   49468921.0031618     
   49474489.9321340     
   49479095.7608774     
   49482714.8370435     
   49485325.0072459     
   49486905.6955347     
   49487437.9973066     
   48795450.2504968     
   48796534.9608887     
   48799712.1570759     
   48804873.4175506     
   48811908.3171872     
   48820704.9796352     
   48831150.6121233     
   48843132.0180928     
   48856536.0834990     
   48871250.2331269     
   48887162.8538281     
   48904163.6821934     
   48922144.1548036     
   48940997.7198316     
   48960620.1093864     
   48980909.5725820     
   49001767.0698603     
   49023096.4295978     
   49044804.4684637     
   49066801.0773746     
   49088999.2752028     
   49111315.2326405     
   49133668.2688025     
   49155980.8232766     
   49178178.4063910     
   49200189.5304909     
   49221945.6249866     
   49243380.9378729     
   49264432.4263318     
   49285039.6389113     
   49305144.5916508     
   49324691.6403803     
   49343627.3512861     
   49361900.3716948     
   49379461.3029020     
   49396262.5767502     
   49412258.3375625     
   49427404.3309498     
   49441657.8009461     
   49454977.3968761     
   49467323.0913333     
   49478656.1106359     
   49488938.8791303     
   49498134.9787278     
   49506209.1250839     
   49513127.1618538     
   49518856.0744777     
   49523364.0249638     
   49526620.4091328     
   49528595.9377603     
   49529262.7430050     
   48686401.1716946     
   48687784.5913014     
   48691831.1215776     
   48698395.1446192     
   48707329.0469771     
   48718483.9558227     
   48731710.4520547     
   48746859.2529998     
   48763781.8581087     
   48782331.1519078     
   48802361.9593957     
   48823731.5500617     
   48846300.0877058     
   48869931.0242350     
   48894491.4365736     
   48919852.3067301     
   48945888.7458980     
   48972480.1642130     
   48999510.3884401     
   49026867.7304098     
   49054445.0094693     
   49082139.5325531     
   49109853.0357214     
   49137491.5911691     
   49164965.4837712     
   49192189.0612331     
   49219080.5618406     
   49245561.9236909     
   49271558.5791258     
   49296999.2378998     
   49321815.6624150     
   49345942.4381352     
   49369316.7420871     
   49391878.1121477     
   49413568.2196379     
   49434330.6475772     
   49454110.6768242     
   49472855.0822244     
   49490511.9408229     
   49507030.4541658     
   49522360.7867187     
   49536453.9224633     
   49549261.5417968     
   49560735.9209408     
   49570829.8561653     
   49579496.6152390     
   49586689.9186131     
   49592363.9529371     
   49596473.4195605     
   49598973.6207030     
   49599820.5859433     
   48576151.8177145     
   48577897.3248155     
   48582996.2356227     
   48591255.9065290     
   48602481.7482883     
   48616478.2357578     
   48633049.8825604     
   48652002.1694398     
   48673142.4163905     
   48696280.5901224     
   48721230.0399650     
   48747808.1569003     
   48775836.9519884     
   48805143.5519730     
   48835560.6113055     
   48866926.6411608     
   48899086.2572253     
   48931890.3490971     
   48965196.1750414     
   48998867.3865833     
   49032773.9880076     
   49066792.2362581     
   49100804.4870157     
   49134698.9928868     
   49168369.6596660     
   49201715.7665704     
   49234641.6561904     
   49267056.3996841     
   49298873.4424694     
   49330010.2353683     
   49360387.8558336     
   49389930.6235640     
   49418565.7144996     
   49446222.7768960     
   49472833.5529138     
   49498331.5089426     
   49522651.4777041     
   49545729.3150626     
   49567501.5744047     
   49587905.2014480     
   49606877.2523827     
   49624354.6383543     
   49640273.8994400     
   49654571.0114527     
   49667181.2291195     
   49678038.9693987     
   49687077.7389239     
   49694230.1097663     
   49699427.7478708     
   49702601.4986368     
   49703681.5341831     
   48469574.7518382     
   48471752.2106023     
   48478103.7586509     
   48488376.8506486     
   48502317.1967828     
   48519670.1898341     
   48540182.2681263     
   48563602.1985334     
   48589682.2661988     
   48618179.3600672     
   48648855.9457917     
   48681480.9200125     
   48715830.3423401     
   48751688.0435786     
   48788846.1107472     
   48827105.2512774     
   48866275.0403580     
   48906174.0567592     
   48946629.9135786     
   48987479.1912354     
   49028567.2806792     
   49069748.1452181     
   49110884.0096007     
   49151844.9850463     
   49192508.6388256     
   49232759.5167687     
   49272488.6267559     
   49311592.8908397     
   49349974.5731942     
   49387540.6905939     
   49424202.4116273     
   49459874.4503607     
   49494474.4597027     
   49527922.4292984     
   49560140.0924174     
   49591050.3459986     
   49620576.6877928     
   49648642.6743982     
   49675171.4039324     
   49700085.0271090     
   49723304.2906065     
   49744748.1168101     
   49764333.2242759     
   49781973.7935953     
   49797581.1837183     
   49811063.7041940     
   49822326.4492116     
   49831271.1997244     
   49837796.4003201     
   49841797.2178121     
   49843165.6886816     
   48373495.3060669     
   48376180.4167727     
   48383998.2127799     
   48396617.9770449     
   48413708.0666603     
   48434937.9559245     
   48459980.1480144     
   48488511.9374566     
   48520217.0091518     
   48554786.8634544     
   48591922.0603966     
   48631333.2794832     
   48672742.1945422     
   48715882.1658807     
   48760498.7544371     
   48806350.0647246     
   48853206.9251255     
   48900852.9155096     
   48949084.2532441     
   48997709.5494325     
   49046549.4477064     
   49095436.1581094     
   49144212.8985980     
   49192733.2564622     
   49240860.4815797     
   49288466.7228893     
   49335432.2188382     
   49381644.4518538     
   49426997.2761406     
   49471390.0273421     
   49514726.6218521     
   49556914.6528371     
   49597864.4893668     
   49637488.3844498     
   49675699.5972614     
   49712411.5344419     
   49747536.9150386     
   49780986.9634874     
   49812670.6349644     
   49842493.8775079     
   49870358.9354988     
   49896163.6993987     
   49919801.1070690     
   49941158.6025171     
   49960117.6585315     
   49976553.3703472     
   49990334.1282131     
   50001321.3774772     
   50009369.4755209     
   50014325.6555851     
   50016030.1083595     
   48296943.7606048     
   48300214.6296323     
   48309712.1843417     
   48325000.2296366     
   48345644.4145514     
   48371215.0687338     
   48401289.7736622     
   48435455.6566998     
   48473311.4019843     
   48514468.9767343     
   48558555.0754493     
   48605212.2879472     
   48654100.0001829     
   48704895.0393247     
   48757292.0766317     
   48811003.8033111     
   48865760.8957657     
   48921311.7874887     
   48977422.2653719     
   49033874.9083729     
   49090468.3863882     
   49147016.6368273     
   49203347.9358180     
   49259303.8802262     
   49314738.2957921     
   49369516.0856855     
   49423512.0327208     
   49476609.5673613     
   49528699.5125222     
   49579678.8150773     
   49629449.2729112     
   49677916.2653531     
   49724987.4939168     
   49770571.7394481     
   49814577.6410836     
   49856912.5018554     
   49897481.1253435     
   49936184.6875064     
   49972919.6476967     
   50007576.7029196     
   50040039.7896040     
   50070185.1375420     
   50097880.3812039     
   50122983.7343485     
   50145343.2347128     
   50164796.0665676     
   50181167.9700484     
   50194272.7474319     
   50203911.8778830     
   50209874.2534824     
   50211936.0501369     
   48250789.8527383     
   48254713.7355115     
   48266061.1304277     
   48284250.5372233     
   48308709.9714123     
   48338880.4896920     
   48374219.2276020     
   48414201.9696229     
   48458325.2730911     
   48506108.1692893     
   48557093.4669542     
   48610848.6846225     
   48666966.6388151     
   48725065.7152438     
   48784789.8501254     
   48845808.2483587     
   48907814.8647982     
   48970527.6741492     
   49033687.7541549     
   49097058.2057461     
   49160422.9327098     
   49223585.3022130     
   49286366.7062114     
   49348605.0424007     
   49410153.1319386     
   49470877.0897118     
   49530654.6614516     
   49589373.5405385     
   49646929.6759002     
   49703225.5810155     
   49758168.6527043     
   49811669.5071302     
   49863640.3392804     
   49913993.3111297     
   49962638.9727597     
   50009484.7198982     
   50054433.2906801     
   50097381.3039274     
   50138217.8409092     
   50176823.0723823     
   50213066.9327516     
   50246807.8434305     
   50277891.4879392     
   50306149.6419775     
   50331399.0626524     
   50353440.4422420     
   50372057.4333173     
   50387015.7536658     
   50398062.3813299     
   50404924.8526947     
   50407310.6804321     
   48245404.9786048     
   48249999.8348046     
   48263208.7038339     
   48284254.7682271     
   48312388.3397913     
   48346890.0769784     
   48387073.4861756     
   48432286.7799552     
   48481914.1638799     
   48535376.6188842     
   48592132.2393666     
   48651676.1804863     
   48713540.2623583     
   48777292.2738039     
   48842535.0138909     
   48908905.1056497     
   48976071.6130083     
   49043734.4891174     
   49111622.8817575     
   49179493.3193590     
   49247127.7992532     
   49314331.7980371     
   49380932.2223316     
   49446775.3166852     
   49511724.5439163     
   49575658.4517517     
   49638468.5382084     
   49700057.1267719     
   49760335.2610387     
   49819220.6271189     
   49876635.5107410     
   49932504.7946646     
   49986754.0007030     
   50039307.3793865     
   50090086.0490694     
   50139006.1851170     
   50185977.2587052     
   50230900.3237488     
   50273666.3495657     
   50314154.5961004     
   50352231.0279055     
   50387746.7626449     
   50420536.5496584     
   50450417.2741688     
   50477186.4830434     
   50500620.9287466     
   50520475.1293713     
   50536479.9445197     
   50548341.1690374     
   50555738.1478138     
   50558322.4153139     
   48283383.6683549     
   48288530.6235003     
   48303206.2843393     
   48326399.5695915     
   48357159.5662484     
   48394595.7656589     
   48437877.5856355     
   48486233.3446623     
   48538948.8189825     
   48595365.4810690     
   48654878.4963374     
   48716934.5384213     
   48781029.4696041     
   48846705.9217184     
   48913550.8039867     
   48981192.7576674     
   49049299.5726773     
   49117575.5781540     
   49185759.0168632     
   49253619.4121077     
   49320954.9351177     
   49387589.7805906     
   49453371.5579431     
   49518168.7058186     
   49581867.9373706     
   49644371.7237409     
   49705595.8229338     
   49765466.8609094     
   49823919.9711754     
   49880896.4984247     
   49936341.7708531     
   49990202.9446900     
   50042426.9232034     
   50092958.3509884     
   50141737.6827443     
   50188699.3239838     
   50233769.8392263     
   50276866.2212139     
   50317894.2125835     
   50356746.6692646     
   50393301.9526990     
   50427422.3358610     
   50458952.4060746     
   50487717.4458655     
   50513521.7715937     
   50536147.0083773     
   50555350.2788047     
   50570862.2824443     
   50582385.2447638     
   50589590.7210110     
   50592117.2473929     
   48342222.8373309     
   48347511.3738917     
   48362434.8791781     
   48385778.9180465     
   48416437.1031594     
   48453403.5707780     
   48495765.6652788     
   48542696.9510361     
   48593450.6104610     
   48647353.2679949     
   48703799.2548444     
   48762245.3053633     
   48822205.6587252     
   48883247.5293192     
   48944986.9046092     
   49007084.6283349     
   49069242.7286282     
   49131200.9539819     
   49192733.4844175     
   49253645.7901958     
   49313771.6156430     
   49372970.0708271     
   49431122.8187079     
   49488131.3498167     
   49543914.3403959     
   49598405.0931693     
   49651549.0624848     
   49703301.4674735     
   49753624.9980997     
   49802487.6195702     
   49849860.4805467     
   49895715.9299883     
   49940025.6462782     
   49982758.8805671     
   50023880.8140345     
   50063351.0260395     
   50101122.0669234     
   50137138.1255669     
   50171333.7777086     
   50203632.7965222     
   50233947.0020536     
   50262175.1208800     
   50288201.6218607     
   50311895.4882900     
   50333108.8814615     
   50351675.6460391     
   50367409.6038572     
   50380102.5787183     
   50389522.0865016     
   50395408.6086159     
   50397472.3719119     
   48341093.9153345     
   48345633.1575212     
   48358281.3064134     
   48377825.2808736     
   48403201.8873114     
   48433478.4622993     
   48467835.9140814     
   48505553.9612298     
   48545998.4429797     
   48588610.5052236     
   48632897.4299614     
   48678424.8744871     
   48724810.3010288     
   48771717.3971773     
   48818851.3082946     
   48865954.5241461     
   48912803.2830361     
   48959204.3774783     
   49004992.2655292     
   49050026.4109014     
   49094188.7924580     
   49137381.5393766     
   49179524.6619883     
   49220553.8600008     
   49260418.3995395     
   49299079.0582966     
   49336506.1442140     
   49372677.5976903     
   49407577.1904626     
   49441192.8361938     
   49473515.0285267     
   49504535.4220184     
   49534245.5700123     
   49562635.8311738     
   49589694.4531311     
   49615406.8374348     
   49639754.9849018     
   49662717.1143637     
   49684267.4409459     
   49704376.0923168     
   49723009.1329197     
   49740128.6570333     
   49755692.9014963     
   49769656.3178559     
   49781969.5312844     
   49792579.1000274     
   49801426.9761750     
   49808449.5613987     
   49813576.2585551     
   49816727.4371693     
   49817811.6492160     
   48091218.2181732     
   48093567.0019101     
   48099999.7966800     
   48109781.7855135     
   48122312.0015457     
   48137094.6641406     
   48153715.9583664     
   48171825.8804284     
   48191124.2201895     
   48211349.8642054     
   48232272.7667659     
   48253688.0521518     
   48275411.7903076     
   48297278.0508310     
   48319136.8976433     
   48340853.0422643     
   48362304.9268830     
   48383384.0579169     
   48403994.4551826     
   48424052.1203832     
   48443484.4611901     
   48462229.6339749     
   48480235.7897581     
   48497460.2248211     
   48513868.4503612     
   48529433.2052179     
   48544133.4426410     
   48557953.3268272     
   48570881.2779208     
   48582909.1056749     
   48594031.2722191     
   48604244.3235087     
   48613546.5270911     
   48621937.7507832     
   48629419.6126406     
   48635995.9270730     
   48641673.4649833     
   48646463.0372560     
   48650380.9007109     
   48653450.4738559     
   48655704.3366339     
   48657186.4743496     
   48657954.7117155     
   48658083.2690029     
   48657665.3583694     
   48656815.7220808     
   48655672.9889856     
   48654401.6801962     
   48653193.6248184     
   48652268.5098093     
   48651873.6182414     
   47246998.1831944     
   47245515.6730433     
   47241392.7912057     
   47235081.5445926     
   47227019.0499293     
   47217608.0839160     
   47207206.5394983     
   47196121.8393569     
   47184609.0178340     
   47172871.7111693     
   47161065.3411589     
   47149301.7947175     
   47137654.9731241     
   47126166.6948203     
   47114852.5571813     
   47103707.4767934     
   47092710.7251709     
   47081830.3549033     
   47071026.9709254     
   47060256.8455405     
   47049474.4070028     
   47038634.1527540     
   47027692.0522531     
   47016606.5127463     
   47005338.9858641     
   46993854.2948068     
   46982120.7619932     
   46970110.2160570     
   46957797.9554533     
   46945162.7439931     
   46932186.9115547     
   46918856.6310927     
   46905162.4408583     
   46891100.0783338     
   46876671.6895332     
   46861887.4736685     
   46846767.8182509     
   46831345.9728441     
   46815671.3001415     
   46799813.1299426     
   46783865.2241474     
   46767950.8386198     
   46752228.3411846     
   46736897.3165312     
   46722205.0641369     
   46708453.3848234     
   46696005.5690510     
   46685293.5516228     
   46676825.2372346     
   46671191.7897355     
   46669073.3666493     
   45303823.9971623     
   45297645.4449622     
   45280922.6838516     
   45255849.9929362     
   45224297.5997173     
   45187844.9818722     
   45147807.0894872     
   45105261.3756377     
   45061076.2494741     
   45015939.6625230     
   44970386.4706654     
   44924823.6345471     
   44879552.7629274     
   44834789.8377910     
   44790682.1774634     
   44747322.8193366     
   44704762.5658368     
   44663019.9592703     
   44622089.4497214     
   44581948.0061878     
   44542560.4013889     
   44503883.3791854     
   44465868.8925373     
   44428466.5805233     
   44391625.6356482     
   44355296.1976143     
   44319430.3968974     
   44283983.1607073     
   44248912.8851309     
   44214182.0702851     
   44179758.0100968     
   44145613.6247716     
   44111728.5221298     
   44078090.3737271     
   44044696.6930771     
   44011557.1062974     
   43978696.2099987     
   43946157.1168850     
   43914005.7956090     
   43882336.3165185     
   43851277.1165218     
   43820998.3901912     
   43791720.6938549     
   43763724.8054825     
   43737362.8043061     
   43713070.2115668     
   43691378.8762809     
   43672930.1650834     
   43658488.1559676     
   43648953.6034510     
   43645383.1632828     
   41705578.6568620     
   41696084.1334184     
   41670581.3132499     
   41632747.5493971     
   41585611.9072725     
   41531613.9034245     
   41472692.0064957     
   41410372.8042839     
   41345850.0425945     
   41280050.8203528     
   41213689.5219400     
   41147311.1919845     
   41081326.2450110     
   41016038.2252134     
   40951666.0466335     
   40888361.8587886     
   40826225.4362896     
   40765315.7921232     
   40705660.5596410     
   40647263.5706005     
   40590110.9679851     
   40534176.1259333     
   40479423.5992916     
   40425812.2877344     
   40373297.9707882     
   40321835.3480427     
   40271379.7015843     
   40221888.2840074     
   40173321.5243885     
   40125644.1357714     
   40078826.2006835     
   40032844.3058258     
   39987682.7934109     
   39943335.1949191     
   39899805.9137812     
   39857112.2275043     
   39815286.6882109     
   39774380.0151681     
   39734464.5959366     
   39695638.7472389     
   39658031.9360520     
   39621811.2293678     
   39587189.3297217     
   39554434.6602846     
   39523884.0724262     
   39495958.8144178     
   39471184.3092687     
   39450213.7845421     
   39433854.3121452     
   39423090.1441239     
   39419089.8365532     
   36089126.6897526     
   36080185.2391712     
   36056861.7702765     
   36022770.2009232     
   35980519.1716550     
   35932063.4218926     
   35878913.8986097     
   35822266.3106596     
   35763082.2536182     
   35702142.4465592     
   35640083.3200300     
   35577423.4542382     
   35514583.6474554     
   35451902.8278159     
   35389651.1156494     
   35328040.8188169     
   35267235.8400763     
   35207359.8008003     
   35148503.0855515     
   35090728.9555685     
   35034078.8475985     
   34978576.9568165     
   34924234.1924279     
   34871051.5882345     
   34819023.2458529     
   34768138.8842110     
   34718386.0647948     
   34669752.1575255     
   34622226.1069599     
   34575800.0526224     
   34530470.8506361     
   34486241.5363464     
   34443122.7592810     
   34401134.2124930     
   34360306.0681131     
   34320680.4199064     
   34282312.7221880     
   34245273.2034489     
   34209648.2242433     
   34175541.5456101     
   34143075.4827212     
   34112391.9497949     
   34083653.4769129     
   34057044.4338542     
   34032772.9964855     
   34011074.9569886     
   33992221.5261876     
   33976535.1951861     
   33964421.2190865     
   33956428.6160858     
   33953365.9386493     
   28581680.6569790     
   28580292.4278598     
   28574869.1629216     
   28564733.7049464     
   28549819.5210578     
   28530409.6567259     
   28506971.0212575     
   28480050.8151470     
   28450213.1540430     
   28418001.6056453     
   28383918.3747966     
   28348414.1150298     
   28311884.4373285     
   28274670.5433549     
   28237062.2964015     
   28199302.6268486     
   28161592.5562780     
   28124096.3832355     
   28086946.7473850     
   28050249.4056270     
   28014087.6321691     
   27978526.2068001     
   27943614.9899621     
   27909392.1052141     
   27875886.7631243     
   27843121.7681169     
   27811115.7531142     
   27779885.1871442     
   27749446.1992236     
   27719816.2582448     
   27691015.7435207     
   27663069.4340985     
   27636007.9367507     
   27609869.0622816     
   27584699.1467758     
   27560554.2976041     
   27537501.5218407     
   27515619.6648707     
   27495000.0458604     
   27475746.6190262     
   27457975.4069540     
   27441812.8315625     
   27427392.3890602     
   27414848.8444257     
   27404308.7054288     
   27395875.0900114     
   27389604.0852429     
   27385468.0899975     
   27383299.0962127     
   27382700.9086624     
   27382913.3655735     
   20000000.0000000     
   20000000.0000000     
   20000000.0000000     
   20000000.0000000     
   20000000.0000000     
   20000000.0000000     
   20000000.0000000     
   20000000.0000000     
   20000000.0000000     
   20000000.0000000     
   20000000.0000000     
   20000000.0000000     
   20000000.0000000     
   20000000.0000000     
   20000000.0000000     
   20000000.0000000     
   20000000.0000000     
   20000000.0000000     
   20000000.0000000     
   20000000.0000000     
   20000000.0000000     
   20000000.0000000     
   20000000.0000000     
   20000000.0000000     
   20000000.0000000     
   20000000.0000000     
   20000000.0000000     
   20000000.0000000     
   20000000.0000000     
   20000000.0000000     
   20000000.0000000     
   20000000.0000000     
   20000000.0000000     
   20000000.0000000     
   20000000.0000000     
   20000000.0000000     
   20000000.0000000     
   20000000.0000000     
   20000000.0000000     
   20000000.0000000     
   20000000.0000000     
   20000000.0000000     
   20000000.0000000     
   20000000.0000000     
   20000000.0000000     
   20000000.0000000     
   20000000.0000000     
   20000000.0000000     
   20000000.0000000     
   20000000.0000000     
   20000000.0000000     
VECTORS u double 
    0.00000E+00         0.40096E+01         0.00000E+00
    0.00000E+00         0.38842E+01         0.00000E+00
    0.00000E+00         0.37600E+01         0.00000E+00
    0.00000E+00         0.36387E+01         0.00000E+00
    0.00000E+00         0.35212E+01         0.00000E+00
    0.00000E+00         0.34082E+01         0.00000E+00
    0.00000E+00         0.33001E+01         0.00000E+00
    0.00000E+00         0.31970E+01         0.00000E+00
    0.00000E+00         0.30986E+01         0.00000E+00
    0.00000E+00         0.30028E+01         0.00000E+00
    0.00000E+00         0.29096E+01         0.00000E+00
    0.00000E+00         0.28188E+01         0.00000E+00
    0.00000E+00         0.27303E+01         0.00000E+00
    0.00000E+00         0.26442E+01         0.00000E+00
    0.00000E+00         0.25601E+01         0.00000E+00
    0.00000E+00         0.24780E+01         0.00000E+00
    0.00000E+00         0.23979E+01         0.00000E+00
    0.00000E+00         0.23195E+01         0.00000E+00
    0.00000E+00         0.22428E+01         0.00000E+00
    0.00000E+00         0.21676E+01         0.00000E+00
    0.00000E+00         0.20939E+01         0.00000E+00
    0.00000E+00         0.20216E+01         0.00000E+00
    0.00000E+00         0.19505E+01         0.00000E+00
    0.00000E+00         0.18807E+01         0.00000E+00
    0.00000E+00         0.18119E+01         0.00000E+00
    0.00000E+00         0.17441E+01         0.00000E+00
    0.00000E+00         0.16772E+01         0.00000E+00
    0.00000E+00         0.16111E+01         0.00000E+00
    0.00000E+00         0.15457E+01         0.00000E+00
    0.00000E+00         0.14810E+01         0.00000E+00
    0.00000E+00         0.14169E+01         0.00000E+00
    0.00000E+00         0.13531E+01         0.00000E+00
    0.00000E+00         0.12898E+01         0.00000E+00
    0.00000E+00         0.12266E+01         0.00000E+00
    0.00000E+00         0.11637E+01         0.00000E+00
    0.00000E+00         0.11007E+01         0.00000E+00
    0.00000E+00         0.10376E+01         0.00000E+00
    0.00000E+00         0.97425E+00         0.00000E+00
    0.00000E+00         0.91050E+00         0.00000E+00
    0.00000E+00         0.84616E+00         0.00000E+00
    0.00000E+00         0.78103E+00         0.00000E+00
    0.00000E+00         0.71488E+00         0.00000E+00
    0.00000E+00         0.64744E+00         0.00000E+00
    0.00000E+00         0.57839E+00         0.00000E+00
    0.00000E+00         0.50735E+00         0.00000E+00
    0.00000E+00         0.43383E+00         0.00000E+00
    0.00000E+00         0.35726E+00         0.00000E+00
    0.00000E+00         0.27684E+00         0.00000E+00
    0.00000E+00         0.19156E+00         0.00000E+00
    0.00000E+00         0.99981E-01         0.00000E+00
    0.00000E+00         0.00000E+00         0.00000E+00
    0.98542E+00         0.35953E+01         0.00000E+00
    0.88702E+00         0.35211E+01         0.00000E+00
    0.80676E+00         0.34426E+01         0.00000E+00
    0.74062E+00         0.33616E+01         0.00000E+00
    0.68604E+00         0.32793E+01         0.00000E+00
    0.64114E+00         0.31966E+01         0.00000E+00
    0.60455E+00         0.31142E+01         0.00000E+00
    0.57532E+00         0.30318E+01         0.00000E+00
    0.55220E+00         0.29493E+01         0.00000E+00
    0.53382E+00         0.28673E+01         0.00000E+00
    0.51894E+00         0.27861E+01         0.00000E+00
    0.50673E+00         0.27058E+01         0.00000E+00
    0.49657E+00         0.26266E+01         0.00000E+00
    0.48801E+00         0.25485E+01         0.00000E+00
    0.48073E+00         0.24717E+01         0.00000E+00
    0.47446E+00         0.23960E+01         0.00000E+00
    0.46899E+00         0.23216E+01         0.00000E+00
    0.46414E+00         0.22483E+01         0.00000E+00
    0.45979E+00         0.21762E+01         0.00000E+00
    0.45582E+00         0.21053E+01         0.00000E+00
    0.45213E+00         0.20353E+01         0.00000E+00
    0.44863E+00         0.19664E+01         0.00000E+00
    0.44524E+00         0.18985E+01         0.00000E+00
    0.44191E+00         0.18314E+01         0.00000E+00
    0.43856E+00         0.17652E+01         0.00000E+00
    0.43514E+00         0.16998E+01         0.00000E+00
    0.43160E+00         0.16351E+01         0.00000E+00
    0.42787E+00         0.15709E+01         0.00000E+00
    0.42390E+00         0.15074E+01         0.00000E+00
    0.41964E+00         0.14443E+01         0.00000E+00
    0.41503E+00         0.13817E+01         0.00000E+00
    0.41000E+00         0.13193E+01         0.00000E+00
    0.40448E+00         0.12572E+01         0.00000E+00
    0.39840E+00         0.11952E+01         0.00000E+00
    0.39168E+00         0.11332E+01         0.00000E+00
    0.38421E+00         0.10712E+01         0.00000E+00
    0.37589E+00         0.10089E+01         0.00000E+00
    0.36659E+00         0.94637E+00         0.00000E+00
    0.35615E+00         0.88333E+00         0.00000E+00
    0.34441E+00         0.81964E+00         0.00000E+00
    0.33114E+00         0.75513E+00         0.00000E+00
    0.31610E+00         0.68960E+00         0.00000E+00
    0.29896E+00         0.62281E+00         0.00000E+00
    0.27933E+00         0.55448E+00         0.00000E+00
    0.25671E+00         0.48432E+00         0.00000E+00
    0.23046E+00         0.41194E+00         0.00000E+00
    0.19973E+00         0.33695E+00         0.00000E+00
    0.16337E+00         0.25883E+00         0.00000E+00
    0.11977E+00         0.17705E+00         0.00000E+00
    0.66542E-01         0.90971E-01         0.00000E+00
    0.00000E+00         0.00000E+00         0.00000E+00
    0.14737E+01         0.30469E+01         0.00000E+00
    0.13669E+01         0.29924E+01         0.00000E+00
    0.12724E+01         0.29386E+01         0.00000E+00
    0.11903E+01         0.28844E+01         0.00000E+00
    0.11194E+01         0.28296E+01         0.00000E+00
    0.10586E+01         0.27738E+01         0.00000E+00
    0.10065E+01         0.27170E+01         0.00000E+00
    0.96192E+00         0.26592E+01         0.00000E+00
    0.92390E+00         0.26007E+01         0.00000E+00
    0.89156E+00         0.25413E+01         0.00000E+00
    0.86407E+00         0.24813E+01         0.00000E+00
    0.84065E+00         0.24207E+01         0.00000E+00
    0.82064E+00         0.23598E+01         0.00000E+00
    0.80344E+00         0.22985E+01         0.00000E+00
    0.78857E+00         0.22372E+01         0.00000E+00
    0.77562E+00         0.21758E+01         0.00000E+00
    0.76423E+00         0.21145E+01         0.00000E+00
    0.75413E+00         0.20533E+01         0.00000E+00
    0.74504E+00         0.19923E+01         0.00000E+00
    0.73677E+00         0.19315E+01         0.00000E+00
    0.72911E+00         0.18711E+01         0.00000E+00
    0.72190E+00         0.18109E+01         0.00000E+00
    0.71499E+00         0.17510E+01         0.00000E+00
    0.70825E+00         0.16913E+01         0.00000E+00
    0.70155E+00         0.16320E+01         0.00000E+00
    0.69478E+00         0.15729E+01         0.00000E+00
    0.68782E+00         0.15140E+01         0.00000E+00
    0.68057E+00         0.14553E+01         0.00000E+00
    0.67291E+00         0.13968E+01         0.00000E+00
    0.66475E+00         0.13384E+01         0.00000E+00
    0.65596E+00         0.12801E+01         0.00000E+00
    0.64643E+00         0.12218E+01         0.00000E+00
    0.63604E+00         0.11634E+01         0.00000E+00
    0.62464E+00         0.11049E+01         0.00000E+00
    0.61209E+00         0.10462E+01         0.00000E+00
    0.59822E+00         0.98728E+00         0.00000E+00
    0.58284E+00         0.92796E+00         0.00000E+00
    0.56575E+00         0.86819E+00         0.00000E+00
    0.54669E+00         0.80786E+00         0.00000E+00
    0.52540E+00         0.74686E+00         0.00000E+00
    0.50155E+00         0.68508E+00         0.00000E+00
    0.47476E+00         0.62238E+00         0.00000E+00
    0.44460E+00         0.55864E+00         0.00000E+00
    0.41055E+00         0.49373E+00         0.00000E+00
    0.37201E+00         0.42751E+00         0.00000E+00
    0.32826E+00         0.35987E+00         0.00000E+00
    0.27848E+00         0.29071E+00         0.00000E+00
    0.22171E+00         0.22000E+00         0.00000E+00
    0.15695E+00         0.14778E+00         0.00000E+00
    0.83224E-01         0.74290E-01         0.00000E+00
    0.00000E+00         0.00000E+00         0.00000E+00
    0.17249E+01         0.24761E+01         0.00000E+00
    0.16202E+01         0.24411E+01         0.00000E+00
    0.15267E+01         0.24059E+01         0.00000E+00
    0.14432E+01         0.23704E+01         0.00000E+00
    0.13686E+01         0.23343E+01         0.00000E+00
    0.13023E+01         0.22975E+01         0.00000E+00
    0.12435E+01         0.22598E+01         0.00000E+00
    0.11915E+01         0.22211E+01         0.00000E+00
    0.11455E+01         0.21814E+01         0.00000E+00
    0.11050E+01         0.21406E+01         0.00000E+00
    0.10693E+01         0.20987E+01         0.00000E+00
    0.10379E+01         0.20559E+01         0.00000E+00
    0.10101E+01         0.20120E+01         0.00000E+00
    0.98565E+00         0.19673E+01         0.00000E+00
    0.96395E+00         0.19218E+01         0.00000E+00
    0.94463E+00         0.18755E+01         0.00000E+00
    0.92733E+00         0.18285E+01         0.00000E+00
    0.91174E+00         0.17809E+01         0.00000E+00
    0.89755E+00         0.17328E+01         0.00000E+00
    0.88452E+00         0.16842E+01         0.00000E+00
    0.87240E+00         0.16352E+01         0.00000E+00
    0.86097E+00         0.15859E+01         0.00000E+00
    0.85005E+00         0.15362E+01         0.00000E+00
    0.83946E+00         0.14862E+01         0.00000E+00
    0.82902E+00         0.14359E+01         0.00000E+00
    0.81857E+00         0.13854E+01         0.00000E+00
    0.80797E+00         0.13346E+01         0.00000E+00
    0.79707E+00         0.12836E+01         0.00000E+00
    0.78572E+00         0.12323E+01         0.00000E+00
    0.77378E+00         0.11808E+01         0.00000E+00
    0.76109E+00         0.11289E+01         0.00000E+00
    0.74751E+00         0.10768E+01         0.00000E+00
    0.73288E+00         0.10243E+01         0.00000E+00
    0.71703E+00         0.97150E+00         0.00000E+00
    0.69977E+00         0.91829E+00         0.00000E+00
    0.68092E+00         0.86466E+00         0.00000E+00
    0.66027E+00         0.81057E+00         0.00000E+00
    0.63758E+00         0.75599E+00         0.00000E+00
    0.61259E+00         0.70087E+00         0.00000E+00
    0.58504E+00         0.64519E+00         0.00000E+00
    0.55460E+00         0.58890E+00         0.00000E+00
    0.52093E+00         0.53200E+00         0.00000E+00
    0.48367E+00         0.47448E+00         0.00000E+00
    0.44238E+00         0.41633E+00         0.00000E+00
    0.39663E+00         0.35760E+00         0.00000E+00
    0.34593E+00         0.29836E+00         0.00000E+00
    0.28977E+00         0.23872E+00         0.00000E+00
    0.22764E+00         0.17884E+00         0.00000E+00
    0.15902E+00         0.11892E+00         0.00000E+00
    0.83378E-01         0.59231E-01         0.00000E+00
    0.00000E+00         0.00000E+00         0.00000E+00
    0.17940E+01         0.19617E+01         0.00000E+00
    0.17032E+01         0.19375E+01         0.00000E+00
    0.16194E+01         0.19139E+01         0.00000E+00
    0.15426E+01         0.18903E+01         0.00000E+00
    0.14723E+01         0.18665E+01         0.00000E+00
    0.14082E+01         0.18422E+01         0.00000E+00
    0.13498E+01         0.18172E+01         0.00000E+00
    0.12967E+01         0.17914E+01         0.00000E+00
    0.12486E+01         0.17648E+01         0.00000E+00
    0.12050E+01         0.17371E+01         0.00000E+00
    0.11656E+01         0.17085E+01         0.00000E+00
    0.11299E+01         0.16787E+01         0.00000E+00
    0.10975E+01         0.16480E+01         0.00000E+00
    0.10682E+01         0.16162E+01         0.00000E+00
    0.10416E+01         0.15834E+01         0.00000E+00
    0.10174E+01         0.15495E+01         0.00000E+00
    0.99520E+00         0.15148E+01         0.00000E+00
    0.97481E+00         0.14791E+01         0.00000E+00
    0.95595E+00         0.14426E+01         0.00000E+00
    0.93838E+00         0.14052E+01         0.00000E+00
    0.92186E+00         0.13671E+01         0.00000E+00
    0.90617E+00         0.13282E+01         0.00000E+00
    0.89113E+00         0.12886E+01         0.00000E+00
    0.87653E+00         0.12484E+01         0.00000E+00
    0.86220E+00         0.12075E+01         0.00000E+00
    0.84796E+00         0.11661E+01         0.00000E+00
    0.83365E+00         0.11240E+01         0.00000E+00
    0.81910E+00         0.10814E+01         0.00000E+00
    0.80416E+00         0.10383E+01         0.00000E+00
    0.78867E+00         0.99468E+00         0.00000E+00
    0.77247E+00         0.95053E+00         0.00000E+00
    0.75540E+00         0.90588E+00         0.00000E+00
    0.73729E+00         0.86074E+00         0.00000E+00
    0.71798E+00         0.81511E+00         0.00000E+00
    0.69730E+00         0.76901E+00         0.00000E+00
    0.67506E+00         0.72245E+00         0.00000E+00
    0.65107E+00         0.67543E+00         0.00000E+00
    0.62512E+00         0.62797E+00         0.00000E+00
    0.59701E+00         0.58010E+00         0.00000E+00
    0.56652E+00         0.53183E+00         0.00000E+00
    0.53340E+00         0.48322E+00         0.00000E+00
    0.49740E+00         0.43431E+00         0.00000E+00
    0.45828E+00         0.38517E+00         0.00000E+00
    0.41577E+00         0.33589E+00         0.00000E+00
    0.36958E+00         0.28658E+00         0.00000E+00
    0.31946E+00         0.23738E+00         0.00000E+00
    0.26511E+00         0.18846E+00         0.00000E+00
    0.20626E+00         0.14000E+00         0.00000E+00
    0.14263E+00         0.92247E-01         0.00000E+00
    0.73947E-01         0.45466E-01         0.00000E+00
    0.00000E+00         0.00000E+00         0.00000E+00
    0.17473E+01         0.15352E+01         0.00000E+00
    0.16733E+01         0.15168E+01         0.00000E+00
    0.16034E+01         0.14990E+01         0.00000E+00
    0.15376E+01         0.14815E+01         0.00000E+00
    0.14759E+01         0.14641E+01         0.00000E+00
    0.14182E+01         0.14466E+01         0.00000E+00
    0.13645E+01         0.14287E+01         0.00000E+00
    0.13145E+01         0.14104E+01         0.00000E+00
    0.12680E+01         0.13915E+01         0.00000E+00
    0.12250E+01         0.13719E+01         0.00000E+00
    0.11851E+01         0.13516E+01         0.00000E+00
    0.11481E+01         0.13304E+01         0.00000E+00
    0.11139E+01         0.13083E+01         0.00000E+00
    0.10822E+01         0.12854E+01         0.00000E+00
    0.10527E+01         0.12615E+01         0.00000E+00
    0.10253E+01         0.12368E+01         0.00000E+00
    0.99977E+00         0.12111E+01         0.00000E+00
    0.97583E+00         0.11845E+01         0.00000E+00
    0.95331E+00         0.11570E+01         0.00000E+00
    0.93202E+00         0.11286E+01         0.00000E+00
    0.91175E+00         0.10994E+01         0.00000E+00
    0.89233E+00         0.10694E+01         0.00000E+00
    0.87358E+00         0.10386E+01         0.00000E+00
    0.85533E+00         0.10070E+01         0.00000E+00
    0.83742E+00         0.97462E+00         0.00000E+00
    0.81969E+00         0.94156E+00         0.00000E+00
    0.80197E+00         0.90781E+00         0.00000E+00
    0.78412E+00         0.87340E+00         0.00000E+00
    0.76599E+00         0.83835E+00         0.00000E+00
    0.74744E+00         0.80269E+00         0.00000E+00
    0.72831E+00         0.76646E+00         0.00000E+00
    0.70847E+00         0.72967E+00         0.00000E+00
    0.68776E+00         0.69237E+00         0.00000E+00
    0.66605E+00         0.65457E+00         0.00000E+00
    0.64318E+00         0.61632E+00         0.00000E+00
    0.61900E+00         0.57766E+00         0.00000E+00
    0.59338E+00         0.53862E+00         0.00000E+00
    0.56615E+00         0.49925E+00         0.00000E+00
    0.53717E+00         0.45962E+00         0.00000E+00
    0.50628E+00         0.41978E+00         0.00000E+00
    0.47332E+00         0.37982E+00         0.00000E+00
    0.43816E+00         0.33981E+00         0.00000E+00
    0.40063E+00         0.29985E+00         0.00000E+00
    0.36059E+00         0.26007E+00         0.00000E+00
    0.31791E+00         0.22058E+00         0.00000E+00
    0.27245E+00         0.18155E+00         0.00000E+00
    0.22409E+00         0.14314E+00         0.00000E+00
    0.17274E+00         0.10555E+00         0.00000E+00
    0.11831E+00         0.68995E-01         0.00000E+00
    0.60739E-01         0.33723E-01         0.00000E+00
    0.00000E+00         0.00000E+00         0.00000E+00
    0.16384E+01         0.11995E+01         0.00000E+00
    0.15804E+01         0.11834E+01         0.00000E+00
    0.15244E+01         0.11679E+01         0.00000E+00
    0.14703E+01         0.11528E+01         0.00000E+00
    0.14185E+01         0.11381E+01         0.00000E+00
    0.13690E+01         0.11234E+01         0.00000E+00
    0.13217E+01         0.11087E+01         0.00000E+00
    0.12769E+01         0.10939E+01         0.00000E+00
    0.12343E+01         0.10789E+01         0.00000E+00
    0.11940E+01         0.10635E+01         0.00000E+00
    0.11558E+01         0.10476E+01         0.00000E+00
    0.11197E+01         0.10313E+01         0.00000E+00
    0.10857E+01         0.10144E+01         0.00000E+00
    0.10534E+01         0.99687E+00         0.00000E+00
    0.10229E+01         0.97870E+00         0.00000E+00
    0.99404E+00         0.95985E+00         0.00000E+00
    0.96659E+00         0.94029E+00         0.00000E+00
    0.94047E+00         0.92002E+00         0.00000E+00
    0.91552E+00         0.89901E+00         0.00000E+00
    0.89161E+00         0.87728E+00         0.00000E+00
    0.86860E+00         0.85482E+00         0.00000E+00
    0.84635E+00         0.83164E+00         0.00000E+00
    0.82472E+00         0.80775E+00         0.00000E+00
    0.80357E+00         0.78317E+00         0.00000E+00
    0.78278E+00         0.75791E+00         0.00000E+00
    0.76222E+00         0.73199E+00         0.00000E+00
    0.74175E+00         0.70544E+00         0.00000E+00
    0.72125E+00         0.67827E+00         0.00000E+00
    0.70061E+00         0.65053E+00         0.00000E+00
    0.67969E+00         0.62223E+00         0.00000E+00
    0.65839E+00         0.59341E+00         0.00000E+00
    0.63658E+00         0.56410E+00         0.00000E+00
    0.61415E+00         0.53435E+00         0.00000E+00
    0.59100E+00         0.50420E+00         0.00000E+00
    0.56700E+00         0.47368E+00         0.00000E+00
    0.54206E+00         0.44286E+00         0.00000E+00
    0.51608E+00         0.41179E+00         0.00000E+00
    0.48894E+00         0.38053E+00         0.00000E+00
    0.46057E+00         0.34914E+00         0.00000E+00
    0.43086E+00         0.31771E+00         0.00000E+00
    0.39973E+00         0.28632E+00         0.00000E+00
    0.36712E+00         0.25505E+00         0.00000E+00
    0.33294E+00         0.22401E+00         0.00000E+00
    0.29715E+00         0.19332E+00         0.00000E+00
    0.25970E+00         0.16309E+00         0.00000E+00
    0.22056E+00         0.13346E+00         0.00000E+00
    0.17973E+00         0.10458E+00         0.00000E+00
    0.13720E+00         0.76611E-01         0.00000E+00
    0.93029E-01         0.49730E-01         0.00000E+00
    0.47263E-01         0.24125E-01         0.00000E+00
    0.00000E+00         0.00000E+00         0.00000E+00
    0.15034E+01         0.94235E+00         0.00000E+00
    0.14589E+01         0.92684E+00         0.00000E+00
    0.14149E+01         0.91189E+00         0.00000E+00
    0.13715E+01         0.89740E+00         0.00000E+00
    0.13290E+01         0.88328E+00         0.00000E+00
    0.12876E+01         0.86945E+00         0.00000E+00
    0.12473E+01         0.85580E+00         0.00000E+00
    0.12082E+01         0.84226E+00         0.00000E+00
    0.11704E+01         0.82874E+00         0.00000E+00
    0.11339E+01         0.81515E+00         0.00000E+00
    0.10988E+01         0.80144E+00         0.00000E+00
    0.10649E+01         0.78752E+00         0.00000E+00
    0.10324E+01         0.77334E+00         0.00000E+00
    0.10010E+01         0.75884E+00         0.00000E+00
    0.97086E+00         0.74399E+00         0.00000E+00
    0.94182E+00         0.72873E+00         0.00000E+00
    0.91383E+00         0.71304E+00         0.00000E+00
    0.88680E+00         0.69690E+00         0.00000E+00
    0.86066E+00         0.68027E+00         0.00000E+00
    0.83531E+00         0.66314E+00         0.00000E+00
    0.81067E+00         0.64550E+00         0.00000E+00
    0.78664E+00         0.62735E+00         0.00000E+00
    0.76313E+00         0.60868E+00         0.00000E+00
    0.74005E+00         0.58950E+00         0.00000E+00
    0.71730E+00         0.56981E+00         0.00000E+00
    0.69480E+00         0.54963E+00         0.00000E+00
    0.67243E+00         0.52897E+00         0.00000E+00
    0.65012E+00         0.50785E+00         0.00000E+00
    0.62778E+00         0.48630E+00         0.00000E+00
    0.60532E+00         0.46433E+00         0.00000E+00
    0.58265E+00         0.44198E+00         0.00000E+00
    0.55970E+00         0.41928E+00         0.00000E+00
    0.53637E+00         0.39627E+00         0.00000E+00
    0.51261E+00         0.37299E+00         0.00000E+00
    0.48833E+00         0.34949E+00         0.00000E+00
    0.46347E+00         0.32582E+00         0.00000E+00
    0.43796E+00         0.30202E+00         0.00000E+00
    0.41177E+00         0.27817E+00         0.00000E+00
    0.38482E+00         0.25432E+00         0.00000E+00
    0.35709E+00         0.23055E+00         0.00000E+00
    0.32854E+00         0.20692E+00         0.00000E+00
    0.29914E+00         0.18353E+00         0.00000E+00
    0.26890E+00         0.16047E+00         0.00000E+00
    0.23780E+00         0.13781E+00         0.00000E+00
    0.20587E+00         0.11567E+00         0.00000E+00
    0.17314E+00         0.94151E-01         0.00000E+00
    0.13966E+00         0.73365E-01         0.00000E+00
    0.10549E+00         0.53431E-01         0.00000E+00
    0.70746E-01         0.34472E-01         0.00000E+00
    0.35533E-01         0.16617E-01         0.00000E+00
    0.00000E+00         0.00000E+00         0.00000E+00
    0.13634E+01         0.74753E+00         0.00000E+00
    0.13294E+01         0.73210E+00         0.00000E+00
    0.12951E+01         0.71713E+00         0.00000E+00
    0.12607E+01         0.70260E+00         0.00000E+00
    0.12263E+01         0.68845E+00         0.00000E+00
    0.11921E+01         0.67466E+00         0.00000E+00
    0.11583E+01         0.66116E+00         0.00000E+00
    0.11249E+01         0.64792E+00         0.00000E+00
    0.10920E+01         0.63486E+00         0.00000E+00
    0.10598E+01         0.62194E+00         0.00000E+00
    0.10282E+01         0.60910E+00         0.00000E+00
    0.99723E+00         0.59629E+00         0.00000E+00
    0.96700E+00         0.58347E+00         0.00000E+00
    0.93748E+00         0.57058E+00         0.00000E+00
    0.90865E+00         0.55759E+00         0.00000E+00
    0.88051E+00         0.54445E+00         0.00000E+00
    0.85304E+00         0.53113E+00         0.00000E+00
    0.82619E+00         0.51761E+00         0.00000E+00
    0.79993E+00         0.50385E+00         0.00000E+00
    0.77423E+00         0.48984E+00         0.00000E+00
    0.74902E+00         0.47556E+00         0.00000E+00
    0.72427E+00         0.46100E+00         0.00000E+00
    0.69991E+00         0.44614E+00         0.00000E+00
    0.67588E+00         0.43099E+00         0.00000E+00
    0.65215E+00         0.41554E+00         0.00000E+00
    0.62863E+00         0.39980E+00         0.00000E+00
    0.60528E+00         0.38377E+00         0.00000E+00
    0.58204E+00         0.36748E+00         0.00000E+00
    0.55885E+00         0.35092E+00         0.00000E+00
    0.53566E+00         0.33413E+00         0.00000E+00
    0.51241E+00         0.31713E+00         0.00000E+00
    0.48906E+00         0.29994E+00         0.00000E+00
    0.46556E+00         0.28259E+00         0.00000E+00
    0.44186E+00         0.26512E+00         0.00000E+00
    0.41793E+00         0.24757E+00         0.00000E+00
    0.39372E+00         0.22998E+00         0.00000E+00
    0.36923E+00         0.21239E+00         0.00000E+00
    0.34441E+00         0.19485E+00         0.00000E+00
    0.31926E+00         0.17742E+00         0.00000E+00
    0.29377E+00         0.16015E+00         0.00000E+00
    0.26795E+00         0.14311E+00         0.00000E+00
    0.24180E+00         0.12635E+00         0.00000E+00
    0.21534E+00         0.10994E+00         0.00000E+00
    0.18862E+00         0.93955E-01         0.00000E+00
    0.16168E+00         0.78460E-01         0.00000E+00
    0.13457E+00         0.63531E-01         0.00000E+00
    0.10739E+00         0.49242E-01         0.00000E+00
    0.80214E-01         0.35669E-01         0.00000E+00
    0.53167E-01         0.22889E-01         0.00000E+00
    0.26377E-01         0.10975E-01         0.00000E+00
    0.00000E+00         0.00000E+00         0.00000E+00
    0.12288E+01         0.60037E+00         0.00000E+00
    0.12029E+01         0.58506E+00         0.00000E+00
    0.11762E+01         0.57012E+00         0.00000E+00
    0.11490E+01         0.55556E+00         0.00000E+00
    0.11213E+01         0.54137E+00         0.00000E+00
    0.10934E+01         0.52754E+00         0.00000E+00
    0.10652E+01         0.51405E+00         0.00000E+00
    0.10370E+01         0.50087E+00         0.00000E+00
    0.10088E+01         0.48798E+00         0.00000E+00
    0.98070E+00         0.47533E+00         0.00000E+00
    0.95276E+00         0.46291E+00         0.00000E+00
    0.92503E+00         0.45067E+00         0.00000E+00
    0.89757E+00         0.43858E+00         0.00000E+00
    0.87040E+00         0.42660E+00         0.00000E+00
    0.84355E+00         0.41472E+00         0.00000E+00
    0.81703E+00         0.40288E+00         0.00000E+00
    0.79085E+00         0.39107E+00         0.00000E+00
    0.76502E+00         0.37926E+00         0.00000E+00
    0.73952E+00         0.36743E+00         0.00000E+00
    0.71435E+00         0.35555E+00         0.00000E+00
    0.68948E+00         0.34362E+00         0.00000E+00
    0.66491E+00         0.33160E+00         0.00000E+00
    0.64061E+00         0.31951E+00         0.00000E+00
    0.61655E+00         0.30731E+00         0.00000E+00
    0.59270E+00         0.29502E+00         0.00000E+00
    0.56905E+00         0.28264E+00         0.00000E+00
    0.54555E+00         0.27015E+00         0.00000E+00
    0.52219E+00         0.25758E+00         0.00000E+00
    0.49893E+00         0.24492E+00         0.00000E+00
    0.47575E+00         0.23220E+00         0.00000E+00
    0.45261E+00         0.21942E+00         0.00000E+00
    0.42951E+00         0.20661E+00         0.00000E+00
    0.40641E+00         0.19379E+00         0.00000E+00
    0.38330E+00         0.18098E+00         0.00000E+00
    0.36017E+00         0.16821E+00         0.00000E+00
    0.33701E+00         0.15552E+00         0.00000E+00
    0.31380E+00         0.14292E+00         0.00000E+00
    0.29057E+00         0.13047E+00         0.00000E+00
    0.26730E+00         0.11820E+00         0.00000E+00
    0.24402E+00         0.10614E+00         0.00000E+00
    0.22075E+00         0.94341E-01         0.00000E+00
    0.19751E+00         0.82843E-01         0.00000E+00
    0.17436E+00         0.71691E-01         0.00000E+00
    0.15132E+00         0.60927E-01         0.00000E+00
    0.12848E+00         0.50597E-01         0.00000E+00
    0.10588E+00         0.40743E-01         0.00000E+00
    0.83621E-01         0.31408E-01         0.00000E+00
    0.61789E-01         0.22632E-01         0.00000E+00
    0.40492E-01         0.14450E-01         0.00000E+00
    0.19851E-01         0.68972E-02         0.00000E+00
    0.00000E+00         0.00000E+00         0.00000E+00
    0.11044E+01         0.48925E+00         0.00000E+00
    0.10846E+01         0.47430E+00         0.00000E+00
    0.10639E+01         0.45966E+00         0.00000E+00
    0.10424E+01         0.44534E+00         0.00000E+00
    0.10202E+01         0.43135E+00         0.00000E+00
    0.99739E+00         0.41769E+00         0.00000E+00
    0.97409E+00         0.40437E+00         0.00000E+00
    0.95039E+00         0.39139E+00         0.00000E+00
    0.92638E+00         0.37872E+00         0.00000E+00
    0.90214E+00         0.36636E+00         0.00000E+00
    0.87773E+00         0.35429E+00         0.00000E+00
    0.85322E+00         0.34249E+00         0.00000E+00
    0.82867E+00         0.33094E+00         0.00000E+00
    0.80411E+00         0.31962E+00         0.00000E+00
    0.77958E+00         0.30851E+00         0.00000E+00
    0.75512E+00         0.29759E+00         0.00000E+00
    0.73076E+00         0.28685E+00         0.00000E+00
    0.70651E+00         0.27625E+00         0.00000E+00
    0.68239E+00         0.26578E+00         0.00000E+00
    0.65842E+00         0.25543E+00         0.00000E+00
    0.63459E+00         0.24518E+00         0.00000E+00
    0.61091E+00         0.23501E+00         0.00000E+00
    0.58739E+00         0.22493E+00         0.00000E+00
    0.56402E+00         0.21492E+00         0.00000E+00
    0.54079E+00         0.20496E+00         0.00000E+00
    0.51771E+00         0.19507E+00         0.00000E+00
    0.49476E+00         0.18524E+00         0.00000E+00
    0.47194E+00         0.17547E+00         0.00000E+00
    0.44924E+00         0.16577E+00         0.00000E+00
    0.42667E+00         0.15613E+00         0.00000E+00
    0.40420E+00         0.14658E+00         0.00000E+00
    0.38185E+00         0.13712E+00         0.00000E+00
    0.35960E+00         0.12776E+00         0.00000E+00
    0.33746E+00         0.11852E+00         0.00000E+00
    0.31544E+00         0.10942E+00         0.00000E+00
    0.29354E+00         0.10048E+00         0.00000E+00
    0.27177E+00         0.91707E-01         0.00000E+00
    0.25015E+00         0.83138E-01         0.00000E+00
    0.22870E+00         0.74789E-01         0.00000E+00
    0.20744E+00         0.66686E-01         0.00000E+00
    0.18641E+00         0.58853E-01         0.00000E+00
    0.16563E+00         0.51313E-01         0.00000E+00
    0.14517E+00         0.44090E-01         0.00000E+00
    0.12506E+00         0.37207E-01         0.00000E+00
    0.10536E+00         0.30685E-01         0.00000E+00
    0.86134E-01         0.24544E-01         0.00000E+00
    0.67461E-01         0.18801E-01         0.00000E+00
    0.49419E-01         0.13468E-01         0.00000E+00
    0.32095E-01         0.85558E-02         0.00000E+00
    0.15587E-01         0.40669E-02         0.00000E+00
    0.00000E+00         0.00000E+00         0.00000E+00
    0.99178E+00         0.40545E+00         0.00000E+00
    0.97674E+00         0.39113E+00         0.00000E+00
    0.96067E+00         0.37706E+00         0.00000E+00
    0.94367E+00         0.36325E+00         0.00000E+00
    0.92584E+00         0.34973E+00         0.00000E+00
    0.90726E+00         0.33652E+00         0.00000E+00
    0.88801E+00         0.32361E+00         0.00000E+00
    0.86819E+00         0.31103E+00         0.00000E+00
    0.84786E+00         0.29878E+00         0.00000E+00
    0.82709E+00         0.28684E+00         0.00000E+00
    0.80596E+00         0.27523E+00         0.00000E+00
    0.78451E+00         0.26392E+00         0.00000E+00
    0.76281E+00         0.25292E+00         0.00000E+00
    0.74091E+00         0.24221E+00         0.00000E+00
    0.71885E+00         0.23179E+00         0.00000E+00
    0.69666E+00         0.22163E+00         0.00000E+00
    0.67439E+00         0.21173E+00         0.00000E+00
    0.65207E+00         0.20208E+00         0.00000E+00
    0.62973E+00         0.19266E+00         0.00000E+00
    0.60738E+00         0.18347E+00         0.00000E+00
    0.58506E+00         0.17449E+00         0.00000E+00
    0.56277E+00         0.16571E+00         0.00000E+00
    0.54054E+00         0.15712E+00         0.00000E+00
    0.51838E+00         0.14872E+00         0.00000E+00
    0.49630E+00         0.14050E+00         0.00000E+00
    0.47431E+00         0.13246E+00         0.00000E+00
    0.45242E+00         0.12458E+00         0.00000E+00
    0.43064E+00         0.11688E+00         0.00000E+00
    0.40898E+00         0.10936E+00         0.00000E+00
    0.38745E+00         0.10200E+00         0.00000E+00
    0.36605E+00         0.94823E-01         0.00000E+00
    0.34480E+00         0.87826E-01         0.00000E+00
    0.32372E+00         0.81016E-01         0.00000E+00
    0.30280E+00         0.74400E-01         0.00000E+00
    0.28207E+00         0.67987E-01         0.00000E+00
    0.26154E+00         0.61786E-01         0.00000E+00
    0.24124E+00         0.55806E-01         0.00000E+00
    0.22119E+00         0.50058E-01         0.00000E+00
    0.20141E+00         0.44552E-01         0.00000E+00
    0.18193E+00         0.39299E-01         0.00000E+00
    0.16278E+00         0.34309E-01         0.00000E+00
    0.14401E+00         0.29592E-01         0.00000E+00
    0.12566E+00         0.25154E-01         0.00000E+00
    0.10776E+00         0.21004E-01         0.00000E+00
    0.90365E-01         0.17146E-01         0.00000E+00
    0.73535E-01         0.13581E-01         0.00000E+00
    0.57325E-01         0.10310E-01         0.00000E+00
    0.41797E-01         0.73273E-02         0.00000E+00
    0.27019E-01         0.46247E-02         0.00000E+00
    0.13062E-01         0.21886E-02         0.00000E+00
    0.00000E+00         0.00000E+00         0.00000E+00
    0.89119E+00         0.34241E+00         0.00000E+00
    0.87976E+00         0.32892E+00         0.00000E+00
    0.86728E+00         0.31563E+00         0.00000E+00
    0.85385E+00         0.30256E+00         0.00000E+00
    0.83953E+00         0.28973E+00         0.00000E+00
    0.82440E+00         0.27717E+00         0.00000E+00
    0.80853E+00         0.26490E+00         0.00000E+00
    0.79198E+00         0.25292E+00         0.00000E+00
    0.77482E+00         0.24125E+00         0.00000E+00
    0.75712E+00         0.22990E+00         0.00000E+00
    0.73892E+00         0.21886E+00         0.00000E+00
    0.72030E+00         0.20815E+00         0.00000E+00
    0.70129E+00         0.19776E+00         0.00000E+00
    0.68195E+00         0.18769E+00         0.00000E+00
    0.66232E+00         0.17793E+00         0.00000E+00
    0.64246E+00         0.16848E+00         0.00000E+00
    0.62238E+00         0.15934E+00         0.00000E+00
    0.60214E+00         0.15049E+00         0.00000E+00
    0.58177E+00         0.14194E+00         0.00000E+00
    0.56129E+00         0.13368E+00         0.00000E+00
    0.54074E+00         0.12569E+00         0.00000E+00
    0.52015E+00         0.11797E+00         0.00000E+00
    0.49952E+00         0.11052E+00         0.00000E+00
    0.47890E+00         0.10333E+00         0.00000E+00
    0.45830E+00         0.96393E-01         0.00000E+00
    0.43774E+00         0.89705E-01         0.00000E+00
    0.41724E+00         0.83263E-01         0.00000E+00
    0.39682E+00         0.77063E-01         0.00000E+00
    0.37650E+00         0.71103E-01         0.00000E+00
    0.35629E+00         0.65382E-01         0.00000E+00
    0.33621E+00         0.59898E-01         0.00000E+00
    0.31629E+00         0.54652E-01         0.00000E+00
    0.29653E+00         0.49643E-01         0.00000E+00
    0.27697E+00         0.44873E-01         0.00000E+00
    0.25762E+00         0.40343E-01         0.00000E+00
    0.23849E+00         0.36055E-01         0.00000E+00
    0.21963E+00         0.32010E-01         0.00000E+00
    0.20104E+00         0.28210E-01         0.00000E+00
    0.18277E+00         0.24656E-01         0.00000E+00
    0.16483E+00         0.21348E-01         0.00000E+00
    0.14725E+00         0.18287E-01         0.00000E+00
    0.13008E+00         0.15471E-01         0.00000E+00
    0.11335E+00         0.12898E-01         0.00000E+00
    0.97081E-01         0.10563E-01         0.00000E+00
    0.81329E-01         0.84599E-02         0.00000E+00
    0.66129E-01         0.65800E-02         0.00000E+00
    0.51526E-01         0.49116E-02         0.00000E+00
    0.37564E-01         0.34399E-02         0.00000E+00
    0.24290E-01         0.21465E-02         0.00000E+00
    0.11752E-01         0.10088E-02         0.00000E+00
    0.00000E+00         0.00000E+00         0.00000E+00
    0.80216E+00         0.29510E+00         0.00000E+00
    0.79347E+00         0.28257E+00         0.00000E+00
    0.78378E+00         0.27019E+00         0.00000E+00
    0.77315E+00         0.25799E+00         0.00000E+00
    0.76163E+00         0.24600E+00         0.00000E+00
    0.74930E+00         0.23424E+00         0.00000E+00
    0.73619E+00         0.22273E+00         0.00000E+00
    0.72239E+00         0.21149E+00         0.00000E+00
    0.70793E+00         0.20054E+00         0.00000E+00
    0.69287E+00         0.18988E+00         0.00000E+00
    0.67727E+00         0.17952E+00         0.00000E+00
    0.66117E+00         0.16948E+00         0.00000E+00
    0.64462E+00         0.15976E+00         0.00000E+00
    0.62767E+00         0.15035E+00         0.00000E+00
    0.61037E+00         0.14127E+00         0.00000E+00
    0.59274E+00         0.13250E+00         0.00000E+00
    0.57483E+00         0.12406E+00         0.00000E+00
    0.55668E+00         0.11594E+00         0.00000E+00
    0.53833E+00         0.10813E+00         0.00000E+00
    0.51980E+00         0.10064E+00         0.00000E+00
    0.50113E+00         0.93460E-01         0.00000E+00
    0.48235E+00         0.86583E-01         0.00000E+00
    0.46348E+00         0.80007E-01         0.00000E+00
    0.44456E+00         0.73729E-01         0.00000E+00
    0.42561E+00         0.67743E-01         0.00000E+00
    0.40666E+00         0.62046E-01         0.00000E+00
    0.38772E+00         0.56632E-01         0.00000E+00
    0.36883E+00         0.51498E-01         0.00000E+00
    0.35000E+00         0.46641E-01         0.00000E+00
    0.33126E+00         0.42056E-01         0.00000E+00
    0.31263E+00         0.37740E-01         0.00000E+00
    0.29413E+00         0.33689E-01         0.00000E+00
    0.27579E+00         0.29900E-01         0.00000E+00
    0.25762E+00         0.26370E-01         0.00000E+00
    0.23965E+00         0.23095E-01         0.00000E+00
    0.22190E+00         0.20072E-01         0.00000E+00
    0.20440E+00         0.17296E-01         0.00000E+00
    0.18716E+00         0.14764E-01         0.00000E+00
    0.17023E+00         0.12470E-01         0.00000E+00
    0.15361E+00         0.10408E-01         0.00000E+00
    0.13734E+00         0.85719E-02         0.00000E+00
    0.12144E+00         0.69532E-02         0.00000E+00
    0.10595E+00         0.55429E-02         0.00000E+00
    0.90885E-01         0.43299E-02         0.00000E+00
    0.76283E-01         0.33016E-02         0.00000E+00
    0.62170E-01         0.24430E-02         0.00000E+00
    0.48577E-01         0.17370E-02         0.00000E+00
    0.35533E-01         0.11638E-02         0.00000E+00
    0.23070E-01         0.70095E-03         0.00000E+00
    0.11216E-01         0.32267E-03         0.00000E+00
    0.00000E+00         0.00000E+00         0.00000E+00
    0.72390E+00         0.25960E+00         0.00000E+00
    0.71727E+00         0.24807E+00         0.00000E+00
    0.70970E+00         0.23667E+00         0.00000E+00
    0.70125E+00         0.22541E+00         0.00000E+00
    0.69195E+00         0.21432E+00         0.00000E+00
    0.68186E+00         0.20344E+00         0.00000E+00
    0.67102E+00         0.19277E+00         0.00000E+00
    0.65948E+00         0.18235E+00         0.00000E+00
    0.64729E+00         0.17217E+00         0.00000E+00
    0.63450E+00         0.16227E+00         0.00000E+00
    0.62114E+00         0.15265E+00         0.00000E+00
    0.60727E+00         0.14332E+00         0.00000E+00
    0.59292E+00         0.13429E+00         0.00000E+00
    0.57813E+00         0.12556E+00         0.00000E+00
    0.56295E+00         0.11714E+00         0.00000E+00
    0.54741E+00         0.10904E+00         0.00000E+00
    0.53155E+00         0.10125E+00         0.00000E+00
    0.51540E+00         0.93787E-01         0.00000E+00
    0.49901E+00         0.86637E-01         0.00000E+00
    0.48239E+00         0.79804E-01         0.00000E+00
    0.46559E+00         0.73286E-01         0.00000E+00
    0.44863E+00         0.67083E-01         0.00000E+00
    0.43155E+00         0.61190E-01         0.00000E+00
    0.41436E+00         0.55606E-01         0.00000E+00
    0.39711E+00         0.50326E-01         0.00000E+00
    0.37981E+00         0.45347E-01         0.00000E+00
    0.36249E+00         0.40664E-01         0.00000E+00
    0.34517E+00         0.36274E-01         0.00000E+00
    0.32788E+00         0.32171E-01         0.00000E+00
    0.31065E+00         0.28351E-01         0.00000E+00
    0.29349E+00         0.24809E-01         0.00000E+00
    0.27643E+00         0.21539E-01         0.00000E+00
    0.25949E+00         0.18536E-01         0.00000E+00
    0.24270E+00         0.15794E-01         0.00000E+00
    0.22607E+00         0.13306E-01         0.00000E+00
    0.20963E+00         0.11066E-01         0.00000E+00
    0.19339E+00         0.90668E-02         0.00000E+00
    0.17739E+00         0.72999E-02         0.00000E+00
    0.16164E+00         0.57567E-02         0.00000E+00
    0.14617E+00         0.44279E-02         0.00000E+00
    0.13099E+00         0.33029E-02         0.00000E+00
    0.11613E+00         0.23701E-02         0.00000E+00
    0.10160E+00         0.16167E-02         0.00000E+00
    0.87439E-01         0.10287E-02         0.00000E+00
    0.73656E-01         0.59023E-03         0.00000E+00
    0.60273E-01         0.28413E-03         0.00000E+00
    0.47310E-01         0.91269E-04         0.00000E+00
    0.34784E-01        -0.93779E-05         0.00000E+00
    0.22714E-01        -0.40897E-04         0.00000E+00
    0.11114E-01        -0.28572E-04         0.00000E+00
    0.00000E+00         0.00000E+00         0.00000E+00
    0.65540E+00         0.23280E+00         0.00000E+00
    0.65029E+00         0.22228E+00         0.00000E+00
    0.64433E+00         0.21186E+00         0.00000E+00
    0.63755E+00         0.20156E+00         0.00000E+00
    0.62998E+00         0.19140E+00         0.00000E+00
    0.62168E+00         0.18141E+00         0.00000E+00
    0.61267E+00         0.17160E+00         0.00000E+00
    0.60300E+00         0.16201E+00         0.00000E+00
    0.59270E+00         0.15264E+00         0.00000E+00
    0.58181E+00         0.14351E+00         0.00000E+00
    0.57037E+00         0.13463E+00         0.00000E+00
    0.55842E+00         0.12602E+00         0.00000E+00
    0.54599E+00         0.11768E+00         0.00000E+00
    0.53313E+00         0.10962E+00         0.00000E+00
    0.51985E+00         0.10185E+00         0.00000E+00
    0.50620E+00         0.94378E-01         0.00000E+00
    0.49222E+00         0.87202E-01         0.00000E+00
    0.47793E+00         0.80327E-01         0.00000E+00
    0.46336E+00         0.73756E-01         0.00000E+00
    0.44855E+00         0.67490E-01         0.00000E+00
    0.43352E+00         0.61529E-01         0.00000E+00
    0.41831E+00         0.55872E-01         0.00000E+00
    0.40293E+00         0.50517E-01         0.00000E+00
    0.38743E+00         0.45464E-01         0.00000E+00
    0.37182E+00         0.40709E-01         0.00000E+00
    0.35614E+00         0.36249E-01         0.00000E+00
    0.34039E+00         0.32080E-01         0.00000E+00
    0.32462E+00         0.28198E-01         0.00000E+00
    0.30884E+00         0.24598E-01         0.00000E+00
    0.29308E+00         0.21276E-01         0.00000E+00
    0.27735E+00         0.18224E-01         0.00000E+00
    0.26168E+00         0.15438E-01         0.00000E+00
    0.24609E+00         0.12910E-01         0.00000E+00
    0.23061E+00         0.10633E-01         0.00000E+00
    0.21524E+00         0.86004E-02         0.00000E+00
    0.20002E+00         0.68028E-02         0.00000E+00
    0.18495E+00         0.52316E-02         0.00000E+00
    0.17007E+00         0.38772E-02         0.00000E+00
    0.15538E+00         0.27293E-02         0.00000E+00
    0.14090E+00         0.17768E-02         0.00000E+00
    0.12666E+00         0.10077E-02         0.00000E+00
    0.11266E+00         0.40900E-03         0.00000E+00
    0.98922E-01        -0.33190E-04         0.00000E+00
    0.85463E-01        -0.33391E-03         0.00000E+00
    0.72295E-01        -0.50933E-03         0.00000E+00
    0.59431E-01        -0.57688E-03         0.00000E+00
    0.46881E-01        -0.55526E-03         0.00000E+00
    0.34655E-01        -0.46454E-03         0.00000E+00
    0.22763E-01        -0.32621E-03         0.00000E+00
    0.11209E-01        -0.16321E-03         0.00000E+00
    0.00000E+00         0.00000E+00         0.00000E+00
    0.59558E+00         0.21228E+00         0.00000E+00
    0.59158E+00         0.20274E+00         0.00000E+00
    0.58681E+00         0.19327E+00         0.00000E+00
    0.58130E+00         0.18389E+00         0.00000E+00
    0.57508E+00         0.17464E+00         0.00000E+00
    0.56818E+00         0.16552E+00         0.00000E+00
    0.56063E+00         0.15657E+00         0.00000E+00
    0.55247E+00         0.14779E+00         0.00000E+00
    0.54373E+00         0.13921E+00         0.00000E+00
    0.53443E+00         0.13084E+00         0.00000E+00
    0.52461E+00         0.12269E+00         0.00000E+00
    0.51430E+00         0.11477E+00         0.00000E+00
    0.50353E+00         0.10710E+00         0.00000E+00
    0.49233E+00         0.99685E-01         0.00000E+00
    0.48073E+00         0.92529E-01         0.00000E+00
    0.46876E+00         0.85641E-01         0.00000E+00
    0.45645E+00         0.79026E-01         0.00000E+00
    0.44383E+00         0.72687E-01         0.00000E+00
    0.43093E+00         0.66630E-01         0.00000E+00
    0.41776E+00         0.60854E-01         0.00000E+00
    0.40437E+00         0.55362E-01         0.00000E+00
    0.39077E+00         0.50155E-01         0.00000E+00
    0.37699E+00         0.45230E-01         0.00000E+00
    0.36306E+00         0.40588E-01         0.00000E+00
    0.34899E+00         0.36227E-01         0.00000E+00
    0.33482E+00         0.32143E-01         0.00000E+00
    0.32057E+00         0.28334E-01         0.00000E+00
    0.30625E+00         0.24796E-01         0.00000E+00
    0.29189E+00         0.21523E-01         0.00000E+00
    0.27751E+00         0.18512E-01         0.00000E+00
    0.26313E+00         0.15756E-01         0.00000E+00
    0.24877E+00         0.13250E-01         0.00000E+00
    0.23445E+00         0.10986E-01         0.00000E+00
    0.22018E+00         0.89562E-02         0.00000E+00
    0.20599E+00         0.71539E-02         0.00000E+00
    0.19189E+00         0.55698E-02         0.00000E+00
    0.17789E+00         0.41949E-02         0.00000E+00
    0.16402E+00         0.30192E-02         0.00000E+00
    0.15028E+00         0.20321E-02         0.00000E+00
    0.13669E+00         0.12223E-02         0.00000E+00
    0.12327E+00         0.57785E-03         0.00000E+00
    0.11002E+00         0.85947E-04         0.00000E+00
    0.96952E-01        -0.26700E-03         0.00000E+00
    0.84083E-01        -0.49539E-03         0.00000E+00
    0.71417E-01        -0.61449E-03         0.00000E+00
    0.58963E-01        -0.64042E-03         0.00000E+00
    0.46725E-01        -0.59019E-03         0.00000E+00
    0.34708E-01        -0.48175E-03         0.00000E+00
    0.22915E-01        -0.33392E-03         0.00000E+00
    0.11346E-01        -0.16646E-03         0.00000E+00
    0.00000E+00         0.00000E+00         0.00000E+00
    0.54337E+00         0.19618E+00         0.00000E+00
    0.54015E+00         0.18755E+00         0.00000E+00
    0.53624E+00         0.17898E+00         0.00000E+00
    0.53168E+00         0.17048E+00         0.00000E+00
    0.52649E+00         0.16208E+00         0.00000E+00
    0.52069E+00         0.15380E+00         0.00000E+00
    0.51430E+00         0.14565E+00         0.00000E+00
    0.50736E+00         0.13765E+00         0.00000E+00
    0.49988E+00         0.12982E+00         0.00000E+00
    0.49189E+00         0.12217E+00         0.00000E+00
    0.48342E+00         0.11471E+00         0.00000E+00
    0.47449E+00         0.10746E+00         0.00000E+00
    0.46513E+00         0.10042E+00         0.00000E+00
    0.45536E+00         0.93601E-01         0.00000E+00
    0.44521E+00         0.87017E-01         0.00000E+00
    0.43471E+00         0.80670E-01         0.00000E+00
    0.42387E+00         0.74568E-01         0.00000E+00
    0.41272E+00         0.68713E-01         0.00000E+00
    0.40129E+00         0.63112E-01         0.00000E+00
    0.38960E+00         0.57765E-01         0.00000E+00
    0.37767E+00         0.52674E-01         0.00000E+00
    0.36553E+00         0.47842E-01         0.00000E+00
    0.35320E+00         0.43268E-01         0.00000E+00
    0.34069E+00         0.38952E-01         0.00000E+00
    0.32804E+00         0.34892E-01         0.00000E+00
    0.31526E+00         0.31086E-01         0.00000E+00
    0.30236E+00         0.27532E-01         0.00000E+00
    0.28938E+00         0.24226E-01         0.00000E+00
    0.27633E+00         0.21164E-01         0.00000E+00
    0.26323E+00         0.18343E-01         0.00000E+00
    0.25009E+00         0.15756E-01         0.00000E+00
    0.23693E+00         0.13397E-01         0.00000E+00
    0.22377E+00         0.11261E-01         0.00000E+00
    0.21063E+00         0.93405E-02         0.00000E+00
    0.19751E+00         0.76276E-02         0.00000E+00
    0.18444E+00         0.61142E-02         0.00000E+00
    0.17142E+00         0.47918E-02         0.00000E+00
    0.15846E+00         0.36508E-02         0.00000E+00
    0.14559E+00         0.26814E-02         0.00000E+00
    0.13281E+00         0.18731E-02         0.00000E+00
    0.12012E+00         0.12147E-02         0.00000E+00
    0.10755E+00         0.69450E-03         0.00000E+00
    0.95087E-01         0.30018E-03         0.00000E+00
    0.82748E-01         0.18780E-04         0.00000E+00
    0.70534E-01        -0.16324E-03         0.00000E+00
    0.58450E-01        -0.26001E-03         0.00000E+00
    0.46498E-01        -0.28627E-03         0.00000E+00
    0.34679E-01        -0.25731E-03         0.00000E+00
    0.22992E-01        -0.18896E-03         0.00000E+00
    0.11433E-01        -0.97577E-04         0.00000E+00
    0.00000E+00         0.00000E+00         0.00000E+00
    0.49771E+00         0.18308E+00         0.00000E+00
    0.49502E+00         0.17530E+00         0.00000E+00
    0.49174E+00         0.16755E+00         0.00000E+00
    0.48788E+00         0.15987E+00         0.00000E+00
    0.48346E+00         0.15226E+00         0.00000E+00
    0.47851E+00         0.14475E+00         0.00000E+00
    0.47304E+00         0.13735E+00         0.00000E+00
    0.46706E+00         0.13008E+00         0.00000E+00
    0.46061E+00         0.12295E+00         0.00000E+00
    0.45369E+00         0.11597E+00         0.00000E+00
    0.44634E+00         0.10916E+00         0.00000E+00
    0.43856E+00         0.10252E+00         0.00000E+00
    0.43038E+00         0.96065E-01         0.00000E+00
    0.42183E+00         0.89806E-01         0.00000E+00
    0.41292E+00         0.83748E-01         0.00000E+00
    0.40366E+00         0.77899E-01         0.00000E+00
    0.39410E+00         0.72263E-01         0.00000E+00
    0.38423E+00         0.66846E-01         0.00000E+00
    0.37409E+00         0.61651E-01         0.00000E+00
    0.36370E+00         0.56682E-01         0.00000E+00
    0.35306E+00         0.51942E-01         0.00000E+00
    0.34221E+00         0.47431E-01         0.00000E+00
    0.33116E+00         0.43150E-01         0.00000E+00
    0.31993E+00         0.39099E-01         0.00000E+00
    0.30854E+00         0.35278E-01         0.00000E+00
    0.29701E+00         0.31686E-01         0.00000E+00
    0.28534E+00         0.28319E-01         0.00000E+00
    0.27357E+00         0.25176E-01         0.00000E+00
    0.26170E+00         0.22253E-01         0.00000E+00
    0.24975E+00         0.19547E-01         0.00000E+00
    0.23774E+00         0.17052E-01         0.00000E+00
    0.22567E+00         0.14764E-01         0.00000E+00
    0.21357E+00         0.12677E-01         0.00000E+00
    0.20145E+00         0.10785E-01         0.00000E+00
    0.18931E+00         0.90814E-02         0.00000E+00
    0.17717E+00         0.75584E-02         0.00000E+00
    0.16505E+00         0.62086E-02         0.00000E+00
    0.15294E+00         0.50236E-02         0.00000E+00
    0.14086E+00         0.39947E-02         0.00000E+00
    0.12882E+00         0.31126E-02         0.00000E+00
    0.11682E+00         0.23675E-02         0.00000E+00
    0.10488E+00         0.17492E-02         0.00000E+00
    0.92983E-01         0.12472E-02         0.00000E+00
    0.81148E-01         0.85014E-03         0.00000E+00
    0.69374E-01         0.54667E-03         0.00000E+00
    0.57663E-01         0.32484E-03         0.00000E+00
    0.46014E-01         0.17238E-03         0.00000E+00
    0.34427E-01         0.76692E-04         0.00000E+00
    0.22899E-01         0.24871E-04         0.00000E+00
    0.11425E-01         0.37617E-05         0.00000E+00
    0.00000E+00         0.00000E+00         0.00000E+00
    0.45764E+00         0.17197E+00         0.00000E+00
    0.45530E+00         0.16495E+00         0.00000E+00
    0.45246E+00         0.15796E+00         0.00000E+00
    0.44911E+00         0.15101E+00         0.00000E+00
    0.44528E+00         0.14413E+00         0.00000E+00
    0.44098E+00         0.13733E+00         0.00000E+00
    0.43622E+00         0.13062E+00         0.00000E+00
    0.43101E+00         0.12401E+00         0.00000E+00
    0.42538E+00         0.11752E+00         0.00000E+00
    0.41934E+00         0.11116E+00         0.00000E+00
    0.41289E+00         0.10494E+00         0.00000E+00
    0.40607E+00         0.98865E-01         0.00000E+00
    0.39888E+00         0.92951E-01         0.00000E+00
    0.39134E+00         0.87202E-01         0.00000E+00
    0.38348E+00         0.81627E-01         0.00000E+00
    0.37529E+00         0.76232E-01         0.00000E+00
    0.36681E+00         0.71021E-01         0.00000E+00
    0.35805E+00         0.66000E-01         0.00000E+00
    0.34903E+00         0.61173E-01         0.00000E+00
    0.33975E+00         0.56543E-01         0.00000E+00
    0.33025E+00         0.52112E-01         0.00000E+00
    0.32052E+00         0.47883E-01         0.00000E+00
    0.31060E+00         0.43856E-01         0.00000E+00
    0.30050E+00         0.40032E-01         0.00000E+00
    0.29022E+00         0.36411E-01         0.00000E+00
    0.27979E+00         0.32992E-01         0.00000E+00
    0.26921E+00         0.29773E-01         0.00000E+00
    0.25852E+00         0.26753E-01         0.00000E+00
    0.24770E+00         0.23929E-01         0.00000E+00
    0.23679E+00         0.21297E-01         0.00000E+00
    0.22579E+00         0.18855E-01         0.00000E+00
    0.21471E+00         0.16598E-01         0.00000E+00
    0.20356E+00         0.14521E-01         0.00000E+00
    0.19236E+00         0.12619E-01         0.00000E+00
    0.18112E+00         0.10886E-01         0.00000E+00
    0.16984E+00         0.93171E-02         0.00000E+00
    0.15853E+00         0.79046E-02         0.00000E+00
    0.14720E+00         0.66417E-02         0.00000E+00
    0.13586E+00         0.55211E-02         0.00000E+00
    0.12452E+00         0.45350E-02         0.00000E+00
    0.11317E+00         0.36751E-02         0.00000E+00
    0.10182E+00         0.29330E-02         0.00000E+00
    0.90478E-01         0.22997E-02         0.00000E+00
    0.79144E-01         0.17661E-02         0.00000E+00
    0.67820E-01         0.13227E-02         0.00000E+00
    0.56505E-01         0.95981E-03         0.00000E+00
    0.45199E-01         0.66750E-03         0.00000E+00
    0.33899E-01         0.43565E-03         0.00000E+00
    0.22603E-01         0.25402E-03         0.00000E+00
    0.11305E-01         0.11227E-03         0.00000E+00
    0.00000E+00         0.00000E+00         0.00000E+00
    0.42228E+00         0.16212E+00         0.00000E+00
    0.42018E+00         0.15578E+00         0.00000E+00
    0.41764E+00         0.14947E+00         0.00000E+00
    0.41467E+00         0.14319E+00         0.00000E+00
    0.41128E+00         0.13696E+00         0.00000E+00
    0.40747E+00         0.13080E+00         0.00000E+00
    0.40327E+00         0.12471E+00         0.00000E+00
    0.39867E+00         0.11870E+00         0.00000E+00
    0.39370E+00         0.11280E+00         0.00000E+00
    0.38836E+00         0.10700E+00         0.00000E+00
    0.38266E+00         0.10132E+00         0.00000E+00
    0.37662E+00         0.95763E-01         0.00000E+00
    0.37025E+00         0.90340E-01         0.00000E+00
    0.36356E+00         0.85059E-01         0.00000E+00
    0.35657E+00         0.79925E-01         0.00000E+00
    0.34929E+00         0.74944E-01         0.00000E+00
    0.34173E+00         0.70121E-01         0.00000E+00
    0.33391E+00         0.65462E-01         0.00000E+00
    0.32584E+00         0.60969E-01         0.00000E+00
    0.31753E+00         0.56647E-01         0.00000E+00
    0.30900E+00         0.52497E-01         0.00000E+00
    0.30025E+00         0.48522E-01         0.00000E+00
    0.29131E+00         0.44723E-01         0.00000E+00
    0.28218E+00         0.41101E-01         0.00000E+00
    0.27288E+00         0.37657E-01         0.00000E+00
    0.26342E+00         0.34389E-01         0.00000E+00
    0.25381E+00         0.31298E-01         0.00000E+00
    0.24406E+00         0.28382E-01         0.00000E+00
    0.23419E+00         0.25638E-01         0.00000E+00
    0.22420E+00         0.23066E-01         0.00000E+00
    0.21410E+00         0.20661E-01         0.00000E+00
    0.20390E+00         0.18420E-01         0.00000E+00
    0.19362E+00         0.16341E-01         0.00000E+00
    0.18326E+00         0.14418E-01         0.00000E+00
    0.17283E+00         0.12647E-01         0.00000E+00
    0.16233E+00         0.11024E-01         0.00000E+00
    0.15178E+00         0.95423E-02         0.00000E+00
    0.14117E+00         0.81968E-02         0.00000E+00
    0.13052E+00         0.69815E-02         0.00000E+00
    0.11983E+00         0.58900E-02         0.00000E+00
    0.10910E+00         0.49157E-02         0.00000E+00
    0.98333E-01         0.40516E-02         0.00000E+00
    0.87537E-01         0.32907E-02         0.00000E+00
    0.76710E-01         0.26255E-02         0.00000E+00
    0.65854E-01         0.20486E-02         0.00000E+00
    0.54966E-01         0.15521E-02         0.00000E+00
    0.44048E-01         0.11282E-02         0.00000E+00
    0.33096E-01         0.76902E-03         0.00000E+00
    0.22106E-01         0.46659E-03         0.00000E+00
    0.11076E-01         0.21289E-03         0.00000E+00
    0.00000E+00         0.00000E+00         0.00000E+00
    0.39090E+00         0.15304E+00         0.00000E+00
    0.38895E+00         0.14731E+00         0.00000E+00
    0.38662E+00         0.14160E+00         0.00000E+00
    0.38392E+00         0.13592E+00         0.00000E+00
    0.38086E+00         0.13028E+00         0.00000E+00
    0.37744E+00         0.12469E+00         0.00000E+00
    0.37367E+00         0.11916E+00         0.00000E+00
    0.36956E+00         0.11370E+00         0.00000E+00
    0.36511E+00         0.10832E+00         0.00000E+00
    0.36034E+00         0.10303E+00         0.00000E+00
    0.35525E+00         0.97837E-01         0.00000E+00
    0.34985E+00         0.92750E-01         0.00000E+00
    0.34416E+00         0.87776E-01         0.00000E+00
    0.33818E+00         0.82920E-01         0.00000E+00
    0.33192E+00         0.78188E-01         0.00000E+00
    0.32540E+00         0.73587E-01         0.00000E+00
    0.31862E+00         0.69120E-01         0.00000E+00
    0.31159E+00         0.64793E-01         0.00000E+00
    0.30433E+00         0.60608E-01         0.00000E+00
    0.29685E+00         0.56569E-01         0.00000E+00
    0.28915E+00         0.52678E-01         0.00000E+00
    0.28125E+00         0.48939E-01         0.00000E+00
    0.27315E+00         0.45351E-01         0.00000E+00
    0.26487E+00         0.41918E-01         0.00000E+00
    0.25643E+00         0.38638E-01         0.00000E+00
    0.24781E+00         0.35513E-01         0.00000E+00
    0.23905E+00         0.32541E-01         0.00000E+00
    0.23014E+00         0.29723E-01         0.00000E+00
    0.22109E+00         0.27057E-01         0.00000E+00
    0.21192E+00         0.24542E-01         0.00000E+00
    0.20262E+00         0.22175E-01         0.00000E+00
    0.19322E+00         0.19954E-01         0.00000E+00
    0.18372E+00         0.17876E-01         0.00000E+00
    0.17411E+00         0.15939E-01         0.00000E+00
    0.16442E+00         0.14138E-01         0.00000E+00
    0.15464E+00         0.12470E-01         0.00000E+00
    0.14478E+00         0.10930E-01         0.00000E+00
    0.13485E+00         0.95152E-02         0.00000E+00
    0.12485E+00         0.82195E-02         0.00000E+00
    0.11478E+00         0.70383E-02         0.00000E+00
    0.10464E+00         0.59664E-02         0.00000E+00
    0.94451E-01         0.49985E-02         0.00000E+00
    0.84198E-01         0.41289E-02         0.00000E+00
    0.73886E-01         0.33518E-02         0.00000E+00
    0.63515E-01         0.26614E-02         0.00000E+00
    0.53087E-01         0.20517E-02         0.00000E+00
    0.42598E-01         0.15165E-02         0.00000E+00
    0.32048E-01         0.10499E-02         0.00000E+00
    0.21434E-01         0.64563E-03         0.00000E+00
    0.10753E-01         0.29767E-03         0.00000E+00
    0.00000E+00         0.00000E+00         0.00000E+00
    0.36286E+00         0.14443E+00         0.00000E+00
    0.36101E+00         0.13924E+00         0.00000E+00
    0.35883E+00         0.13407E+00         0.00000E+00
    0.35634E+00         0.12891E+00         0.00000E+00
    0.35353E+00         0.12379E+00         0.00000E+00
    0.35040E+00         0.11871E+00         0.00000E+00
    0.34698E+00         0.11368E+00         0.00000E+00
    0.34325E+00         0.10871E+00         0.00000E+00
    0.33922E+00         0.10381E+00         0.00000E+00
    0.33491E+00         0.98978E-01         0.00000E+00
    0.33032E+00         0.94228E-01         0.00000E+00
    0.32545E+00         0.89567E-01         0.00000E+00
    0.32032E+00         0.84999E-01         0.00000E+00
    0.31492E+00         0.80531E-01         0.00000E+00
    0.30928E+00         0.76168E-01         0.00000E+00
    0.30339E+00         0.71915E-01         0.00000E+00
    0.29726E+00         0.67776E-01         0.00000E+00
    0.29091E+00         0.63755E-01         0.00000E+00
    0.28434E+00         0.59856E-01         0.00000E+00
    0.27756E+00         0.56082E-01         0.00000E+00
    0.27058E+00         0.52435E-01         0.00000E+00
    0.26340E+00         0.48918E-01         0.00000E+00
    0.25604E+00         0.45532E-01         0.00000E+00
    0.24850E+00         0.42278E-01         0.00000E+00
    0.24079E+00         0.39159E-01         0.00000E+00
    0.23291E+00         0.36173E-01         0.00000E+00
    0.22489E+00         0.33322E-01         0.00000E+00
    0.21671E+00         0.30605E-01         0.00000E+00
    0.20840E+00         0.28022E-01         0.00000E+00
    0.19995E+00         0.25571E-01         0.00000E+00
    0.19138E+00         0.23252E-01         0.00000E+00
    0.18269E+00         0.21062E-01         0.00000E+00
    0.17388E+00         0.19000E-01         0.00000E+00
    0.16496E+00         0.17063E-01         0.00000E+00
    0.15595E+00         0.15249E-01         0.00000E+00
    0.14683E+00         0.13555E-01         0.00000E+00
    0.13761E+00         0.11979E-01         0.00000E+00
    0.12831E+00         0.10516E-01         0.00000E+00
    0.11892E+00         0.91627E-02         0.00000E+00
    0.10945E+00         0.79161E-02         0.00000E+00
    0.99890E-01         0.67719E-02         0.00000E+00
    0.90254E-01         0.57259E-02         0.00000E+00
    0.80539E-01         0.47740E-02         0.00000E+00
    0.70748E-01         0.39116E-02         0.00000E+00
    0.60879E-01         0.31343E-02         0.00000E+00
    0.50933E-01         0.24376E-02         0.00000E+00
    0.40909E-01         0.18167E-02         0.00000E+00
    0.30806E-01         0.12672E-02         0.00000E+00
    0.20622E-01         0.78421E-03         0.00000E+00
    0.10354E-01         0.36333E-03         0.00000E+00
    0.00000E+00         0.00000E+00         0.00000E+00
    0.33763E+00         0.13610E+00         0.00000E+00
    0.33585E+00         0.13139E+00         0.00000E+00
    0.33379E+00         0.12669E+00         0.00000E+00
    0.33145E+00         0.12201E+00         0.00000E+00
    0.32883E+00         0.11735E+00         0.00000E+00
    0.32595E+00         0.11273E+00         0.00000E+00
    0.32279E+00         0.10814E+00         0.00000E+00
    0.31937E+00         0.10361E+00         0.00000E+00
    0.31569E+00         0.99133E-01         0.00000E+00
    0.31176E+00         0.94716E-01         0.00000E+00
    0.30758E+00         0.90367E-01         0.00000E+00
    0.30315E+00         0.86091E-01         0.00000E+00
    0.29848E+00         0.81893E-01         0.00000E+00
    0.29357E+00         0.77780E-01         0.00000E+00
    0.28844E+00         0.73754E-01         0.00000E+00
    0.28308E+00         0.69822E-01         0.00000E+00
    0.27751E+00         0.65986E-01         0.00000E+00
    0.27173E+00         0.62251E-01         0.00000E+00
    0.26575E+00         0.58620E-01         0.00000E+00
    0.25957E+00         0.55095E-01         0.00000E+00
    0.25320E+00         0.51679E-01         0.00000E+00
    0.24664E+00         0.48375E-01         0.00000E+00
    0.23991E+00         0.45184E-01         0.00000E+00
    0.23301E+00         0.42107E-01         0.00000E+00
    0.22594E+00         0.39147E-01         0.00000E+00
    0.21872E+00         0.36303E-01         0.00000E+00
    0.21134E+00         0.33577E-01         0.00000E+00
    0.20381E+00         0.30968E-01         0.00000E+00
    0.19615E+00         0.28477E-01         0.00000E+00
    0.18835E+00         0.26102E-01         0.00000E+00
    0.18042E+00         0.23844E-01         0.00000E+00
    0.17236E+00         0.21701E-01         0.00000E+00
    0.16418E+00         0.19672E-01         0.00000E+00
    0.15589E+00         0.17756E-01         0.00000E+00
    0.14749E+00         0.15950E-01         0.00000E+00
    0.13898E+00         0.14254E-01         0.00000E+00
    0.13037E+00         0.12664E-01         0.00000E+00
    0.12165E+00         0.11178E-01         0.00000E+00
    0.11284E+00         0.97944E-02         0.00000E+00
    0.10393E+00         0.85096E-02         0.00000E+00
    0.94932E-01         0.73208E-02         0.00000E+00
    0.85840E-01         0.62250E-02         0.00000E+00
    0.76659E-01         0.52191E-02         0.00000E+00
    0.67388E-01         0.42998E-02         0.00000E+00
    0.58029E-01         0.34636E-02         0.00000E+00
    0.48582E-01         0.27072E-02         0.00000E+00
    0.39047E-01         0.20270E-02         0.00000E+00
    0.29422E-01         0.14197E-02         0.00000E+00
    0.19707E-01         0.88174E-03         0.00000E+00
    0.99002E-02         0.40962E-03         0.00000E+00
    0.00000E+00         0.00000E+00         0.00000E+00
    0.31480E+00         0.12796E+00         0.00000E+00
    0.31307E+00         0.12367E+00         0.00000E+00
    0.31109E+00         0.11939E+00         0.00000E+00
    0.30888E+00         0.11513E+00         0.00000E+00
    0.30642E+00         0.11089E+00         0.00000E+00
    0.30373E+00         0.10667E+00         0.00000E+00
    0.30079E+00         0.10249E+00         0.00000E+00
    0.29763E+00         0.98348E-01         0.00000E+00
    0.29424E+00         0.94253E-01         0.00000E+00
    0.29062E+00         0.90209E-01         0.00000E+00
    0.28677E+00         0.86221E-01         0.00000E+00
    0.28270E+00         0.82295E-01         0.00000E+00
    0.27842E+00         0.78435E-01         0.00000E+00
    0.27393E+00         0.74646E-01         0.00000E+00
    0.26923E+00         0.70931E-01         0.00000E+00
    0.26433E+00         0.67295E-01         0.00000E+00
    0.25923E+00         0.63742E-01         0.00000E+00
    0.25393E+00         0.60274E-01         0.00000E+00
    0.24845E+00         0.56894E-01         0.00000E+00
    0.24278E+00         0.53606E-01         0.00000E+00
    0.23694E+00         0.50412E-01         0.00000E+00
    0.23092E+00         0.47313E-01         0.00000E+00
    0.22473E+00         0.44313E-01         0.00000E+00
    0.21839E+00         0.41411E-01         0.00000E+00
    0.21188E+00         0.38611E-01         0.00000E+00
    0.20522E+00         0.35913E-01         0.00000E+00
    0.19841E+00         0.33317E-01         0.00000E+00
    0.19146E+00         0.30824E-01         0.00000E+00
    0.18437E+00         0.28435E-01         0.00000E+00
    0.17714E+00         0.26149E-01         0.00000E+00
    0.16979E+00         0.23967E-01         0.00000E+00
    0.16231E+00         0.21887E-01         0.00000E+00
    0.15470E+00         0.19910E-01         0.00000E+00
    0.14698E+00         0.18034E-01         0.00000E+00
    0.13915E+00         0.16259E-01         0.00000E+00
    0.13120E+00         0.14582E-01         0.00000E+00
    0.12314E+00         0.13003E-01         0.00000E+00
    0.11498E+00         0.11520E-01         0.00000E+00
    0.10671E+00         0.10132E-01         0.00000E+00
    0.98344E-01         0.88350E-02         0.00000E+00
    0.89877E-01         0.76286E-02         0.00000E+00
    0.81314E-01         0.65102E-02         0.00000E+00
    0.72655E-01         0.54774E-02         0.00000E+00
    0.63900E-01         0.45280E-02         0.00000E+00
    0.55052E-01         0.36593E-02         0.00000E+00
    0.46111E-01         0.28689E-02         0.00000E+00
    0.37076E-01         0.21542E-02         0.00000E+00
    0.27948E-01         0.15126E-02         0.00000E+00
    0.18726E-01         0.94137E-03         0.00000E+00
    0.94107E-02         0.43804E-03         0.00000E+00
    0.00000E+00         0.00000E+00         0.00000E+00
    0.29401E+00         0.11998E+00         0.00000E+00
    0.29233E+00         0.11607E+00         0.00000E+00
    0.29043E+00         0.11216E+00         0.00000E+00
    0.28832E+00         0.10827E+00         0.00000E+00
    0.28599E+00         0.10440E+00         0.00000E+00
    0.28346E+00         0.10054E+00         0.00000E+00
    0.28072E+00         0.96722E-01         0.00000E+00
    0.27777E+00         0.92934E-01         0.00000E+00
    0.27461E+00         0.89184E-01         0.00000E+00
    0.27125E+00         0.85477E-01         0.00000E+00
    0.26769E+00         0.81818E-01         0.00000E+00
    0.26393E+00         0.78210E-01         0.00000E+00
    0.25998E+00         0.74659E-01         0.00000E+00
    0.25584E+00         0.71168E-01         0.00000E+00
    0.25150E+00         0.67740E-01         0.00000E+00
    0.24699E+00         0.64379E-01         0.00000E+00
    0.24229E+00         0.61088E-01         0.00000E+00
    0.23741E+00         0.57871E-01         0.00000E+00
    0.23235E+00         0.54730E-01         0.00000E+00
    0.22713E+00         0.51667E-01         0.00000E+00
    0.22174E+00         0.48685E-01         0.00000E+00
    0.21619E+00         0.45786E-01         0.00000E+00
    0.21048E+00         0.42973E-01         0.00000E+00
    0.20462E+00         0.40246E-01         0.00000E+00
    0.19860E+00         0.37606E-01         0.00000E+00
    0.19244E+00         0.35057E-01         0.00000E+00
    0.18614E+00         0.32597E-01         0.00000E+00
    0.17969E+00         0.30228E-01         0.00000E+00
    0.17311E+00         0.27951E-01         0.00000E+00
    0.16640E+00         0.25766E-01         0.00000E+00
    0.15957E+00         0.23673E-01         0.00000E+00
    0.15260E+00         0.21673E-01         0.00000E+00
    0.14552E+00         0.19764E-01         0.00000E+00
    0.13832E+00         0.17947E-01         0.00000E+00
    0.13100E+00         0.16221E-01         0.00000E+00
    0.12357E+00         0.14585E-01         0.00000E+00
    0.11603E+00         0.13038E-01         0.00000E+00
    0.10838E+00         0.11581E-01         0.00000E+00
    0.10063E+00         0.10210E-01         0.00000E+00
    0.92779E-01         0.89254E-02         0.00000E+00
    0.84824E-01         0.77254E-02         0.00000E+00
    0.76770E-01         0.66084E-02         0.00000E+00
    0.68618E-01         0.55728E-02         0.00000E+00
    0.60369E-01         0.46169E-02         0.00000E+00
    0.52026E-01         0.37390E-02         0.00000E+00
    0.43588E-01         0.29371E-02         0.00000E+00
    0.35056E-01         0.22093E-02         0.00000E+00
    0.26431E-01         0.15537E-02         0.00000E+00
    0.17713E-01         0.96823E-03         0.00000E+00
    0.89031E-02         0.45101E-03         0.00000E+00
    0.00000E+00         0.00000E+00         0.00000E+00
    0.27501E+00         0.11215E+00         0.00000E+00
    0.27337E+00         0.10858E+00         0.00000E+00
    0.27153E+00         0.10501E+00         0.00000E+00
    0.26952E+00         0.10145E+00         0.00000E+00
    0.26731E+00         0.97906E-01         0.00000E+00
    0.26492E+00         0.94383E-01         0.00000E+00
    0.26233E+00         0.90884E-01         0.00000E+00
    0.25957E+00         0.87414E-01         0.00000E+00
    0.25662E+00         0.83976E-01         0.00000E+00
    0.25348E+00         0.80575E-01         0.00000E+00
    0.25017E+00         0.77215E-01         0.00000E+00
    0.24667E+00         0.73899E-01         0.00000E+00
    0.24300E+00         0.70631E-01         0.00000E+00
    0.23916E+00         0.67414E-01         0.00000E+00
    0.23514E+00         0.64251E-01         0.00000E+00
    0.23095E+00         0.61146E-01         0.00000E+00
    0.22660E+00         0.58102E-01         0.00000E+00
    0.22208E+00         0.55120E-01         0.00000E+00
    0.21740E+00         0.52205E-01         0.00000E+00
    0.21256E+00         0.49357E-01         0.00000E+00
    0.20757E+00         0.46580E-01         0.00000E+00
    0.20242E+00         0.43875E-01         0.00000E+00
    0.19713E+00         0.41245E-01         0.00000E+00
    0.19169E+00         0.38690E-01         0.00000E+00
    0.18611E+00         0.36213E-01         0.00000E+00
    0.18039E+00         0.33814E-01         0.00000E+00
    0.17453E+00         0.31495E-01         0.00000E+00
    0.16854E+00         0.29256E-01         0.00000E+00
    0.16242E+00         0.27100E-01         0.00000E+00
    0.15617E+00         0.25025E-01         0.00000E+00
    0.14980E+00         0.23033E-01         0.00000E+00
    0.14331E+00         0.21124E-01         0.00000E+00
    0.13670E+00         0.19297E-01         0.00000E+00
    0.12997E+00         0.17554E-01         0.00000E+00
    0.12313E+00         0.15894E-01         0.00000E+00
    0.11618E+00         0.14316E-01         0.00000E+00
    0.10913E+00         0.12821E-01         0.00000E+00
    0.10196E+00         0.11407E-01         0.00000E+00
    0.94694E-01         0.10074E-01         0.00000E+00
    0.87325E-01         0.88213E-02         0.00000E+00
    0.79857E-01         0.76477E-02         0.00000E+00
    0.72290E-01         0.65522E-02         0.00000E+00
    0.64626E-01         0.55338E-02         0.00000E+00
    0.56868E-01         0.45912E-02         0.00000E+00
    0.49016E-01         0.37231E-02         0.00000E+00
    0.41072E-01         0.29282E-02         0.00000E+00
    0.33037E-01         0.22051E-02         0.00000E+00
    0.24911E-01         0.15523E-02         0.00000E+00
    0.16696E-01         0.96821E-03         0.00000E+00
    0.83918E-02         0.45131E-03         0.00000E+00
    0.00000E+00         0.00000E+00         0.00000E+00
    0.25756E+00         0.10451E+00         0.00000E+00
    0.25597E+00         0.10123E+00         0.00000E+00
    0.25421E+00         0.97967E-01         0.00000E+00
    0.25228E+00         0.94708E-01         0.00000E+00
    0.25017E+00         0.91463E-01         0.00000E+00
    0.24791E+00         0.88235E-01         0.00000E+00
    0.24547E+00         0.85029E-01         0.00000E+00
    0.24286E+00         0.81847E-01         0.00000E+00
    0.24009E+00         0.78694E-01         0.00000E+00
    0.23715E+00         0.75572E-01         0.00000E+00
    0.23405E+00         0.72485E-01         0.00000E+00
    0.23078E+00         0.69436E-01         0.00000E+00
    0.22736E+00         0.66428E-01         0.00000E+00
    0.22377E+00         0.63465E-01         0.00000E+00
    0.22003E+00         0.60549E-01         0.00000E+00
    0.21613E+00         0.57683E-01         0.00000E+00
    0.21208E+00         0.54869E-01         0.00000E+00
    0.20787E+00         0.52110E-01         0.00000E+00
    0.20352E+00         0.49409E-01         0.00000E+00
    0.19902E+00         0.46767E-01         0.00000E+00
    0.19437E+00         0.44187E-01         0.00000E+00
    0.18958E+00         0.41670E-01         0.00000E+00
    0.18466E+00         0.39218E-01         0.00000E+00
    0.17959E+00         0.36833E-01         0.00000E+00
    0.17440E+00         0.34517E-01         0.00000E+00
    0.16907E+00         0.32270E-01         0.00000E+00
    0.16361E+00         0.30095E-01         0.00000E+00
    0.15803E+00         0.27991E-01         0.00000E+00
    0.15232E+00         0.25960E-01         0.00000E+00
    0.14649E+00         0.24003E-01         0.00000E+00
    0.14054E+00         0.22120E-01         0.00000E+00
    0.13448E+00         0.20312E-01         0.00000E+00
    0.12830E+00         0.18580E-01         0.00000E+00
    0.12201E+00         0.16922E-01         0.00000E+00
    0.11561E+00         0.15341E-01         0.00000E+00
    0.10910E+00         0.13835E-01         0.00000E+00
    0.10249E+00         0.12405E-01         0.00000E+00
    0.95779E-01         0.11050E-01         0.00000E+00
    0.88965E-01         0.97698E-02         0.00000E+00
    0.82053E-01         0.85644E-02         0.00000E+00
    0.75044E-01         0.74329E-02         0.00000E+00
    0.67941E-01         0.63748E-02         0.00000E+00
    0.60744E-01         0.53892E-02         0.00000E+00
    0.53456E-01         0.44754E-02         0.00000E+00
    0.46078E-01         0.36324E-02         0.00000E+00
    0.38611E-01         0.28592E-02         0.00000E+00
    0.31058E-01         0.21547E-02         0.00000E+00
    0.23419E-01         0.15177E-02         0.00000E+00
    0.15695E-01         0.94717E-03         0.00000E+00
    0.78886E-02         0.44169E-03         0.00000E+00
    0.00000E+00         0.00000E+00         0.00000E+00
    0.24152E+00         0.97072E-01         0.00000E+00
    0.23997E+00         0.94071E-01         0.00000E+00
    0.23828E+00         0.91075E-01         0.00000E+00
    0.23643E+00         0.88089E-01         0.00000E+00
    0.23443E+00         0.85115E-01         0.00000E+00
    0.23228E+00         0.82156E-01         0.00000E+00
    0.22997E+00         0.79215E-01         0.00000E+00
    0.22751E+00         0.76296E-01         0.00000E+00
    0.22489E+00         0.73402E-01         0.00000E+00
    0.22213E+00         0.70536E-01         0.00000E+00
    0.21922E+00         0.67700E-01         0.00000E+00
    0.21615E+00         0.64897E-01         0.00000E+00
    0.21294E+00         0.62131E-01         0.00000E+00
    0.20959E+00         0.59403E-01         0.00000E+00
    0.20608E+00         0.56716E-01         0.00000E+00
    0.20244E+00         0.54073E-01         0.00000E+00
    0.19865E+00         0.51477E-01         0.00000E+00
    0.19472E+00         0.48928E-01         0.00000E+00
    0.19065E+00         0.46430E-01         0.00000E+00
    0.18645E+00         0.43984E-01         0.00000E+00
    0.18211E+00         0.41593E-01         0.00000E+00
    0.17764E+00         0.39258E-01         0.00000E+00
    0.17304E+00         0.36980E-01         0.00000E+00
    0.16832E+00         0.34762E-01         0.00000E+00
    0.16346E+00         0.32605E-01         0.00000E+00
    0.15848E+00         0.30510E-01         0.00000E+00
    0.15339E+00         0.28479E-01         0.00000E+00
    0.14817E+00         0.26512E-01         0.00000E+00
    0.14283E+00         0.24610E-01         0.00000E+00
    0.13738E+00         0.22775E-01         0.00000E+00
    0.13181E+00         0.21007E-01         0.00000E+00
    0.12614E+00         0.19307E-01         0.00000E+00
    0.12036E+00         0.17676E-01         0.00000E+00
    0.11447E+00         0.16113E-01         0.00000E+00
    0.10847E+00         0.14620E-01         0.00000E+00
    0.10238E+00         0.13196E-01         0.00000E+00
    0.96183E-01         0.11841E-01         0.00000E+00
    0.89890E-01         0.10556E-01         0.00000E+00
    0.83500E-01         0.93402E-02         0.00000E+00
    0.77017E-01         0.81937E-02         0.00000E+00
    0.70441E-01         0.71162E-02         0.00000E+00
    0.63775E-01         0.61072E-02         0.00000E+00
    0.57020E-01         0.51662E-02         0.00000E+00
    0.50179E-01         0.42927E-02         0.00000E+00
    0.43252E-01         0.34860E-02         0.00000E+00
    0.36242E-01         0.27453E-02         0.00000E+00
    0.29151E-01         0.20698E-02         0.00000E+00
    0.21979E-01         0.14585E-02         0.00000E+00
    0.14729E-01         0.91051E-03         0.00000E+00
    0.74023E-02         0.42472E-03         0.00000E+00
    0.00000E+00         0.00000E+00         0.00000E+00
    0.22673E+00         0.89870E-01         0.00000E+00
    0.22525E+00         0.87119E-01         0.00000E+00
    0.22362E+00         0.84372E-01         0.00000E+00
    0.22186E+00         0.81634E-01         0.00000E+00
    0.21995E+00         0.78907E-01         0.00000E+00
    0.21790E+00         0.76194E-01         0.00000E+00
    0.21571E+00         0.73497E-01         0.00000E+00
    0.21339E+00         0.70819E-01         0.00000E+00
    0.21092E+00         0.68164E-01         0.00000E+00
    0.20831E+00         0.65532E-01         0.00000E+00
    0.20557E+00         0.62928E-01         0.00000E+00
    0.20268E+00         0.60353E-01         0.00000E+00
    0.19967E+00         0.57811E-01         0.00000E+00
    0.19651E+00         0.55302E-01         0.00000E+00
    0.19322E+00         0.52830E-01         0.00000E+00
    0.18980E+00         0.50396E-01         0.00000E+00
    0.18625E+00         0.48003E-01         0.00000E+00
    0.18257E+00         0.45653E-01         0.00000E+00
    0.17876E+00         0.43348E-01         0.00000E+00
    0.17482E+00         0.41090E-01         0.00000E+00
    0.17076E+00         0.38879E-01         0.00000E+00
    0.16657E+00         0.36719E-01         0.00000E+00
    0.16227E+00         0.34610E-01         0.00000E+00
    0.15784E+00         0.32555E-01         0.00000E+00
    0.15329E+00         0.30554E-01         0.00000E+00
    0.14863E+00         0.28608E-01         0.00000E+00
    0.14386E+00         0.26720E-01         0.00000E+00
    0.13897E+00         0.24890E-01         0.00000E+00
    0.13397E+00         0.23119E-01         0.00000E+00
    0.12886E+00         0.21408E-01         0.00000E+00
    0.12365E+00         0.19759E-01         0.00000E+00
    0.11833E+00         0.18171E-01         0.00000E+00
    0.11291E+00         0.16645E-01         0.00000E+00
    0.10739E+00         0.15182E-01         0.00000E+00
    0.10177E+00         0.13782E-01         0.00000E+00
    0.96049E-01         0.12447E-01         0.00000E+00
    0.90237E-01         0.11175E-01         0.00000E+00
    0.84333E-01         0.99669E-02         0.00000E+00
    0.78339E-01         0.88233E-02         0.00000E+00
    0.72255E-01         0.77438E-02         0.00000E+00
    0.66084E-01         0.67283E-02         0.00000E+00
    0.59828E-01         0.57766E-02         0.00000E+00
    0.53489E-01         0.48884E-02         0.00000E+00
    0.47069E-01         0.40633E-02         0.00000E+00
    0.40569E-01         0.33007E-02         0.00000E+00
    0.33991E-01         0.26001E-02         0.00000E+00
    0.27338E-01         0.19608E-02         0.00000E+00
    0.20610E-01         0.13820E-02         0.00000E+00
    0.13810E-01         0.86292E-03         0.00000E+00
    0.69392E-02         0.40259E-03         0.00000E+00
    0.00000E+00         0.00000E+00         0.00000E+00
    0.21311E+00         0.82930E-01         0.00000E+00
    0.21169E+00         0.80407E-01         0.00000E+00
    0.21013E+00         0.77889E-01         0.00000E+00
    0.20845E+00         0.75379E-01         0.00000E+00
    0.20663E+00         0.72879E-01         0.00000E+00
    0.20468E+00         0.70392E-01         0.00000E+00
    0.20261E+00         0.67920E-01         0.00000E+00
    0.20040E+00         0.65465E-01         0.00000E+00
    0.19807E+00         0.63029E-01         0.00000E+00
    0.19560E+00         0.60616E-01         0.00000E+00
    0.19301E+00         0.58227E-01         0.00000E+00
    0.19029E+00         0.55864E-01         0.00000E+00
    0.18745E+00         0.53529E-01         0.00000E+00
    0.18448E+00         0.51225E-01         0.00000E+00
    0.18138E+00         0.48954E-01         0.00000E+00
    0.17817E+00         0.46717E-01         0.00000E+00
    0.17483E+00         0.44516E-01         0.00000E+00
    0.17136E+00         0.42354E-01         0.00000E+00
    0.16778E+00         0.40232E-01         0.00000E+00
    0.16409E+00         0.38151E-01         0.00000E+00
    0.16027E+00         0.36114E-01         0.00000E+00
    0.15634E+00         0.34121E-01         0.00000E+00
    0.15230E+00         0.32175E-01         0.00000E+00
    0.14814E+00         0.30277E-01         0.00000E+00
    0.14387E+00         0.28428E-01         0.00000E+00
    0.13950E+00         0.26629E-01         0.00000E+00
    0.13501E+00         0.24882E-01         0.00000E+00
    0.13042E+00         0.23187E-01         0.00000E+00
    0.12573E+00         0.21546E-01         0.00000E+00
    0.12094E+00         0.19960E-01         0.00000E+00
    0.11604E+00         0.18429E-01         0.00000E+00
    0.11105E+00         0.16954E-01         0.00000E+00
    0.10596E+00         0.15536E-01         0.00000E+00
    0.10078E+00         0.14176E-01         0.00000E+00
    0.95501E-01         0.12873E-01         0.00000E+00
    0.90133E-01         0.11629E-01         0.00000E+00
    0.84677E-01         0.10444E-01         0.00000E+00
    0.79134E-01         0.93180E-02         0.00000E+00
    0.73505E-01         0.82511E-02         0.00000E+00
    0.67793E-01         0.72435E-02         0.00000E+00
    0.61999E-01         0.62951E-02         0.00000E+00
    0.56126E-01         0.54058E-02         0.00000E+00
    0.50175E-01         0.45755E-02         0.00000E+00
    0.44148E-01         0.38038E-02         0.00000E+00
    0.38048E-01         0.30904E-02         0.00000E+00
    0.31875E-01         0.24347E-02         0.00000E+00
    0.25633E-01         0.18363E-02         0.00000E+00
    0.19322E-01         0.12944E-02         0.00000E+00
    0.12945E-01         0.80830E-03         0.00000E+00
    0.65036E-02         0.37714E-03         0.00000E+00
    0.00000E+00         0.00000E+00         0.00000E+00
    0.20057E+00         0.76268E-01         0.00000E+00
    0.19921E+00         0.73956E-01         0.00000E+00
    0.19772E+00         0.71650E-01         0.00000E+00
    0.19611E+00         0.69351E-01         0.00000E+00
    0.19438E+00         0.67062E-01         0.00000E+00
    0.19253E+00         0.64784E-01         0.00000E+00
    0.19056E+00         0.62520E-01         0.00000E+00
    0.18847E+00         0.60271E-01         0.00000E+00
    0.18626E+00         0.58040E-01         0.00000E+00
    0.18393E+00         0.55829E-01         0.00000E+00
    0.18148E+00         0.53640E-01         0.00000E+00
    0.17891E+00         0.51475E-01         0.00000E+00
    0.17622E+00         0.49335E-01         0.00000E+00
    0.17342E+00         0.47223E-01         0.00000E+00
    0.17050E+00         0.45139E-01         0.00000E+00
    0.16746E+00         0.43087E-01         0.00000E+00
    0.16432E+00         0.41068E-01         0.00000E+00
    0.16106E+00         0.39083E-01         0.00000E+00
    0.15768E+00         0.37135E-01         0.00000E+00
    0.15420E+00         0.35223E-01         0.00000E+00
    0.15061E+00         0.33351E-01         0.00000E+00
    0.14691E+00         0.31520E-01         0.00000E+00
    0.14310E+00         0.29730E-01         0.00000E+00
    0.13919E+00         0.27983E-01         0.00000E+00
    0.13518E+00         0.26281E-01         0.00000E+00
    0.13106E+00         0.24624E-01         0.00000E+00
    0.12684E+00         0.23014E-01         0.00000E+00
    0.12253E+00         0.21452E-01         0.00000E+00
    0.11811E+00         0.19939E-01         0.00000E+00
    0.11361E+00         0.18475E-01         0.00000E+00
    0.10900E+00         0.17062E-01         0.00000E+00
    0.10431E+00         0.15700E-01         0.00000E+00
    0.99524E-01         0.14389E-01         0.00000E+00
    0.94650E-01         0.13132E-01         0.00000E+00
    0.89689E-01         0.11928E-01         0.00000E+00
    0.84643E-01         0.10777E-01         0.00000E+00
    0.79514E-01         0.96801E-02         0.00000E+00
    0.74303E-01         0.86376E-02         0.00000E+00
    0.69013E-01         0.76495E-02         0.00000E+00
    0.63644E-01         0.67160E-02         0.00000E+00
    0.58200E-01         0.58372E-02         0.00000E+00
    0.52682E-01         0.50130E-02         0.00000E+00
    0.47091E-01         0.42433E-02         0.00000E+00
    0.41430E-01         0.35278E-02         0.00000E+00
    0.35701E-01         0.28662E-02         0.00000E+00
    0.29906E-01         0.22582E-02         0.00000E+00
    0.24045E-01         0.17032E-02         0.00000E+00
    0.18123E-01         0.12006E-02         0.00000E+00
    0.12140E-01         0.74975E-03         0.00000E+00
    0.60981E-02         0.34984E-03         0.00000E+00
    0.00000E+00         0.00000E+00         0.00000E+00
    0.18904E+00         0.69894E-01         0.00000E+00
    0.18773E+00         0.67780E-01         0.00000E+00
    0.18632E+00         0.65671E-01         0.00000E+00
    0.18479E+00         0.63569E-01         0.00000E+00
    0.18314E+00         0.61475E-01         0.00000E+00
    0.18138E+00         0.59392E-01         0.00000E+00
    0.17951E+00         0.57322E-01         0.00000E+00
    0.17753E+00         0.55265E-01         0.00000E+00
    0.17543E+00         0.53226E-01         0.00000E+00
    0.17322E+00         0.51204E-01         0.00000E+00
    0.17090E+00         0.49202E-01         0.00000E+00
    0.16847E+00         0.47221E-01         0.00000E+00
    0.16593E+00         0.45264E-01         0.00000E+00
    0.16327E+00         0.43332E-01         0.00000E+00
    0.16051E+00         0.41426E-01         0.00000E+00
    0.15765E+00         0.39548E-01         0.00000E+00
    0.15467E+00         0.37700E-01         0.00000E+00
    0.15160E+00         0.35883E-01         0.00000E+00
    0.14841E+00         0.34099E-01         0.00000E+00
    0.14513E+00         0.32349E-01         0.00000E+00
    0.14174E+00         0.30634E-01         0.00000E+00
    0.13825E+00         0.28956E-01         0.00000E+00
    0.13466E+00         0.27315E-01         0.00000E+00
    0.13097E+00         0.25714E-01         0.00000E+00
    0.12718E+00         0.24153E-01         0.00000E+00
    0.12330E+00         0.22633E-01         0.00000E+00
    0.11933E+00         0.21156E-01         0.00000E+00
    0.11526E+00         0.19723E-01         0.00000E+00
    0.11110E+00         0.18333E-01         0.00000E+00
    0.10686E+00         0.16989E-01         0.00000E+00
    0.10252E+00         0.15691E-01         0.00000E+00
    0.98098E-01         0.14440E-01         0.00000E+00
    0.93591E-01         0.13236E-01         0.00000E+00
    0.89001E-01         0.12080E-01         0.00000E+00
    0.84330E-01         0.10973E-01         0.00000E+00
    0.79579E-01         0.99149E-02         0.00000E+00
    0.74750E-01         0.89062E-02         0.00000E+00
    0.69845E-01         0.79472E-02         0.00000E+00
    0.64866E-01         0.70382E-02         0.00000E+00
    0.59815E-01         0.61793E-02         0.00000E+00
    0.54692E-01         0.53707E-02         0.00000E+00
    0.49501E-01         0.46123E-02         0.00000E+00
    0.44243E-01         0.39040E-02         0.00000E+00
    0.38920E-01         0.32456E-02         0.00000E+00
    0.33534E-01         0.26368E-02         0.00000E+00
    0.28086E-01         0.20774E-02         0.00000E+00
    0.22580E-01         0.15667E-02         0.00000E+00
    0.17016E-01         0.11044E-02         0.00000E+00
    0.11396E-01         0.68963E-03         0.00000E+00
    0.57238E-02         0.32178E-03         0.00000E+00
    0.00000E+00         0.00000E+00         0.00000E+00
    0.17846E+00         0.63812E-01         0.00000E+00
    0.17722E+00         0.61883E-01         0.00000E+00
    0.17587E+00         0.59958E-01         0.00000E+00
    0.17441E+00         0.58040E-01         0.00000E+00
    0.17284E+00         0.56130E-01         0.00000E+00
    0.17117E+00         0.54229E-01         0.00000E+00
    0.16939E+00         0.52341E-01         0.00000E+00
    0.16751E+00         0.50465E-01         0.00000E+00
    0.16552E+00         0.48604E-01         0.00000E+00
    0.16342E+00         0.46760E-01         0.00000E+00
    0.16122E+00         0.44934E-01         0.00000E+00
    0.15892E+00         0.43127E-01         0.00000E+00
    0.15651E+00         0.41342E-01         0.00000E+00
    0.15400E+00         0.39579E-01         0.00000E+00
    0.15138E+00         0.37840E-01         0.00000E+00
    0.14867E+00         0.36127E-01         0.00000E+00
    0.14586E+00         0.34441E-01         0.00000E+00
    0.14294E+00         0.32783E-01         0.00000E+00
    0.13993E+00         0.31154E-01         0.00000E+00
    0.13682E+00         0.29557E-01         0.00000E+00
    0.13362E+00         0.27991E-01         0.00000E+00
    0.13032E+00         0.26459E-01         0.00000E+00
    0.12693E+00         0.24962E-01         0.00000E+00
    0.12344E+00         0.23500E-01         0.00000E+00
    0.11987E+00         0.22074E-01         0.00000E+00
    0.11620E+00         0.20686E-01         0.00000E+00
    0.11245E+00         0.19337E-01         0.00000E+00
    0.10861E+00         0.18027E-01         0.00000E+00
    0.10468E+00         0.16757E-01         0.00000E+00
    0.10067E+00         0.15529E-01         0.00000E+00
    0.96578E-01         0.14343E-01         0.00000E+00
    0.92405E-01         0.13199E-01         0.00000E+00
    0.88152E-01         0.12099E-01         0.00000E+00
    0.83822E-01         0.11042E-01         0.00000E+00
    0.79416E-01         0.10030E-01         0.00000E+00
    0.74935E-01         0.90621E-02         0.00000E+00
    0.70381E-01         0.81398E-02         0.00000E+00
    0.65757E-01         0.72630E-02         0.00000E+00
    0.61063E-01         0.64318E-02         0.00000E+00
    0.56302E-01         0.56466E-02         0.00000E+00
    0.51475E-01         0.49073E-02         0.00000E+00
    0.46584E-01         0.42139E-02         0.00000E+00
    0.41631E-01         0.35664E-02         0.00000E+00
    0.36618E-01         0.29647E-02         0.00000E+00
    0.31546E-01         0.24084E-02         0.00000E+00
    0.26418E-01         0.18972E-02         0.00000E+00
    0.21236E-01         0.14307E-02         0.00000E+00
    0.16001E-01         0.10084E-02         0.00000E+00
    0.10715E-01         0.62968E-03         0.00000E+00
    0.53809E-02         0.29380E-03         0.00000E+00
    0.00000E+00         0.00000E+00         0.00000E+00
    0.16878E+00         0.58019E-01         0.00000E+00
    0.16760E+00         0.56264E-01         0.00000E+00
    0.16632E+00         0.54512E-01         0.00000E+00
    0.16493E+00         0.52767E-01         0.00000E+00
    0.16344E+00         0.51030E-01         0.00000E+00
    0.16185E+00         0.49301E-01         0.00000E+00
    0.16016E+00         0.47583E-01         0.00000E+00
    0.15837E+00         0.45878E-01         0.00000E+00
    0.15648E+00         0.44185E-01         0.00000E+00
    0.15449E+00         0.42508E-01         0.00000E+00
    0.15240E+00         0.40848E-01         0.00000E+00
    0.15021E+00         0.39205E-01         0.00000E+00
    0.14792E+00         0.37582E-01         0.00000E+00
    0.14554E+00         0.35979E-01         0.00000E+00
    0.14306E+00         0.34398E-01         0.00000E+00
    0.14048E+00         0.32841E-01         0.00000E+00
    0.13782E+00         0.31308E-01         0.00000E+00
    0.13505E+00         0.29800E-01         0.00000E+00
    0.13220E+00         0.28320E-01         0.00000E+00
    0.12925E+00         0.26867E-01         0.00000E+00
    0.12622E+00         0.25444E-01         0.00000E+00
    0.12309E+00         0.24051E-01         0.00000E+00
    0.11988E+00         0.22689E-01         0.00000E+00
    0.11658E+00         0.21360E-01         0.00000E+00
    0.11319E+00         0.20064E-01         0.00000E+00
    0.10972E+00         0.18802E-01         0.00000E+00
    0.10617E+00         0.17575E-01         0.00000E+00
    0.10254E+00         0.16383E-01         0.00000E+00
    0.98823E-01         0.15229E-01         0.00000E+00
    0.95030E-01         0.14112E-01         0.00000E+00
    0.91159E-01         0.13033E-01         0.00000E+00
    0.87213E-01         0.11993E-01         0.00000E+00
    0.83192E-01         0.10993E-01         0.00000E+00
    0.79099E-01         0.10032E-01         0.00000E+00
    0.74934E-01         0.91112E-02         0.00000E+00
    0.70699E-01         0.82316E-02         0.00000E+00
    0.66397E-01         0.73931E-02         0.00000E+00
    0.62028E-01         0.65959E-02         0.00000E+00
    0.57595E-01         0.58405E-02         0.00000E+00
    0.53099E-01         0.51268E-02         0.00000E+00
    0.48541E-01         0.44550E-02         0.00000E+00
    0.43924E-01         0.38250E-02         0.00000E+00
    0.39250E-01         0.32369E-02         0.00000E+00
    0.34520E-01         0.26904E-02         0.00000E+00
    0.29735E-01         0.21852E-02         0.00000E+00
    0.24899E-01         0.17212E-02         0.00000E+00
    0.20012E-01         0.12978E-02         0.00000E+00
    0.15077E-01         0.91466E-03         0.00000E+00
    0.10095E-01         0.57109E-03         0.00000E+00
    0.50689E-02         0.26646E-03         0.00000E+00
    0.00000E+00         0.00000E+00         0.00000E+00
    0.15997E+00         0.52505E-01         0.00000E+00
    0.15885E+00         0.50914E-01         0.00000E+00
    0.15762E+00         0.49327E-01         0.00000E+00
    0.15630E+00         0.47746E-01         0.00000E+00
    0.15489E+00         0.46171E-01         0.00000E+00
    0.15337E+00         0.44605E-01         0.00000E+00
    0.15176E+00         0.43049E-01         0.00000E+00
    0.15006E+00         0.41504E-01         0.00000E+00
    0.14826E+00         0.39971E-01         0.00000E+00
    0.14636E+00         0.38452E-01         0.00000E+00
    0.14438E+00         0.36948E-01         0.00000E+00
    0.14229E+00         0.35461E-01         0.00000E+00
    0.14012E+00         0.33991E-01         0.00000E+00
    0.13785E+00         0.32540E-01         0.00000E+00
    0.13550E+00         0.31108E-01         0.00000E+00
    0.13305E+00         0.29698E-01         0.00000E+00
    0.13052E+00         0.28311E-01         0.00000E+00
    0.12789E+00         0.26946E-01         0.00000E+00
    0.12518E+00         0.25606E-01         0.00000E+00
    0.12238E+00         0.24291E-01         0.00000E+00
    0.11950E+00         0.23003E-01         0.00000E+00
    0.11653E+00         0.21742E-01         0.00000E+00
    0.11348E+00         0.20510E-01         0.00000E+00
    0.11035E+00         0.19307E-01         0.00000E+00
    0.10714E+00         0.18134E-01         0.00000E+00
    0.10385E+00         0.16992E-01         0.00000E+00
    0.10048E+00         0.15882E-01         0.00000E+00
    0.97031E-01         0.14804E-01         0.00000E+00
    0.93509E-01         0.13760E-01         0.00000E+00
    0.89913E-01         0.12749E-01         0.00000E+00
    0.86244E-01         0.11774E-01         0.00000E+00
    0.82503E-01         0.10833E-01         0.00000E+00
    0.78693E-01         0.99279E-02         0.00000E+00
    0.74814E-01         0.90591E-02         0.00000E+00
    0.70869E-01         0.82268E-02         0.00000E+00
    0.66858E-01         0.74316E-02         0.00000E+00
    0.62784E-01         0.66736E-02         0.00000E+00
    0.58648E-01         0.59533E-02         0.00000E+00
    0.54451E-01         0.52706E-02         0.00000E+00
    0.50196E-01         0.46259E-02         0.00000E+00
    0.45883E-01         0.40191E-02         0.00000E+00
    0.41515E-01         0.34502E-02         0.00000E+00
    0.37093E-01         0.29192E-02         0.00000E+00
    0.32619E-01         0.24260E-02         0.00000E+00
    0.28096E-01         0.19702E-02         0.00000E+00
    0.23523E-01         0.15516E-02         0.00000E+00
    0.18905E-01         0.11698E-02         0.00000E+00
    0.14241E-01         0.82432E-03         0.00000E+00
    0.95344E-02         0.51464E-03         0.00000E+00
    0.47868E-02         0.24010E-03         0.00000E+00
    0.00000E+00         0.00000E+00         0.00000E+00
    0.15198E+00         0.47257E-01         0.00000E+00
    0.15091E+00         0.45822E-01         0.00000E+00
    0.14975E+00         0.44391E-01         0.00000E+00
    0.14849E+00         0.42965E-01         0.00000E+00
    0.14714E+00         0.41546E-01         0.00000E+00
    0.14570E+00         0.40134E-01         0.00000E+00
    0.14416E+00         0.38731E-01         0.00000E+00
    0.14254E+00         0.37338E-01         0.00000E+00
    0.14082E+00         0.35957E-01         0.00000E+00
    0.13902E+00         0.34588E-01         0.00000E+00
    0.13712E+00         0.33233E-01         0.00000E+00
    0.13514E+00         0.31892E-01         0.00000E+00
    0.13307E+00         0.30568E-01         0.00000E+00
    0.13091E+00         0.29261E-01         0.00000E+00
    0.12867E+00         0.27971E-01         0.00000E+00
    0.12634E+00         0.26701E-01         0.00000E+00
    0.12392E+00         0.25452E-01         0.00000E+00
    0.12142E+00         0.24223E-01         0.00000E+00
    0.11884E+00         0.23016E-01         0.00000E+00
    0.11618E+00         0.21833E-01         0.00000E+00
    0.11343E+00         0.20673E-01         0.00000E+00
    0.11061E+00         0.19538E-01         0.00000E+00
    0.10771E+00         0.18429E-01         0.00000E+00
    0.10473E+00         0.17346E-01         0.00000E+00
    0.10167E+00         0.16291E-01         0.00000E+00
    0.98543E-01         0.15263E-01         0.00000E+00
    0.95339E-01         0.14264E-01         0.00000E+00
    0.92062E-01         0.13295E-01         0.00000E+00
    0.88714E-01         0.12356E-01         0.00000E+00
    0.85296E-01         0.11447E-01         0.00000E+00
    0.81809E-01         0.10569E-01         0.00000E+00
    0.78255E-01         0.97236E-02         0.00000E+00
    0.74635E-01         0.89100E-02         0.00000E+00
    0.70951E-01         0.81291E-02         0.00000E+00
    0.67204E-01         0.73812E-02         0.00000E+00
    0.63396E-01         0.66667E-02         0.00000E+00
    0.59528E-01         0.59858E-02         0.00000E+00
    0.55601E-01         0.53388E-02         0.00000E+00
    0.51618E-01         0.47259E-02         0.00000E+00
    0.47580E-01         0.41471E-02         0.00000E+00
    0.43488E-01         0.36025E-02         0.00000E+00
    0.39345E-01         0.30920E-02         0.00000E+00
    0.35151E-01         0.26157E-02         0.00000E+00
    0.30909E-01         0.21734E-02         0.00000E+00
    0.26620E-01         0.17648E-02         0.00000E+00
    0.22286E-01         0.13896E-02         0.00000E+00
    0.17909E-01         0.10475E-02         0.00000E+00
    0.13489E-01         0.73807E-03         0.00000E+00
    0.90305E-02         0.46075E-03         0.00000E+00
    0.45334E-02         0.21495E-03         0.00000E+00
    0.00000E+00         0.00000E+00         0.00000E+00
    0.14479E+00         0.42258E-01         0.00000E+00
    0.14377E+00         0.40972E-01         0.00000E+00
    0.14266E+00         0.39690E-01         0.00000E+00
    0.14146E+00         0.38412E-01         0.00000E+00
    0.14017E+00         0.37140E-01         0.00000E+00
    0.13879E+00         0.35875E-01         0.00000E+00
    0.13733E+00         0.34618E-01         0.00000E+00
    0.13577E+00         0.33370E-01         0.00000E+00
    0.13414E+00         0.32133E-01         0.00000E+00
    0.13241E+00         0.30907E-01         0.00000E+00
    0.13060E+00         0.29693E-01         0.00000E+00
    0.12871E+00         0.28493E-01         0.00000E+00
    0.12673E+00         0.27307E-01         0.00000E+00
    0.12467E+00         0.26137E-01         0.00000E+00
    0.12253E+00         0.24983E-01         0.00000E+00
    0.12030E+00         0.23846E-01         0.00000E+00
    0.11800E+00         0.22728E-01         0.00000E+00
    0.11561E+00         0.21629E-01         0.00000E+00
    0.11315E+00         0.20549E-01         0.00000E+00
    0.11061E+00         0.19490E-01         0.00000E+00
    0.10799E+00         0.18453E-01         0.00000E+00
    0.10529E+00         0.17438E-01         0.00000E+00
    0.10253E+00         0.16446E-01         0.00000E+00
    0.99684E-01         0.15478E-01         0.00000E+00
    0.96770E-01         0.14534E-01         0.00000E+00
    0.93785E-01         0.13616E-01         0.00000E+00
    0.90729E-01         0.12723E-01         0.00000E+00
    0.87605E-01         0.11857E-01         0.00000E+00
    0.84414E-01         0.11018E-01         0.00000E+00
    0.81156E-01         0.10206E-01         0.00000E+00
    0.77833E-01         0.94224E-02         0.00000E+00
    0.74447E-01         0.86671E-02         0.00000E+00
    0.70998E-01         0.79407E-02         0.00000E+00
    0.67489E-01         0.72437E-02         0.00000E+00
    0.63921E-01         0.65762E-02         0.00000E+00
    0.60294E-01         0.59386E-02         0.00000E+00
    0.56611E-01         0.53312E-02         0.00000E+00
    0.52874E-01         0.47542E-02         0.00000E+00
    0.49082E-01         0.42076E-02         0.00000E+00
    0.45239E-01         0.36916E-02         0.00000E+00
    0.41346E-01         0.32063E-02         0.00000E+00
    0.37404E-01         0.27515E-02         0.00000E+00
    0.33415E-01         0.23273E-02         0.00000E+00
    0.29380E-01         0.19334E-02         0.00000E+00
    0.25301E-01         0.15696E-02         0.00000E+00
    0.21181E-01         0.12358E-02         0.00000E+00
    0.17019E-01         0.93142E-03         0.00000E+00
    0.12818E-01         0.65619E-03         0.00000E+00
    0.85807E-02         0.40959E-03         0.00000E+00
    0.43073E-02         0.19107E-03         0.00000E+00
    0.00000E+00         0.00000E+00         0.00000E+00
    0.13835E+00         0.37488E-01         0.00000E+00
    0.13738E+00         0.36345E-01         0.00000E+00
    0.13632E+00         0.35204E-01         0.00000E+00
    0.13517E+00         0.34068E-01         0.00000E+00
    0.13394E+00         0.32937E-01         0.00000E+00
    0.13262E+00         0.31813E-01         0.00000E+00
    0.13122E+00         0.30696E-01         0.00000E+00
    0.12973E+00         0.29587E-01         0.00000E+00
    0.12816E+00         0.28487E-01         0.00000E+00
    0.12651E+00         0.27398E-01         0.00000E+00
    0.12478E+00         0.26319E-01         0.00000E+00
    0.12297E+00         0.25253E-01         0.00000E+00
    0.12107E+00         0.24200E-01         0.00000E+00
    0.11910E+00         0.23160E-01         0.00000E+00
    0.11705E+00         0.22135E-01         0.00000E+00
    0.11492E+00         0.21126E-01         0.00000E+00
    0.11271E+00         0.20133E-01         0.00000E+00
    0.11043E+00         0.19157E-01         0.00000E+00
    0.10807E+00         0.18199E-01         0.00000E+00
    0.10564E+00         0.17259E-01         0.00000E+00
    0.10313E+00         0.16339E-01         0.00000E+00
    0.10056E+00         0.15438E-01         0.00000E+00
    0.97908E-01         0.14558E-01         0.00000E+00
    0.95189E-01         0.13699E-01         0.00000E+00
    0.92402E-01         0.12863E-01         0.00000E+00
    0.89547E-01         0.12048E-01         0.00000E+00
    0.86625E-01         0.11257E-01         0.00000E+00
    0.83637E-01         0.10489E-01         0.00000E+00
    0.80586E-01         0.97452E-02         0.00000E+00
    0.77471E-01         0.90259E-02         0.00000E+00
    0.74295E-01         0.83316E-02         0.00000E+00
    0.71059E-01         0.76626E-02         0.00000E+00
    0.67764E-01         0.70193E-02         0.00000E+00
    0.64410E-01         0.64021E-02         0.00000E+00
    0.61001E-01         0.58112E-02         0.00000E+00
    0.57537E-01         0.52470E-02         0.00000E+00
    0.54019E-01         0.47095E-02         0.00000E+00
    0.50450E-01         0.41991E-02         0.00000E+00
    0.46830E-01         0.37157E-02         0.00000E+00
    0.43160E-01         0.32595E-02         0.00000E+00
    0.39444E-01         0.28305E-02         0.00000E+00
    0.35681E-01         0.24286E-02         0.00000E+00
    0.31874E-01         0.20538E-02         0.00000E+00
    0.28023E-01         0.17059E-02         0.00000E+00
    0.24132E-01         0.13848E-02         0.00000E+00
    0.20200E-01         0.10901E-02         0.00000E+00
    0.16230E-01         0.82149E-03         0.00000E+00
    0.12224E-01         0.57867E-03         0.00000E+00
    0.81821E-02         0.36117E-03         0.00000E+00
    0.41070E-02         0.16847E-03         0.00000E+00
    0.00000E+00         0.00000E+00         0.00000E+00
    0.13265E+00         0.32927E-01         0.00000E+00
    0.13172E+00         0.31920E-01         0.00000E+00
    0.13070E+00         0.30916E-01         0.00000E+00
    0.12960E+00         0.29916E-01         0.00000E+00
    0.12842E+00         0.28921E-01         0.00000E+00
    0.12715E+00         0.27931E-01         0.00000E+00
    0.12581E+00         0.26948E-01         0.00000E+00
    0.12438E+00         0.25972E-01         0.00000E+00
    0.12288E+00         0.25004E-01         0.00000E+00
    0.12129E+00         0.24046E-01         0.00000E+00
    0.11963E+00         0.23097E-01         0.00000E+00
    0.11789E+00         0.22159E-01         0.00000E+00
    0.11607E+00         0.21233E-01         0.00000E+00
    0.11418E+00         0.20319E-01         0.00000E+00
    0.11221E+00         0.19418E-01         0.00000E+00
    0.11016E+00         0.18530E-01         0.00000E+00
    0.10804E+00         0.17657E-01         0.00000E+00
    0.10585E+00         0.16799E-01         0.00000E+00
    0.10359E+00         0.15957E-01         0.00000E+00
    0.10125E+00         0.15131E-01         0.00000E+00
    0.98846E-01         0.14323E-01         0.00000E+00
    0.96372E-01         0.13532E-01         0.00000E+00
    0.93830E-01         0.12759E-01         0.00000E+00
    0.91221E-01         0.12005E-01         0.00000E+00
    0.88546E-01         0.11270E-01         0.00000E+00
    0.85806E-01         0.10555E-01         0.00000E+00
    0.83002E-01         0.98603E-02         0.00000E+00
    0.80136E-01         0.91865E-02         0.00000E+00
    0.77209E-01         0.85339E-02         0.00000E+00
    0.74222E-01         0.79028E-02         0.00000E+00
    0.71175E-01         0.72938E-02         0.00000E+00
    0.68072E-01         0.67072E-02         0.00000E+00
    0.64912E-01         0.61432E-02         0.00000E+00
    0.61697E-01         0.56021E-02         0.00000E+00
    0.58429E-01         0.50843E-02         0.00000E+00
    0.55108E-01         0.45899E-02         0.00000E+00
    0.51736E-01         0.41191E-02         0.00000E+00
    0.48315E-01         0.36721E-02         0.00000E+00
    0.44846E-01         0.32488E-02         0.00000E+00
    0.41330E-01         0.28495E-02         0.00000E+00
    0.37770E-01         0.24740E-02         0.00000E+00
    0.34165E-01         0.21224E-02         0.00000E+00
    0.30518E-01         0.17946E-02         0.00000E+00
    0.26830E-01         0.14904E-02         0.00000E+00
    0.23103E-01         0.12096E-02         0.00000E+00
    0.19338E-01         0.95207E-03         0.00000E+00
    0.15537E-01         0.71741E-03         0.00000E+00
    0.11701E-01         0.50531E-03         0.00000E+00
    0.78322E-02         0.31536E-03         0.00000E+00
    0.39312E-02         0.14709E-03         0.00000E+00
    0.00000E+00         0.00000E+00         0.00000E+00
    0.12766E+00         0.28552E-01         0.00000E+00
    0.12676E+00         0.27677E-01         0.00000E+00
    0.12578E+00         0.26804E-01         0.00000E+00
    0.12473E+00         0.25935E-01         0.00000E+00
    0.12359E+00         0.25070E-01         0.00000E+00
    0.12237E+00         0.24210E-01         0.00000E+00
    0.12108E+00         0.23356E-01         0.00000E+00
    0.11970E+00         0.22508E-01         0.00000E+00
    0.11825E+00         0.21668E-01         0.00000E+00
    0.11673E+00         0.20835E-01         0.00000E+00
    0.11512E+00         0.20012E-01         0.00000E+00
    0.11345E+00         0.19197E-01         0.00000E+00
    0.11169E+00         0.18393E-01         0.00000E+00
    0.10987E+00         0.17599E-01         0.00000E+00
    0.10797E+00         0.16817E-01         0.00000E+00
    0.10600E+00         0.16047E-01         0.00000E+00
    0.10396E+00         0.15289E-01         0.00000E+00
    0.10185E+00         0.14545E-01         0.00000E+00
    0.99667E-01         0.13814E-01         0.00000E+00
    0.97417E-01         0.13098E-01         0.00000E+00
    0.95101E-01         0.12396E-01         0.00000E+00
    0.92718E-01         0.11710E-01         0.00000E+00
    0.90269E-01         0.11040E-01         0.00000E+00
    0.87756E-01         0.10386E-01         0.00000E+00
    0.85180E-01         0.97494E-02         0.00000E+00
    0.82541E-01         0.91297E-02         0.00000E+00
    0.79841E-01         0.85278E-02         0.00000E+00
    0.77082E-01         0.79440E-02         0.00000E+00
    0.74263E-01         0.73786E-02         0.00000E+00
    0.71387E-01         0.68321E-02         0.00000E+00
    0.68455E-01         0.63047E-02         0.00000E+00
    0.65468E-01         0.57968E-02         0.00000E+00
    0.62426E-01         0.53086E-02         0.00000E+00
    0.59332E-01         0.48404E-02         0.00000E+00
    0.56187E-01         0.43923E-02         0.00000E+00
    0.52992E-01         0.39646E-02         0.00000E+00
    0.49748E-01         0.35574E-02         0.00000E+00
    0.46457E-01         0.31709E-02         0.00000E+00
    0.43119E-01         0.28050E-02         0.00000E+00
    0.39738E-01         0.24598E-02         0.00000E+00
    0.36313E-01         0.21354E-02         0.00000E+00
    0.32846E-01         0.18317E-02         0.00000E+00
    0.29339E-01         0.15485E-02         0.00000E+00
    0.25793E-01         0.12859E-02         0.00000E+00
    0.22209E-01         0.10435E-02         0.00000E+00
    0.18589E-01         0.82119E-03         0.00000E+00
    0.14935E-01         0.61872E-03         0.00000E+00
    0.11248E-01         0.43575E-03         0.00000E+00
    0.75282E-02         0.27193E-03         0.00000E+00
    0.37785E-02         0.12683E-03         0.00000E+00
    0.00000E+00         0.00000E+00         0.00000E+00
    0.12335E+00         0.24340E-01         0.00000E+00
    0.12249E+00         0.23592E-01         0.00000E+00
    0.12154E+00         0.22847E-01         0.00000E+00
    0.12052E+00         0.22105E-01         0.00000E+00
    0.11942E+00         0.21366E-01         0.00000E+00
    0.11825E+00         0.20632E-01         0.00000E+00
    0.11699E+00         0.19902E-01         0.00000E+00
    0.11567E+00         0.19178E-01         0.00000E+00
    0.11427E+00         0.18461E-01         0.00000E+00
    0.11279E+00         0.17750E-01         0.00000E+00
    0.11124E+00         0.17047E-01         0.00000E+00
    0.10962E+00         0.16351E-01         0.00000E+00
    0.10792E+00         0.15665E-01         0.00000E+00
    0.10616E+00         0.14988E-01         0.00000E+00
    0.10432E+00         0.14320E-01         0.00000E+00
    0.10242E+00         0.13663E-01         0.00000E+00
    0.10044E+00         0.13016E-01         0.00000E+00
    0.98402E-01         0.12381E-01         0.00000E+00
    0.96293E-01         0.11758E-01         0.00000E+00
    0.94118E-01         0.11147E-01         0.00000E+00
    0.91877E-01         0.10549E-01         0.00000E+00
    0.89573E-01         0.99643E-02         0.00000E+00
    0.87205E-01         0.93930E-02         0.00000E+00
    0.84775E-01         0.88358E-02         0.00000E+00
    0.82284E-01         0.82930E-02         0.00000E+00
    0.79733E-01         0.77650E-02         0.00000E+00
    0.77124E-01         0.72522E-02         0.00000E+00
    0.74456E-01         0.67548E-02         0.00000E+00
    0.71732E-01         0.62733E-02         0.00000E+00
    0.68952E-01         0.58080E-02         0.00000E+00
    0.66118E-01         0.53590E-02         0.00000E+00
    0.63230E-01         0.49266E-02         0.00000E+00
    0.60291E-01         0.45111E-02         0.00000E+00
    0.57302E-01         0.41127E-02         0.00000E+00
    0.54262E-01         0.37315E-02         0.00000E+00
    0.51175E-01         0.33677E-02         0.00000E+00
    0.48041E-01         0.30214E-02         0.00000E+00
    0.44862E-01         0.26927E-02         0.00000E+00
    0.41638E-01         0.23817E-02         0.00000E+00
    0.38371E-01         0.20883E-02         0.00000E+00
    0.35063E-01         0.18127E-02         0.00000E+00
    0.31715E-01         0.15546E-02         0.00000E+00
    0.28328E-01         0.13141E-02         0.00000E+00
    0.24904E-01         0.10911E-02         0.00000E+00
    0.21443E-01         0.88532E-03         0.00000E+00
    0.17948E-01         0.69665E-03         0.00000E+00
    0.14419E-01         0.52483E-03         0.00000E+00
    0.10859E-01         0.36959E-03         0.00000E+00
    0.72680E-02         0.23062E-03         0.00000E+00
    0.36479E-02         0.10756E-03         0.00000E+00
    0.00000E+00         0.00000E+00         0.00000E+00
    0.11971E+00         0.20268E-01         0.00000E+00
    0.11887E+00         0.19645E-01         0.00000E+00
    0.11796E+00         0.19023E-01         0.00000E+00
    0.11697E+00         0.18404E-01         0.00000E+00
    0.11590E+00         0.17788E-01         0.00000E+00
    0.11476E+00         0.17175E-01         0.00000E+00
    0.11355E+00         0.16567E-01         0.00000E+00
    0.11226E+00         0.15963E-01         0.00000E+00
    0.11090E+00         0.15365E-01         0.00000E+00
    0.10946E+00         0.14772E-01         0.00000E+00
    0.10796E+00         0.14186E-01         0.00000E+00
    0.10639E+00         0.13606E-01         0.00000E+00
    0.10474E+00         0.13034E-01         0.00000E+00
    0.10303E+00         0.12469E-01         0.00000E+00
    0.10124E+00         0.11913E-01         0.00000E+00
    0.99394E-01         0.11365E-01         0.00000E+00
    0.97477E-01         0.10826E-01         0.00000E+00
    0.95494E-01         0.10297E-01         0.00000E+00
    0.93446E-01         0.97780E-02         0.00000E+00
    0.91333E-01         0.92691E-02         0.00000E+00
    0.89158E-01         0.87709E-02         0.00000E+00
    0.86920E-01         0.82838E-02         0.00000E+00
    0.84621E-01         0.78081E-02         0.00000E+00
    0.82262E-01         0.73441E-02         0.00000E+00
    0.79843E-01         0.68922E-02         0.00000E+00
    0.77366E-01         0.64527E-02         0.00000E+00
    0.74833E-01         0.60259E-02         0.00000E+00
    0.72243E-01         0.56121E-02         0.00000E+00
    0.69598E-01         0.52115E-02         0.00000E+00
    0.66900E-01         0.48243E-02         0.00000E+00
    0.64148E-01         0.44508E-02         0.00000E+00
    0.61346E-01         0.40913E-02         0.00000E+00
    0.58493E-01         0.37458E-02         0.00000E+00
    0.55592E-01         0.34146E-02         0.00000E+00
    0.52642E-01         0.30977E-02         0.00000E+00
    0.49646E-01         0.27954E-02         0.00000E+00
    0.46605E-01         0.25076E-02         0.00000E+00
    0.43520E-01         0.22345E-02         0.00000E+00
    0.40392E-01         0.19762E-02         0.00000E+00
    0.37222E-01         0.17326E-02         0.00000E+00
    0.34013E-01         0.15037E-02         0.00000E+00
    0.30764E-01         0.12895E-02         0.00000E+00
    0.27478E-01         0.10899E-02         0.00000E+00
    0.24156E-01         0.90480E-03         0.00000E+00
    0.20799E-01         0.73409E-03         0.00000E+00
    0.17409E-01         0.57758E-03         0.00000E+00
    0.13986E-01         0.43509E-03         0.00000E+00
    0.10533E-01         0.30638E-03         0.00000E+00
    0.70495E-02         0.19116E-03         0.00000E+00
    0.35382E-02         0.89152E-04         0.00000E+00
    0.00000E+00         0.00000E+00         0.00000E+00
    0.11672E+00         0.16315E-01         0.00000E+00
    0.11590E+00         0.15813E-01         0.00000E+00
    0.11501E+00         0.15311E-01         0.00000E+00
    0.11405E+00         0.14812E-01         0.00000E+00
    0.11301E+00         0.14316E-01         0.00000E+00
    0.11190E+00         0.13822E-01         0.00000E+00
    0.11071E+00         0.13331E-01         0.00000E+00
    0.10946E+00         0.12845E-01         0.00000E+00
    0.10813E+00         0.12362E-01         0.00000E+00
    0.10673E+00         0.11885E-01         0.00000E+00
    0.10527E+00         0.11412E-01         0.00000E+00
    0.10373E+00         0.10945E-01         0.00000E+00
    0.10213E+00         0.10484E-01         0.00000E+00
    0.10045E+00         0.10029E-01         0.00000E+00
    0.98716E-01         0.95808E-02         0.00000E+00
    0.96911E-01         0.91396E-02         0.00000E+00
    0.95042E-01         0.87058E-02         0.00000E+00
    0.93107E-01         0.82796E-02         0.00000E+00
    0.91109E-01         0.78615E-02         0.00000E+00
    0.89049E-01         0.74517E-02         0.00000E+00
    0.86927E-01         0.70506E-02         0.00000E+00
    0.84744E-01         0.66584E-02         0.00000E+00
    0.82502E-01         0.62755E-02         0.00000E+00
    0.80200E-01         0.59021E-02         0.00000E+00
    0.77842E-01         0.55384E-02         0.00000E+00
    0.75426E-01         0.51848E-02         0.00000E+00
    0.72955E-01         0.48414E-02         0.00000E+00
    0.70429E-01         0.45084E-02         0.00000E+00
    0.67850E-01         0.41862E-02         0.00000E+00
    0.65218E-01         0.38748E-02         0.00000E+00
    0.62535E-01         0.35745E-02         0.00000E+00
    0.59802E-01         0.32854E-02         0.00000E+00
    0.57021E-01         0.30076E-02         0.00000E+00
    0.54191E-01         0.27414E-02         0.00000E+00
    0.51315E-01         0.24867E-02         0.00000E+00
    0.48394E-01         0.22438E-02         0.00000E+00
    0.45429E-01         0.20126E-02         0.00000E+00
    0.42421E-01         0.17932E-02         0.00000E+00
    0.39372E-01         0.15857E-02         0.00000E+00
    0.36282E-01         0.13901E-02         0.00000E+00
    0.33153E-01         0.12063E-02         0.00000E+00
    0.29986E-01         0.10344E-02         0.00000E+00
    0.26783E-01         0.87418E-03         0.00000E+00
    0.23545E-01         0.72565E-03         0.00000E+00
    0.20273E-01         0.58868E-03         0.00000E+00
    0.16968E-01         0.46314E-03         0.00000E+00
    0.13632E-01         0.34885E-03         0.00000E+00
    0.10266E-01         0.24563E-03         0.00000E+00
    0.68709E-02         0.15325E-03         0.00000E+00
    0.34486E-02         0.71467E-04         0.00000E+00
    0.00000E+00         0.00000E+00         0.00000E+00
    0.11437E+00         0.12458E-01         0.00000E+00
    0.11357E+00         0.12073E-01         0.00000E+00
    0.11269E+00         0.11690E-01         0.00000E+00
    0.11175E+00         0.11309E-01         0.00000E+00
    0.11073E+00         0.10929E-01         0.00000E+00
    0.10964E+00         0.10551E-01         0.00000E+00
    0.10848E+00         0.10176E-01         0.00000E+00
    0.10725E+00         0.98045E-02         0.00000E+00
    0.10595E+00         0.94358E-02         0.00000E+00
    0.10458E+00         0.90707E-02         0.00000E+00
    0.10315E+00         0.87096E-02         0.00000E+00
    0.10164E+00         0.83526E-02         0.00000E+00
    0.10007E+00         0.80002E-02         0.00000E+00
    0.98430E-01         0.76526E-02         0.00000E+00
    0.96726E-01         0.73102E-02         0.00000E+00
    0.94958E-01         0.69731E-02         0.00000E+00
    0.93125E-01         0.66416E-02         0.00000E+00
    0.91229E-01         0.63161E-02         0.00000E+00
    0.89271E-01         0.59967E-02         0.00000E+00
    0.87252E-01         0.56837E-02         0.00000E+00
    0.85172E-01         0.53774E-02         0.00000E+00
    0.83033E-01         0.50779E-02         0.00000E+00
    0.80835E-01         0.47855E-02         0.00000E+00
    0.78579E-01         0.45004E-02         0.00000E+00
    0.76268E-01         0.42228E-02         0.00000E+00
    0.73900E-01         0.39528E-02         0.00000E+00
    0.71478E-01         0.36907E-02         0.00000E+00
    0.69003E-01         0.34367E-02         0.00000E+00
    0.66475E-01         0.31907E-02         0.00000E+00
    0.63896E-01         0.29532E-02         0.00000E+00
    0.61267E-01         0.27240E-02         0.00000E+00
    0.58589E-01         0.25035E-02         0.00000E+00
    0.55864E-01         0.22916E-02         0.00000E+00
    0.53091E-01         0.20886E-02         0.00000E+00
    0.50273E-01         0.18944E-02         0.00000E+00
    0.47411E-01         0.17091E-02         0.00000E+00
    0.44506E-01         0.15329E-02         0.00000E+00
    0.41559E-01         0.13657E-02         0.00000E+00
    0.38571E-01         0.12075E-02         0.00000E+00
    0.35544E-01         0.10585E-02         0.00000E+00
    0.32478E-01         0.91844E-03         0.00000E+00
    0.29376E-01         0.78744E-03         0.00000E+00
    0.26238E-01         0.66542E-03         0.00000E+00
    0.23066E-01         0.55231E-03         0.00000E+00
    0.19860E-01         0.44802E-03         0.00000E+00
    0.16623E-01         0.35244E-03         0.00000E+00
    0.13354E-01         0.26545E-03         0.00000E+00
    0.10057E-01         0.18689E-03         0.00000E+00
    0.67310E-02         0.11660E-03         0.00000E+00
    0.33784E-02         0.54371E-04         0.00000E+00
    0.00000E+00         0.00000E+00         0.00000E+00
    0.11263E+00         0.86737E-02         0.00000E+00
    0.11184E+00         0.84059E-02         0.00000E+00
    0.11099E+00         0.81388E-02         0.00000E+00
    0.11006E+00         0.78729E-02         0.00000E+00
    0.10905E+00         0.76082E-02         0.00000E+00
    0.10798E+00         0.73451E-02         0.00000E+00
    0.10684E+00         0.70839E-02         0.00000E+00
    0.10563E+00         0.68247E-02         0.00000E+00
    0.10435E+00         0.65678E-02         0.00000E+00
    0.10300E+00         0.63134E-02         0.00000E+00
    0.10159E+00         0.60617E-02         0.00000E+00
    0.10010E+00         0.58130E-02         0.00000E+00
    0.98556E-01         0.55675E-02         0.00000E+00
    0.96942E-01         0.53254E-02         0.00000E+00
    0.95264E-01         0.50868E-02         0.00000E+00
    0.93522E-01         0.48520E-02         0.00000E+00
    0.91717E-01         0.46211E-02         0.00000E+00
    0.89849E-01         0.43944E-02         0.00000E+00
    0.87921E-01         0.41720E-02         0.00000E+00
    0.85931E-01         0.39540E-02         0.00000E+00
    0.83883E-01         0.37407E-02         0.00000E+00
    0.81775E-01         0.35322E-02         0.00000E+00
    0.79611E-01         0.33286E-02         0.00000E+00
    0.77389E-01         0.31301E-02         0.00000E+00
    0.75112E-01         0.29368E-02         0.00000E+00
    0.72780E-01         0.27489E-02         0.00000E+00
    0.70394E-01         0.25664E-02         0.00000E+00
    0.67956E-01         0.23896E-02         0.00000E+00
    0.65466E-01         0.22184E-02         0.00000E+00
    0.62926E-01         0.20531E-02         0.00000E+00
    0.60337E-01         0.18937E-02         0.00000E+00
    0.57699E-01         0.17402E-02         0.00000E+00
    0.55015E-01         0.15928E-02         0.00000E+00
    0.52284E-01         0.14515E-02         0.00000E+00
    0.49509E-01         0.13165E-02         0.00000E+00
    0.46690E-01         0.11876E-02         0.00000E+00
    0.43829E-01         0.10651E-02         0.00000E+00
    0.40926E-01         0.94880E-03         0.00000E+00
    0.37984E-01         0.83884E-03         0.00000E+00
    0.35003E-01         0.73521E-03         0.00000E+00
    0.31984E-01         0.63788E-03         0.00000E+00
    0.28929E-01         0.54685E-03         0.00000E+00
    0.25838E-01         0.46206E-03         0.00000E+00
    0.22714E-01         0.38348E-03         0.00000E+00
    0.19558E-01         0.31104E-03         0.00000E+00
    0.16369E-01         0.24466E-03         0.00000E+00
    0.13151E-01         0.18425E-03         0.00000E+00
    0.99036E-02         0.12971E-03         0.00000E+00
    0.66285E-02         0.80919E-04         0.00000E+00
    0.33269E-02         0.37731E-04         0.00000E+00
    0.00000E+00         0.00000E+00         0.00000E+00
    0.11151E+00         0.49417E-02         0.00000E+00
    0.11073E+00         0.47890E-02         0.00000E+00
    0.10988E+00         0.46368E-02         0.00000E+00
    0.10896E+00         0.44851E-02         0.00000E+00
    0.10797E+00         0.43342E-02         0.00000E+00
    0.10691E+00         0.41843E-02         0.00000E+00
    0.10578E+00         0.40353E-02         0.00000E+00
    0.10458E+00         0.38876E-02         0.00000E+00
    0.10332E+00         0.37411E-02         0.00000E+00
    0.10198E+00         0.35961E-02         0.00000E+00
    0.10058E+00         0.34527E-02         0.00000E+00
    0.99113E-01         0.33110E-02         0.00000E+00
    0.97581E-01         0.31711E-02         0.00000E+00
    0.95983E-01         0.30331E-02         0.00000E+00
    0.94321E-01         0.28971E-02         0.00000E+00
    0.92596E-01         0.27633E-02         0.00000E+00
    0.90809E-01         0.26318E-02         0.00000E+00
    0.88960E-01         0.25026E-02         0.00000E+00
    0.87050E-01         0.23758E-02         0.00000E+00
    0.85080E-01         0.22516E-02         0.00000E+00
    0.83052E-01         0.21301E-02         0.00000E+00
    0.80965E-01         0.20113E-02         0.00000E+00
    0.78822E-01         0.18953E-02         0.00000E+00
    0.76622E-01         0.17822E-02         0.00000E+00
    0.74367E-01         0.16721E-02         0.00000E+00
    0.72058E-01         0.15650E-02         0.00000E+00
    0.69696E-01         0.14610E-02         0.00000E+00
    0.67282E-01         0.13603E-02         0.00000E+00
    0.64816E-01         0.12628E-02         0.00000E+00
    0.62301E-01         0.11686E-02         0.00000E+00
    0.59738E-01         0.10778E-02         0.00000E+00
    0.57126E-01         0.99033E-03         0.00000E+00
    0.54468E-01         0.90638E-03         0.00000E+00
    0.51764E-01         0.82591E-03         0.00000E+00
    0.49017E-01         0.74898E-03         0.00000E+00
    0.46226E-01         0.67561E-03         0.00000E+00
    0.43393E-01         0.60582E-03         0.00000E+00
    0.40519E-01         0.53962E-03         0.00000E+00
    0.37606E-01         0.47702E-03         0.00000E+00
    0.34654E-01         0.41803E-03         0.00000E+00
    0.31666E-01         0.36264E-03         0.00000E+00
    0.28641E-01         0.31084E-03         0.00000E+00
    0.25581E-01         0.26261E-03         0.00000E+00
    0.22488E-01         0.21791E-03         0.00000E+00
    0.19363E-01         0.17672E-03         0.00000E+00
    0.16207E-01         0.13898E-03         0.00000E+00
    0.13020E-01         0.10465E-03         0.00000E+00
    0.98052E-02         0.73664E-04         0.00000E+00
    0.65627E-02         0.45947E-04         0.00000E+00
    0.32939E-02         0.21422E-04         0.00000E+00
    0.00000E+00         0.00000E+00         0.00000E+00
    0.11100E+00         0.12403E-02         0.00000E+00
    0.11023E+00         0.12019E-02         0.00000E+00
    0.10938E+00         0.11637E-02         0.00000E+00
    0.10847E+00         0.11257E-02         0.00000E+00
    0.10748E+00         0.10878E-02         0.00000E+00
    0.10642E+00         0.10502E-02         0.00000E+00
    0.10530E+00         0.10129E-02         0.00000E+00
    0.10411E+00         0.97589E-03         0.00000E+00
    0.10285E+00         0.93920E-03         0.00000E+00
    0.10152E+00         0.90288E-03         0.00000E+00
    0.10012E+00         0.86695E-03         0.00000E+00
    0.98663E-01         0.83145E-03         0.00000E+00
    0.97137E-01         0.79640E-03         0.00000E+00
    0.95547E-01         0.76183E-03         0.00000E+00
    0.93893E-01         0.72776E-03         0.00000E+00
    0.92175E-01         0.69423E-03         0.00000E+00
    0.90396E-01         0.66126E-03         0.00000E+00
    0.88556E-01         0.62887E-03         0.00000E+00
    0.86654E-01         0.59708E-03         0.00000E+00
    0.84694E-01         0.56593E-03         0.00000E+00
    0.82674E-01         0.53543E-03         0.00000E+00
    0.80597E-01         0.50560E-03         0.00000E+00
    0.78463E-01         0.47647E-03         0.00000E+00
    0.76273E-01         0.44806E-03         0.00000E+00
    0.74028E-01         0.42038E-03         0.00000E+00
    0.71730E-01         0.39346E-03         0.00000E+00
    0.69378E-01         0.36732E-03         0.00000E+00
    0.66975E-01         0.34197E-03         0.00000E+00
    0.64521E-01         0.31743E-03         0.00000E+00
    0.62017E-01         0.29372E-03         0.00000E+00
    0.59465E-01         0.27085E-03         0.00000E+00
    0.56865E-01         0.24883E-03         0.00000E+00
    0.54219E-01         0.22768E-03         0.00000E+00
    0.51528E-01         0.20741E-03         0.00000E+00
    0.48793E-01         0.18803E-03         0.00000E+00
    0.46015E-01         0.16954E-03         0.00000E+00
    0.43195E-01         0.15196E-03         0.00000E+00
    0.40334E-01         0.13529E-03         0.00000E+00
    0.37434E-01         0.11953E-03         0.00000E+00
    0.34496E-01         0.10469E-03         0.00000E+00
    0.31521E-01         0.90756E-04         0.00000E+00
    0.28510E-01         0.77737E-04         0.00000E+00
    0.25465E-01         0.65625E-04         0.00000E+00
    0.22386E-01         0.54412E-04         0.00000E+00
    0.19275E-01         0.44090E-04         0.00000E+00
    0.16133E-01         0.34646E-04         0.00000E+00
    0.12961E-01         0.26065E-04         0.00000E+00
    0.97605E-02         0.18332E-04         0.00000E+00
    0.65328E-02         0.11425E-04         0.00000E+00
    0.32789E-02         0.53228E-05         0.00000E+00
    0.00000E+00         0.00000E+00         0.00000E+00
    0.11110E+00        -0.24519E-02         0.00000E+00
    0.11032E+00        -0.23760E-02         0.00000E+00
    0.10948E+00        -0.23003E-02         0.00000E+00
    0.10856E+00        -0.22249E-02         0.00000E+00
    0.10757E+00        -0.21498E-02         0.00000E+00
    0.10652E+00        -0.20752E-02         0.00000E+00
    0.10539E+00        -0.20010E-02         0.00000E+00
    0.10420E+00        -0.19275E-02         0.00000E+00
    0.10294E+00        -0.18546E-02         0.00000E+00
    0.10161E+00        -0.17824E-02         0.00000E+00
    0.10021E+00        -0.17110E-02         0.00000E+00
    0.98751E-01        -0.16404E-02         0.00000E+00
    0.97224E-01        -0.15708E-02         0.00000E+00
    0.95632E-01        -0.15021E-02         0.00000E+00
    0.93976E-01        -0.14345E-02         0.00000E+00
    0.92258E-01        -0.13679E-02         0.00000E+00
    0.90477E-01        -0.13025E-02         0.00000E+00
    0.88634E-01        -0.12383E-02         0.00000E+00
    0.86732E-01        -0.11753E-02         0.00000E+00
    0.84769E-01        -0.11136E-02         0.00000E+00
    0.82748E-01        -0.10533E-02         0.00000E+00
    0.80669E-01        -0.99435E-03         0.00000E+00
    0.78533E-01        -0.93683E-03         0.00000E+00
    0.76341E-01        -0.88078E-03         0.00000E+00
    0.74094E-01        -0.82623E-03         0.00000E+00
    0.71793E-01        -0.77323E-03         0.00000E+00
    0.69440E-01        -0.72180E-03         0.00000E+00
    0.67034E-01        -0.67197E-03         0.00000E+00
    0.64578E-01        -0.62378E-03         0.00000E+00
    0.62072E-01        -0.57725E-03         0.00000E+00
    0.59517E-01        -0.53240E-03         0.00000E+00
    0.56915E-01        -0.48925E-03         0.00000E+00
    0.54267E-01        -0.44782E-03         0.00000E+00
    0.51573E-01        -0.40814E-03         0.00000E+00
    0.48836E-01        -0.37020E-03         0.00000E+00
    0.46055E-01        -0.33402E-03         0.00000E+00
    0.43232E-01        -0.29961E-03         0.00000E+00
    0.40369E-01        -0.26697E-03         0.00000E+00
    0.37467E-01        -0.23611E-03         0.00000E+00
    0.34526E-01        -0.20701E-03         0.00000E+00
    0.31549E-01        -0.17968E-03         0.00000E+00
    0.28535E-01        -0.15411E-03         0.00000E+00
    0.25487E-01        -0.13028E-03         0.00000E+00
    0.22405E-01        -0.10818E-03         0.00000E+00
    0.19292E-01        -0.87795E-04         0.00000E+00
    0.16147E-01        -0.69101E-04         0.00000E+00
    0.12972E-01        -0.52073E-04         0.00000E+00
    0.97692E-02        -0.36682E-04         0.00000E+00
    0.65386E-02        -0.22898E-04         0.00000E+00
    0.32818E-02        -0.10683E-04         0.00000E+00
    0.00000E+00         0.00000E+00         0.00000E+00
    0.11180E+00        -0.61559E-02         0.00000E+00
    0.11102E+00        -0.59653E-02         0.00000E+00
    0.11017E+00        -0.57752E-02         0.00000E+00
    0.10925E+00        -0.55859E-02         0.00000E+00
    0.10826E+00        -0.53975E-02         0.00000E+00
    0.10719E+00        -0.52102E-02         0.00000E+00
    0.10606E+00        -0.50241E-02         0.00000E+00
    0.10486E+00        -0.48396E-02         0.00000E+00
    0.10359E+00        -0.46566E-02         0.00000E+00
    0.10225E+00        -0.44755E-02         0.00000E+00
    0.10085E+00        -0.42964E-02         0.00000E+00
    0.99377E-01        -0.41194E-02         0.00000E+00
    0.97840E-01        -0.39446E-02         0.00000E+00
    0.96239E-01        -0.37723E-02         0.00000E+00
    0.94573E-01        -0.36026E-02         0.00000E+00
    0.92843E-01        -0.34356E-02         0.00000E+00
    0.91051E-01        -0.32714E-02         0.00000E+00
    0.89197E-01        -0.31103E-02         0.00000E+00
    0.87282E-01        -0.29522E-02         0.00000E+00
    0.85307E-01        -0.27974E-02         0.00000E+00
    0.83273E-01        -0.26459E-02         0.00000E+00
    0.81180E-01        -0.24979E-02         0.00000E+00
    0.79031E-01        -0.23535E-02         0.00000E+00
    0.76825E-01        -0.22127E-02         0.00000E+00
    0.74564E-01        -0.20757E-02         0.00000E+00
    0.72248E-01        -0.19425E-02         0.00000E+00
    0.69880E-01        -0.18133E-02         0.00000E+00
    0.67459E-01        -0.16881E-02         0.00000E+00
    0.64987E-01        -0.15669E-02         0.00000E+00
    0.62465E-01        -0.14500E-02         0.00000E+00
    0.59895E-01        -0.13372E-02         0.00000E+00
    0.57276E-01        -0.12287E-02         0.00000E+00
    0.54611E-01        -0.11246E-02         0.00000E+00
    0.51900E-01        -0.10248E-02         0.00000E+00
    0.49145E-01        -0.92941E-03         0.00000E+00
    0.46347E-01        -0.83845E-03         0.00000E+00
    0.43506E-01        -0.75194E-03         0.00000E+00
    0.40625E-01        -0.66989E-03         0.00000E+00
    0.37704E-01        -0.59230E-03         0.00000E+00
    0.34745E-01        -0.51918E-03         0.00000E+00
    0.31748E-01        -0.45052E-03         0.00000E+00
    0.28716E-01        -0.38628E-03         0.00000E+00
    0.25648E-01        -0.32645E-03         0.00000E+00
    0.22547E-01        -0.27099E-03         0.00000E+00
    0.19414E-01        -0.21985E-03         0.00000E+00
    0.16249E-01        -0.17298E-03         0.00000E+00
    0.13055E-01        -0.13031E-03         0.00000E+00
    0.98311E-02        -0.91764E-04         0.00000E+00
    0.65801E-02        -0.57262E-04         0.00000E+00
    0.33026E-02        -0.26708E-04         0.00000E+00
    0.00000E+00         0.00000E+00         0.00000E+00
    0.11312E+00        -0.98930E-02         0.00000E+00
    0.11233E+00        -0.95866E-02         0.00000E+00
    0.11147E+00        -0.92811E-02         0.00000E+00
    0.11053E+00        -0.89768E-02         0.00000E+00
    0.10953E+00        -0.86740E-02         0.00000E+00
    0.10845E+00        -0.83730E-02         0.00000E+00
    0.10731E+00        -0.80740E-02         0.00000E+00
    0.10609E+00        -0.77774E-02         0.00000E+00
    0.10481E+00        -0.74835E-02         0.00000E+00
    0.10346E+00        -0.71924E-02         0.00000E+00
    0.10203E+00        -0.69045E-02         0.00000E+00
    0.10055E+00        -0.66201E-02         0.00000E+00
    0.98991E-01        -0.63393E-02         0.00000E+00
    0.97370E-01        -0.60624E-02         0.00000E+00
    0.95685E-01        -0.57897E-02         0.00000E+00
    0.93935E-01        -0.55213E-02         0.00000E+00
    0.92121E-01        -0.52576E-02         0.00000E+00
    0.90245E-01        -0.49986E-02         0.00000E+00
    0.88308E-01        -0.47446E-02         0.00000E+00
    0.86310E-01        -0.44958E-02         0.00000E+00
    0.84252E-01        -0.42524E-02         0.00000E+00
    0.82135E-01        -0.40145E-02         0.00000E+00
    0.79960E-01        -0.37823E-02         0.00000E+00
    0.77728E-01        -0.35561E-02         0.00000E+00
    0.75440E-01        -0.33358E-02         0.00000E+00
    0.73098E-01        -0.31218E-02         0.00000E+00
    0.70701E-01        -0.29141E-02         0.00000E+00
    0.68252E-01        -0.27128E-02         0.00000E+00
    0.65751E-01        -0.25181E-02         0.00000E+00
    0.63199E-01        -0.23301E-02         0.00000E+00
    0.60598E-01        -0.21489E-02         0.00000E+00
    0.57949E-01        -0.19745E-02         0.00000E+00
    0.55252E-01        -0.18071E-02         0.00000E+00
    0.52510E-01        -0.16466E-02         0.00000E+00
    0.49722E-01        -0.14933E-02         0.00000E+00
    0.46891E-01        -0.13471E-02         0.00000E+00
    0.44017E-01        -0.12080E-02         0.00000E+00
    0.41102E-01        -0.10762E-02         0.00000E+00
    0.38147E-01        -0.95146E-03         0.00000E+00
    0.35153E-01        -0.83394E-03         0.00000E+00
    0.32121E-01        -0.72359E-03         0.00000E+00
    0.29053E-01        -0.62037E-03         0.00000E+00
    0.25949E-01        -0.52424E-03         0.00000E+00
    0.22812E-01        -0.43514E-03         0.00000E+00
    0.19642E-01        -0.35300E-03         0.00000E+00
    0.16440E-01        -0.27771E-03         0.00000E+00
    0.13208E-01        -0.20919E-03         0.00000E+00
    0.99465E-02        -0.14730E-03         0.00000E+00
    0.66573E-02        -0.91906E-04         0.00000E+00
    0.33414E-02        -0.42864E-04         0.00000E+00
    0.00000E+00         0.00000E+00         0.00000E+00
    0.11505E+00        -0.13684E-01         0.00000E+00
    0.11425E+00        -0.13261E-01         0.00000E+00
    0.11337E+00        -0.12838E-01         0.00000E+00
    0.11242E+00        -0.12417E-01         0.00000E+00
    0.11140E+00        -0.11998E-01         0.00000E+00
    0.11031E+00        -0.11582E-01         0.00000E+00
    0.10914E+00        -0.11168E-01         0.00000E+00
    0.10791E+00        -0.10758E-01         0.00000E+00
    0.10660E+00        -0.10352E-01         0.00000E+00
    0.10522E+00        -0.99490E-02         0.00000E+00
    0.10378E+00        -0.95509E-02         0.00000E+00
    0.10226E+00        -0.91574E-02         0.00000E+00
    0.10068E+00        -0.87691E-02         0.00000E+00
    0.99033E-01        -0.83861E-02         0.00000E+00
    0.97319E-01        -0.80089E-02         0.00000E+00
    0.95539E-01        -0.76377E-02         0.00000E+00
    0.93694E-01        -0.72729E-02         0.00000E+00
    0.91786E-01        -0.69146E-02         0.00000E+00
    0.89816E-01        -0.65633E-02         0.00000E+00
    0.87783E-01        -0.62192E-02         0.00000E+00
    0.85690E-01        -0.58825E-02         0.00000E+00
    0.83537E-01        -0.55534E-02         0.00000E+00
    0.81325E-01        -0.52323E-02         0.00000E+00
    0.79055E-01        -0.49193E-02         0.00000E+00
    0.76728E-01        -0.46147E-02         0.00000E+00
    0.74345E-01        -0.43186E-02         0.00000E+00
    0.71908E-01        -0.40312E-02         0.00000E+00
    0.69417E-01        -0.37528E-02         0.00000E+00
    0.66873E-01        -0.34834E-02         0.00000E+00
    0.64278E-01        -0.32233E-02         0.00000E+00
    0.61632E-01        -0.29726E-02         0.00000E+00
    0.58938E-01        -0.27313E-02         0.00000E+00
    0.56195E-01        -0.24997E-02         0.00000E+00
    0.53406E-01        -0.22778E-02         0.00000E+00
    0.50570E-01        -0.20656E-02         0.00000E+00
    0.47691E-01        -0.18633E-02         0.00000E+00
    0.44768E-01        -0.16710E-02         0.00000E+00
    0.41803E-01        -0.14885E-02         0.00000E+00
    0.38798E-01        -0.13160E-02         0.00000E+00
    0.35752E-01        -0.11534E-02         0.00000E+00
    0.32669E-01        -0.10008E-02         0.00000E+00
    0.29548E-01        -0.85797E-03         0.00000E+00
    0.26392E-01        -0.72500E-03         0.00000E+00
    0.23201E-01        -0.60176E-03         0.00000E+00
    0.19977E-01        -0.48814E-03         0.00000E+00
    0.16720E-01        -0.38402E-03         0.00000E+00
    0.13433E-01        -0.28925E-03         0.00000E+00
    0.10116E-01        -0.20366E-03         0.00000E+00
    0.67707E-02        -0.12707E-03         0.00000E+00
    0.33983E-02        -0.59262E-04         0.00000E+00
    0.00000E+00         0.00000E+00         0.00000E+00
    0.11761E+00        -0.17552E-01         0.00000E+00
    0.11679E+00        -0.17009E-01         0.00000E+00
    0.11590E+00        -0.16467E-01         0.00000E+00
    0.11493E+00        -0.15927E-01         0.00000E+00
    0.11388E+00        -0.15390E-01         0.00000E+00
    0.11276E+00        -0.14856E-01         0.00000E+00
    0.11157E+00        -0.14325E-01         0.00000E+00
    0.11031E+00        -0.13799E-01         0.00000E+00
    0.10897E+00        -0.13278E-01         0.00000E+00
    0.10756E+00        -0.12762E-01         0.00000E+00
    0.10609E+00        -0.12251E-01         0.00000E+00
    0.10454E+00        -0.11747E-01         0.00000E+00
    0.10292E+00        -0.11248E-01         0.00000E+00
    0.10124E+00        -0.10757E-01         0.00000E+00
    0.99483E-01        -0.10274E-01         0.00000E+00
    0.97664E-01        -0.97976E-02         0.00000E+00
    0.95778E-01        -0.93297E-02         0.00000E+00
    0.93828E-01        -0.88702E-02         0.00000E+00
    0.91813E-01        -0.84197E-02         0.00000E+00
    0.89736E-01        -0.79783E-02         0.00000E+00
    0.87596E-01        -0.75464E-02         0.00000E+00
    0.85395E-01        -0.71244E-02         0.00000E+00
    0.83133E-01        -0.67125E-02         0.00000E+00
    0.80813E-01        -0.63110E-02         0.00000E+00
    0.78434E-01        -0.59202E-02         0.00000E+00
    0.75998E-01        -0.55404E-02         0.00000E+00
    0.73507E-01        -0.51718E-02         0.00000E+00
    0.70960E-01        -0.48146E-02         0.00000E+00
    0.68360E-01        -0.44691E-02         0.00000E+00
    0.65707E-01        -0.41354E-02         0.00000E+00
    0.63003E-01        -0.38137E-02         0.00000E+00
    0.60248E-01        -0.35042E-02         0.00000E+00
    0.57444E-01        -0.32071E-02         0.00000E+00
    0.54593E-01        -0.29223E-02         0.00000E+00
    0.51695E-01        -0.26502E-02         0.00000E+00
    0.48751E-01        -0.23906E-02         0.00000E+00
    0.45763E-01        -0.21438E-02         0.00000E+00
    0.42732E-01        -0.19097E-02         0.00000E+00
    0.39660E-01        -0.16884E-02         0.00000E+00
    0.36547E-01        -0.14798E-02         0.00000E+00
    0.33395E-01        -0.12839E-02         0.00000E+00
    0.30205E-01        -0.11007E-02         0.00000E+00
    0.26978E-01        -0.93011E-03         0.00000E+00
    0.23716E-01        -0.77199E-03         0.00000E+00
    0.20420E-01        -0.62621E-03         0.00000E+00
    0.17091E-01        -0.49263E-03         0.00000E+00
    0.13731E-01        -0.37105E-03         0.00000E+00
    0.10340E-01        -0.26126E-03         0.00000E+00
    0.69210E-02        -0.16300E-03         0.00000E+00
    0.34737E-02        -0.76019E-04         0.00000E+00
    0.00000E+00         0.00000E+00         0.00000E+00
    0.12082E+00        -0.21518E-01         0.00000E+00
    0.11998E+00        -0.20852E-01         0.00000E+00
    0.11905E+00        -0.20188E-01         0.00000E+00
    0.11806E+00        -0.19526E-01         0.00000E+00
    0.11698E+00        -0.18868E-01         0.00000E+00
    0.11583E+00        -0.18214E-01         0.00000E+00
    0.11461E+00        -0.17564E-01         0.00000E+00
    0.11331E+00        -0.16919E-01         0.00000E+00
    0.11194E+00        -0.16280E-01         0.00000E+00
    0.11049E+00        -0.15647E-01         0.00000E+00
    0.10897E+00        -0.15021E-01         0.00000E+00
    0.10738E+00        -0.14403E-01         0.00000E+00
    0.10572E+00        -0.13793E-01         0.00000E+00
    0.10399E+00        -0.13191E-01         0.00000E+00
    0.10219E+00        -0.12598E-01         0.00000E+00
    0.10032E+00        -0.12014E-01         0.00000E+00
    0.98385E-01        -0.11441E-01         0.00000E+00
    0.96381E-01        -0.10877E-01         0.00000E+00
    0.94312E-01        -0.10325E-01         0.00000E+00
    0.92177E-01        -0.97840E-02         0.00000E+00
    0.89979E-01        -0.92546E-02         0.00000E+00
    0.87718E-01        -0.87372E-02         0.00000E+00
    0.85395E-01        -0.82322E-02         0.00000E+00
    0.83012E-01        -0.77400E-02         0.00000E+00
    0.80568E-01        -0.72609E-02         0.00000E+00
    0.78066E-01        -0.67952E-02         0.00000E+00
    0.75507E-01        -0.63433E-02         0.00000E+00
    0.72891E-01        -0.59053E-02         0.00000E+00
    0.70220E-01        -0.54816E-02         0.00000E+00
    0.67495E-01        -0.50724E-02         0.00000E+00
    0.64717E-01        -0.46779E-02         0.00000E+00
    0.61887E-01        -0.42984E-02         0.00000E+00
    0.59007E-01        -0.39339E-02         0.00000E+00
    0.56078E-01        -0.35847E-02         0.00000E+00
    0.53101E-01        -0.32509E-02         0.00000E+00
    0.50077E-01        -0.29326E-02         0.00000E+00
    0.47008E-01        -0.26298E-02         0.00000E+00
    0.43895E-01        -0.23427E-02         0.00000E+00
    0.40739E-01        -0.20712E-02         0.00000E+00
    0.37541E-01        -0.18153E-02         0.00000E+00
    0.34303E-01        -0.15750E-02         0.00000E+00
    0.31026E-01        -0.13503E-02         0.00000E+00
    0.27712E-01        -0.11410E-02         0.00000E+00
    0.24361E-01        -0.94704E-03         0.00000E+00
    0.20975E-01        -0.76821E-03         0.00000E+00
    0.17556E-01        -0.60433E-03         0.00000E+00
    0.14104E-01        -0.45518E-03         0.00000E+00
    0.10622E-01        -0.32049E-03         0.00000E+00
    0.71090E-02        -0.19996E-03         0.00000E+00
    0.35681E-02        -0.93254E-04         0.00000E+00
    0.00000E+00         0.00000E+00         0.00000E+00
    0.12469E+00        -0.25605E-01         0.00000E+00
    0.12381E+00        -0.24813E-01         0.00000E+00
    0.12286E+00        -0.24023E-01         0.00000E+00
    0.12183E+00        -0.23236E-01         0.00000E+00
    0.12073E+00        -0.22453E-01         0.00000E+00
    0.11954E+00        -0.21675E-01         0.00000E+00
    0.11827E+00        -0.20902E-01         0.00000E+00
    0.11693E+00        -0.20135E-01         0.00000E+00
    0.11552E+00        -0.19375E-01         0.00000E+00
    0.11402E+00        -0.18623E-01         0.00000E+00
    0.11246E+00        -0.17878E-01         0.00000E+00
    0.11082E+00        -0.17143E-01         0.00000E+00
    0.10910E+00        -0.16417E-01         0.00000E+00
    0.10731E+00        -0.15701E-01         0.00000E+00
    0.10546E+00        -0.14995E-01         0.00000E+00
    0.10353E+00        -0.14301E-01         0.00000E+00
    0.10153E+00        -0.13619E-01         0.00000E+00
    0.99461E-01        -0.12949E-01         0.00000E+00
    0.97325E-01        -0.12292E-01         0.00000E+00
    0.95123E-01        -0.11648E-01         0.00000E+00
    0.92854E-01        -0.11018E-01         0.00000E+00
    0.90521E-01        -0.10402E-01         0.00000E+00
    0.88124E-01        -0.98014E-02         0.00000E+00
    0.85664E-01        -0.92157E-02         0.00000E+00
    0.83143E-01        -0.86455E-02         0.00000E+00
    0.80561E-01        -0.80913E-02         0.00000E+00
    0.77920E-01        -0.75533E-02         0.00000E+00
    0.75221E-01        -0.70320E-02         0.00000E+00
    0.72464E-01        -0.65277E-02         0.00000E+00
    0.69652E-01        -0.60406E-02         0.00000E+00
    0.66786E-01        -0.55710E-02         0.00000E+00
    0.63866E-01        -0.51191E-02         0.00000E+00
    0.60894E-01        -0.46852E-02         0.00000E+00
    0.57871E-01        -0.42694E-02         0.00000E+00
    0.54799E-01        -0.38720E-02         0.00000E+00
    0.51678E-01        -0.34929E-02         0.00000E+00
    0.48511E-01        -0.31324E-02         0.00000E+00
    0.45298E-01        -0.27904E-02         0.00000E+00
    0.42041E-01        -0.24671E-02         0.00000E+00
    0.38741E-01        -0.21624E-02         0.00000E+00
    0.35400E-01        -0.18762E-02         0.00000E+00
    0.32018E-01        -0.16085E-02         0.00000E+00
    0.28598E-01        -0.13592E-02         0.00000E+00
    0.25140E-01        -0.11282E-02         0.00000E+00
    0.21646E-01        -0.91515E-03         0.00000E+00
    0.18117E-01        -0.71994E-03         0.00000E+00
    0.14555E-01        -0.54226E-03         0.00000E+00
    0.10961E-01        -0.38181E-03         0.00000E+00
    0.73360E-02        -0.23822E-03         0.00000E+00
    0.36820E-02        -0.11110E-03         0.00000E+00
    0.00000E+00         0.00000E+00         0.00000E+00
    0.12923E+00        -0.29838E-01         0.00000E+00
    0.12833E+00        -0.28915E-01         0.00000E+00
    0.12734E+00        -0.27995E-01         0.00000E+00
    0.12627E+00        -0.27079E-01         0.00000E+00
    0.12512E+00        -0.26167E-01         0.00000E+00
    0.12389E+00        -0.25261E-01         0.00000E+00
    0.12258E+00        -0.24361E-01         0.00000E+00
    0.12119E+00        -0.23468E-01         0.00000E+00
    0.11972E+00        -0.22583E-01         0.00000E+00
    0.11818E+00        -0.21706E-01         0.00000E+00
    0.11655E+00        -0.20839E-01         0.00000E+00
    0.11485E+00        -0.19983E-01         0.00000E+00
    0.11307E+00        -0.19137E-01         0.00000E+00
    0.11122E+00        -0.18303E-01         0.00000E+00
    0.10930E+00        -0.17481E-01         0.00000E+00
    0.10730E+00        -0.16673E-01         0.00000E+00
    0.10523E+00        -0.15878E-01         0.00000E+00
    0.10308E+00        -0.15097E-01         0.00000E+00
    0.10087E+00        -0.14332E-01         0.00000E+00
    0.98587E-01        -0.13582E-01         0.00000E+00
    0.96237E-01        -0.12848E-01         0.00000E+00
    0.93819E-01        -0.12130E-01         0.00000E+00
    0.91335E-01        -0.11430E-01         0.00000E+00
    0.88785E-01        -0.10748E-01         0.00000E+00
    0.86173E-01        -0.10083E-01         0.00000E+00
    0.83497E-01        -0.94371E-02         0.00000E+00
    0.80760E-01        -0.88101E-02         0.00000E+00
    0.77962E-01        -0.82024E-02         0.00000E+00
    0.75106E-01        -0.76145E-02         0.00000E+00
    0.72192E-01        -0.70466E-02         0.00000E+00
    0.69221E-01        -0.64991E-02         0.00000E+00
    0.66194E-01        -0.59722E-02         0.00000E+00
    0.63114E-01        -0.54662E-02         0.00000E+00
    0.59981E-01        -0.49813E-02         0.00000E+00
    0.56797E-01        -0.45178E-02         0.00000E+00
    0.53563E-01        -0.40757E-02         0.00000E+00
    0.50280E-01        -0.36551E-02         0.00000E+00
    0.46951E-01        -0.32562E-02         0.00000E+00
    0.43575E-01        -0.28790E-02         0.00000E+00
    0.40154E-01        -0.25235E-02         0.00000E+00
    0.36691E-01        -0.21896E-02         0.00000E+00
    0.33186E-01        -0.18773E-02         0.00000E+00
    0.29641E-01        -0.15864E-02         0.00000E+00
    0.26057E-01        -0.13168E-02         0.00000E+00
    0.22435E-01        -0.10682E-02         0.00000E+00
    0.18778E-01        -0.84033E-03         0.00000E+00
    0.15086E-01        -0.63295E-03         0.00000E+00
    0.11360E-01        -0.44567E-03         0.00000E+00
    0.76035E-02        -0.27806E-03         0.00000E+00
    0.38162E-02        -0.12968E-03         0.00000E+00
    0.00000E+00         0.00000E+00         0.00000E+00
    0.13449E+00        -0.34239E-01         0.00000E+00
    0.13354E+00        -0.33182E-01         0.00000E+00
    0.13252E+00        -0.32127E-01         0.00000E+00
    0.13140E+00        -0.31077E-01         0.00000E+00
    0.13021E+00        -0.30032E-01         0.00000E+00
    0.12893E+00        -0.28992E-01         0.00000E+00
    0.12756E+00        -0.27960E-01         0.00000E+00
    0.12611E+00        -0.26936E-01         0.00000E+00
    0.12458E+00        -0.25922E-01         0.00000E+00
    0.12297E+00        -0.24917E-01         0.00000E+00
    0.12128E+00        -0.23923E-01         0.00000E+00
    0.11951E+00        -0.22940E-01         0.00000E+00
    0.11766E+00        -0.21970E-01         0.00000E+00
    0.11574E+00        -0.21014E-01         0.00000E+00
    0.11373E+00        -0.20072E-01         0.00000E+00
    0.11165E+00        -0.19144E-01         0.00000E+00
    0.10950E+00        -0.18232E-01         0.00000E+00
    0.10727E+00        -0.17337E-01         0.00000E+00
    0.10497E+00        -0.16459E-01         0.00000E+00
    0.10259E+00        -0.15598E-01         0.00000E+00
    0.10015E+00        -0.14756E-01         0.00000E+00
    0.97630E-01        -0.13933E-01         0.00000E+00
    0.95045E-01        -0.13129E-01         0.00000E+00
    0.92393E-01        -0.12346E-01         0.00000E+00
    0.89675E-01        -0.11583E-01         0.00000E+00
    0.86891E-01        -0.10842E-01         0.00000E+00
    0.84043E-01        -0.10122E-01         0.00000E+00
    0.81132E-01        -0.94245E-02         0.00000E+00
    0.78160E-01        -0.87495E-02         0.00000E+00
    0.75128E-01        -0.80974E-02         0.00000E+00
    0.72037E-01        -0.74687E-02         0.00000E+00
    0.68888E-01        -0.68636E-02         0.00000E+00
    0.65683E-01        -0.62825E-02         0.00000E+00
    0.62423E-01        -0.57255E-02         0.00000E+00
    0.59109E-01        -0.51930E-02         0.00000E+00
    0.55744E-01        -0.46851E-02         0.00000E+00
    0.52328E-01        -0.42019E-02         0.00000E+00
    0.48863E-01        -0.37435E-02         0.00000E+00
    0.45349E-01        -0.33100E-02         0.00000E+00
    0.41790E-01        -0.29014E-02         0.00000E+00
    0.38186E-01        -0.25177E-02         0.00000E+00
    0.34538E-01        -0.21587E-02         0.00000E+00
    0.30848E-01        -0.18242E-02         0.00000E+00
    0.27118E-01        -0.15142E-02         0.00000E+00
    0.23349E-01        -0.12284E-02         0.00000E+00
    0.19543E-01        -0.96643E-03         0.00000E+00
    0.15700E-01        -0.72796E-03         0.00000E+00
    0.11823E-01        -0.51258E-03         0.00000E+00
    0.79132E-02        -0.31982E-03         0.00000E+00
    0.39717E-02        -0.14915E-03         0.00000E+00
    0.00000E+00         0.00000E+00         0.00000E+00
    0.14047E+00        -0.38836E-01         0.00000E+00
    0.13949E+00        -0.37638E-01         0.00000E+00
    0.13841E+00        -0.36443E-01         0.00000E+00
    0.13725E+00        -0.35253E-01         0.00000E+00
    0.13600E+00        -0.34069E-01         0.00000E+00
    0.13466E+00        -0.32892E-01         0.00000E+00
    0.13323E+00        -0.31722E-01         0.00000E+00
    0.13172E+00        -0.30562E-01         0.00000E+00
    0.13012E+00        -0.29412E-01         0.00000E+00
    0.12844E+00        -0.28273E-01         0.00000E+00
    0.12667E+00        -0.27147E-01         0.00000E+00
    0.12483E+00        -0.26034E-01         0.00000E+00
    0.12289E+00        -0.24934E-01         0.00000E+00
    0.12088E+00        -0.23850E-01         0.00000E+00
    0.11879E+00        -0.22782E-01         0.00000E+00
    0.11662E+00        -0.21731E-01         0.00000E+00
    0.11437E+00        -0.20697E-01         0.00000E+00
    0.11204E+00        -0.19682E-01         0.00000E+00
    0.10964E+00        -0.18686E-01         0.00000E+00
    0.10716E+00        -0.17711E-01         0.00000E+00
    0.10460E+00        -0.16755E-01         0.00000E+00
    0.10198E+00        -0.15822E-01         0.00000E+00
    0.99277E-01        -0.14910E-01         0.00000E+00
    0.96508E-01        -0.14022E-01         0.00000E+00
    0.93669E-01        -0.13157E-01         0.00000E+00
    0.90762E-01        -0.12315E-01         0.00000E+00
    0.87789E-01        -0.11499E-01         0.00000E+00
    0.84749E-01        -0.10707E-01         0.00000E+00
    0.81646E-01        -0.99407E-02         0.00000E+00
    0.78479E-01        -0.92005E-02         0.00000E+00
    0.75251E-01        -0.84868E-02         0.00000E+00
    0.71962E-01        -0.77998E-02         0.00000E+00
    0.68615E-01        -0.71399E-02         0.00000E+00
    0.65210E-01        -0.65074E-02         0.00000E+00
    0.61749E-01        -0.59026E-02         0.00000E+00
    0.58234E-01        -0.53257E-02         0.00000E+00
    0.54666E-01        -0.47767E-02         0.00000E+00
    0.51046E-01        -0.42560E-02         0.00000E+00
    0.47377E-01        -0.37634E-02         0.00000E+00
    0.43658E-01        -0.32991E-02         0.00000E+00
    0.39893E-01        -0.28629E-02         0.00000E+00
    0.36083E-01        -0.24548E-02         0.00000E+00
    0.32228E-01        -0.20747E-02         0.00000E+00
    0.28331E-01        -0.17222E-02         0.00000E+00
    0.24394E-01        -0.13972E-02         0.00000E+00
    0.20417E-01        -0.10993E-02         0.00000E+00
    0.16403E-01        -0.82805E-03         0.00000E+00
    0.12352E-01        -0.58307E-03         0.00000E+00
    0.82673E-02        -0.36381E-03         0.00000E+00
    0.41494E-02        -0.16968E-03         0.00000E+00
    0.00000E+00         0.00000E+00         0.00000E+00
    0.14722E+00        -0.43655E-01         0.00000E+00
    0.14618E+00        -0.42310E-01         0.00000E+00
    0.14506E+00        -0.40969E-01         0.00000E+00
    0.14384E+00        -0.39633E-01         0.00000E+00
    0.14252E+00        -0.38303E-01         0.00000E+00
    0.14112E+00        -0.36982E-01         0.00000E+00
    0.13963E+00        -0.35669E-01         0.00000E+00
    0.13804E+00        -0.34367E-01         0.00000E+00
    0.13637E+00        -0.33075E-01         0.00000E+00
    0.13460E+00        -0.31797E-01         0.00000E+00
    0.13275E+00        -0.30532E-01         0.00000E+00
    0.13082E+00        -0.29282E-01         0.00000E+00
    0.12879E+00        -0.28047E-01         0.00000E+00
    0.12669E+00        -0.26830E-01         0.00000E+00
    0.12449E+00        -0.25630E-01         0.00000E+00
    0.12222E+00        -0.24449E-01         0.00000E+00
    0.11986E+00        -0.23288E-01         0.00000E+00
    0.11742E+00        -0.22148E-01         0.00000E+00
    0.11490E+00        -0.21029E-01         0.00000E+00
    0.11231E+00        -0.19932E-01         0.00000E+00
    0.10963E+00        -0.18859E-01         0.00000E+00
    0.10688E+00        -0.17810E-01         0.00000E+00
    0.10405E+00        -0.16785E-01         0.00000E+00
    0.10115E+00        -0.15786E-01         0.00000E+00
    0.98180E-01        -0.14813E-01         0.00000E+00
    0.95135E-01        -0.13867E-01         0.00000E+00
    0.92019E-01        -0.12949E-01         0.00000E+00
    0.88835E-01        -0.12058E-01         0.00000E+00
    0.85583E-01        -0.11196E-01         0.00000E+00
    0.82265E-01        -0.10364E-01         0.00000E+00
    0.78882E-01        -0.95605E-02         0.00000E+00
    0.75436E-01        -0.87874E-02         0.00000E+00
    0.71928E-01        -0.80447E-02         0.00000E+00
    0.68360E-01        -0.73327E-02         0.00000E+00
    0.64733E-01        -0.66518E-02         0.00000E+00
    0.61049E-01        -0.60022E-02         0.00000E+00
    0.57310E-01        -0.53840E-02         0.00000E+00
    0.53516E-01        -0.47975E-02         0.00000E+00
    0.49669E-01        -0.42426E-02         0.00000E+00
    0.45772E-01        -0.37195E-02         0.00000E+00
    0.41825E-01        -0.32280E-02         0.00000E+00
    0.37830E-01        -0.27681E-02         0.00000E+00
    0.33789E-01        -0.23396E-02         0.00000E+00
    0.29704E-01        -0.19423E-02         0.00000E+00
    0.25576E-01        -0.15758E-02         0.00000E+00
    0.21407E-01        -0.12399E-02         0.00000E+00
    0.17198E-01        -0.93403E-03         0.00000E+00
    0.12951E-01        -0.65774E-03         0.00000E+00
    0.86682E-02        -0.41042E-03         0.00000E+00
    0.43506E-02        -0.19141E-03         0.00000E+00
    0.00000E+00         0.00000E+00         0.00000E+00
    0.15476E+00        -0.48722E-01         0.00000E+00
    0.15367E+00        -0.47224E-01         0.00000E+00
    0.15249E+00        -0.45729E-01         0.00000E+00
    0.15120E+00        -0.44241E-01         0.00000E+00
    0.14982E+00        -0.42759E-01         0.00000E+00
    0.14835E+00        -0.41287E-01         0.00000E+00
    0.14678E+00        -0.39824E-01         0.00000E+00
    0.14511E+00        -0.38372E-01         0.00000E+00
    0.14335E+00        -0.36933E-01         0.00000E+00
    0.14150E+00        -0.35508E-01         0.00000E+00
    0.13955E+00        -0.34098E-01         0.00000E+00
    0.13752E+00        -0.32705E-01         0.00000E+00
    0.13539E+00        -0.31329E-01         0.00000E+00
    0.13318E+00        -0.29971E-01         0.00000E+00
    0.13088E+00        -0.28633E-01         0.00000E+00
    0.12849E+00        -0.27316E-01         0.00000E+00
    0.12601E+00        -0.26021E-01         0.00000E+00
    0.12345E+00        -0.24749E-01         0.00000E+00
    0.12080E+00        -0.23501E-01         0.00000E+00
    0.11807E+00        -0.22278E-01         0.00000E+00
    0.11526E+00        -0.21080E-01         0.00000E+00
    0.11237E+00        -0.19909E-01         0.00000E+00
    0.10940E+00        -0.18766E-01         0.00000E+00
    0.10636E+00        -0.17650E-01         0.00000E+00
    0.10323E+00        -0.16564E-01         0.00000E+00
    0.10003E+00        -0.15508E-01         0.00000E+00
    0.96759E-01        -0.14482E-01         0.00000E+00
    0.93413E-01        -0.13488E-01         0.00000E+00
    0.89995E-01        -0.12525E-01         0.00000E+00
    0.86508E-01        -0.11595E-01         0.00000E+00
    0.82953E-01        -0.10697E-01         0.00000E+00
    0.79331E-01        -0.98334E-02         0.00000E+00
    0.75644E-01        -0.90032E-02         0.00000E+00
    0.71893E-01        -0.82073E-02         0.00000E+00
    0.68081E-01        -0.74460E-02         0.00000E+00
    0.64208E-01        -0.67195E-02         0.00000E+00
    0.60276E-01        -0.60281E-02         0.00000E+00
    0.56287E-01        -0.53720E-02         0.00000E+00
    0.52242E-01        -0.47512E-02         0.00000E+00
    0.48144E-01        -0.41658E-02         0.00000E+00
    0.43993E-01        -0.36157E-02         0.00000E+00
    0.39792E-01        -0.31008E-02         0.00000E+00
    0.35543E-01        -0.26211E-02         0.00000E+00
    0.31246E-01        -0.21762E-02         0.00000E+00
    0.26904E-01        -0.17657E-02         0.00000E+00
    0.22519E-01        -0.13894E-02         0.00000E+00
    0.18092E-01        -0.10468E-02         0.00000E+00
    0.13624E-01        -0.73717E-03         0.00000E+00
    0.91188E-02        -0.46000E-03         0.00000E+00
    0.45768E-02        -0.21455E-03         0.00000E+00
    0.00000E+00         0.00000E+00         0.00000E+00
    0.16314E+00        -0.54067E-01         0.00000E+00
    0.16199E+00        -0.52407E-01         0.00000E+00
    0.16074E+00        -0.50752E-01         0.00000E+00
    0.15938E+00        -0.49103E-01         0.00000E+00
    0.15793E+00        -0.47463E-01         0.00000E+00
    0.15637E+00        -0.45831E-01         0.00000E+00
    0.15472E+00        -0.44211E-01         0.00000E+00
    0.15296E+00        -0.42603E-01         0.00000E+00
    0.15111E+00        -0.41008E-01         0.00000E+00
    0.14916E+00        -0.39429E-01         0.00000E+00
    0.14711E+00        -0.37867E-01         0.00000E+00
    0.14497E+00        -0.36322E-01         0.00000E+00
    0.14273E+00        -0.34797E-01         0.00000E+00
    0.14040E+00        -0.33292E-01         0.00000E+00
    0.13797E+00        -0.31809E-01         0.00000E+00
    0.13545E+00        -0.30349E-01         0.00000E+00
    0.13285E+00        -0.28914E-01         0.00000E+00
    0.13015E+00        -0.27503E-01         0.00000E+00
    0.12736E+00        -0.26118E-01         0.00000E+00
    0.12449E+00        -0.24761E-01         0.00000E+00
    0.12153E+00        -0.23433E-01         0.00000E+00
    0.11849E+00        -0.22133E-01         0.00000E+00
    0.11536E+00        -0.20865E-01         0.00000E+00
    0.11215E+00        -0.19627E-01         0.00000E+00
    0.10886E+00        -0.18421E-01         0.00000E+00
    0.10548E+00        -0.17249E-01         0.00000E+00
    0.10204E+00        -0.16110E-01         0.00000E+00
    0.98510E-01        -0.15005E-01         0.00000E+00
    0.94909E-01        -0.13936E-01         0.00000E+00
    0.91235E-01        -0.12902E-01         0.00000E+00
    0.87488E-01        -0.11905E-01         0.00000E+00
    0.83671E-01        -0.10945E-01         0.00000E+00
    0.79785E-01        -0.10022E-01         0.00000E+00
    0.75831E-01        -0.91373E-02         0.00000E+00
    0.71812E-01        -0.82907E-02         0.00000E+00
    0.67729E-01        -0.74828E-02         0.00000E+00
    0.63583E-01        -0.67137E-02         0.00000E+00
    0.59377E-01        -0.59837E-02         0.00000E+00
    0.55112E-01        -0.52928E-02         0.00000E+00
    0.50790E-01        -0.46412E-02         0.00000E+00
    0.46413E-01        -0.40289E-02         0.00000E+00
    0.41982E-01        -0.34556E-02         0.00000E+00
    0.37500E-01        -0.29213E-02         0.00000E+00
    0.32968E-01        -0.24257E-02         0.00000E+00
    0.28387E-01        -0.19684E-02         0.00000E+00
    0.23761E-01        -0.15491E-02         0.00000E+00
    0.19090E-01        -0.11671E-02         0.00000E+00
    0.14376E-01        -0.82198E-03         0.00000E+00
    0.96224E-02        -0.51296E-03         0.00000E+00
    0.48296E-02        -0.23926E-03         0.00000E+00
    0.00000E+00         0.00000E+00         0.00000E+00
    0.17239E+00        -0.59718E-01         0.00000E+00
    0.17118E+00        -0.57888E-01         0.00000E+00
    0.16985E+00        -0.56064E-01         0.00000E+00
    0.16842E+00        -0.54247E-01         0.00000E+00
    0.16688E+00        -0.52438E-01         0.00000E+00
    0.16524E+00        -0.50640E-01         0.00000E+00
    0.16349E+00        -0.48853E-01         0.00000E+00
    0.16164E+00        -0.47081E-01         0.00000E+00
    0.15968E+00        -0.45323E-01         0.00000E+00
    0.15762E+00        -0.43582E-01         0.00000E+00
    0.15546E+00        -0.41859E-01         0.00000E+00
    0.15320E+00        -0.40155E-01         0.00000E+00
    0.15084E+00        -0.38473E-01         0.00000E+00
    0.14838E+00        -0.36813E-01         0.00000E+00
    0.14582E+00        -0.35177E-01         0.00000E+00
    0.14316E+00        -0.33566E-01         0.00000E+00
    0.14041E+00        -0.31981E-01         0.00000E+00
    0.13756E+00        -0.30424E-01         0.00000E+00
    0.13462E+00        -0.28896E-01         0.00000E+00
    0.13159E+00        -0.27398E-01         0.00000E+00
    0.12846E+00        -0.25930E-01         0.00000E+00
    0.12525E+00        -0.24496E-01         0.00000E+00
    0.12195E+00        -0.23094E-01         0.00000E+00
    0.11856E+00        -0.21727E-01         0.00000E+00
    0.11508E+00        -0.20395E-01         0.00000E+00
    0.11152E+00        -0.19099E-01         0.00000E+00
    0.10788E+00        -0.17840E-01         0.00000E+00
    0.10416E+00        -0.16619E-01         0.00000E+00
    0.10035E+00        -0.15437E-01         0.00000E+00
    0.96473E-01        -0.14294E-01         0.00000E+00
    0.92515E-01        -0.13191E-01         0.00000E+00
    0.88482E-01        -0.12129E-01         0.00000E+00
    0.84376E-01        -0.11108E-01         0.00000E+00
    0.80199E-01        -0.10128E-01         0.00000E+00
    0.75951E-01        -0.91912E-02         0.00000E+00
    0.71636E-01        -0.82967E-02         0.00000E+00
    0.67254E-01        -0.74450E-02         0.00000E+00
    0.62808E-01        -0.66364E-02         0.00000E+00
    0.58299E-01        -0.58711E-02         0.00000E+00
    0.53729E-01        -0.51490E-02         0.00000E+00
    0.49100E-01        -0.44702E-02         0.00000E+00
    0.44415E-01        -0.38347E-02         0.00000E+00
    0.39674E-01        -0.32422E-02         0.00000E+00
    0.34880E-01        -0.26925E-02         0.00000E+00
    0.30035E-01        -0.21852E-02         0.00000E+00
    0.25141E-01        -0.17199E-02         0.00000E+00
    0.20199E-01        -0.12959E-02         0.00000E+00
    0.15213E-01        -0.91279E-03         0.00000E+00
    0.10182E-01        -0.56967E-03         0.00000E+00
    0.51109E-02        -0.26572E-03         0.00000E+00
    0.00000E+00         0.00000E+00         0.00000E+00
    0.18256E+00        -0.65704E-01         0.00000E+00
    0.18127E+00        -0.63696E-01         0.00000E+00
    0.17987E+00        -0.61693E-01         0.00000E+00
    0.17836E+00        -0.59698E-01         0.00000E+00
    0.17673E+00        -0.57712E-01         0.00000E+00
    0.17499E+00        -0.55738E-01         0.00000E+00
    0.17314E+00        -0.53776E-01         0.00000E+00
    0.17118E+00        -0.51829E-01         0.00000E+00
    0.16911E+00        -0.49899E-01         0.00000E+00
    0.16693E+00        -0.47987E-01         0.00000E+00
    0.16465E+00        -0.46094E-01         0.00000E+00
    0.16226E+00        -0.44223E-01         0.00000E+00
    0.15976E+00        -0.42374E-01         0.00000E+00
    0.15716E+00        -0.40550E-01         0.00000E+00
    0.15445E+00        -0.38752E-01         0.00000E+00
    0.15164E+00        -0.36982E-01         0.00000E+00
    0.14873E+00        -0.35240E-01         0.00000E+00
    0.14572E+00        -0.33528E-01         0.00000E+00
    0.14261E+00        -0.31847E-01         0.00000E+00
    0.13941E+00        -0.30200E-01         0.00000E+00
    0.13610E+00        -0.28586E-01         0.00000E+00
    0.13270E+00        -0.27008E-01         0.00000E+00
    0.12921E+00        -0.25466E-01         0.00000E+00
    0.12562E+00        -0.23961E-01         0.00000E+00
    0.12195E+00        -0.22495E-01         0.00000E+00
    0.11818E+00        -0.21068E-01         0.00000E+00
    0.11433E+00        -0.19682E-01         0.00000E+00
    0.11039E+00        -0.18338E-01         0.00000E+00
    0.10636E+00        -0.17036E-01         0.00000E+00
    0.10225E+00        -0.15777E-01         0.00000E+00
    0.98064E-01        -0.14561E-01         0.00000E+00
    0.93794E-01        -0.13391E-01         0.00000E+00
    0.89446E-01        -0.12265E-01         0.00000E+00
    0.85022E-01        -0.11186E-01         0.00000E+00
    0.80523E-01        -0.10152E-01         0.00000E+00
    0.75952E-01        -0.91657E-02         0.00000E+00
    0.71310E-01        -0.82261E-02         0.00000E+00
    0.66599E-01        -0.73338E-02         0.00000E+00
    0.61821E-01        -0.64891E-02         0.00000E+00
    0.56978E-01        -0.56919E-02         0.00000E+00
    0.52072E-01        -0.49423E-02         0.00000E+00
    0.47106E-01        -0.42403E-02         0.00000E+00
    0.42080E-01        -0.35857E-02         0.00000E+00
    0.36997E-01        -0.29782E-02         0.00000E+00
    0.31860E-01        -0.24174E-02         0.00000E+00
    0.26670E-01        -0.19028E-02         0.00000E+00
    0.21429E-01        -0.14340E-02         0.00000E+00
    0.16139E-01        -0.10101E-02         0.00000E+00
    0.10803E-01        -0.63046E-03         0.00000E+00
    0.54226E-02        -0.29409E-03         0.00000E+00
    0.00000E+00         0.00000E+00         0.00000E+00
    0.19370E+00        -0.72053E-01         0.00000E+00
    0.19233E+00        -0.69856E-01         0.00000E+00
    0.19084E+00        -0.67665E-01         0.00000E+00
    0.18924E+00        -0.65482E-01         0.00000E+00
    0.18751E+00        -0.63310E-01         0.00000E+00
    0.18567E+00        -0.61149E-01         0.00000E+00
    0.18371E+00        -0.59002E-01         0.00000E+00
    0.18164E+00        -0.56871E-01         0.00000E+00
    0.17944E+00        -0.54758E-01         0.00000E+00
    0.17714E+00        -0.52665E-01         0.00000E+00
    0.17472E+00        -0.50593E-01         0.00000E+00
    0.17219E+00        -0.48544E-01         0.00000E+00
    0.16954E+00        -0.46519E-01         0.00000E+00
    0.16679E+00        -0.44522E-01         0.00000E+00
    0.16392E+00        -0.42552E-01         0.00000E+00
    0.16095E+00        -0.40612E-01         0.00000E+00
    0.15787E+00        -0.38704E-01         0.00000E+00
    0.15468E+00        -0.36828E-01         0.00000E+00
    0.15139E+00        -0.34986E-01         0.00000E+00
    0.14799E+00        -0.33180E-01         0.00000E+00
    0.14449E+00        -0.31411E-01         0.00000E+00
    0.14089E+00        -0.29681E-01         0.00000E+00
    0.13719E+00        -0.27989E-01         0.00000E+00
    0.13339E+00        -0.26339E-01         0.00000E+00
    0.12949E+00        -0.24731E-01         0.00000E+00
    0.12550E+00        -0.23166E-01         0.00000E+00
    0.12141E+00        -0.21645E-01         0.00000E+00
    0.11724E+00        -0.20169E-01         0.00000E+00
    0.11297E+00        -0.18739E-01         0.00000E+00
    0.10861E+00        -0.17357E-01         0.00000E+00
    0.10417E+00        -0.16022E-01         0.00000E+00
    0.99637E-01        -0.14737E-01         0.00000E+00
    0.95024E-01        -0.13500E-01         0.00000E+00
    0.90329E-01        -0.12314E-01         0.00000E+00
    0.85555E-01        -0.11178E-01         0.00000E+00
    0.80704E-01        -0.10093E-01         0.00000E+00
    0.75776E-01        -0.90602E-02         0.00000E+00
    0.70775E-01        -0.80788E-02         0.00000E+00
    0.65702E-01        -0.71494E-02         0.00000E+00
    0.60559E-01        -0.62722E-02         0.00000E+00
    0.55348E-01        -0.54471E-02         0.00000E+00
    0.50072E-01        -0.46742E-02         0.00000E+00
    0.44733E-01        -0.39532E-02         0.00000E+00
    0.39332E-01        -0.32839E-02         0.00000E+00
    0.33873E-01        -0.26660E-02         0.00000E+00
    0.28356E-01        -0.20988E-02         0.00000E+00
    0.22785E-01        -0.15819E-02         0.00000E+00
    0.17162E-01        -0.11144E-02         0.00000E+00
    0.11488E-01        -0.69562E-03         0.00000E+00
    0.57670E-02        -0.32451E-03         0.00000E+00
    0.00000E+00         0.00000E+00         0.00000E+00
    0.20584E+00        -0.78793E-01         0.00000E+00
    0.20439E+00        -0.76396E-01         0.00000E+00
    0.20281E+00        -0.74006E-01         0.00000E+00
    0.20111E+00        -0.71624E-01         0.00000E+00
    0.19928E+00        -0.69253E-01         0.00000E+00
    0.19733E+00        -0.66895E-01         0.00000E+00
    0.19525E+00        -0.64552E-01         0.00000E+00
    0.19305E+00        -0.62226E-01         0.00000E+00
    0.19073E+00        -0.59920E-01         0.00000E+00
    0.18829E+00        -0.57634E-01         0.00000E+00
    0.18572E+00        -0.55372E-01         0.00000E+00
    0.18304E+00        -0.53134E-01         0.00000E+00
    0.18024E+00        -0.50923E-01         0.00000E+00
    0.17732E+00        -0.48741E-01         0.00000E+00
    0.17428E+00        -0.46590E-01         0.00000E+00
    0.17113E+00        -0.44471E-01         0.00000E+00
    0.16786E+00        -0.42385E-01         0.00000E+00
    0.16448E+00        -0.40335E-01         0.00000E+00
    0.16098E+00        -0.38322E-01         0.00000E+00
    0.15738E+00        -0.36348E-01         0.00000E+00
    0.15367E+00        -0.34414E-01         0.00000E+00
    0.14985E+00        -0.32522E-01         0.00000E+00
    0.14592E+00        -0.30673E-01         0.00000E+00
    0.14189E+00        -0.28868E-01         0.00000E+00
    0.13775E+00        -0.27109E-01         0.00000E+00
    0.13351E+00        -0.25396E-01         0.00000E+00
    0.12918E+00        -0.23732E-01         0.00000E+00
    0.12474E+00        -0.22117E-01         0.00000E+00
    0.12021E+00        -0.20552E-01         0.00000E+00
    0.11558E+00        -0.19039E-01         0.00000E+00
    0.11086E+00        -0.17578E-01         0.00000E+00
    0.10604E+00        -0.16169E-01         0.00000E+00
    0.10114E+00        -0.14815E-01         0.00000E+00
    0.96152E-01        -0.13515E-01         0.00000E+00
    0.91077E-01        -0.12271E-01         0.00000E+00
    0.85919E-01        -0.11082E-01         0.00000E+00
    0.80679E-01        -0.99491E-02         0.00000E+00
    0.75359E-01        -0.88729E-02         0.00000E+00
    0.69963E-01        -0.78535E-02         0.00000E+00
    0.64492E-01        -0.68911E-02         0.00000E+00
    0.58947E-01        -0.59857E-02         0.00000E+00
    0.53333E-01        -0.51372E-02         0.00000E+00
    0.47649E-01        -0.43456E-02         0.00000E+00
    0.41900E-01        -0.36105E-02         0.00000E+00
    0.36087E-01        -0.29315E-02         0.00000E+00
    0.30212E-01        -0.23082E-02         0.00000E+00
    0.24278E-01        -0.17399E-02         0.00000E+00
    0.18288E-01        -0.12259E-02         0.00000E+00
    0.12243E-01        -0.76529E-03         0.00000E+00
    0.61463E-02        -0.35703E-03         0.00000E+00
    0.00000E+00         0.00000E+00         0.00000E+00
    0.21906E+00        -0.85948E-01         0.00000E+00
    0.21752E+00        -0.83339E-01         0.00000E+00
    0.21584E+00        -0.80737E-01         0.00000E+00
    0.21404E+00        -0.78144E-01         0.00000E+00
    0.21210E+00        -0.75563E-01         0.00000E+00
    0.21003E+00        -0.72995E-01         0.00000E+00
    0.20782E+00        -0.70444E-01         0.00000E+00
    0.20549E+00        -0.67911E-01         0.00000E+00
    0.20303E+00        -0.65399E-01         0.00000E+00
    0.20044E+00        -0.62909E-01         0.00000E+00
    0.19772E+00        -0.60444E-01         0.00000E+00
    0.19487E+00        -0.58006E-01         0.00000E+00
    0.19190E+00        -0.55598E-01         0.00000E+00
    0.18880E+00        -0.53220E-01         0.00000E+00
    0.18557E+00        -0.50875E-01         0.00000E+00
    0.18223E+00        -0.48565E-01         0.00000E+00
    0.17876E+00        -0.46292E-01         0.00000E+00
    0.17517E+00        -0.44057E-01         0.00000E+00
    0.17146E+00        -0.41862E-01         0.00000E+00
    0.16763E+00        -0.39710E-01         0.00000E+00
    0.16369E+00        -0.37600E-01         0.00000E+00
    0.15963E+00        -0.35536E-01         0.00000E+00
    0.15546E+00        -0.33519E-01         0.00000E+00
    0.15117E+00        -0.31550E-01         0.00000E+00
    0.14677E+00        -0.29631E-01         0.00000E+00
    0.14227E+00        -0.27762E-01         0.00000E+00
    0.13766E+00        -0.25946E-01         0.00000E+00
    0.13294E+00        -0.24183E-01         0.00000E+00
    0.12812E+00        -0.22475E-01         0.00000E+00
    0.12319E+00        -0.20823E-01         0.00000E+00
    0.11817E+00        -0.19227E-01         0.00000E+00
    0.11305E+00        -0.17689E-01         0.00000E+00
    0.10783E+00        -0.16210E-01         0.00000E+00
    0.10252E+00        -0.14790E-01         0.00000E+00
    0.97118E-01        -0.13430E-01         0.00000E+00
    0.91625E-01        -0.12131E-01         0.00000E+00
    0.86045E-01        -0.10893E-01         0.00000E+00
    0.80379E-01        -0.97161E-02         0.00000E+00
    0.74629E-01        -0.86013E-02         0.00000E+00
    0.68799E-01        -0.75485E-02         0.00000E+00
    0.62890E-01        -0.65578E-02         0.00000E+00
    0.56905E-01        -0.56292E-02         0.00000E+00
    0.50846E-01        -0.47626E-02         0.00000E+00
    0.44715E-01        -0.39576E-02         0.00000E+00
    0.38515E-01        -0.32139E-02         0.00000E+00
    0.32248E-01        -0.25309E-02         0.00000E+00
    0.25917E-01        -0.19081E-02         0.00000E+00
    0.19524E-01        -0.13446E-02         0.00000E+00
    0.13072E-01        -0.83943E-03         0.00000E+00
    0.65630E-02        -0.39164E-03         0.00000E+00
    0.00000E+00         0.00000E+00         0.00000E+00
    0.23340E+00        -0.93541E-01         0.00000E+00
    0.23176E+00        -0.90706E-01         0.00000E+00
    0.22999E+00        -0.87879E-01         0.00000E+00
    0.22807E+00        -0.85061E-01         0.00000E+00
    0.22602E+00        -0.82255E-01         0.00000E+00
    0.22382E+00        -0.79464E-01         0.00000E+00
    0.22148E+00        -0.76691E-01         0.00000E+00
    0.21901E+00        -0.73937E-01         0.00000E+00
    0.21639E+00        -0.71206E-01         0.00000E+00
    0.21364E+00        -0.68499E-01         0.00000E+00
    0.21076E+00        -0.65819E-01         0.00000E+00
    0.20773E+00        -0.63168E-01         0.00000E+00
    0.20458E+00        -0.60548E-01         0.00000E+00
    0.20129E+00        -0.57962E-01         0.00000E+00
    0.19786E+00        -0.55411E-01         0.00000E+00
    0.19431E+00        -0.52898E-01         0.00000E+00
    0.19062E+00        -0.50425E-01         0.00000E+00
    0.18681E+00        -0.47994E-01         0.00000E+00
    0.18286E+00        -0.45606E-01         0.00000E+00
    0.17879E+00        -0.43263E-01         0.00000E+00
    0.17460E+00        -0.40968E-01         0.00000E+00
    0.17028E+00        -0.38722E-01         0.00000E+00
    0.16584E+00        -0.36527E-01         0.00000E+00
    0.16128E+00        -0.34384E-01         0.00000E+00
    0.15660E+00        -0.32295E-01         0.00000E+00
    0.15181E+00        -0.30261E-01         0.00000E+00
    0.14690E+00        -0.28283E-01         0.00000E+00
    0.14188E+00        -0.26364E-01         0.00000E+00
    0.13674E+00        -0.24505E-01         0.00000E+00
    0.13150E+00        -0.22705E-01         0.00000E+00
    0.12615E+00        -0.20968E-01         0.00000E+00
    0.12069E+00        -0.19293E-01         0.00000E+00
    0.11513E+00        -0.17682E-01         0.00000E+00
    0.10947E+00        -0.16135E-01         0.00000E+00
    0.10371E+00        -0.14653E-01         0.00000E+00
    0.97851E-01        -0.13237E-01         0.00000E+00
    0.91900E-01        -0.11888E-01         0.00000E+00
    0.85856E-01        -0.10605E-01         0.00000E+00
    0.79723E-01        -0.93899E-02         0.00000E+00
    0.73502E-01        -0.82419E-02         0.00000E+00
    0.67196E-01        -0.71614E-02         0.00000E+00
    0.60807E-01        -0.61483E-02         0.00000E+00
    0.54338E-01        -0.52026E-02         0.00000E+00
    0.47791E-01        -0.43239E-02         0.00000E+00
    0.41169E-01        -0.35119E-02         0.00000E+00
    0.34474E-01        -0.27661E-02         0.00000E+00
    0.27709E-01        -0.20856E-02         0.00000E+00
    0.20876E-01        -0.14698E-02         0.00000E+00
    0.13979E-01        -0.91772E-03         0.00000E+00
    0.70192E-02        -0.42820E-03         0.00000E+00
    0.00000E+00         0.00000E+00         0.00000E+00
    0.24892E+00        -0.10159E+00         0.00000E+00
    0.24719E+00        -0.98511E-01         0.00000E+00
    0.24531E+00        -0.95443E-01         0.00000E+00
    0.24328E+00        -0.92385E-01         0.00000E+00
    0.24110E+00        -0.89340E-01         0.00000E+00
    0.23877E+00        -0.86311E-01         0.00000E+00
    0.23630E+00        -0.83300E-01         0.00000E+00
    0.23367E+00        -0.80311E-01         0.00000E+00
    0.23090E+00        -0.77345E-01         0.00000E+00
    0.22798E+00        -0.74406E-01         0.00000E+00
    0.22491E+00        -0.71496E-01         0.00000E+00
    0.22170E+00        -0.68617E-01         0.00000E+00
    0.21835E+00        -0.65773E-01         0.00000E+00
    0.21485E+00        -0.62964E-01         0.00000E+00
    0.21121E+00        -0.60194E-01         0.00000E+00
    0.20743E+00        -0.57466E-01         0.00000E+00
    0.20351E+00        -0.54780E-01         0.00000E+00
    0.19945E+00        -0.52139E-01         0.00000E+00
    0.19525E+00        -0.49546E-01         0.00000E+00
    0.19092E+00        -0.47002E-01         0.00000E+00
    0.18645E+00        -0.44510E-01         0.00000E+00
    0.18186E+00        -0.42070E-01         0.00000E+00
    0.17713E+00        -0.39686E-01         0.00000E+00
    0.17227E+00        -0.37359E-01         0.00000E+00
    0.16729E+00        -0.35090E-01         0.00000E+00
    0.16218E+00        -0.32881E-01         0.00000E+00
    0.15694E+00        -0.30734E-01         0.00000E+00
    0.15159E+00        -0.28650E-01         0.00000E+00
    0.14611E+00        -0.26631E-01         0.00000E+00
    0.14052E+00        -0.24677E-01         0.00000E+00
    0.13482E+00        -0.22790E-01         0.00000E+00
    0.12899E+00        -0.20971E-01         0.00000E+00
    0.12306E+00        -0.19221E-01         0.00000E+00
    0.11702E+00        -0.17541E-01         0.00000E+00
    0.11088E+00        -0.15932E-01         0.00000E+00
    0.10462E+00        -0.14394E-01         0.00000E+00
    0.98270E-01        -0.12928E-01         0.00000E+00
    0.91817E-01        -0.11534E-01         0.00000E+00
    0.85266E-01        -0.10214E-01         0.00000E+00
    0.78621E-01        -0.89661E-02         0.00000E+00
    0.71883E-01        -0.77917E-02         0.00000E+00
    0.65056E-01        -0.66904E-02         0.00000E+00
    0.58141E-01        -0.56620E-02         0.00000E+00
    0.51142E-01        -0.47064E-02         0.00000E+00
    0.44061E-01        -0.38231E-02         0.00000E+00
    0.36900E-01        -0.30116E-02         0.00000E+00
    0.29663E-01        -0.22710E-02         0.00000E+00
    0.22351E-01        -0.16007E-02         0.00000E+00
    0.14968E-01        -0.99949E-03         0.00000E+00
    0.75171E-02        -0.46636E-03         0.00000E+00
    0.00000E+00         0.00000E+00         0.00000E+00
    0.26570E+00        -0.11010E+00         0.00000E+00
    0.26387E+00        -0.10676E+00         0.00000E+00
    0.26189E+00        -0.10344E+00         0.00000E+00
    0.25974E+00        -0.10012E+00         0.00000E+00
    0.25743E+00        -0.96818E-01         0.00000E+00
    0.25496E+00        -0.93534E-01         0.00000E+00
    0.25233E+00        -0.90269E-01         0.00000E+00
    0.24955E+00        -0.87027E-01         0.00000E+00
    0.24661E+00        -0.83811E-01         0.00000E+00
    0.24351E+00        -0.80623E-01         0.00000E+00
    0.24025E+00        -0.77467E-01         0.00000E+00
    0.23684E+00        -0.74345E-01         0.00000E+00
    0.23327E+00        -0.71260E-01         0.00000E+00
    0.22955E+00        -0.68214E-01         0.00000E+00
    0.22568E+00        -0.65211E-01         0.00000E+00
    0.22165E+00        -0.62251E-01         0.00000E+00
    0.21748E+00        -0.59339E-01         0.00000E+00
    0.21315E+00        -0.56476E-01         0.00000E+00
    0.20868E+00        -0.53665E-01         0.00000E+00
    0.20407E+00        -0.50907E-01         0.00000E+00
    0.19931E+00        -0.48205E-01         0.00000E+00
    0.19441E+00        -0.45562E-01         0.00000E+00
    0.18937E+00        -0.42978E-01         0.00000E+00
    0.18419E+00        -0.40456E-01         0.00000E+00
    0.17887E+00        -0.37998E-01         0.00000E+00
    0.17342E+00        -0.35605E-01         0.00000E+00
    0.16784E+00        -0.33279E-01         0.00000E+00
    0.16212E+00        -0.31022E-01         0.00000E+00
    0.15628E+00        -0.28835E-01         0.00000E+00
    0.15031E+00        -0.26719E-01         0.00000E+00
    0.14421E+00        -0.24676E-01         0.00000E+00
    0.13800E+00        -0.22707E-01         0.00000E+00
    0.13166E+00        -0.20812E-01         0.00000E+00
    0.12521E+00        -0.18994E-01         0.00000E+00
    0.11865E+00        -0.17252E-01         0.00000E+00
    0.11197E+00        -0.15587E-01         0.00000E+00
    0.10518E+00        -0.14000E-01         0.00000E+00
    0.98279E-01        -0.12492E-01         0.00000E+00
    0.91277E-01        -0.11062E-01         0.00000E+00
    0.84172E-01        -0.97119E-02         0.00000E+00
    0.76967E-01        -0.84405E-02         0.00000E+00
    0.69665E-01        -0.72482E-02         0.00000E+00
    0.62267E-01        -0.61347E-02         0.00000E+00
    0.54778E-01        -0.50999E-02         0.00000E+00
    0.47199E-01        -0.41432E-02         0.00000E+00
    0.39534E-01        -0.32640E-02         0.00000E+00
    0.31784E-01        -0.24616E-02         0.00000E+00
    0.23953E-01        -0.17351E-02         0.00000E+00
    0.16043E-01        -0.10835E-02         0.00000E+00
    0.80582E-02        -0.50559E-03         0.00000E+00
    0.00000E+00         0.00000E+00         0.00000E+00
    0.28382E+00        -0.11907E+00         0.00000E+00
    0.28189E+00        -0.11546E+00         0.00000E+00
    0.27979E+00        -0.11185E+00         0.00000E+00
    0.27752E+00        -0.10826E+00         0.00000E+00
    0.27508E+00        -0.10468E+00         0.00000E+00
    0.27247E+00        -0.10112E+00         0.00000E+00
    0.26968E+00        -0.97585E-01         0.00000E+00
    0.26673E+00        -0.94072E-01         0.00000E+00
    0.26361E+00        -0.90586E-01         0.00000E+00
    0.26031E+00        -0.87132E-01         0.00000E+00
    0.25685E+00        -0.83712E-01         0.00000E+00
    0.25322E+00        -0.80329E-01         0.00000E+00
    0.24943E+00        -0.76986E-01         0.00000E+00
    0.24546E+00        -0.73687E-01         0.00000E+00
    0.24134E+00        -0.70433E-01         0.00000E+00
    0.23705E+00        -0.67228E-01         0.00000E+00
    0.23260E+00        -0.64074E-01         0.00000E+00
    0.22799E+00        -0.60975E-01         0.00000E+00
    0.22323E+00        -0.57932E-01         0.00000E+00
    0.21830E+00        -0.54947E-01         0.00000E+00
    0.21322E+00        -0.52024E-01         0.00000E+00
    0.20799E+00        -0.49164E-01         0.00000E+00
    0.20261E+00        -0.46370E-01         0.00000E+00
    0.19708E+00        -0.43644E-01         0.00000E+00
    0.19140E+00        -0.40986E-01         0.00000E+00
    0.18558E+00        -0.38401E-01         0.00000E+00
    0.17961E+00        -0.35888E-01         0.00000E+00
    0.17351E+00        -0.33450E-01         0.00000E+00
    0.16726E+00        -0.31089E-01         0.00000E+00
    0.16089E+00        -0.28805E-01         0.00000E+00
    0.15437E+00        -0.26600E-01         0.00000E+00
    0.14773E+00        -0.24475E-01         0.00000E+00
    0.14096E+00        -0.22431E-01         0.00000E+00
    0.13406E+00        -0.20470E-01         0.00000E+00
    0.12704E+00        -0.18591E-01         0.00000E+00
    0.11990E+00        -0.16797E-01         0.00000E+00
    0.11263E+00        -0.15086E-01         0.00000E+00
    0.10526E+00        -0.13461E-01         0.00000E+00
    0.97767E-01        -0.11920E-01         0.00000E+00
    0.90166E-01        -0.10465E-01         0.00000E+00
    0.82457E-01        -0.90953E-02         0.00000E+00
    0.74642E-01        -0.78107E-02         0.00000E+00
    0.66724E-01        -0.66111E-02         0.00000E+00
    0.58706E-01        -0.54961E-02         0.00000E+00
    0.50590E-01        -0.44653E-02         0.00000E+00
    0.42379E-01        -0.35180E-02         0.00000E+00
    0.34076E-01        -0.26533E-02         0.00000E+00
    0.25684E-01        -0.18703E-02         0.00000E+00
    0.17206E-01        -0.11680E-02         0.00000E+00
    0.86433E-02        -0.54499E-03         0.00000E+00
    0.00000E+00         0.00000E+00         0.00000E+00
    0.30335E+00        -0.12850E+00         0.00000E+00
    0.30133E+00        -0.12459E+00         0.00000E+00
    0.29912E+00        -0.12068E+00         0.00000E+00
    0.29673E+00        -0.11679E+00         0.00000E+00
    0.29415E+00        -0.11291E+00         0.00000E+00
    0.29138E+00        -0.10906E+00         0.00000E+00
    0.28844E+00        -0.10522E+00         0.00000E+00
    0.28530E+00        -0.10142E+00         0.00000E+00
    0.28199E+00        -0.97640E-01         0.00000E+00
    0.27849E+00        -0.93898E-01         0.00000E+00
    0.27480E+00        -0.90194E-01         0.00000E+00
    0.27094E+00        -0.86531E-01         0.00000E+00
    0.26690E+00        -0.82911E-01         0.00000E+00
    0.26268E+00        -0.79340E-01         0.00000E+00
    0.25828E+00        -0.75819E-01         0.00000E+00
    0.25370E+00        -0.72351E-01         0.00000E+00
    0.24895E+00        -0.68941E-01         0.00000E+00
    0.24403E+00        -0.65589E-01         0.00000E+00
    0.23894E+00        -0.62300E-01         0.00000E+00
    0.23368E+00        -0.59076E-01         0.00000E+00
    0.22825E+00        -0.55919E-01         0.00000E+00
    0.22266E+00        -0.52832E-01         0.00000E+00
    0.21691E+00        -0.49816E-01         0.00000E+00
    0.21099E+00        -0.46875E-01         0.00000E+00
    0.20492E+00        -0.44010E-01         0.00000E+00
    0.19869E+00        -0.41224E-01         0.00000E+00
    0.19231E+00        -0.38517E-01         0.00000E+00
    0.18578E+00        -0.35892E-01         0.00000E+00
    0.17910E+00        -0.33350E-01         0.00000E+00
    0.17228E+00        -0.30893E-01         0.00000E+00
    0.16531E+00        -0.28522E-01         0.00000E+00
    0.15821E+00        -0.26239E-01         0.00000E+00
    0.15096E+00        -0.24043E-01         0.00000E+00
    0.14358E+00        -0.21937E-01         0.00000E+00
    0.13607E+00        -0.19920E-01         0.00000E+00
    0.12843E+00        -0.17994E-01         0.00000E+00
    0.12066E+00        -0.16160E-01         0.00000E+00
    0.11276E+00        -0.14417E-01         0.00000E+00
    0.10474E+00        -0.12765E-01         0.00000E+00
    0.96608E-01        -0.11206E-01         0.00000E+00
    0.88356E-01        -0.97383E-02         0.00000E+00
    0.79989E-01        -0.83623E-02         0.00000E+00
    0.71511E-01        -0.70775E-02         0.00000E+00
    0.62925E-01        -0.58837E-02         0.00000E+00
    0.54232E-01        -0.47800E-02         0.00000E+00
    0.45436E-01        -0.37658E-02         0.00000E+00
    0.36540E-01        -0.28402E-02         0.00000E+00
    0.27545E-01        -0.20020E-02         0.00000E+00
    0.18455E-01        -0.12502E-02         0.00000E+00
    0.92724E-02        -0.58334E-03         0.00000E+00
    0.00000E+00         0.00000E+00         0.00000E+00
    0.32442E+00        -0.13837E+00         0.00000E+00
    0.32230E+00        -0.13413E+00         0.00000E+00
    0.31999E+00        -0.12990E+00         0.00000E+00
    0.31747E+00        -0.12568E+00         0.00000E+00
    0.31475E+00        -0.12148E+00         0.00000E+00
    0.31182E+00        -0.11730E+00         0.00000E+00
    0.30870E+00        -0.11314E+00         0.00000E+00
    0.30538E+00        -0.10902E+00         0.00000E+00
    0.30185E+00        -0.10493E+00         0.00000E+00
    0.29813E+00        -0.10087E+00         0.00000E+00
    0.29421E+00        -0.96862E-01         0.00000E+00
    0.29009E+00        -0.92896E-01         0.00000E+00
    0.28578E+00        -0.88980E-01         0.00000E+00
    0.28127E+00        -0.85116E-01         0.00000E+00
    0.27657E+00        -0.81308E-01         0.00000E+00
    0.27168E+00        -0.77560E-01         0.00000E+00
    0.26661E+00        -0.73876E-01         0.00000E+00
    0.26134E+00        -0.70257E-01         0.00000E+00
    0.25589E+00        -0.66707E-01         0.00000E+00
    0.25026E+00        -0.63229E-01         0.00000E+00
    0.24445E+00        -0.59826E-01         0.00000E+00
    0.23847E+00        -0.56499E-01         0.00000E+00
    0.23231E+00        -0.53253E-01         0.00000E+00
    0.22597E+00        -0.50088E-01         0.00000E+00
    0.21947E+00        -0.47008E-01         0.00000E+00
    0.21280E+00        -0.44013E-01         0.00000E+00
    0.20597E+00        -0.41107E-01         0.00000E+00
    0.19897E+00        -0.38290E-01         0.00000E+00
    0.19182E+00        -0.35564E-01         0.00000E+00
    0.18451E+00        -0.32931E-01         0.00000E+00
    0.17705E+00        -0.30392E-01         0.00000E+00
    0.16944E+00        -0.27948E-01         0.00000E+00
    0.16168E+00        -0.25601E-01         0.00000E+00
    0.15378E+00        -0.23350E-01         0.00000E+00
    0.14574E+00        -0.21196E-01         0.00000E+00
    0.13755E+00        -0.19141E-01         0.00000E+00
    0.12923E+00        -0.17184E-01         0.00000E+00
    0.12078E+00        -0.15326E-01         0.00000E+00
    0.11220E+00        -0.13567E-01         0.00000E+00
    0.10349E+00        -0.11907E-01         0.00000E+00
    0.94656E-01        -0.10345E-01         0.00000E+00
    0.85699E-01        -0.88815E-02         0.00000E+00
    0.76622E-01        -0.75156E-02         0.00000E+00
    0.67428E-01        -0.62468E-02         0.00000E+00
    0.58119E-01        -0.50743E-02         0.00000E+00
    0.48698E-01        -0.39972E-02         0.00000E+00
    0.39167E-01        -0.30143E-02         0.00000E+00
    0.29530E-01        -0.21246E-02         0.00000E+00
    0.19788E-01        -0.13266E-02         0.00000E+00
    0.99435E-02        -0.61894E-03         0.00000E+00
    0.00000E+00         0.00000E+00         0.00000E+00
    0.34715E+00        -0.14865E+00         0.00000E+00
    0.34494E+00        -0.14405E+00         0.00000E+00
    0.34252E+00        -0.13946E+00         0.00000E+00
    0.33987E+00        -0.13488E+00         0.00000E+00
    0.33700E+00        -0.13033E+00         0.00000E+00
    0.33391E+00        -0.12579E+00         0.00000E+00
    0.33061E+00        -0.12129E+00         0.00000E+00
    0.32708E+00        -0.11682E+00         0.00000E+00
    0.32333E+00        -0.11238E+00         0.00000E+00
    0.31936E+00        -0.10799E+00         0.00000E+00
    0.31518E+00        -0.10365E+00         0.00000E+00
    0.31079E+00        -0.99353E-01         0.00000E+00
    0.30618E+00        -0.95116E-01         0.00000E+00
    0.30136E+00        -0.90937E-01         0.00000E+00
    0.29633E+00        -0.86822E-01         0.00000E+00
    0.29109E+00        -0.82774E-01         0.00000E+00
    0.28565E+00        -0.78797E-01         0.00000E+00
    0.28000E+00        -0.74894E-01         0.00000E+00
    0.27416E+00        -0.71068E-01         0.00000E+00
    0.26812E+00        -0.67323E-01         0.00000E+00
    0.26189E+00        -0.63660E-01         0.00000E+00
    0.25547E+00        -0.60084E-01         0.00000E+00
    0.24885E+00        -0.56597E-01         0.00000E+00
    0.24206E+00        -0.53201E-01         0.00000E+00
    0.23508E+00        -0.49898E-01         0.00000E+00
    0.22793E+00        -0.46690E-01         0.00000E+00
    0.22060E+00        -0.43580E-01         0.00000E+00
    0.21309E+00        -0.40569E-01         0.00000E+00
    0.20542E+00        -0.37658E-01         0.00000E+00
    0.19759E+00        -0.34849E-01         0.00000E+00
    0.18959E+00        -0.32143E-01         0.00000E+00
    0.18143E+00        -0.29541E-01         0.00000E+00
    0.17311E+00        -0.27043E-01         0.00000E+00
    0.16465E+00        -0.24652E-01         0.00000E+00
    0.15603E+00        -0.22366E-01         0.00000E+00
    0.14726E+00        -0.20186E-01         0.00000E+00
    0.13836E+00        -0.18114E-01         0.00000E+00
    0.12931E+00        -0.16147E-01         0.00000E+00
    0.12012E+00        -0.14287E-01         0.00000E+00
    0.11079E+00        -0.12533E-01         0.00000E+00
    0.10134E+00        -0.10884E-01         0.00000E+00
    0.91751E-01        -0.93408E-02         0.00000E+00
    0.82036E-01        -0.79014E-02         0.00000E+00
    0.72195E-01        -0.65653E-02         0.00000E+00
    0.62232E-01        -0.53314E-02         0.00000E+00
    0.52149E-01        -0.41985E-02         0.00000E+00
    0.41946E-01        -0.31654E-02         0.00000E+00
    0.31628E-01        -0.22306E-02         0.00000E+00
    0.21197E-01        -0.13925E-02         0.00000E+00
    0.10653E-01        -0.64958E-03         0.00000E+00
    0.00000E+00         0.00000E+00         0.00000E+00
    0.37169E+00        -0.15930E+00         0.00000E+00
    0.36940E+00        -0.15430E+00         0.00000E+00
    0.36687E+00        -0.14932E+00         0.00000E+00
    0.36410E+00        -0.14435E+00         0.00000E+00
    0.36108E+00        -0.13940E+00         0.00000E+00
    0.35781E+00        -0.13448E+00         0.00000E+00
    0.35431E+00        -0.12959E+00         0.00000E+00
    0.35055E+00        -0.12474E+00         0.00000E+00
    0.34656E+00        -0.11993E+00         0.00000E+00
    0.34233E+00        -0.11517E+00         0.00000E+00
    0.33786E+00        -0.11046E+00         0.00000E+00
    0.33315E+00        -0.10581E+00         0.00000E+00
    0.32821E+00        -0.10123E+00         0.00000E+00
    0.32304E+00        -0.96709E-01         0.00000E+00
    0.31764E+00        -0.92263E-01         0.00000E+00
    0.31201E+00        -0.87893E-01         0.00000E+00
    0.30616E+00        -0.83604E-01         0.00000E+00
    0.30010E+00        -0.79398E-01         0.00000E+00
    0.29381E+00        -0.75281E-01         0.00000E+00
    0.28732E+00        -0.71253E-01         0.00000E+00
    0.28061E+00        -0.67320E-01         0.00000E+00
    0.27371E+00        -0.63484E-01         0.00000E+00
    0.26659E+00        -0.59747E-01         0.00000E+00
    0.25929E+00        -0.56113E-01         0.00000E+00
    0.25178E+00        -0.52582E-01         0.00000E+00
    0.24409E+00        -0.49159E-01         0.00000E+00
    0.23621E+00        -0.45843E-01         0.00000E+00
    0.22815E+00        -0.42637E-01         0.00000E+00
    0.21991E+00        -0.39542E-01         0.00000E+00
    0.21150E+00        -0.36560E-01         0.00000E+00
    0.20291E+00        -0.33691E-01         0.00000E+00
    0.19416E+00        -0.30937E-01         0.00000E+00
    0.18524E+00        -0.28297E-01         0.00000E+00
    0.17616E+00        -0.25772E-01         0.00000E+00
    0.16692E+00        -0.23363E-01         0.00000E+00
    0.15753E+00        -0.21069E-01         0.00000E+00
    0.14799E+00        -0.18890E-01         0.00000E+00
    0.13829E+00        -0.16826E-01         0.00000E+00
    0.12846E+00        -0.14876E-01         0.00000E+00
    0.11848E+00        -0.13041E-01         0.00000E+00
    0.10836E+00        -0.11317E-01         0.00000E+00
    0.98108E-01        -0.97060E-02         0.00000E+00
    0.87718E-01        -0.82052E-02         0.00000E+00
    0.77196E-01        -0.68138E-02         0.00000E+00
    0.66543E-01        -0.55302E-02         0.00000E+00
    0.55762E-01        -0.43529E-02         0.00000E+00
    0.44855E-01        -0.32804E-02         0.00000E+00
    0.33824E-01        -0.23107E-02         0.00000E+00
    0.22670E-01        -0.14421E-02         0.00000E+00
    0.11395E-01        -0.67250E-03         0.00000E+00
    0.00000E+00         0.00000E+00         0.00000E+00
    0.39826E+00        -0.17027E+00         0.00000E+00
    0.39590E+00        -0.16484E+00         0.00000E+00
    0.39326E+00        -0.15941E+00         0.00000E+00
    0.39035E+00        -0.15401E+00         0.00000E+00
    0.38717E+00        -0.14863E+00         0.00000E+00
    0.38371E+00        -0.14328E+00         0.00000E+00
    0.37998E+00        -0.13796E+00         0.00000E+00
    0.37598E+00        -0.13269E+00         0.00000E+00
    0.37172E+00        -0.12747E+00         0.00000E+00
    0.36719E+00        -0.12230E+00         0.00000E+00
    0.36239E+00        -0.11720E+00         0.00000E+00
    0.35733E+00        -0.11217E+00         0.00000E+00
    0.35202E+00        -0.10720E+00         0.00000E+00
    0.34645E+00        -0.10232E+00         0.00000E+00
    0.34063E+00        -0.97515E-01         0.00000E+00
    0.33457E+00        -0.92800E-01         0.00000E+00
    0.32826E+00        -0.88178E-01         0.00000E+00
    0.32171E+00        -0.83651E-01         0.00000E+00
    0.31493E+00        -0.79224E-01         0.00000E+00
    0.30792E+00        -0.74901E-01         0.00000E+00
    0.30069E+00        -0.70685E-01         0.00000E+00
    0.29324E+00        -0.66578E-01         0.00000E+00
    0.28557E+00        -0.62585E-01         0.00000E+00
    0.27768E+00        -0.58706E-01         0.00000E+00
    0.26960E+00        -0.54946E-01         0.00000E+00
    0.26131E+00        -0.51304E-01         0.00000E+00
    0.25282E+00        -0.47784E-01         0.00000E+00
    0.24414E+00        -0.44387E-01         0.00000E+00
    0.23527E+00        -0.41113E-01         0.00000E+00
    0.22622E+00        -0.37965E-01         0.00000E+00
    0.21699E+00        -0.34941E-01         0.00000E+00
    0.20759E+00        -0.32044E-01         0.00000E+00
    0.19801E+00        -0.29273E-01         0.00000E+00
    0.18827E+00        -0.26628E-01         0.00000E+00
    0.17836E+00        -0.24108E-01         0.00000E+00
    0.16829E+00        -0.21715E-01         0.00000E+00
    0.15807E+00        -0.19446E-01         0.00000E+00
    0.14769E+00        -0.17301E-01         0.00000E+00
    0.13717E+00        -0.15279E-01         0.00000E+00
    0.12649E+00        -0.13378E-01         0.00000E+00
    0.11568E+00        -0.11598E-01         0.00000E+00
    0.10472E+00        -0.99362E-02         0.00000E+00
    0.93616E-01        -0.83915E-02         0.00000E+00
    0.82379E-01        -0.69620E-02         0.00000E+00
    0.71006E-01        -0.56456E-02         0.00000E+00
    0.59499E-01        -0.44403E-02         0.00000E+00
    0.47860E-01        -0.33438E-02         0.00000E+00
    0.36089E-01        -0.23539E-02         0.00000E+00
    0.24189E-01        -0.14682E-02         0.00000E+00
    0.12158E-01        -0.68439E-03         0.00000E+00
    0.00000E+00         0.00000E+00         0.00000E+00
    0.42710E+00        -0.18152E+00         0.00000E+00
    0.42467E+00        -0.17560E+00         0.00000E+00
    0.42192E+00        -0.16969E+00         0.00000E+00
    0.41887E+00        -0.16380E+00         0.00000E+00
    0.41551E+00        -0.15793E+00         0.00000E+00
    0.41184E+00        -0.15211E+00         0.00000E+00
    0.40786E+00        -0.14632E+00         0.00000E+00
    0.40359E+00        -0.14058E+00         0.00000E+00
    0.39901E+00        -0.13491E+00         0.00000E+00
    0.39413E+00        -0.12930E+00         0.00000E+00
    0.38896E+00        -0.12376E+00         0.00000E+00
    0.38351E+00        -0.11830E+00         0.00000E+00
    0.37776E+00        -0.11293E+00         0.00000E+00
    0.37174E+00        -0.10764E+00         0.00000E+00
    0.36544E+00        -0.10245E+00         0.00000E+00
    0.35888E+00        -0.97368E-01         0.00000E+00
    0.35204E+00        -0.92388E-01         0.00000E+00
    0.34495E+00        -0.87520E-01         0.00000E+00
    0.33761E+00        -0.82767E-01         0.00000E+00
    0.33001E+00        -0.78133E-01         0.00000E+00
    0.32218E+00        -0.73621E-01         0.00000E+00
    0.31410E+00        -0.69235E-01         0.00000E+00
    0.30580E+00        -0.64979E-01         0.00000E+00
    0.29727E+00        -0.60853E-01         0.00000E+00
    0.28853E+00        -0.56860E-01         0.00000E+00
    0.27957E+00        -0.53003E-01         0.00000E+00
    0.27041E+00        -0.49282E-01         0.00000E+00
    0.26104E+00        -0.45699E-01         0.00000E+00
    0.25148E+00        -0.42255E-01         0.00000E+00
    0.24172E+00        -0.38951E-01         0.00000E+00
    0.23178E+00        -0.35785E-01         0.00000E+00
    0.22167E+00        -0.32760E-01         0.00000E+00
    0.21137E+00        -0.29873E-01         0.00000E+00
    0.20091E+00        -0.27125E-01         0.00000E+00
    0.19027E+00        -0.24515E-01         0.00000E+00
    0.17948E+00        -0.22042E-01         0.00000E+00
    0.16853E+00        -0.19704E-01         0.00000E+00
    0.15742E+00        -0.17501E-01         0.00000E+00
    0.14616E+00        -0.15429E-01         0.00000E+00
    0.13475E+00        -0.13487E-01         0.00000E+00
    0.12319E+00        -0.11673E-01         0.00000E+00
    0.11150E+00        -0.99850E-02         0.00000E+00
    0.99657E-01        -0.84200E-02         0.00000E+00
    0.87678E-01        -0.69756E-02         0.00000E+00
    0.75560E-01        -0.56490E-02         0.00000E+00
    0.63306E-01        -0.44374E-02         0.00000E+00
    0.50915E-01        -0.33378E-02         0.00000E+00
    0.38389E-01        -0.23473E-02         0.00000E+00
    0.25728E-01        -0.14629E-02         0.00000E+00
    0.12932E-01        -0.68145E-03         0.00000E+00
    0.00000E+00         0.00000E+00         0.00000E+00
    0.45854E+00        -0.19303E+00         0.00000E+00
    0.45604E+00        -0.18656E+00         0.00000E+00
    0.45318E+00        -0.18010E+00         0.00000E+00
    0.44996E+00        -0.17366E+00         0.00000E+00
    0.44640E+00        -0.16725E+00         0.00000E+00
    0.44249E+00        -0.16089E+00         0.00000E+00
    0.43822E+00        -0.15458E+00         0.00000E+00
    0.43362E+00        -0.14833E+00         0.00000E+00
    0.42868E+00        -0.14215E+00         0.00000E+00
    0.42341E+00        -0.13605E+00         0.00000E+00
    0.41780E+00        -0.13003E+00         0.00000E+00
    0.41188E+00        -0.12410E+00         0.00000E+00
    0.40564E+00        -0.11828E+00         0.00000E+00
    0.39909E+00        -0.11256E+00         0.00000E+00
    0.39223E+00        -0.10695E+00         0.00000E+00
    0.38508E+00        -0.10147E+00         0.00000E+00
    0.37764E+00        -0.96107E-01         0.00000E+00
    0.36992E+00        -0.90874E-01         0.00000E+00
    0.36192E+00        -0.85775E-01         0.00000E+00
    0.35366E+00        -0.80815E-01         0.00000E+00
    0.34513E+00        -0.75996E-01         0.00000E+00
    0.33636E+00        -0.71322E-01         0.00000E+00
    0.32733E+00        -0.66796E-01         0.00000E+00
    0.31808E+00        -0.62420E-01         0.00000E+00
    0.30859E+00        -0.58196E-01         0.00000E+00
    0.29887E+00        -0.54126E-01         0.00000E+00
    0.28895E+00        -0.50211E-01         0.00000E+00
    0.27881E+00        -0.46452E-01         0.00000E+00
    0.26847E+00        -0.42849E-01         0.00000E+00
    0.25794E+00        -0.39403E-01         0.00000E+00
    0.24722E+00        -0.36112E-01         0.00000E+00
    0.23632E+00        -0.32977E-01         0.00000E+00
    0.22524E+00        -0.29996E-01         0.00000E+00
    0.21399E+00        -0.27169E-01         0.00000E+00
    0.20257E+00        -0.24492E-01         0.00000E+00
    0.19099E+00        -0.21966E-01         0.00000E+00
    0.17925E+00        -0.19586E-01         0.00000E+00
    0.16737E+00        -0.17351E-01         0.00000E+00
    0.15533E+00        -0.15259E-01         0.00000E+00
    0.14314E+00        -0.13305E-01         0.00000E+00
    0.13082E+00        -0.11488E-01         0.00000E+00
    0.11835E+00        -0.98031E-02         0.00000E+00
    0.10575E+00        -0.82476E-02         0.00000E+00
    0.93003E-01        -0.68177E-02         0.00000E+00
    0.80124E-01        -0.55095E-02         0.00000E+00
    0.67110E-01        -0.43194E-02         0.00000E+00
    0.53960E-01        -0.32433E-02         0.00000E+00
    0.40675E-01        -0.22773E-02         0.00000E+00
    0.27255E-01        -0.14173E-02         0.00000E+00
    0.13697E-01        -0.65956E-03         0.00000E+00
    0.00000E+00         0.00000E+00         0.00000E+00
    0.49299E+00        -0.20478E+00         0.00000E+00
    0.49041E+00        -0.19769E+00         0.00000E+00
    0.48741E+00        -0.19061E+00         0.00000E+00
    0.48401E+00        -0.18356E+00         0.00000E+00
    0.48020E+00        -0.17655E+00         0.00000E+00
    0.47600E+00        -0.16959E+00         0.00000E+00
    0.47140E+00        -0.16269E+00         0.00000E+00
    0.46641E+00        -0.15586E+00         0.00000E+00
    0.46104E+00        -0.14912E+00         0.00000E+00
    0.45529E+00        -0.14247E+00         0.00000E+00
    0.44917E+00        -0.13592E+00         0.00000E+00
    0.44270E+00        -0.12948E+00         0.00000E+00
    0.43587E+00        -0.12316E+00         0.00000E+00
    0.42870E+00        -0.11697E+00         0.00000E+00
    0.42119E+00        -0.11091E+00         0.00000E+00
    0.41336E+00        -0.10499E+00         0.00000E+00
    0.40521E+00        -0.99221E-01         0.00000E+00
    0.39675E+00        -0.93600E-01         0.00000E+00
    0.38800E+00        -0.88135E-01         0.00000E+00
    0.37895E+00        -0.82830E-01         0.00000E+00
    0.36963E+00        -0.77691E-01         0.00000E+00
    0.36005E+00        -0.72719E-01         0.00000E+00
    0.35020E+00        -0.67918E-01         0.00000E+00
    0.34010E+00        -0.63289E-01         0.00000E+00
    0.32977E+00        -0.58836E-01         0.00000E+00
    0.31920E+00        -0.54558E-01         0.00000E+00
    0.30841E+00        -0.50457E-01         0.00000E+00
    0.29741E+00        -0.46533E-01         0.00000E+00
    0.28621E+00        -0.42786E-01         0.00000E+00
    0.27481E+00        -0.39215E-01         0.00000E+00
    0.26322E+00        -0.35819E-01         0.00000E+00
    0.25145E+00        -0.32597E-01         0.00000E+00
    0.23951E+00        -0.29547E-01         0.00000E+00
    0.22740E+00        -0.26667E-01         0.00000E+00
    0.21513E+00        -0.23953E-01         0.00000E+00
    0.20270E+00        -0.21403E-01         0.00000E+00
    0.19013E+00        -0.19014E-01         0.00000E+00
    0.17741E+00        -0.16782E-01         0.00000E+00
    0.16455E+00        -0.14703E-01         0.00000E+00
    0.15155E+00        -0.12773E-01         0.00000E+00
    0.13842E+00        -0.10988E-01         0.00000E+00
    0.12516E+00        -0.93425E-02         0.00000E+00
    0.11177E+00        -0.78322E-02         0.00000E+00
    0.98245E-01        -0.64520E-02         0.00000E+00
    0.84598E-01        -0.51970E-02         0.00000E+00
    0.70823E-01        -0.40618E-02         0.00000E+00
    0.56921E-01        -0.30413E-02         0.00000E+00
    0.42889E-01        -0.21301E-02         0.00000E+00
    0.28727E-01        -0.13229E-02         0.00000E+00
    0.14431E-01        -0.61461E-03         0.00000E+00
    0.00000E+00         0.00000E+00         0.00000E+00
    0.53097E+00        -0.21684E+00         0.00000E+00
    0.52828E+00        -0.20904E+00         0.00000E+00
    0.52511E+00        -0.20126E+00         0.00000E+00
    0.52148E+00        -0.19352E+00         0.00000E+00
    0.51737E+00        -0.18582E+00         0.00000E+00
    0.51281E+00        -0.17819E+00         0.00000E+00
    0.50779E+00        -0.17063E+00         0.00000E+00
    0.50233E+00        -0.16316E+00         0.00000E+00
    0.49644E+00        -0.15579E+00         0.00000E+00
    0.49012E+00        -0.14854E+00         0.00000E+00
    0.48339E+00        -0.14140E+00         0.00000E+00
    0.47625E+00        -0.13440E+00         0.00000E+00
    0.46872E+00        -0.12754E+00         0.00000E+00
    0.46081E+00        -0.12082E+00         0.00000E+00
    0.45253E+00        -0.11427E+00         0.00000E+00
    0.44389E+00        -0.10788E+00         0.00000E+00
    0.43491E+00        -0.10167E+00         0.00000E+00
    0.42559E+00        -0.95629E-01         0.00000E+00
    0.41595E+00        -0.89773E-01         0.00000E+00
    0.40600E+00        -0.84106E-01         0.00000E+00
    0.39576E+00        -0.78630E-01         0.00000E+00
    0.38523E+00        -0.73349E-01         0.00000E+00
    0.37444E+00        -0.68266E-01         0.00000E+00
    0.36338E+00        -0.63383E-01         0.00000E+00
    0.35208E+00        -0.58700E-01         0.00000E+00
    0.34054E+00        -0.54219E-01         0.00000E+00
    0.32877E+00        -0.49941E-01         0.00000E+00
    0.31680E+00        -0.45864E-01         0.00000E+00
    0.30462E+00        -0.41988E-01         0.00000E+00
    0.29224E+00        -0.38311E-01         0.00000E+00
    0.27969E+00        -0.34831E-01         0.00000E+00
    0.26696E+00        -0.31547E-01         0.00000E+00
    0.25407E+00        -0.28454E-01         0.00000E+00
    0.24102E+00        -0.25550E-01         0.00000E+00
    0.22782E+00        -0.22831E-01         0.00000E+00
    0.21448E+00        -0.20292E-01         0.00000E+00
    0.20100E+00        -0.17929E-01         0.00000E+00
    0.18740E+00        -0.15737E-01         0.00000E+00
    0.17367E+00        -0.13710E-01         0.00000E+00
    0.15982E+00        -0.11843E-01         0.00000E+00
    0.14585E+00        -0.10130E-01         0.00000E+00
    0.13177E+00        -0.85637E-02         0.00000E+00
    0.11758E+00        -0.71389E-02         0.00000E+00
    0.10328E+00        -0.58485E-02         0.00000E+00
    0.88866E-01        -0.46858E-02         0.00000E+00
    0.74343E-01        -0.36437E-02         0.00000E+00
    0.59709E-01        -0.27155E-02         0.00000E+00
    0.44961E-01        -0.18939E-02         0.00000E+00
    0.30096E-01        -0.11721E-02         0.00000E+00
    0.15110E-01        -0.54307E-03         0.00000E+00
    0.00000E+00         0.00000E+00         0.00000E+00
    0.57311E+00        -0.22934E+00         0.00000E+00
    0.57027E+00        -0.22074E+00         0.00000E+00
    0.56688E+00        -0.21217E+00         0.00000E+00
    0.56293E+00        -0.20365E+00         0.00000E+00
    0.55844E+00        -0.19518E+00         0.00000E+00
    0.55343E+00        -0.18679E+00         0.00000E+00
    0.54790E+00        -0.17850E+00         0.00000E+00
    0.54186E+00        -0.17031E+00         0.00000E+00
    0.53532E+00        -0.16224E+00         0.00000E+00
    0.52831E+00        -0.15431E+00         0.00000E+00
    0.52082E+00        -0.14652E+00         0.00000E+00
    0.51289E+00        -0.13890E+00         0.00000E+00
    0.50452E+00        -0.13144E+00         0.00000E+00
    0.49572E+00        -0.12415E+00         0.00000E+00
    0.48652E+00        -0.11706E+00         0.00000E+00
    0.47692E+00        -0.11016E+00         0.00000E+00
    0.46695E+00        -0.10346E+00         0.00000E+00
    0.45662E+00        -0.96977E-01         0.00000E+00
    0.44594E+00        -0.90704E-01         0.00000E+00
    0.43494E+00        -0.84650E-01         0.00000E+00
    0.42362E+00        -0.78820E-01         0.00000E+00
    0.41200E+00        -0.73216E-01         0.00000E+00
    0.40011E+00        -0.67840E-01         0.00000E+00
    0.38794E+00        -0.62696E-01         0.00000E+00
    0.37553E+00        -0.57782E-01         0.00000E+00
    0.36288E+00        -0.53101E-01         0.00000E+00
    0.35000E+00        -0.48650E-01         0.00000E+00
    0.33692E+00        -0.44430E-01         0.00000E+00
    0.32364E+00        -0.40438E-01         0.00000E+00
    0.31017E+00        -0.36672E-01         0.00000E+00
    0.29654E+00        -0.33129E-01         0.00000E+00
    0.28274E+00        -0.29805E-01         0.00000E+00
    0.26880E+00        -0.26696E-01         0.00000E+00
    0.25472E+00        -0.23797E-01         0.00000E+00
    0.24050E+00        -0.21103E-01         0.00000E+00
    0.22617E+00        -0.18609E-01         0.00000E+00
    0.21173E+00        -0.16307E-01         0.00000E+00
    0.19718E+00        -0.14192E-01         0.00000E+00
    0.18253E+00        -0.12256E-01         0.00000E+00
    0.16779E+00        -0.10492E-01         0.00000E+00
    0.15296E+00        -0.88916E-02         0.00000E+00
    0.13805E+00        -0.74469E-02         0.00000E+00
    0.12305E+00        -0.61496E-02         0.00000E+00
    0.10796E+00        -0.49908E-02         0.00000E+00
    0.92802E-01        -0.39617E-02         0.00000E+00
    0.77557E-01        -0.30533E-02         0.00000E+00
    0.62228E-01        -0.22565E-02         0.00000E+00
    0.46813E-01        -0.15619E-02         0.00000E+00
    0.31306E-01        -0.96041E-03         0.00000E+00
    0.15704E-01        -0.44280E-03         0.00000E+00
    0.00000E+00         0.00000E+00         0.00000E+00
    0.62022E+00        -0.24256E+00         0.00000E+00
    0.61714E+00        -0.23306E+00         0.00000E+00
    0.61342E+00        -0.22360E+00         0.00000E+00
    0.60906E+00        -0.21420E+00         0.00000E+00
    0.60407E+00        -0.20487E+00         0.00000E+00
    0.59848E+00        -0.19563E+00         0.00000E+00
    0.59229E+00        -0.18651E+00         0.00000E+00
    0.58552E+00        -0.17752E+00         0.00000E+00
    0.57819E+00        -0.16867E+00         0.00000E+00
    0.57032E+00        -0.15999E+00         0.00000E+00
    0.56192E+00        -0.15148E+00         0.00000E+00
    0.55302E+00        -0.14316E+00         0.00000E+00
    0.54363E+00        -0.13504E+00         0.00000E+00
    0.53377E+00        -0.12714E+00         0.00000E+00
    0.52346E+00        -0.11945E+00         0.00000E+00
    0.51273E+00        -0.11199E+00         0.00000E+00
    0.50159E+00        -0.10477E+00         0.00000E+00
    0.49006E+00        -0.97800E-01         0.00000E+00
    0.47816E+00        -0.91076E-01         0.00000E+00
    0.46592E+00        -0.84608E-01         0.00000E+00
    0.45335E+00        -0.78398E-01         0.00000E+00
    0.44047E+00        -0.72451E-01         0.00000E+00
    0.42730E+00        -0.66767E-01         0.00000E+00
    0.41386E+00        -0.61350E-01         0.00000E+00
    0.40017E+00        -0.56198E-01         0.00000E+00
    0.38624E+00        -0.51311E-01         0.00000E+00
    0.37210E+00        -0.46689E-01         0.00000E+00
    0.35776E+00        -0.42329E-01         0.00000E+00
    0.34323E+00        -0.38228E-01         0.00000E+00
    0.32854E+00        -0.34382E-01         0.00000E+00
    0.31370E+00        -0.30789E-01         0.00000E+00
    0.29871E+00        -0.27442E-01         0.00000E+00
    0.28361E+00        -0.24336E-01         0.00000E+00
    0.26839E+00        -0.21465E-01         0.00000E+00
    0.25307E+00        -0.18821E-01         0.00000E+00
    0.23766E+00        -0.16399E-01         0.00000E+00
    0.22217E+00        -0.14188E-01         0.00000E+00
    0.20662E+00        -0.12182E-01         0.00000E+00
    0.19100E+00        -0.10371E-01         0.00000E+00
    0.17532E+00        -0.87445E-02         0.00000E+00
    0.15960E+00        -0.72938E-02         0.00000E+00
    0.14383E+00        -0.60081E-02         0.00000E+00
    0.12802E+00        -0.48767E-02         0.00000E+00
    0.11217E+00        -0.38884E-02         0.00000E+00
    0.96280E-01        -0.30320E-02         0.00000E+00
    0.80351E-01        -0.22957E-02         0.00000E+00
    0.64381E-01        -0.16678E-02         0.00000E+00
    0.48366E-01        -0.11363E-02         0.00000E+00
    0.32302E-01        -0.68918E-03         0.00000E+00
    0.16183E-01        -0.31441E-03         0.00000E+00
    0.00000E+00         0.00000E+00         0.00000E+00
    0.67322E+00        -0.25697E+00         0.00000E+00
    0.66979E+00        -0.24646E+00         0.00000E+00
    0.66560E+00        -0.23600E+00         0.00000E+00
    0.66067E+00        -0.22561E+00         0.00000E+00
    0.65503E+00        -0.21531E+00         0.00000E+00
    0.64868E+00        -0.20514E+00         0.00000E+00
    0.64165E+00        -0.19509E+00         0.00000E+00
    0.63396E+00        -0.18521E+00         0.00000E+00
    0.62564E+00        -0.17550E+00         0.00000E+00
    0.61671E+00        -0.16599E+00         0.00000E+00
    0.60719E+00        -0.15668E+00         0.00000E+00
    0.59711E+00        -0.14760E+00         0.00000E+00
    0.58649E+00        -0.13876E+00         0.00000E+00
    0.57535E+00        -0.13016E+00         0.00000E+00
    0.56373E+00        -0.12183E+00         0.00000E+00
    0.55164E+00        -0.11376E+00         0.00000E+00
    0.53912E+00        -0.10597E+00         0.00000E+00
    0.52618E+00        -0.98466E-01         0.00000E+00
    0.51285E+00        -0.91251E-01         0.00000E+00
    0.49916E+00        -0.84330E-01         0.00000E+00
    0.48513E+00        -0.77709E-01         0.00000E+00
    0.47078E+00        -0.71389E-01         0.00000E+00
    0.45614E+00        -0.65373E-01         0.00000E+00
    0.44124E+00        -0.59660E-01         0.00000E+00
    0.42608E+00        -0.54250E-01         0.00000E+00
    0.41070E+00        -0.49144E-01         0.00000E+00
    0.39512E+00        -0.44337E-01         0.00000E+00
    0.37935E+00        -0.39827E-01         0.00000E+00
    0.36342E+00        -0.35611E-01         0.00000E+00
    0.34735E+00        -0.31683E-01         0.00000E+00
    0.33115E+00        -0.28039E-01         0.00000E+00
    0.31484E+00        -0.24671E-01         0.00000E+00
    0.29845E+00        -0.21573E-01         0.00000E+00
    0.28197E+00        -0.18737E-01         0.00000E+00
    0.26544E+00        -0.16155E-01         0.00000E+00
    0.24886E+00        -0.13816E-01         0.00000E+00
    0.23225E+00        -0.11713E-01         0.00000E+00
    0.21561E+00        -0.98328E-02         0.00000E+00
    0.19896E+00        -0.81658E-02         0.00000E+00
    0.18230E+00        -0.66999E-02         0.00000E+00
    0.16565E+00        -0.54228E-02         0.00000E+00
    0.14901E+00        -0.43217E-02         0.00000E+00
    0.13239E+00        -0.33832E-02         0.00000E+00
    0.11578E+00        -0.25937E-02         0.00000E+00
    0.99193E-01        -0.19388E-02         0.00000E+00
    0.82627E-01        -0.14040E-02         0.00000E+00
    0.66081E-01        -0.97431E-03         0.00000E+00
    0.49551E-01        -0.63457E-03         0.00000E+00
    0.33032E-01        -0.36933E-03         0.00000E+00
    0.16518E-01        -0.16303E-03         0.00000E+00
    0.00000E+00         0.00000E+00         0.00000E+00
    0.73325E+00        -0.27332E+00         0.00000E+00
    0.72928E+00        -0.26168E+00         0.00000E+00
    0.72442E+00        -0.25010E+00         0.00000E+00
    0.71872E+00        -0.23862E+00         0.00000E+00
    0.71218E+00        -0.22725E+00         0.00000E+00
    0.70485E+00        -0.21603E+00         0.00000E+00
    0.69675E+00        -0.20497E+00         0.00000E+00
    0.68790E+00        -0.19410E+00         0.00000E+00
    0.67835E+00        -0.18345E+00         0.00000E+00
    0.66810E+00        -0.17302E+00         0.00000E+00
    0.65721E+00        -0.16284E+00         0.00000E+00
    0.64570E+00        -0.15292E+00         0.00000E+00
    0.63360E+00        -0.14328E+00         0.00000E+00
    0.62093E+00        -0.13393E+00         0.00000E+00
    0.60774E+00        -0.12489E+00         0.00000E+00
    0.59406E+00        -0.11615E+00         0.00000E+00
    0.57990E+00        -0.10773E+00         0.00000E+00
    0.56531E+00        -0.99644E-01         0.00000E+00
    0.55031E+00        -0.91888E-01         0.00000E+00
    0.53494E+00        -0.84470E-01         0.00000E+00
    0.51922E+00        -0.77392E-01         0.00000E+00
    0.50319E+00        -0.70658E-01         0.00000E+00
    0.48686E+00        -0.64268E-01         0.00000E+00
    0.47027E+00        -0.58222E-01         0.00000E+00
    0.45345E+00        -0.52520E-01         0.00000E+00
    0.43641E+00        -0.47158E-01         0.00000E+00
    0.41920E+00        -0.42135E-01         0.00000E+00
    0.40182E+00        -0.37446E-01         0.00000E+00
    0.38431E+00        -0.33086E-01         0.00000E+00
    0.36669E+00        -0.29050E-01         0.00000E+00
    0.34898E+00        -0.25330E-01         0.00000E+00
    0.33120E+00        -0.21918E-01         0.00000E+00
    0.31337E+00        -0.18808E-01         0.00000E+00
    0.29551E+00        -0.15989E-01         0.00000E+00
    0.27764E+00        -0.13451E-01         0.00000E+00
    0.25978E+00        -0.11183E-01         0.00000E+00
    0.24194E+00        -0.91742E-02         0.00000E+00
    0.22414E+00        -0.74117E-02         0.00000E+00
    0.20639E+00        -0.58825E-02         0.00000E+00
    0.18870E+00        -0.45726E-02         0.00000E+00
    0.17108E+00        -0.34675E-02         0.00000E+00
    0.15354E+00        -0.25519E-02         0.00000E+00
    0.13609E+00        -0.18098E-02         0.00000E+00
    0.11874E+00        -0.12246E-02         0.00000E+00
    0.10148E+00        -0.77894E-03         0.00000E+00
    0.84330E-01        -0.45502E-03         0.00000E+00
    0.67276E-01        -0.23442E-03         0.00000E+00
    0.50321E-01        -0.98193E-04         0.00000E+00
    0.33461E-01        -0.26960E-04         0.00000E+00
    0.16690E-01        -0.93231E-06         0.00000E+00
    0.00000E+00         0.00000E+00         0.00000E+00
    0.80160E+00        -0.29269E+00         0.00000E+00
    0.79681E+00        -0.27980E+00         0.00000E+00
    0.79102E+00        -0.26700E+00         0.00000E+00
    0.78425E+00        -0.25432E+00         0.00000E+00
    0.77654E+00        -0.24177E+00         0.00000E+00
    0.76793E+00        -0.22941E+00         0.00000E+00
    0.75845E+00        -0.21724E+00         0.00000E+00
    0.74815E+00        -0.20530E+00         0.00000E+00
    0.73705E+00        -0.19361E+00         0.00000E+00
    0.72520E+00        -0.18219E+00         0.00000E+00
    0.71263E+00        -0.17106E+00         0.00000E+00
    0.69939E+00        -0.16024E+00         0.00000E+00
    0.68551E+00        -0.14973E+00         0.00000E+00
    0.67103E+00        -0.13956E+00         0.00000E+00
    0.65599E+00        -0.12973E+00         0.00000E+00
    0.64042E+00        -0.12027E+00         0.00000E+00
    0.62436E+00        -0.11116E+00         0.00000E+00
    0.60785E+00        -0.10243E+00         0.00000E+00
    0.59093E+00        -0.94068E-01         0.00000E+00
    0.57362E+00        -0.86091E-01         0.00000E+00
    0.55596E+00        -0.78497E-01         0.00000E+00
    0.53799E+00        -0.71288E-01         0.00000E+00
    0.51975E+00        -0.64465E-01         0.00000E+00
    0.50125E+00        -0.58026E-01         0.00000E+00
    0.48254E+00        -0.51970E-01         0.00000E+00
    0.46365E+00        -0.46293E-01         0.00000E+00
    0.44459E+00        -0.40992E-01         0.00000E+00
    0.42542E+00        -0.36061E-01         0.00000E+00
    0.40614E+00        -0.31495E-01         0.00000E+00
    0.38679E+00        -0.27287E-01         0.00000E+00
    0.36740E+00        -0.23430E-01         0.00000E+00
    0.34799E+00        -0.19913E-01         0.00000E+00
    0.32858E+00        -0.16728E-01         0.00000E+00
    0.30919E+00        -0.13865E-01         0.00000E+00
    0.28986E+00        -0.11312E-01         0.00000E+00
    0.27060E+00        -0.90575E-02         0.00000E+00
    0.25143E+00        -0.70877E-02         0.00000E+00
    0.23236E+00        -0.53889E-02         0.00000E+00
    0.21342E+00        -0.39463E-02         0.00000E+00
    0.19462E+00        -0.27444E-02         0.00000E+00
    0.17598E+00        -0.17664E-02         0.00000E+00
    0.15750E+00        -0.99484E-03         0.00000E+00
    0.13921E+00        -0.41128E-03         0.00000E+00
    0.12110E+00         0.36314E-05         0.00000E+00
    0.10319E+00         0.27017E-03         0.00000E+00
    0.85481E-01         0.40951E-03         0.00000E+00
    0.67977E-01         0.44371E-03         0.00000E+00
    0.50680E-01         0.39570E-03         0.00000E+00
    0.33587E-01         0.28925E-03         0.00000E+00
    0.16696E-01         0.14892E-03         0.00000E+00
    0.00000E+00         0.00000E+00         0.00000E+00
    0.87970E+00        -0.31664E+00         0.00000E+00
    0.87373E+00        -0.30240E+00         0.00000E+00
    0.86663E+00        -0.28827E+00         0.00000E+00
    0.85842E+00        -0.27429E+00         0.00000E+00
    0.84916E+00        -0.26048E+00         0.00000E+00
    0.83890E+00        -0.24689E+00         0.00000E+00
    0.82768E+00        -0.23353E+00         0.00000E+00
    0.81554E+00        -0.22044E+00         0.00000E+00
    0.80255E+00        -0.20764E+00         0.00000E+00
    0.78873E+00        -0.19516E+00         0.00000E+00
    0.77414E+00        -0.18301E+00         0.00000E+00
    0.75883E+00        -0.17120E+00         0.00000E+00
    0.74284E+00        -0.15977E+00         0.00000E+00
    0.72622E+00        -0.14871E+00         0.00000E+00
    0.70901E+00        -0.13804E+00         0.00000E+00
    0.69125E+00        -0.12777E+00         0.00000E+00
    0.67299E+00        -0.11791E+00         0.00000E+00
    0.65428E+00        -0.10846E+00         0.00000E+00
    0.63515E+00        -0.99423E-01         0.00000E+00
    0.61564E+00        -0.90811E-01         0.00000E+00
    0.59579E+00        -0.82622E-01         0.00000E+00
    0.57565E+00        -0.74856E-01         0.00000E+00
    0.55525E+00        -0.67512E-01         0.00000E+00
    0.53462E+00        -0.60589E-01         0.00000E+00
    0.51381E+00        -0.54083E-01         0.00000E+00
    0.49284E+00        -0.47992E-01         0.00000E+00
    0.47175E+00        -0.42309E-01         0.00000E+00
    0.45058E+00        -0.37030E-01         0.00000E+00
    0.42935E+00        -0.32147E-01         0.00000E+00
    0.40810E+00        -0.27653E-01         0.00000E+00
    0.38686E+00        -0.23539E-01         0.00000E+00
    0.36565E+00        -0.19797E-01         0.00000E+00
    0.34450E+00        -0.16417E-01         0.00000E+00
    0.32345E+00        -0.13386E-01         0.00000E+00
    0.30251E+00        -0.10695E-01         0.00000E+00
    0.28171E+00        -0.83284E-02         0.00000E+00
    0.26108E+00        -0.62741E-02         0.00000E+00
    0.24064E+00        -0.45172E-02         0.00000E+00
    0.22041E+00        -0.30418E-02         0.00000E+00
    0.20041E+00        -0.18313E-02         0.00000E+00
    0.18066E+00        -0.86769E-03         0.00000E+00
    0.16118E+00        -0.13199E-03         0.00000E+00
    0.14198E+00         0.39603E-03         0.00000E+00
    0.12308E+00         0.73785E-03         0.00000E+00
    0.10450E+00         0.91626E-03         0.00000E+00
    0.86234E-01         0.95534E-03         0.00000E+00
    0.68304E-01         0.88055E-03         0.00000E+00
    0.50713E-01         0.71872E-03         0.00000E+00
    0.33465E-01         0.49805E-03         0.00000E+00
    0.16561E-01         0.24815E-03         0.00000E+00
    0.00000E+00         0.00000E+00         0.00000E+00
    0.96911E+00        -0.34729E+00         0.00000E+00
    0.96148E+00        -0.33161E+00         0.00000E+00
    0.95257E+00        -0.31608E+00         0.00000E+00
    0.94245E+00        -0.30072E+00         0.00000E+00
    0.93117E+00        -0.28558E+00         0.00000E+00
    0.91879E+00        -0.27070E+00         0.00000E+00
    0.90537E+00        -0.25609E+00         0.00000E+00
    0.89097E+00        -0.24180E+00         0.00000E+00
    0.87564E+00        -0.22784E+00         0.00000E+00
    0.85944E+00        -0.21423E+00         0.00000E+00
    0.84243E+00        -0.20101E+00         0.00000E+00
    0.82466E+00        -0.18818E+00         0.00000E+00
    0.80620E+00        -0.17575E+00         0.00000E+00
    0.78708E+00        -0.16375E+00         0.00000E+00
    0.76736E+00        -0.15217E+00         0.00000E+00
    0.74710E+00        -0.14103E+00         0.00000E+00
    0.72634E+00        -0.13034E+00         0.00000E+00
    0.70514E+00        -0.12009E+00         0.00000E+00
    0.68353E+00        -0.11030E+00         0.00000E+00
    0.66156E+00        -0.10096E+00         0.00000E+00
    0.63928E+00        -0.92073E-01         0.00000E+00
    0.61674E+00        -0.83637E-01         0.00000E+00
    0.59396E+00        -0.75651E-01         0.00000E+00
    0.57099E+00        -0.68113E-01         0.00000E+00
    0.54788E+00        -0.61017E-01         0.00000E+00
    0.52465E+00        -0.54360E-01         0.00000E+00
    0.50135E+00        -0.48136E-01         0.00000E+00
    0.47801E+00        -0.42338E-01         0.00000E+00
    0.45467E+00        -0.36959E-01         0.00000E+00
    0.43135E+00        -0.31993E-01         0.00000E+00
    0.40810E+00        -0.27430E-01         0.00000E+00
    0.38494E+00        -0.23261E-01         0.00000E+00
    0.36191E+00        -0.19477E-01         0.00000E+00
    0.33904E+00        -0.16067E-01         0.00000E+00
    0.31635E+00        -0.13020E-01         0.00000E+00
    0.29388E+00        -0.10323E-01         0.00000E+00
    0.27165E+00        -0.79646E-02         0.00000E+00
    0.24970E+00        -0.59291E-02         0.00000E+00
    0.22805E+00        -0.42017E-02         0.00000E+00
    0.20672E+00        -0.27661E-02         0.00000E+00
    0.18574E+00        -0.16045E-02         0.00000E+00
    0.16514E+00        -0.69766E-03         0.00000E+00
    0.14494E+00        -0.24989E-04         0.00000E+00
    0.12516E+00         0.43586E-03         0.00000E+00
    0.10582E+00         0.70897E-03         0.00000E+00
    0.86941E-01         0.82027E-03         0.00000E+00
    0.68542E-01         0.79766E-03         0.00000E+00
    0.50637E-01         0.67110E-03         0.00000E+00
    0.33239E-01         0.47270E-03         0.00000E+00
    0.16357E-01         0.23679E-03         0.00000E+00
    0.00000E+00         0.00000E+00         0.00000E+00
    0.10715E+01        -0.38745E+00         0.00000E+00
    0.10615E+01        -0.37029E+00         0.00000E+00
    0.10502E+01        -0.35330E+00         0.00000E+00
    0.10375E+01        -0.33654E+00         0.00000E+00
    0.10237E+01        -0.32005E+00         0.00000E+00
    0.10086E+01        -0.30384E+00         0.00000E+00
    0.99243E+00        -0.28797E+00         0.00000E+00
    0.97523E+00        -0.27245E+00         0.00000E+00
    0.95707E+00        -0.25731E+00         0.00000E+00
    0.93802E+00        -0.24257E+00         0.00000E+00
    0.91814E+00        -0.22825E+00         0.00000E+00
    0.89750E+00        -0.21436E+00         0.00000E+00
    0.87616E+00        -0.20091E+00         0.00000E+00
    0.85418E+00        -0.18792E+00         0.00000E+00
    0.83163E+00        -0.17539E+00         0.00000E+00
    0.80854E+00        -0.16332E+00         0.00000E+00
    0.78499E+00        -0.15172E+00         0.00000E+00
    0.76103E+00        -0.14060E+00         0.00000E+00
    0.73670E+00        -0.12994E+00         0.00000E+00
    0.71205E+00        -0.11976E+00         0.00000E+00
    0.68713E+00        -0.11004E+00         0.00000E+00
    0.66199E+00        -0.10079E+00         0.00000E+00
    0.63667E+00        -0.91997E-01         0.00000E+00
    0.61120E+00        -0.83660E-01         0.00000E+00
    0.58564E+00        -0.75775E-01         0.00000E+00
    0.56002E+00        -0.68334E-01         0.00000E+00
    0.53437E+00        -0.61333E-01         0.00000E+00
    0.50874E+00        -0.54766E-01         0.00000E+00
    0.48315E+00        -0.48624E-01         0.00000E+00
    0.45765E+00        -0.42901E-01         0.00000E+00
    0.43227E+00        -0.37591E-01         0.00000E+00
    0.40704E+00        -0.32685E-01         0.00000E+00
    0.38200E+00        -0.28175E-01         0.00000E+00
    0.35718E+00        -0.24052E-01         0.00000E+00
    0.33261E+00        -0.20309E-01         0.00000E+00
    0.30832E+00        -0.16934E-01         0.00000E+00
    0.28435E+00        -0.13917E-01         0.00000E+00
    0.26073E+00        -0.11246E-01         0.00000E+00
    0.23749E+00        -0.89097E-02         0.00000E+00
    0.21467E+00        -0.68932E-02         0.00000E+00
    0.19229E+00        -0.51814E-02         0.00000E+00
    0.17039E+00        -0.37573E-02         0.00000E+00
    0.14901E+00        -0.26020E-02         0.00000E+00
    0.12817E+00        -0.16947E-02         0.00000E+00
    0.10791E+00        -0.10121E-02         0.00000E+00
    0.88245E-01        -0.52877E-03         0.00000E+00
    0.69220E-01        -0.21617E-03         0.00000E+00
    0.50858E-01        -0.43086E-04         0.00000E+00
    0.33184E-01         0.24895E-04         0.00000E+00
    0.16224E-01         0.25510E-04         0.00000E+00
    0.00000E+00         0.00000E+00         0.00000E+00
    0.11883E+01        -0.44077E+00         0.00000E+00
    0.11753E+01        -0.42213E+00         0.00000E+00
    0.11607E+01        -0.40372E+00         0.00000E+00
    0.11448E+01        -0.38558E+00         0.00000E+00
    0.11276E+01        -0.36775E+00         0.00000E+00
    0.11091E+01        -0.35027E+00         0.00000E+00
    0.10896E+01        -0.33316E+00         0.00000E+00
    0.10690E+01        -0.31645E+00         0.00000E+00
    0.10474E+01        -0.30017E+00         0.00000E+00
    0.10250E+01        -0.28432E+00         0.00000E+00
    0.10018E+01        -0.26892E+00         0.00000E+00
    0.97782E+00        -0.25399E+00         0.00000E+00
    0.95321E+00        -0.23952E+00         0.00000E+00
    0.92801E+00        -0.22553E+00         0.00000E+00
    0.90229E+00        -0.21201E+00         0.00000E+00
    0.87611E+00        -0.19897E+00         0.00000E+00
    0.84952E+00        -0.18640E+00         0.00000E+00
    0.82258E+00        -0.17430E+00         0.00000E+00
    0.79534E+00        -0.16267E+00         0.00000E+00
    0.76786E+00        -0.15150E+00         0.00000E+00
    0.74017E+00        -0.14079E+00         0.00000E+00
    0.71233E+00        -0.13052E+00         0.00000E+00
    0.68437E+00        -0.12071E+00         0.00000E+00
    0.65633E+00        -0.11132E+00         0.00000E+00
    0.62826E+00        -0.10237E+00         0.00000E+00
    0.60019E+00        -0.93845E-01         0.00000E+00
    0.57215E+00        -0.85737E-01         0.00000E+00
    0.54418E+00        -0.78042E-01         0.00000E+00
    0.51631E+00        -0.70754E-01         0.00000E+00
    0.48858E+00        -0.63869E-01         0.00000E+00
    0.46101E+00        -0.57380E-01         0.00000E+00
    0.43364E+00        -0.51285E-01         0.00000E+00
    0.40651E+00        -0.45577E-01         0.00000E+00
    0.37964E+00        -0.40253E-01         0.00000E+00
    0.35307E+00        -0.35307E-01         0.00000E+00
    0.32684E+00        -0.30735E-01         0.00000E+00
    0.30097E+00        -0.26532E-01         0.00000E+00
    0.27552E+00        -0.22691E-01         0.00000E+00
    0.25050E+00        -0.19206E-01         0.00000E+00
    0.22596E+00        -0.16067E-01         0.00000E+00
    0.20195E+00        -0.13266E-01         0.00000E+00
    0.17850E+00        -0.10791E-01         0.00000E+00
    0.15565E+00        -0.86287E-02         0.00000E+00
    0.13346E+00        -0.67631E-02         0.00000E+00
    0.11195E+00        -0.51755E-02         0.00000E+00
    0.91182E-01        -0.38441E-02         0.00000E+00
    0.71197E-01        -0.27437E-02         0.00000E+00
    0.52041E-01        -0.18449E-02         0.00000E+00
    0.33760E-01        -0.11143E-02         0.00000E+00
    0.16398E-01        -0.51375E-03         0.00000E+00
    0.00000E+00         0.00000E+00         0.00000E+00
    0.13211E+01        -0.51191E+00         0.00000E+00
    0.13039E+01        -0.49188E+00         0.00000E+00
    0.12852E+01        -0.47214E+00         0.00000E+00
    0.12651E+01        -0.45273E+00         0.00000E+00
    0.12437E+01        -0.43369E+00         0.00000E+00
    0.12210E+01        -0.41504E+00         0.00000E+00
    0.11973E+01        -0.39682E+00         0.00000E+00
    0.11726E+01        -0.37904E+00         0.00000E+00
    0.11471E+01        -0.36171E+00         0.00000E+00
    0.11207E+01        -0.34485E+00         0.00000E+00
    0.10936E+01        -0.32846E+00         0.00000E+00
    0.10659E+01        -0.31255E+00         0.00000E+00
    0.10376E+01        -0.29711E+00         0.00000E+00
    0.10088E+01        -0.28213E+00         0.00000E+00
    0.97969E+00        -0.26762E+00         0.00000E+00
    0.95019E+00        -0.25357E+00         0.00000E+00
    0.92039E+00        -0.23996E+00         0.00000E+00
    0.89036E+00        -0.22679E+00         0.00000E+00
    0.86015E+00        -0.21404E+00         0.00000E+00
    0.82979E+00        -0.20171E+00         0.00000E+00
    0.79932E+00        -0.18979E+00         0.00000E+00
    0.76880E+00        -0.17826E+00         0.00000E+00
    0.73825E+00        -0.16712E+00         0.00000E+00
    0.70771E+00        -0.15636E+00         0.00000E+00
    0.67720E+00        -0.14597E+00         0.00000E+00
    0.64676E+00        -0.13594E+00         0.00000E+00
    0.61642E+00        -0.12628E+00         0.00000E+00
    0.58620E+00        -0.11696E+00         0.00000E+00
    0.55612E+00        -0.10800E+00         0.00000E+00
    0.52621E+00        -0.99390E-01         0.00000E+00
    0.49651E+00        -0.91126E-01         0.00000E+00
    0.46703E+00        -0.83212E-01         0.00000E+00
    0.43781E+00        -0.75648E-01         0.00000E+00
    0.40887E+00        -0.68437E-01         0.00000E+00
    0.38024E+00        -0.61581E-01         0.00000E+00
    0.35196E+00        -0.55083E-01         0.00000E+00
    0.32406E+00        -0.48947E-01         0.00000E+00
    0.29658E+00        -0.43175E-01         0.00000E+00
    0.26955E+00        -0.37770E-01         0.00000E+00
    0.24303E+00        -0.32734E-01         0.00000E+00
    0.21706E+00        -0.28067E-01         0.00000E+00
    0.19169E+00        -0.23768E-01         0.00000E+00
    0.16697E+00        -0.19834E-01         0.00000E+00
    0.14295E+00        -0.16259E-01         0.00000E+00
    0.11970E+00        -0.13034E-01         0.00000E+00
    0.97279E-01        -0.10146E-01         0.00000E+00
    0.75753E-01        -0.75792E-02         0.00000E+00
    0.55190E-01        -0.53113E-02         0.00000E+00
    0.35661E-01        -0.33155E-02         0.00000E+00
    0.17240E-01        -0.15583E-02         0.00000E+00
    0.00000E+00         0.00000E+00         0.00000E+00
    0.14710E+01        -0.60676E+00         0.00000E+00
    0.14484E+01        -0.58554E+00         0.00000E+00
    0.14243E+01        -0.56467E+00         0.00000E+00
    0.13988E+01        -0.54421E+00         0.00000E+00
    0.13721E+01        -0.52417E+00         0.00000E+00
    0.13443E+01        -0.50459E+00         0.00000E+00
    0.13156E+01        -0.48547E+00         0.00000E+00
    0.12860E+01        -0.46683E+00         0.00000E+00
    0.12557E+01        -0.44866E+00         0.00000E+00
    0.12248E+01        -0.43096E+00         0.00000E+00
    0.11933E+01        -0.41373E+00         0.00000E+00
    0.11614E+01        -0.39696E+00         0.00000E+00
    0.11292E+01        -0.38063E+00         0.00000E+00
    0.10966E+01        -0.36472E+00         0.00000E+00
    0.10639E+01        -0.34922E+00         0.00000E+00
    0.10309E+01        -0.33412E+00         0.00000E+00
    0.99791E+00        -0.31939E+00         0.00000E+00
    0.96482E+00        -0.30501E+00         0.00000E+00
    0.93171E+00        -0.29097E+00         0.00000E+00
    0.89861E+00        -0.27724E+00         0.00000E+00
    0.86555E+00        -0.26382E+00         0.00000E+00
    0.83256E+00        -0.25069E+00         0.00000E+00
    0.79965E+00        -0.23783E+00         0.00000E+00
    0.76686E+00        -0.22524E+00         0.00000E+00
    0.73419E+00        -0.21291E+00         0.00000E+00
    0.70166E+00        -0.20083E+00         0.00000E+00
    0.66928E+00        -0.18899E+00         0.00000E+00
    0.63707E+00        -0.17740E+00         0.00000E+00
    0.60503E+00        -0.16606E+00         0.00000E+00
    0.57318E+00        -0.15497E+00         0.00000E+00
    0.54153E+00        -0.14413E+00         0.00000E+00
    0.51010E+00        -0.13356E+00         0.00000E+00
    0.47890E+00        -0.12326E+00         0.00000E+00
    0.44795E+00        -0.11324E+00         0.00000E+00
    0.41727E+00        -0.10353E+00         0.00000E+00
    0.38690E+00        -0.94122E-01         0.00000E+00
    0.35686E+00        -0.85048E-01         0.00000E+00
    0.32717E+00        -0.76318E-01         0.00000E+00
    0.29790E+00        -0.67951E-01         0.00000E+00
    0.26906E+00        -0.59962E-01         0.00000E+00
    0.24072E+00        -0.52367E-01         0.00000E+00
    0.21294E+00        -0.45182E-01         0.00000E+00
    0.18576E+00        -0.38419E-01         0.00000E+00
    0.15927E+00        -0.32090E-01         0.00000E+00
    0.13353E+00        -0.26202E-01         0.00000E+00
    0.10863E+00        -0.20759E-01         0.00000E+00
    0.84654E-01        -0.15761E-01         0.00000E+00
    0.61698E-01        -0.11203E-01         0.00000E+00
    0.39865E-01        -0.70704E-02         0.00000E+00
    0.19260E-01        -0.33455E-02         0.00000E+00
    0.00000E+00         0.00000E+00         0.00000E+00
    0.16387E+01        -0.73286E+00         0.00000E+00
    0.16090E+01        -0.71075E+00         0.00000E+00
    0.15779E+01        -0.68910E+00         0.00000E+00
    0.15456E+01        -0.66792E+00         0.00000E+00
    0.15124E+01        -0.64723E+00         0.00000E+00
    0.14783E+01        -0.62705E+00         0.00000E+00
    0.14435E+01        -0.60735E+00         0.00000E+00
    0.14081E+01        -0.58815E+00         0.00000E+00
    0.13723E+01        -0.56941E+00         0.00000E+00
    0.13363E+01        -0.55111E+00         0.00000E+00
    0.12999E+01        -0.53324E+00         0.00000E+00
    0.12635E+01        -0.51575E+00         0.00000E+00
    0.12271E+01        -0.49863E+00         0.00000E+00
    0.11906E+01        -0.48183E+00         0.00000E+00
    0.11542E+01        -0.46533E+00         0.00000E+00
    0.11180E+01        -0.44909E+00         0.00000E+00
    0.10819E+01        -0.43309E+00         0.00000E+00
    0.10460E+01        -0.41729E+00         0.00000E+00
    0.10103E+01        -0.40167E+00         0.00000E+00
    0.97487E+00        -0.38620E+00         0.00000E+00
    0.93964E+00        -0.37086E+00         0.00000E+00
    0.90464E+00        -0.35564E+00         0.00000E+00
    0.86988E+00        -0.34051E+00         0.00000E+00
    0.83534E+00        -0.32547E+00         0.00000E+00
    0.80103E+00        -0.31052E+00         0.00000E+00
    0.76692E+00        -0.29563E+00         0.00000E+00
    0.73302E+00        -0.28082E+00         0.00000E+00
    0.69930E+00        -0.26609E+00         0.00000E+00
    0.66577E+00        -0.25145E+00         0.00000E+00
    0.63240E+00        -0.23690E+00         0.00000E+00
    0.59919E+00        -0.22246E+00         0.00000E+00
    0.56613E+00        -0.20814E+00         0.00000E+00
    0.53323E+00        -0.19398E+00         0.00000E+00
    0.50047E+00        -0.17999E+00         0.00000E+00
    0.46788E+00        -0.16620E+00         0.00000E+00
    0.43545E+00        -0.15264E+00         0.00000E+00
    0.40321E+00        -0.13934E+00         0.00000E+00
    0.37118E+00        -0.12634E+00         0.00000E+00
    0.33939E+00        -0.11367E+00         0.00000E+00
    0.30787E+00        -0.10136E+00         0.00000E+00
    0.27668E+00        -0.89465E-01         0.00000E+00
    0.24587E+00        -0.78010E-01         0.00000E+00
    0.21550E+00        -0.67033E-01         0.00000E+00
    0.18565E+00        -0.56571E-01         0.00000E+00
    0.15641E+00        -0.46657E-01         0.00000E+00
    0.12787E+00        -0.37319E-01         0.00000E+00
    0.10014E+00        -0.28586E-01         0.00000E+00
    0.73352E-01        -0.20476E-01         0.00000E+00
    0.47632E-01        -0.13006E-01         0.00000E+00
    0.23128E-01        -0.61809E-02         0.00000E+00
    0.00000E+00         0.00000E+00         0.00000E+00
    0.18236E+01        -0.90002E+00         0.00000E+00
    0.17846E+01        -0.87744E+00         0.00000E+00
    0.17446E+01        -0.85543E+00         0.00000E+00
    0.17038E+01        -0.83397E+00         0.00000E+00
    0.16624E+01        -0.81307E+00         0.00000E+00
    0.16206E+01        -0.79269E+00         0.00000E+00
    0.15786E+01        -0.77280E+00         0.00000E+00
    0.15366E+01        -0.75336E+00         0.00000E+00
    0.14946E+01        -0.73434E+00         0.00000E+00
    0.14528E+01        -0.71566E+00         0.00000E+00
    0.14113E+01        -0.69730E+00         0.00000E+00
    0.13701E+01        -0.67918E+00         0.00000E+00
    0.13294E+01        -0.66127E+00         0.00000E+00
    0.12891E+01        -0.64351E+00         0.00000E+00
    0.12494E+01        -0.62584E+00         0.00000E+00
    0.12102E+01        -0.60823E+00         0.00000E+00
    0.11715E+01        -0.59063E+00         0.00000E+00
    0.11333E+01        -0.57301E+00         0.00000E+00
    0.10957E+01        -0.55532E+00         0.00000E+00
    0.10586E+01        -0.53754E+00         0.00000E+00
    0.10219E+01        -0.51965E+00         0.00000E+00
    0.98565E+00        -0.50162E+00         0.00000E+00
    0.94981E+00        -0.48344E+00         0.00000E+00
    0.91434E+00        -0.46509E+00         0.00000E+00
    0.87918E+00        -0.44658E+00         0.00000E+00
    0.84430E+00        -0.42791E+00         0.00000E+00
    0.80965E+00        -0.40907E+00         0.00000E+00
    0.77518E+00        -0.39009E+00         0.00000E+00
    0.74085E+00        -0.37097E+00         0.00000E+00
    0.70663E+00        -0.35173E+00         0.00000E+00
    0.67246E+00        -0.33241E+00         0.00000E+00
    0.63831E+00        -0.31303E+00         0.00000E+00
    0.60416E+00        -0.29362E+00         0.00000E+00
    0.56997E+00        -0.27422E+00         0.00000E+00
    0.53573E+00        -0.25489E+00         0.00000E+00
    0.50142E+00        -0.23565E+00         0.00000E+00
    0.46702E+00        -0.21658E+00         0.00000E+00
    0.43256E+00        -0.19771E+00         0.00000E+00
    0.39803E+00        -0.17911E+00         0.00000E+00
    0.36346E+00        -0.16083E+00         0.00000E+00
    0.32888E+00        -0.14295E+00         0.00000E+00
    0.29434E+00        -0.12552E+00         0.00000E+00
    0.25989E+00        -0.10862E+00         0.00000E+00
    0.22561E+00        -0.92308E-01         0.00000E+00
    0.19159E+00        -0.76651E-01         0.00000E+00
    0.15793E+00        -0.61718E-01         0.00000E+00
    0.12475E+00        -0.47571E-01         0.00000E+00
    0.92194E-01        -0.34273E-01         0.00000E+00
    0.60427E-01        -0.21880E-01         0.00000E+00
    0.29628E-01        -0.10441E-01         0.00000E+00
    0.00000E+00         0.00000E+00         0.00000E+00
    0.20232E+01        -0.11213E+01         0.00000E+00
    0.19721E+01        -0.10987E+01         0.00000E+00
    0.19206E+01        -0.10767E+01         0.00000E+00
    0.18691E+01        -0.10554E+01         0.00000E+00
    0.18177E+01        -0.10346E+01         0.00000E+00
    0.17666E+01        -0.10144E+01         0.00000E+00
    0.17162E+01        -0.99458E+00         0.00000E+00
    0.16665E+01        -0.97511E+00         0.00000E+00
    0.16176E+01        -0.95589E+00         0.00000E+00
    0.15698E+01        -0.93685E+00         0.00000E+00
    0.15229E+01        -0.91790E+00         0.00000E+00
    0.14771E+01        -0.89896E+00         0.00000E+00
    0.14324E+01        -0.87996E+00         0.00000E+00
    0.13888E+01        -0.86083E+00         0.00000E+00
    0.13462E+01        -0.84150E+00         0.00000E+00
    0.13047E+01        -0.82192E+00         0.00000E+00
    0.12643E+01        -0.80204E+00         0.00000E+00
    0.12247E+01        -0.78181E+00         0.00000E+00
    0.11861E+01        -0.76120E+00         0.00000E+00
    0.11483E+01        -0.74018E+00         0.00000E+00
    0.11113E+01        -0.71872E+00         0.00000E+00
    0.10749E+01        -0.69680E+00         0.00000E+00
    0.10391E+01        -0.67442E+00         0.00000E+00
    0.10038E+01        -0.65158E+00         0.00000E+00
    0.96888E+00        -0.62827E+00         0.00000E+00
    0.93430E+00        -0.60450E+00         0.00000E+00
    0.89994E+00        -0.58030E+00         0.00000E+00
    0.86573E+00        -0.55566E+00         0.00000E+00
    0.83157E+00        -0.53064E+00         0.00000E+00
    0.79738E+00        -0.50524E+00         0.00000E+00
    0.76308E+00        -0.47952E+00         0.00000E+00
    0.72859E+00        -0.45352E+00         0.00000E+00
    0.69385E+00        -0.42727E+00         0.00000E+00
    0.65879E+00        -0.40084E+00         0.00000E+00
    0.62335E+00        -0.37428E+00         0.00000E+00
    0.58747E+00        -0.34766E+00         0.00000E+00
    0.55113E+00        -0.32105E+00         0.00000E+00
    0.51428E+00        -0.29452E+00         0.00000E+00
    0.47690E+00        -0.26815E+00         0.00000E+00
    0.43898E+00        -0.24204E+00         0.00000E+00
    0.40053E+00        -0.21626E+00         0.00000E+00
    0.36156E+00        -0.19091E+00         0.00000E+00
    0.32211E+00        -0.16610E+00         0.00000E+00
    0.28223E+00        -0.14194E+00         0.00000E+00
    0.24200E+00        -0.11851E+00         0.00000E+00
    0.20149E+00        -0.95950E-01         0.00000E+00
    0.16084E+00        -0.74359E-01         0.00000E+00
    0.12018E+00        -0.53855E-01         0.00000E+00
    0.79678E-01        -0.34552E-01         0.00000E+00
    0.39542E-01        -0.16564E-01         0.00000E+00
    0.00000E+00         0.00000E+00         0.00000E+00
    0.22302E+01        -0.14142E+01         0.00000E+00
    0.21634E+01        -0.13916E+01         0.00000E+00
    0.20973E+01        -0.13698E+01         0.00000E+00
    0.20324E+01        -0.13486E+01         0.00000E+00
    0.19689E+01        -0.13280E+01         0.00000E+00
    0.19071E+01        -0.13078E+01         0.00000E+00
    0.18471E+01        -0.12878E+01         0.00000E+00
    0.17891E+01        -0.12680E+01         0.00000E+00
    0.17330E+01        -0.12481E+01         0.00000E+00
    0.16790E+01        -0.12281E+01         0.00000E+00
    0.16271E+01        -0.12079E+01         0.00000E+00
    0.15771E+01        -0.11873E+01         0.00000E+00
    0.15291E+01        -0.11662E+01         0.00000E+00
    0.14830E+01        -0.11447E+01         0.00000E+00
    0.14387E+01        -0.11225E+01         0.00000E+00
    0.13961E+01        -0.10997E+01         0.00000E+00
    0.13551E+01        -0.10762E+01         0.00000E+00
    0.13155E+01        -0.10520E+01         0.00000E+00
    0.12772E+01        -0.10270E+01         0.00000E+00
    0.12402E+01        -0.10012E+01         0.00000E+00
    0.12041E+01        -0.97459E+00         0.00000E+00
    0.11690E+01        -0.94721E+00         0.00000E+00
    0.11346E+01        -0.91902E+00         0.00000E+00
    0.11008E+01        -0.89005E+00         0.00000E+00
    0.10675E+01        -0.86030E+00         0.00000E+00
    0.10345E+01        -0.82980E+00         0.00000E+00
    0.10017E+01        -0.79856E+00         0.00000E+00
    0.96897E+00        -0.76662E+00         0.00000E+00
    0.93612E+00        -0.73403E+00         0.00000E+00
    0.90306E+00        -0.70081E+00         0.00000E+00
    0.86965E+00        -0.66701E+00         0.00000E+00
    0.83576E+00        -0.63269E+00         0.00000E+00
    0.80129E+00        -0.59791E+00         0.00000E+00
    0.76612E+00        -0.56273E+00         0.00000E+00
    0.73015E+00        -0.52721E+00         0.00000E+00
    0.69326E+00        -0.49144E+00         0.00000E+00
    0.65538E+00        -0.45550E+00         0.00000E+00
    0.61641E+00        -0.41948E+00         0.00000E+00
    0.57630E+00        -0.38347E+00         0.00000E+00
    0.53496E+00        -0.34758E+00         0.00000E+00
    0.49237E+00        -0.31193E+00         0.00000E+00
    0.44847E+00        -0.27664E+00         0.00000E+00
    0.40327E+00        -0.24184E+00         0.00000E+00
    0.35675E+00        -0.20767E+00         0.00000E+00
    0.30895E+00        -0.17428E+00         0.00000E+00
    0.25992E+00        -0.14184E+00         0.00000E+00
    0.20972E+00        -0.11051E+00         0.00000E+00
    0.15847E+00        -0.80470E-01         0.00000E+00
    0.10631E+00        -0.51908E-01         0.00000E+00
    0.53411E-01        -0.25018E-01         0.00000E+00
    0.00000E+00         0.00000E+00         0.00000E+00
    0.24284E+01        -0.18008E+01         0.00000E+00
    0.23415E+01        -0.17774E+01         0.00000E+00
    0.22574E+01        -0.17549E+01         0.00000E+00
    0.21767E+01        -0.17330E+01         0.00000E+00
    0.20993E+01        -0.17115E+01         0.00000E+00
    0.20256E+01        -0.16902E+01         0.00000E+00
    0.19555E+01        -0.16688E+01         0.00000E+00
    0.18890E+01        -0.16471E+01         0.00000E+00
    0.18261E+01        -0.16249E+01         0.00000E+00
    0.17667E+01        -0.16022E+01         0.00000E+00
    0.17106E+01        -0.15787E+01         0.00000E+00
    0.16577E+01        -0.15544E+01         0.00000E+00
    0.16078E+01        -0.15292E+01         0.00000E+00
    0.15607E+01        -0.15030E+01         0.00000E+00
    0.15162E+01        -0.14758E+01         0.00000E+00
    0.14742E+01        -0.14475E+01         0.00000E+00
    0.14342E+01        -0.14180E+01         0.00000E+00
    0.13963E+01        -0.13875E+01         0.00000E+00
    0.13600E+01        -0.13558E+01         0.00000E+00
    0.13253E+01        -0.13229E+01         0.00000E+00
    0.12919E+01        -0.12890E+01         0.00000E+00
    0.12596E+01        -0.12539E+01         0.00000E+00
    0.12281E+01        -0.12178E+01         0.00000E+00
    0.11974E+01        -0.11806E+01         0.00000E+00
    0.11671E+01        -0.11424E+01         0.00000E+00
    0.11371E+01        -0.11032E+01         0.00000E+00
    0.11072E+01        -0.10630E+01         0.00000E+00
    0.10771E+01        -0.10220E+01         0.00000E+00
    0.10469E+01        -0.98001E+00         0.00000E+00
    0.10161E+01        -0.93725E+00         0.00000E+00
    0.98473E+00        -0.89371E+00         0.00000E+00
    0.95254E+00        -0.84946E+00         0.00000E+00
    0.91939E+00        -0.80455E+00         0.00000E+00
    0.88509E+00        -0.75904E+00         0.00000E+00
    0.84949E+00        -0.71301E+00         0.00000E+00
    0.81244E+00        -0.66653E+00         0.00000E+00
    0.77377E+00        -0.61968E+00         0.00000E+00
    0.73335E+00        -0.57257E+00         0.00000E+00
    0.69102E+00        -0.52528E+00         0.00000E+00
    0.64665E+00        -0.47793E+00         0.00000E+00
    0.60013E+00        -0.43065E+00         0.00000E+00
    0.55132E+00        -0.38358E+00         0.00000E+00
    0.50015E+00        -0.33686E+00         0.00000E+00
    0.44651E+00        -0.29067E+00         0.00000E+00
    0.39034E+00        -0.24518E+00         0.00000E+00
    0.33161E+00        -0.20062E+00         0.00000E+00
    0.27028E+00        -0.15719E+00         0.00000E+00
    0.20639E+00        -0.11514E+00         0.00000E+00
    0.13998E+00        -0.74728E-01         0.00000E+00
    0.71135E-01        -0.36246E-01         0.00000E+00
    0.00000E+00         0.00000E+00         0.00000E+00
    0.25857E+01        -0.23053E+01         0.00000E+00
    0.24746E+01        -0.22786E+01         0.00000E+00
    0.23700E+01        -0.22529E+01         0.00000E+00
    0.22718E+01        -0.22275E+01         0.00000E+00
    0.21801E+01        -0.22022E+01         0.00000E+00
    0.20946E+01        -0.21766E+01         0.00000E+00
    0.20152E+01        -0.21504E+01         0.00000E+00
    0.19416E+01        -0.21234E+01         0.00000E+00
    0.18735E+01        -0.20955E+01         0.00000E+00
    0.18105E+01        -0.20663E+01         0.00000E+00
    0.17524E+01        -0.20359E+01         0.00000E+00
    0.16988E+01        -0.20042E+01         0.00000E+00
    0.16492E+01        -0.19711E+01         0.00000E+00
    0.16034E+01        -0.19365E+01         0.00000E+00
    0.15609E+01        -0.19005E+01         0.00000E+00
    0.15215E+01        -0.18631E+01         0.00000E+00
    0.14848E+01        -0.18242E+01         0.00000E+00
    0.14504E+01        -0.17839E+01         0.00000E+00
    0.14180E+01        -0.17423E+01         0.00000E+00
    0.13874E+01        -0.16993E+01         0.00000E+00
    0.13583E+01        -0.16551E+01         0.00000E+00
    0.13303E+01        -0.16096E+01         0.00000E+00
    0.13033E+01        -0.15629E+01         0.00000E+00
    0.12769E+01        -0.15151E+01         0.00000E+00
    0.12510E+01        -0.14662E+01         0.00000E+00
    0.12252E+01        -0.14162E+01         0.00000E+00
    0.11994E+01        -0.13652E+01         0.00000E+00
    0.11733E+01        -0.13132E+01         0.00000E+00
    0.11467E+01        -0.12603E+01         0.00000E+00
    0.11194E+01        -0.12065E+01         0.00000E+00
    0.10913E+01        -0.11519E+01         0.00000E+00
    0.10619E+01        -0.10964E+01         0.00000E+00
    0.10313E+01        -0.10402E+01         0.00000E+00
    0.99906E+00        -0.98329E+00         0.00000E+00
    0.96507E+00        -0.92572E+00         0.00000E+00
    0.92908E+00        -0.86753E+00         0.00000E+00
    0.89087E+00        -0.80881E+00         0.00000E+00
    0.85022E+00        -0.74961E+00         0.00000E+00
    0.80690E+00        -0.69003E+00         0.00000E+00
    0.76068E+00        -0.63016E+00         0.00000E+00
    0.71133E+00        -0.57011E+00         0.00000E+00
    0.65862E+00        -0.51000E+00         0.00000E+00
    0.60233E+00        -0.45000E+00         0.00000E+00
    0.54225E+00        -0.39026E+00         0.00000E+00
    0.47816E+00        -0.33098E+00         0.00000E+00
    0.40986E+00        -0.27239E+00         0.00000E+00
    0.33718E+00        -0.21475E+00         0.00000E+00
    0.25996E+00        -0.15834E+00         0.00000E+00
    0.17808E+00        -0.10349E+00         0.00000E+00
    0.91445E-01        -0.50579E-01         0.00000E+00
    0.00000E+00         0.00000E+00         0.00000E+00
    0.26460E+01        -0.29460E+01         0.00000E+00
    0.25097E+01        -0.29110E+01         0.00000E+00
    0.23848E+01        -0.28766E+01         0.00000E+00
    0.22707E+01        -0.28422E+01         0.00000E+00
    0.21669E+01        -0.28073E+01         0.00000E+00
    0.20726E+01        -0.27715E+01         0.00000E+00
    0.19873E+01        -0.27346E+01         0.00000E+00
    0.19102E+01        -0.26962E+01         0.00000E+00
    0.18407E+01        -0.26563E+01         0.00000E+00
    0.17780E+01        -0.26148E+01         0.00000E+00
    0.17216E+01        -0.25715E+01         0.00000E+00
    0.16707E+01        -0.25266E+01         0.00000E+00
    0.16248E+01        -0.24799E+01         0.00000E+00
    0.15833E+01        -0.24316E+01         0.00000E+00
    0.15456E+01        -0.23817E+01         0.00000E+00
    0.15114E+01        -0.23304E+01         0.00000E+00
    0.14800E+01        -0.22775E+01         0.00000E+00
    0.14512E+01        -0.22234E+01         0.00000E+00
    0.14245E+01        -0.21679E+01         0.00000E+00
    0.13996E+01        -0.21113E+01         0.00000E+00
    0.13761E+01        -0.20535E+01         0.00000E+00
    0.13537E+01        -0.19946E+01         0.00000E+00
    0.13321E+01        -0.19348E+01         0.00000E+00
    0.13111E+01        -0.18740E+01         0.00000E+00
    0.12905E+01        -0.18123E+01         0.00000E+00
    0.12698E+01        -0.17498E+01         0.00000E+00
    0.12490E+01        -0.16864E+01         0.00000E+00
    0.12277E+01        -0.16223E+01         0.00000E+00
    0.12058E+01        -0.15573E+01         0.00000E+00
    0.11830E+01        -0.14917E+01         0.00000E+00
    0.11590E+01        -0.14253E+01         0.00000E+00
    0.11337E+01        -0.13582E+01         0.00000E+00
    0.11069E+01        -0.12903E+01         0.00000E+00
    0.10781E+01        -0.12218E+01         0.00000E+00
    0.10473E+01        -0.11526E+01         0.00000E+00
    0.10141E+01        -0.10827E+01         0.00000E+00
    0.97824E+00        -0.10122E+01         0.00000E+00
    0.93941E+00        -0.94099E+00         0.00000E+00
    0.89731E+00        -0.86920E+00         0.00000E+00
    0.85160E+00        -0.79683E+00         0.00000E+00
    0.80192E+00        -0.72396E+00         0.00000E+00
    0.74791E+00        -0.65065E+00         0.00000E+00
    0.68917E+00        -0.57701E+00         0.00000E+00
    0.62531E+00        -0.50316E+00         0.00000E+00
    0.55591E+00        -0.42929E+00         0.00000E+00
    0.48057E+00        -0.35558E+00         0.00000E+00
    0.39885E+00        -0.28228E+00         0.00000E+00
    0.31035E+00        -0.20970E+00         0.00000E+00
    0.21463E+00        -0.13817E+00         0.00000E+00
    0.11129E+00        -0.68098E-01         0.00000E+00
    0.00000E+00         0.00000E+00         0.00000E+00
    0.25251E+01        -0.37182E+01         0.00000E+00
    0.23692E+01        -0.36668E+01         0.00000E+00
    0.22307E+01        -0.36154E+01         0.00000E+00
    0.21080E+01        -0.35632E+01         0.00000E+00
    0.19997E+01        -0.35099E+01         0.00000E+00
    0.19045E+01        -0.34550E+01         0.00000E+00
    0.18209E+01        -0.33984E+01         0.00000E+00
    0.17476E+01        -0.33400E+01         0.00000E+00
    0.16834E+01        -0.32796E+01         0.00000E+00
    0.16272E+01        -0.32174E+01         0.00000E+00
    0.15779E+01        -0.31535E+01         0.00000E+00
    0.15346E+01        -0.30880E+01         0.00000E+00
    0.14964E+01        -0.30211E+01         0.00000E+00
    0.14627E+01        -0.29528E+01         0.00000E+00
    0.14328E+01        -0.28834E+01         0.00000E+00
    0.14061E+01        -0.28130E+01         0.00000E+00
    0.13821E+01        -0.27417E+01         0.00000E+00
    0.13604E+01        -0.26695E+01         0.00000E+00
    0.13406E+01        -0.25967E+01         0.00000E+00
    0.13223E+01        -0.25233E+01         0.00000E+00
    0.13052E+01        -0.24494E+01         0.00000E+00
    0.12890E+01        -0.23750E+01         0.00000E+00
    0.12733E+01        -0.23002E+01         0.00000E+00
    0.12581E+01        -0.22250E+01         0.00000E+00
    0.12430E+01        -0.21494E+01         0.00000E+00
    0.12278E+01        -0.20735E+01         0.00000E+00
    0.12123E+01        -0.19973E+01         0.00000E+00
    0.11963E+01        -0.19208E+01         0.00000E+00
    0.11795E+01        -0.18439E+01         0.00000E+00
    0.11619E+01        -0.17666E+01         0.00000E+00
    0.11430E+01        -0.16889E+01         0.00000E+00
    0.11228E+01        -0.16109E+01         0.00000E+00
    0.11010E+01        -0.15323E+01         0.00000E+00
    0.10773E+01        -0.14532E+01         0.00000E+00
    0.10515E+01        -0.13736E+01         0.00000E+00
    0.10233E+01        -0.12934E+01         0.00000E+00
    0.99233E+00        -0.12125E+01         0.00000E+00
    0.95830E+00        -0.11308E+01         0.00000E+00
    0.92081E+00        -0.10484E+01         0.00000E+00
    0.87944E+00        -0.96506E+00         0.00000E+00
    0.83373E+00        -0.88089E+00         0.00000E+00
    0.78316E+00        -0.79578E+00         0.00000E+00
    0.72717E+00        -0.70974E+00         0.00000E+00
    0.66512E+00        -0.62278E+00         0.00000E+00
    0.59636E+00        -0.53495E+00         0.00000E+00
    0.52014E+00        -0.44634E+00         0.00000E+00
    0.43572E+00        -0.35713E+00         0.00000E+00
    0.34231E+00        -0.26755E+00         0.00000E+00
    0.23914E+00        -0.17793E+00         0.00000E+00
    0.12539E+00        -0.88622E-01         0.00000E+00
    0.00000E+00         0.00000E+00         0.00000E+00
    0.21149E+01        -0.45687E+01         0.00000E+00
    0.19569E+01        -0.44908E+01         0.00000E+00
    0.18218E+01        -0.44120E+01         0.00000E+00
    0.17075E+01        -0.43313E+01         0.00000E+00
    0.16111E+01        -0.42483E+01         0.00000E+00
    0.15298E+01        -0.41632E+01         0.00000E+00
    0.14613E+01        -0.40760E+01         0.00000E+00
    0.14032E+01        -0.39872E+01         0.00000E+00
    0.13539E+01        -0.38970E+01         0.00000E+00
    0.13120E+01        -0.38058E+01         0.00000E+00
    0.12761E+01        -0.37138E+01         0.00000E+00
    0.12453E+01        -0.36213E+01         0.00000E+00
    0.12188E+01        -0.35286E+01         0.00000E+00
    0.11958E+01        -0.34358E+01         0.00000E+00
    0.11757E+01        -0.33430E+01         0.00000E+00
    0.11581E+01        -0.32505E+01         0.00000E+00
    0.11424E+01        -0.31582E+01         0.00000E+00
    0.11284E+01        -0.30664E+01         0.00000E+00
    0.11157E+01        -0.29749E+01         0.00000E+00
    0.11041E+01        -0.28839E+01         0.00000E+00
    0.10932E+01        -0.27934E+01         0.00000E+00
    0.10828E+01        -0.27034E+01         0.00000E+00
    0.10729E+01        -0.26139E+01         0.00000E+00
    0.10631E+01        -0.25248E+01         0.00000E+00
    0.10533E+01        -0.24362E+01         0.00000E+00
    0.10433E+01        -0.23480E+01         0.00000E+00
    0.10330E+01        -0.22602E+01         0.00000E+00
    0.10223E+01        -0.21726E+01         0.00000E+00
    0.10109E+01        -0.20854E+01         0.00000E+00
    0.99868E+00        -0.19983E+01         0.00000E+00
    0.98555E+00        -0.19113E+01         0.00000E+00
    0.97128E+00        -0.18243E+01         0.00000E+00
    0.95570E+00        -0.17372E+01         0.00000E+00
    0.93861E+00        -0.16499E+01         0.00000E+00
    0.91977E+00        -0.15624E+01         0.00000E+00
    0.89894E+00        -0.14745E+01         0.00000E+00
    0.87584E+00        -0.13860E+01         0.00000E+00
    0.85015E+00        -0.12968E+01         0.00000E+00
    0.82152E+00        -0.12067E+01         0.00000E+00
    0.78951E+00        -0.11157E+01         0.00000E+00
    0.75366E+00        -0.10235E+01         0.00000E+00
    0.71340E+00        -0.92990E+00         0.00000E+00
    0.66807E+00        -0.83474E+00         0.00000E+00
    0.61689E+00        -0.73781E+00         0.00000E+00
    0.55896E+00        -0.63891E+00         0.00000E+00
    0.49321E+00        -0.53787E+00         0.00000E+00
    0.41840E+00        -0.43454E+00         0.00000E+00
    0.33311E+00        -0.32887E+00         0.00000E+00
    0.23580E+00        -0.22094E+00         0.00000E+00
    0.12503E+00        -0.11108E+00         0.00000E+00
    0.00000E+00         0.00000E+00         0.00000E+00
    0.13004E+01        -0.53646E+01         0.00000E+00
    0.11765E+01        -0.52510E+01         0.00000E+00
    0.10823E+01        -0.51320E+01         0.00000E+00
    0.10091E+01        -0.50095E+01         0.00000E+00
    0.95093E+00        -0.48850E+01         0.00000E+00
    0.90417E+00        -0.47595E+01         0.00000E+00
    0.86610E+00        -0.46339E+01         0.00000E+00
    0.83480E+00        -0.45090E+01         0.00000E+00
    0.80885E+00        -0.43851E+01         0.00000E+00
    0.78717E+00        -0.42626E+01         0.00000E+00
    0.76893E+00        -0.41416E+01         0.00000E+00
    0.75347E+00        -0.40223E+01         0.00000E+00
    0.74028E+00        -0.39049E+01         0.00000E+00
    0.72894E+00        -0.37892E+01         0.00000E+00
    0.71910E+00        -0.36755E+01         0.00000E+00
    0.71049E+00        -0.35635E+01         0.00000E+00
    0.70288E+00        -0.34534E+01         0.00000E+00
    0.69605E+00        -0.33450E+01         0.00000E+00
    0.68986E+00        -0.32383E+01         0.00000E+00
    0.68414E+00        -0.31333E+01         0.00000E+00
    0.67878E+00        -0.30297E+01         0.00000E+00
    0.67366E+00        -0.29277E+01         0.00000E+00
    0.66868E+00        -0.28270E+01         0.00000E+00
    0.66374E+00        -0.27276E+01         0.00000E+00
    0.65876E+00        -0.26294E+01         0.00000E+00
    0.65366E+00        -0.25323E+01         0.00000E+00
    0.64836E+00        -0.24363E+01         0.00000E+00
    0.64277E+00        -0.23411E+01         0.00000E+00
    0.63681E+00        -0.22467E+01         0.00000E+00
    0.63041E+00        -0.21530E+01         0.00000E+00
    0.62347E+00        -0.20599E+01         0.00000E+00
    0.61591E+00        -0.19672E+01         0.00000E+00
    0.60761E+00        -0.18748E+01         0.00000E+00
    0.59846E+00        -0.17826E+01         0.00000E+00
    0.58834E+00        -0.16904E+01         0.00000E+00
    0.57710E+00        -0.15981E+01         0.00000E+00
    0.56459E+00        -0.15054E+01         0.00000E+00
    0.55059E+00        -0.14122E+01         0.00000E+00
    0.53490E+00        -0.13183E+01         0.00000E+00
    0.51724E+00        -0.12234E+01         0.00000E+00
    0.49729E+00        -0.11273E+01         0.00000E+00
    0.47467E+00        -0.10296E+01         0.00000E+00
    0.44890E+00        -0.93001E+00         0.00000E+00
    0.41939E+00        -0.82810E+00         0.00000E+00
    0.38540E+00        -0.72341E+00         0.00000E+00
    0.34596E+00        -0.61540E+00         0.00000E+00
    0.29980E+00        -0.50343E+00         0.00000E+00
    0.24520E+00        -0.38678E+00         0.00000E+00
    0.17974E+00        -0.26460E+00         0.00000E+00
    0.99844E-01        -0.13598E+00         0.00000E+00
    0.00000E+00         0.00000E+00         0.00000E+00
    0.00000E+00        -0.58057E+01         0.00000E+00
    0.00000E+00        -0.56448E+01         0.00000E+00
    0.00000E+00        -0.54839E+01         0.00000E+00
    0.00000E+00        -0.53250E+01         0.00000E+00
    0.00000E+00        -0.51689E+01         0.00000E+00
    0.00000E+00        -0.50162E+01         0.00000E+00
    0.00000E+00        -0.48671E+01         0.00000E+00
    0.00000E+00        -0.47216E+01         0.00000E+00
    0.00000E+00        -0.45797E+01         0.00000E+00
    0.00000E+00        -0.44413E+01         0.00000E+00
    0.00000E+00        -0.43063E+01         0.00000E+00
    0.00000E+00        -0.41745E+01         0.00000E+00
    0.00000E+00        -0.40459E+01         0.00000E+00
    0.00000E+00        -0.39203E+01         0.00000E+00
    0.00000E+00        -0.37976E+01         0.00000E+00
    0.00000E+00        -0.36775E+01         0.00000E+00
    0.00000E+00        -0.35600E+01         0.00000E+00
    0.00000E+00        -0.34450E+01         0.00000E+00
    0.00000E+00        -0.33322E+01         0.00000E+00
    0.00000E+00        -0.32216E+01         0.00000E+00
    0.00000E+00        -0.31131E+01         0.00000E+00
    0.00000E+00        -0.30064E+01         0.00000E+00
    0.00000E+00        -0.29015E+01         0.00000E+00
    0.00000E+00        -0.27983E+01         0.00000E+00
    0.00000E+00        -0.26966E+01         0.00000E+00
    0.00000E+00        -0.25962E+01         0.00000E+00
    0.00000E+00        -0.24972E+01         0.00000E+00
    0.00000E+00        -0.23993E+01         0.00000E+00
    0.00000E+00        -0.23024E+01         0.00000E+00
    0.00000E+00        -0.22065E+01         0.00000E+00
    0.00000E+00        -0.21112E+01         0.00000E+00
    0.00000E+00        -0.20166E+01         0.00000E+00
    0.00000E+00        -0.19225E+01         0.00000E+00
    0.00000E+00        -0.18287E+01         0.00000E+00
    0.00000E+00        -0.17351E+01         0.00000E+00
    0.00000E+00        -0.16415E+01         0.00000E+00
    0.00000E+00        -0.15476E+01         0.00000E+00
    0.00000E+00        -0.14534E+01         0.00000E+00
    0.00000E+00        -0.13585E+01         0.00000E+00
    0.00000E+00        -0.12627E+01         0.00000E+00
    0.00000E+00        -0.11657E+01         0.00000E+00
    0.00000E+00        -0.10671E+01         0.00000E+00
    0.00000E+00        -0.96660E+00         0.00000E+00
    0.00000E+00        -0.86365E+00         0.00000E+00
    0.00000E+00        -0.75769E+00         0.00000E+00
    0.00000E+00        -0.64800E+00         0.00000E+00
    0.00000E+00        -0.53371E+00         0.00000E+00
    0.00000E+00        -0.41364E+00         0.00000E+00
    0.00000E+00        -0.28627E+00         0.00000E+00
    0.00000E+00        -0.14944E+00         0.00000E+00
    0.00000E+00         0.00000E+00         0.00000E+00
CELL_DATA       5000
VECTORS vDarcy double 
    0.57617E-06         0.19724E-09         0.00000E+00
    0.57596E-06         0.85242E-09         0.00000E+00
    0.57544E-06         0.17509E-08         0.00000E+00
    0.57453E-06         0.27766E-08         0.00000E+00
    0.57321E-06         0.38607E-08         0.00000E+00
    0.57145E-06         0.49360E-08         0.00000E+00
    0.56933E-06         0.56471E-08         0.00000E+00
    0.56702E-06         0.59180E-08         0.00000E+00
    0.56462E-06         0.60727E-08         0.00000E+00
    0.56216E-06         0.62037E-08         0.00000E+00
    0.55966E-06         0.63107E-08         0.00000E+00
    0.55712E-06         0.63869E-08         0.00000E+00
    0.55456E-06         0.64312E-08         0.00000E+00
    0.55198E-06         0.64452E-08         0.00000E+00
    0.54941E-06         0.64318E-08         0.00000E+00
    0.54684E-06         0.63946E-08         0.00000E+00
    0.54430E-06         0.63373E-08         0.00000E+00
    0.54178E-06         0.62634E-08         0.00000E+00
    0.53929E-06         0.61761E-08         0.00000E+00
    0.53684E-06         0.60780E-08         0.00000E+00
    0.53443E-06         0.59716E-08         0.00000E+00
    0.53206E-06         0.58586E-08         0.00000E+00
    0.52974E-06         0.57407E-08         0.00000E+00
    0.52747E-06         0.56188E-08         0.00000E+00
    0.52525E-06         0.54939E-08         0.00000E+00
    0.52308E-06         0.53663E-08         0.00000E+00
    0.52095E-06         0.52364E-08         0.00000E+00
    0.51889E-06         0.51039E-08         0.00000E+00
    0.51687E-06         0.49686E-08         0.00000E+00
    0.51491E-06         0.48299E-08         0.00000E+00
    0.51301E-06         0.46870E-08         0.00000E+00
    0.51116E-06         0.45389E-08         0.00000E+00
    0.50938E-06         0.43844E-08         0.00000E+00
    0.50766E-06         0.42220E-08         0.00000E+00
    0.50600E-06         0.40502E-08         0.00000E+00
    0.50442E-06         0.38670E-08         0.00000E+00
    0.50291E-06         0.36706E-08         0.00000E+00
    0.50149E-06         0.34588E-08         0.00000E+00
    0.50015E-06         0.32295E-08         0.00000E+00
    0.49891E-06         0.29808E-08         0.00000E+00
    0.49777E-06         0.27109E-08         0.00000E+00
    0.49674E-06         0.24187E-08         0.00000E+00
    0.49584E-06         0.21039E-08         0.00000E+00
    0.49506E-06         0.17679E-08         0.00000E+00
    0.49443E-06         0.14148E-08         0.00000E+00
    0.49393E-06         0.10523E-08         0.00000E+00
    0.49358E-06         0.69444E-09         0.00000E+00
    0.49337E-06         0.36469E-09         0.00000E+00
    0.49328E-06         0.10122E-09         0.00000E+00
    0.49327E-06        -0.35134E-10         0.00000E+00
    0.49559E-06         0.16294E-08         0.00000E+00
    0.49477E-06         0.46021E-08         0.00000E+00
    0.49344E-06         0.72354E-08         0.00000E+00
    0.49189E-06         0.95683E-08         0.00000E+00
    0.49031E-06         0.11625E-07         0.00000E+00
    0.48882E-06         0.13398E-07         0.00000E+00
    0.48744E-06         0.14658E-07         0.00000E+00
    0.48606E-06         0.15394E-07         0.00000E+00
    0.48460E-06         0.15887E-07         0.00000E+00
    0.48308E-06         0.16237E-07         0.00000E+00
    0.48155E-06         0.16466E-07         0.00000E+00
    0.48002E-06         0.16590E-07         0.00000E+00
    0.47850E-06         0.16623E-07         0.00000E+00
    0.47701E-06         0.16581E-07         0.00000E+00
    0.47555E-06         0.16476E-07         0.00000E+00
    0.47412E-06         0.16320E-07         0.00000E+00
    0.47273E-06         0.16124E-07         0.00000E+00
    0.47136E-06         0.15897E-07         0.00000E+00
    0.47003E-06         0.15645E-07         0.00000E+00
    0.46873E-06         0.15376E-07         0.00000E+00
    0.46745E-06         0.15094E-07         0.00000E+00
    0.46621E-06         0.14802E-07         0.00000E+00
    0.46498E-06         0.14505E-07         0.00000E+00
    0.46379E-06         0.14205E-07         0.00000E+00
    0.46261E-06         0.13902E-07         0.00000E+00
    0.46145E-06         0.13597E-07         0.00000E+00
    0.46032E-06         0.13291E-07         0.00000E+00
    0.45920E-06         0.12984E-07         0.00000E+00
    0.45810E-06         0.12674E-07         0.00000E+00
    0.45701E-06         0.12360E-07         0.00000E+00
    0.45593E-06         0.12041E-07         0.00000E+00
    0.45487E-06         0.11714E-07         0.00000E+00
    0.45383E-06         0.11376E-07         0.00000E+00
    0.45279E-06         0.11024E-07         0.00000E+00
    0.45176E-06         0.10656E-07         0.00000E+00
    0.45074E-06         0.10266E-07         0.00000E+00
    0.44974E-06         0.98502E-08         0.00000E+00
    0.44874E-06         0.94043E-08         0.00000E+00
    0.44775E-06         0.89233E-08         0.00000E+00
    0.44677E-06         0.84019E-08         0.00000E+00
    0.44579E-06         0.78353E-08         0.00000E+00
    0.44484E-06         0.72189E-08         0.00000E+00
    0.44389E-06         0.65490E-08         0.00000E+00
    0.44297E-06         0.58230E-08         0.00000E+00
    0.44207E-06         0.50402E-08         0.00000E+00
    0.44120E-06         0.42027E-08         0.00000E+00
    0.44040E-06         0.33158E-08         0.00000E+00
    0.43968E-06         0.23893E-08         0.00000E+00
    0.43910E-06         0.14372E-08         0.00000E+00
    0.43875E-06         0.47692E-09         0.00000E+00
    0.37136E-06         0.29168E-08         0.00000E+00
    0.37131E-06         0.77304E-08         0.00000E+00
    0.37118E-06         0.11383E-07         0.00000E+00
    0.37099E-06         0.14135E-07         0.00000E+00
    0.37075E-06         0.16175E-07         0.00000E+00
    0.37047E-06         0.17649E-07         0.00000E+00
    0.37018E-06         0.18730E-07         0.00000E+00
    0.36993E-06         0.19529E-07         0.00000E+00
    0.36972E-06         0.20065E-07         0.00000E+00
    0.36957E-06         0.20380E-07         0.00000E+00
    0.36947E-06         0.20521E-07         0.00000E+00
    0.36940E-06         0.20528E-07         0.00000E+00
    0.36937E-06         0.20432E-07         0.00000E+00
    0.36936E-06         0.20258E-07         0.00000E+00
    0.36938E-06         0.20025E-07         0.00000E+00
    0.36941E-06         0.19749E-07         0.00000E+00
    0.36946E-06         0.19444E-07         0.00000E+00
    0.36951E-06         0.19119E-07         0.00000E+00
    0.36957E-06         0.18782E-07         0.00000E+00
    0.36964E-06         0.18439E-07         0.00000E+00
    0.36970E-06         0.18095E-07         0.00000E+00
    0.36975E-06         0.17752E-07         0.00000E+00
    0.36980E-06         0.17414E-07         0.00000E+00
    0.36984E-06         0.17081E-07         0.00000E+00
    0.36988E-06         0.16755E-07         0.00000E+00
    0.36989E-06         0.16436E-07         0.00000E+00
    0.36989E-06         0.16123E-07         0.00000E+00
    0.36988E-06         0.15815E-07         0.00000E+00
    0.36985E-06         0.15512E-07         0.00000E+00
    0.36980E-06         0.15212E-07         0.00000E+00
    0.36973E-06         0.14912E-07         0.00000E+00
    0.36963E-06         0.14611E-07         0.00000E+00
    0.36952E-06         0.14305E-07         0.00000E+00
    0.36938E-06         0.13992E-07         0.00000E+00
    0.36921E-06         0.13666E-07         0.00000E+00
    0.36901E-06         0.13324E-07         0.00000E+00
    0.36879E-06         0.12960E-07         0.00000E+00
    0.36853E-06         0.12568E-07         0.00000E+00
    0.36824E-06         0.12140E-07         0.00000E+00
    0.36793E-06         0.11670E-07         0.00000E+00
    0.36758E-06         0.11147E-07         0.00000E+00
    0.36721E-06         0.10560E-07         0.00000E+00
    0.36682E-06         0.98968E-08         0.00000E+00
    0.36641E-06         0.91421E-08         0.00000E+00
    0.36600E-06         0.82771E-08         0.00000E+00
    0.36560E-06         0.72786E-08         0.00000E+00
    0.36523E-06         0.61169E-08         0.00000E+00
    0.36491E-06         0.47522E-08         0.00000E+00
    0.36468E-06         0.31311E-08         0.00000E+00
    0.36456E-06         0.11793E-08         0.00000E+00
    0.23874E-06         0.24423E-08         0.00000E+00
    0.23913E-06         0.65607E-08         0.00000E+00
    0.23982E-06         0.97492E-08         0.00000E+00
    0.24073E-06         0.12168E-07         0.00000E+00
    0.24181E-06         0.13963E-07         0.00000E+00
    0.24300E-06         0.15262E-07         0.00000E+00
    0.24428E-06         0.16154E-07         0.00000E+00
    0.24561E-06         0.16723E-07         0.00000E+00
    0.24698E-06         0.17051E-07         0.00000E+00
    0.24837E-06         0.17200E-07         0.00000E+00
    0.24977E-06         0.17215E-07         0.00000E+00
    0.25118E-06         0.17129E-07         0.00000E+00
    0.25259E-06         0.16970E-07         0.00000E+00
    0.25398E-06         0.16762E-07         0.00000E+00
    0.25537E-06         0.16521E-07         0.00000E+00
    0.25673E-06         0.16260E-07         0.00000E+00
    0.25808E-06         0.15989E-07         0.00000E+00
    0.25939E-06         0.15717E-07         0.00000E+00
    0.26068E-06         0.15448E-07         0.00000E+00
    0.26193E-06         0.15187E-07         0.00000E+00
    0.26316E-06         0.14937E-07         0.00000E+00
    0.26434E-06         0.14698E-07         0.00000E+00
    0.26549E-06         0.14472E-07         0.00000E+00
    0.26660E-06         0.14258E-07         0.00000E+00
    0.26768E-06         0.14057E-07         0.00000E+00
    0.26871E-06         0.13869E-07         0.00000E+00
    0.26971E-06         0.13691E-07         0.00000E+00
    0.27067E-06         0.13523E-07         0.00000E+00
    0.27159E-06         0.13364E-07         0.00000E+00
    0.27247E-06         0.13212E-07         0.00000E+00
    0.27331E-06         0.13064E-07         0.00000E+00
    0.27411E-06         0.12920E-07         0.00000E+00
    0.27487E-06         0.12775E-07         0.00000E+00
    0.27559E-06         0.12627E-07         0.00000E+00
    0.27627E-06         0.12472E-07         0.00000E+00
    0.27691E-06         0.12304E-07         0.00000E+00
    0.27751E-06         0.12118E-07         0.00000E+00
    0.27806E-06         0.11908E-07         0.00000E+00
    0.27858E-06         0.11662E-07         0.00000E+00
    0.27905E-06         0.11372E-07         0.00000E+00
    0.27948E-06         0.11024E-07         0.00000E+00
    0.27986E-06         0.10603E-07         0.00000E+00
    0.28021E-06         0.10088E-07         0.00000E+00
    0.28052E-06         0.94569E-08         0.00000E+00
    0.28078E-06         0.86820E-08         0.00000E+00
    0.28101E-06         0.77296E-08         0.00000E+00
    0.28121E-06         0.65604E-08         0.00000E+00
    0.28136E-06         0.51283E-08         0.00000E+00
    0.28146E-06         0.33808E-08         0.00000E+00
    0.28152E-06         0.12614E-08         0.00000E+00
    0.12960E-06         0.11560E-08         0.00000E+00
    0.13016E-06         0.31243E-08         0.00000E+00
    0.13117E-06         0.46714E-08         0.00000E+00
    0.13254E-06         0.58569E-08         0.00000E+00
    0.13417E-06         0.67359E-08         0.00000E+00
    0.13600E-06         0.73598E-08         0.00000E+00
    0.13798E-06         0.77794E-08         0.00000E+00
    0.14006E-06         0.80388E-08         0.00000E+00
    0.14220E-06         0.81715E-08         0.00000E+00
    0.14439E-06         0.82091E-08         0.00000E+00
    0.14659E-06         0.81792E-08         0.00000E+00
    0.14879E-06         0.81042E-08         0.00000E+00
    0.15099E-06         0.80019E-08         0.00000E+00
    0.15316E-06         0.78860E-08         0.00000E+00
    0.15530E-06         0.77669E-08         0.00000E+00
    0.15740E-06         0.76521E-08         0.00000E+00
    0.15947E-06         0.75468E-08         0.00000E+00
    0.16150E-06         0.74547E-08         0.00000E+00
    0.16348E-06         0.73777E-08         0.00000E+00
    0.16541E-06         0.73169E-08         0.00000E+00
    0.16730E-06         0.72722E-08         0.00000E+00
    0.16913E-06         0.72434E-08         0.00000E+00
    0.17092E-06         0.72294E-08         0.00000E+00
    0.17267E-06         0.72293E-08         0.00000E+00
    0.17436E-06         0.72416E-08         0.00000E+00
    0.17601E-06         0.72651E-08         0.00000E+00
    0.17761E-06         0.72984E-08         0.00000E+00
    0.17917E-06         0.73401E-08         0.00000E+00
    0.18068E-06         0.73886E-08         0.00000E+00
    0.18215E-06         0.74426E-08         0.00000E+00
    0.18358E-06         0.75004E-08         0.00000E+00
    0.18496E-06         0.75602E-08         0.00000E+00
    0.18630E-06         0.76198E-08         0.00000E+00
    0.18760E-06         0.76765E-08         0.00000E+00
    0.18886E-06         0.77271E-08         0.00000E+00
    0.19008E-06         0.77675E-08         0.00000E+00
    0.19125E-06         0.77926E-08         0.00000E+00
    0.19238E-06         0.77960E-08         0.00000E+00
    0.19347E-06         0.77699E-08         0.00000E+00
    0.19451E-06         0.77047E-08         0.00000E+00
    0.19550E-06         0.75885E-08         0.00000E+00
    0.19644E-06         0.74073E-08         0.00000E+00
    0.19732E-06         0.71443E-08         0.00000E+00
    0.19814E-06         0.67798E-08         0.00000E+00
    0.19889E-06         0.62910E-08         0.00000E+00
    0.19955E-06         0.56517E-08         0.00000E+00
    0.20012E-06         0.48323E-08         0.00000E+00
    0.20058E-06         0.37997E-08         0.00000E+00
    0.20091E-06         0.25175E-08         0.00000E+00
    0.20109E-06         0.94490E-09         0.00000E+00
    0.56898E-07        -0.22320E-09         0.00000E+00
    0.57363E-07        -0.61777E-09         0.00000E+00
    0.58225E-07        -0.95792E-09         0.00000E+00
    0.59410E-07        -0.12612E-08         0.00000E+00
    0.60855E-07        -0.15373E-08         0.00000E+00
    0.62508E-07        -0.17904E-08         0.00000E+00
    0.64323E-07        -0.20228E-08         0.00000E+00
    0.66260E-07        -0.22335E-08         0.00000E+00
    0.68287E-07        -0.24193E-08         0.00000E+00
    0.70377E-07        -0.25777E-08         0.00000E+00
    0.72509E-07        -0.27064E-08         0.00000E+00
    0.74663E-07        -0.28034E-08         0.00000E+00
    0.76827E-07        -0.28674E-08         0.00000E+00
    0.78987E-07        -0.28975E-08         0.00000E+00
    0.81134E-07        -0.28940E-08         0.00000E+00
    0.83262E-07        -0.28576E-08         0.00000E+00
    0.85364E-07        -0.27899E-08         0.00000E+00
    0.87436E-07        -0.26930E-08         0.00000E+00
    0.89475E-07        -0.25692E-08         0.00000E+00
    0.91478E-07        -0.24214E-08         0.00000E+00
    0.93445E-07        -0.22522E-08         0.00000E+00
    0.95373E-07        -0.20645E-08         0.00000E+00
    0.97262E-07        -0.18612E-08         0.00000E+00
    0.99113E-07        -0.16447E-08         0.00000E+00
    0.10092E-06        -0.14176E-08         0.00000E+00
    0.10270E-06        -0.11821E-08         0.00000E+00
    0.10443E-06        -0.93988E-09         0.00000E+00
    0.10613E-06        -0.69281E-09         0.00000E+00
    0.10779E-06        -0.44228E-09         0.00000E+00
    0.10941E-06        -0.18958E-09         0.00000E+00
    0.11100E-06         0.64115E-10         0.00000E+00
    0.11255E-06         0.31766E-09         0.00000E+00
    0.11407E-06         0.56982E-09         0.00000E+00
    0.11555E-06         0.81918E-09         0.00000E+00
    0.11700E-06         0.10640E-08         0.00000E+00
    0.11841E-06         0.13022E-08         0.00000E+00
    0.11978E-06         0.15308E-08         0.00000E+00
    0.12111E-06         0.17464E-08         0.00000E+00
    0.12240E-06         0.19445E-08         0.00000E+00
    0.12364E-06         0.21196E-08         0.00000E+00
    0.12483E-06         0.22650E-08         0.00000E+00
    0.12596E-06         0.23725E-08         0.00000E+00
    0.12703E-06         0.24327E-08         0.00000E+00
    0.12802E-06         0.24347E-08         0.00000E+00
    0.12893E-06         0.23658E-08         0.00000E+00
    0.12974E-06         0.22119E-08         0.00000E+00
    0.13043E-06         0.19574E-08         0.00000E+00
    0.13099E-06         0.15853E-08         0.00000E+00
    0.13139E-06         0.10771E-08         0.00000E+00
    0.13160E-06         0.41373E-09         0.00000E+00
    0.17412E-07        -0.11962E-08         0.00000E+00
    0.17683E-07        -0.33250E-08         0.00000E+00
    0.18197E-07        -0.51280E-08         0.00000E+00
    0.18924E-07        -0.66505E-08         0.00000E+00
    0.19835E-07        -0.79302E-08         0.00000E+00
    0.20902E-07        -0.89986E-08         0.00000E+00
    0.22101E-07        -0.98814E-08         0.00000E+00
    0.23409E-07        -0.10600E-07         0.00000E+00
    0.24806E-07        -0.11174E-07         0.00000E+00
    0.26275E-07        -0.11619E-07         0.00000E+00
    0.27800E-07        -0.11948E-07         0.00000E+00
    0.29368E-07        -0.12174E-07         0.00000E+00
    0.30967E-07        -0.12307E-07         0.00000E+00
    0.32587E-07        -0.12359E-07         0.00000E+00
    0.34220E-07        -0.12336E-07         0.00000E+00
    0.35860E-07        -0.12250E-07         0.00000E+00
    0.37499E-07        -0.12106E-07         0.00000E+00
    0.39134E-07        -0.11913E-07         0.00000E+00
    0.40761E-07        -0.11677E-07         0.00000E+00
    0.42375E-07        -0.11405E-07         0.00000E+00
    0.43976E-07        -0.11102E-07         0.00000E+00
    0.45560E-07        -0.10775E-07         0.00000E+00
    0.47125E-07        -0.10426E-07         0.00000E+00
    0.48671E-07        -0.10062E-07         0.00000E+00
    0.50196E-07        -0.96854E-08         0.00000E+00
    0.51700E-07        -0.92993E-08         0.00000E+00
    0.53182E-07        -0.89063E-08         0.00000E+00
    0.54641E-07        -0.85086E-08         0.00000E+00
    0.56077E-07        -0.81077E-08         0.00000E+00
    0.57489E-07        -0.77048E-08         0.00000E+00
    0.58877E-07        -0.73007E-08         0.00000E+00
    0.60241E-07        -0.68960E-08         0.00000E+00
    0.61579E-07        -0.64907E-08         0.00000E+00
    0.62890E-07        -0.60850E-08         0.00000E+00
    0.64174E-07        -0.56789E-08         0.00000E+00
    0.65429E-07        -0.52724E-08         0.00000E+00
    0.66653E-07        -0.48655E-08         0.00000E+00
    0.67843E-07        -0.44586E-08         0.00000E+00
    0.68996E-07        -0.40522E-08         0.00000E+00
    0.70107E-07        -0.36471E-08         0.00000E+00
    0.71172E-07        -0.32446E-08         0.00000E+00
    0.72185E-07        -0.28462E-08         0.00000E+00
    0.73139E-07        -0.24540E-08         0.00000E+00
    0.74023E-07        -0.20704E-08         0.00000E+00
    0.74829E-07        -0.16983E-08         0.00000E+00
    0.75543E-07        -0.13409E-08         0.00000E+00
    0.76152E-07        -0.10013E-08         0.00000E+00
    0.76640E-07        -0.68278E-09         0.00000E+00
    0.76986E-07        -0.38840E-09         0.00000E+00
    0.77172E-07        -0.12056E-09         0.00000E+00
    0.76583E-09        -0.16669E-08         0.00000E+00
    0.86089E-09        -0.46833E-08         0.00000E+00
    0.10519E-08        -0.72958E-08         0.00000E+00
    0.13377E-08        -0.95463E-08         0.00000E+00
    0.17145E-08        -0.11472E-07         0.00000E+00
    0.21773E-08        -0.13107E-07         0.00000E+00
    0.27199E-08        -0.14480E-07         0.00000E+00
    0.33355E-08        -0.15620E-07         0.00000E+00
    0.40171E-08        -0.16550E-07         0.00000E+00
    0.47577E-08        -0.17291E-07         0.00000E+00
    0.55505E-08        -0.17865E-07         0.00000E+00
    0.63890E-08        -0.18288E-07         0.00000E+00
    0.72671E-08        -0.18578E-07         0.00000E+00
    0.81792E-08        -0.18749E-07         0.00000E+00
    0.91199E-08        -0.18816E-07         0.00000E+00
    0.10085E-07        -0.18791E-07         0.00000E+00
    0.11069E-07        -0.18685E-07         0.00000E+00
    0.12069E-07        -0.18510E-07         0.00000E+00
    0.13081E-07        -0.18274E-07         0.00000E+00
    0.14103E-07        -0.17988E-07         0.00000E+00
    0.15130E-07        -0.17658E-07         0.00000E+00
    0.16161E-07        -0.17293E-07         0.00000E+00
    0.17194E-07        -0.16898E-07         0.00000E+00
    0.18225E-07        -0.16478E-07         0.00000E+00
    0.19254E-07        -0.16039E-07         0.00000E+00
    0.20278E-07        -0.15585E-07         0.00000E+00
    0.21296E-07        -0.15119E-07         0.00000E+00
    0.22306E-07        -0.14643E-07         0.00000E+00
    0.23308E-07        -0.14159E-07         0.00000E+00
    0.24298E-07        -0.13668E-07         0.00000E+00
    0.25277E-07        -0.13172E-07         0.00000E+00
    0.26242E-07        -0.12669E-07         0.00000E+00
    0.27193E-07        -0.12160E-07         0.00000E+00
    0.28127E-07        -0.11644E-07         0.00000E+00
    0.29043E-07        -0.11120E-07         0.00000E+00
    0.29939E-07        -0.10585E-07         0.00000E+00
    0.30813E-07        -0.10039E-07         0.00000E+00
    0.31661E-07        -0.94783E-08         0.00000E+00
    0.32482E-07        -0.89009E-08         0.00000E+00
    0.33272E-07        -0.83043E-08         0.00000E+00
    0.34026E-07        -0.76857E-08         0.00000E+00
    0.34741E-07        -0.70419E-08         0.00000E+00
    0.35410E-07        -0.63699E-08         0.00000E+00
    0.36028E-07        -0.56661E-08         0.00000E+00
    0.36587E-07        -0.49267E-08         0.00000E+00
    0.37080E-07        -0.41476E-08         0.00000E+00
    0.37496E-07        -0.33241E-08         0.00000E+00
    0.37827E-07        -0.24509E-08         0.00000E+00
    0.38061E-07        -0.15218E-08         0.00000E+00
    0.38184E-07        -0.52974E-09         0.00000E+00
   -0.33524E-08        -0.17566E-08         0.00000E+00
   -0.33689E-08        -0.49865E-08         0.00000E+00
   -0.33892E-08        -0.78463E-08         0.00000E+00
   -0.34014E-08        -0.10364E-07         0.00000E+00
   -0.33963E-08        -0.12564E-07         0.00000E+00
   -0.33673E-08        -0.14474E-07         0.00000E+00
   -0.33096E-08        -0.16115E-07         0.00000E+00
   -0.32199E-08        -0.17511E-07         0.00000E+00
   -0.30966E-08        -0.18683E-07         0.00000E+00
   -0.29386E-08        -0.19651E-07         0.00000E+00
   -0.27460E-08        -0.20432E-07         0.00000E+00
   -0.25193E-08        -0.21046E-07         0.00000E+00
   -0.22597E-08        -0.21508E-07         0.00000E+00
   -0.19687E-08        -0.21834E-07         0.00000E+00
   -0.16478E-08        -0.22039E-07         0.00000E+00
   -0.12991E-08        -0.22135E-07         0.00000E+00
   -0.92452E-09        -0.22135E-07         0.00000E+00
   -0.52623E-09        -0.22051E-07         0.00000E+00
   -0.10637E-09        -0.21893E-07         0.00000E+00
    0.33288E-09        -0.21672E-07         0.00000E+00
    0.78937E-09        -0.21394E-07         0.00000E+00
    0.12609E-08        -0.21070E-07         0.00000E+00
    0.17455E-08        -0.20705E-07         0.00000E+00
    0.22409E-08        -0.20306E-07         0.00000E+00
    0.27452E-08        -0.19877E-07         0.00000E+00
    0.32565E-08        -0.19425E-07         0.00000E+00
    0.37727E-08        -0.18951E-07         0.00000E+00
    0.42921E-08        -0.18459E-07         0.00000E+00
    0.48129E-08        -0.17952E-07         0.00000E+00
    0.53331E-08        -0.17430E-07         0.00000E+00
    0.58513E-08        -0.16894E-07         0.00000E+00
    0.63655E-08        -0.16345E-07         0.00000E+00
    0.68742E-08        -0.15781E-07         0.00000E+00
    0.73756E-08        -0.15202E-07         0.00000E+00
    0.78680E-08        -0.14605E-07         0.00000E+00
    0.83497E-08        -0.13988E-07         0.00000E+00
    0.88187E-08        -0.13349E-07         0.00000E+00
    0.92733E-08        -0.12684E-07         0.00000E+00
    0.97112E-08        -0.11989E-07         0.00000E+00
    0.10130E-07        -0.11260E-07         0.00000E+00
    0.10528E-07        -0.10492E-07         0.00000E+00
    0.10903E-07        -0.96793E-08         0.00000E+00
    0.11250E-07        -0.88166E-08         0.00000E+00
    0.11568E-07        -0.78975E-08         0.00000E+00
    0.11853E-07        -0.69152E-08         0.00000E+00
    0.12101E-07        -0.58622E-08         0.00000E+00
    0.12308E-07        -0.47304E-08         0.00000E+00
    0.12471E-07        -0.35108E-08         0.00000E+00
    0.12584E-07        -0.21939E-08         0.00000E+00
    0.12643E-07        -0.76891E-09         0.00000E+00
   -0.20764E-08        -0.16341E-08         0.00000E+00
   -0.21459E-08        -0.46794E-08         0.00000E+00
   -0.22707E-08        -0.74275E-08         0.00000E+00
   -0.24365E-08        -0.98925E-08         0.00000E+00
   -0.26308E-08        -0.12089E-07         0.00000E+00
   -0.28429E-08        -0.14033E-07         0.00000E+00
   -0.30642E-08        -0.15739E-07         0.00000E+00
   -0.32870E-08        -0.17222E-07         0.00000E+00
   -0.35054E-08        -0.18498E-07         0.00000E+00
   -0.37145E-08        -0.19581E-07         0.00000E+00
   -0.39103E-08        -0.20486E-07         0.00000E+00
   -0.40899E-08        -0.21228E-07         0.00000E+00
   -0.42509E-08        -0.21819E-07         0.00000E+00
   -0.43919E-08        -0.22274E-07         0.00000E+00
   -0.45117E-08        -0.22604E-07         0.00000E+00
   -0.46100E-08        -0.22822E-07         0.00000E+00
   -0.46866E-08        -0.22938E-07         0.00000E+00
   -0.47417E-08        -0.22964E-07         0.00000E+00
   -0.47760E-08        -0.22909E-07         0.00000E+00
   -0.47903E-08        -0.22781E-07         0.00000E+00
   -0.47855E-08        -0.22591E-07         0.00000E+00
   -0.47628E-08        -0.22344E-07         0.00000E+00
   -0.47236E-08        -0.22049E-07         0.00000E+00
   -0.46693E-08        -0.21710E-07         0.00000E+00
   -0.46013E-08        -0.21334E-07         0.00000E+00
   -0.45213E-08        -0.20924E-07         0.00000E+00
   -0.44307E-08        -0.20485E-07         0.00000E+00
   -0.43312E-08        -0.20020E-07         0.00000E+00
   -0.42242E-08        -0.19530E-07         0.00000E+00
   -0.41114E-08        -0.19017E-07         0.00000E+00
   -0.39942E-08        -0.18483E-07         0.00000E+00
   -0.38742E-08        -0.17927E-07         0.00000E+00
   -0.37526E-08        -0.17350E-07         0.00000E+00
   -0.36309E-08        -0.16749E-07         0.00000E+00
   -0.35103E-08        -0.16123E-07         0.00000E+00
   -0.33921E-08        -0.15470E-07         0.00000E+00
   -0.32773E-08        -0.14787E-07         0.00000E+00
   -0.31670E-08        -0.14071E-07         0.00000E+00
   -0.30623E-08        -0.13317E-07         0.00000E+00
   -0.29639E-08        -0.12520E-07         0.00000E+00
   -0.28728E-08        -0.11677E-07         0.00000E+00
   -0.27897E-08        -0.10781E-07         0.00000E+00
   -0.27151E-08        -0.98257E-08         0.00000E+00
   -0.26498E-08        -0.88048E-08         0.00000E+00
   -0.25940E-08        -0.77110E-08         0.00000E+00
   -0.25480E-08        -0.65365E-08         0.00000E+00
   -0.25121E-08        -0.52728E-08         0.00000E+00
   -0.24859E-08        -0.39111E-08         0.00000E+00
   -0.24693E-08        -0.24416E-08         0.00000E+00
   -0.24615E-08        -0.85432E-09         0.00000E+00
    0.72261E-09        -0.14258E-08         0.00000E+00
    0.63679E-09        -0.41113E-08         0.00000E+00
    0.47667E-09        -0.65708E-08         0.00000E+00
    0.25466E-09        -0.88104E-08         0.00000E+00
   -0.17964E-10        -0.10837E-07         0.00000E+00
   -0.33104E-09        -0.12659E-07         0.00000E+00
   -0.67550E-09        -0.14284E-07         0.00000E+00
   -0.10433E-08        -0.15723E-07         0.00000E+00
   -0.14273E-08        -0.16984E-07         0.00000E+00
   -0.18213E-08        -0.18079E-07         0.00000E+00
   -0.22200E-08        -0.19016E-07         0.00000E+00
   -0.26189E-08        -0.19806E-07         0.00000E+00
   -0.30141E-08        -0.20460E-07         0.00000E+00
   -0.34024E-08        -0.20987E-07         0.00000E+00
   -0.37812E-08        -0.21398E-07         0.00000E+00
   -0.41486E-08        -0.21701E-07         0.00000E+00
   -0.45028E-08        -0.21905E-07         0.00000E+00
   -0.48429E-08        -0.22021E-07         0.00000E+00
   -0.51681E-08        -0.22055E-07         0.00000E+00
   -0.54779E-08        -0.22015E-07         0.00000E+00
   -0.57724E-08        -0.21909E-07         0.00000E+00
   -0.60516E-08        -0.21744E-07         0.00000E+00
   -0.63159E-08        -0.21524E-07         0.00000E+00
   -0.65658E-08        -0.21257E-07         0.00000E+00
   -0.68021E-08        -0.20946E-07         0.00000E+00
   -0.70256E-08        -0.20595E-07         0.00000E+00
   -0.72372E-08        -0.20209E-07         0.00000E+00
   -0.74378E-08        -0.19790E-07         0.00000E+00
   -0.76283E-08        -0.19341E-07         0.00000E+00
   -0.78098E-08        -0.18863E-07         0.00000E+00
   -0.79832E-08        -0.18357E-07         0.00000E+00
   -0.81494E-08        -0.17823E-07         0.00000E+00
   -0.83093E-08        -0.17262E-07         0.00000E+00
   -0.84636E-08        -0.16673E-07         0.00000E+00
   -0.86129E-08        -0.16055E-07         0.00000E+00
   -0.87578E-08        -0.15405E-07         0.00000E+00
   -0.88987E-08        -0.14722E-07         0.00000E+00
   -0.90358E-08        -0.14002E-07         0.00000E+00
   -0.91691E-08        -0.13242E-07         0.00000E+00
   -0.92986E-08        -0.12439E-07         0.00000E+00
   -0.94238E-08        -0.11588E-07         0.00000E+00
   -0.95442E-08        -0.10684E-07         0.00000E+00
   -0.96589E-08        -0.97217E-08         0.00000E+00
   -0.97669E-08        -0.86958E-08         0.00000E+00
   -0.98667E-08        -0.76000E-08         0.00000E+00
   -0.99565E-08        -0.64278E-08         0.00000E+00
   -0.10034E-07        -0.51721E-08         0.00000E+00
   -0.10098E-07        -0.38258E-08         0.00000E+00
   -0.10143E-07        -0.23810E-08         0.00000E+00
   -0.10168E-07        -0.82971E-09         0.00000E+00
    0.33704E-08        -0.12023E-08         0.00000E+00
    0.32861E-08        -0.34839E-08         0.00000E+00
    0.31258E-08        -0.55963E-08         0.00000E+00
    0.28991E-08        -0.75412E-08         0.00000E+00
    0.26148E-08        -0.93216E-08         0.00000E+00
    0.22813E-08        -0.10941E-07         0.00000E+00
    0.19062E-08        -0.12405E-07         0.00000E+00
    0.14969E-08        -0.13717E-07         0.00000E+00
    0.10598E-08        -0.14885E-07         0.00000E+00
    0.60077E-09        -0.15913E-07         0.00000E+00
    0.12531E-09        -0.16810E-07         0.00000E+00
   -0.36184E-09        -0.17582E-07         0.00000E+00
   -0.85646E-09        -0.18235E-07         0.00000E+00
   -0.13548E-08        -0.18778E-07         0.00000E+00
   -0.18537E-08        -0.19218E-07         0.00000E+00
   -0.23503E-08        -0.19560E-07         0.00000E+00
   -0.28424E-08        -0.19814E-07         0.00000E+00
   -0.33281E-08        -0.19984E-07         0.00000E+00
   -0.38057E-08        -0.20077E-07         0.00000E+00
   -0.42741E-08        -0.20101E-07         0.00000E+00
   -0.47323E-08        -0.20060E-07         0.00000E+00
   -0.51797E-08        -0.19960E-07         0.00000E+00
   -0.56160E-08        -0.19806E-07         0.00000E+00
   -0.60407E-08        -0.19602E-07         0.00000E+00
   -0.64540E-08        -0.19353E-07         0.00000E+00
   -0.68559E-08        -0.19062E-07         0.00000E+00
   -0.72466E-08        -0.18732E-07         0.00000E+00
   -0.76264E-08        -0.18366E-07         0.00000E+00
   -0.79955E-08        -0.17967E-07         0.00000E+00
   -0.83544E-08        -0.17535E-07         0.00000E+00
   -0.87034E-08        -0.17072E-07         0.00000E+00
   -0.90428E-08        -0.16579E-07         0.00000E+00
   -0.93728E-08        -0.16057E-07         0.00000E+00
   -0.96936E-08        -0.15503E-07         0.00000E+00
   -0.10005E-07        -0.14919E-07         0.00000E+00
   -0.10308E-07        -0.14303E-07         0.00000E+00
   -0.10601E-07        -0.13654E-07         0.00000E+00
   -0.10884E-07        -0.12968E-07         0.00000E+00
   -0.11157E-07        -0.12245E-07         0.00000E+00
   -0.11419E-07        -0.11481E-07         0.00000E+00
   -0.11668E-07        -0.10673E-07         0.00000E+00
   -0.11904E-07        -0.98173E-08         0.00000E+00
   -0.12125E-07        -0.89105E-08         0.00000E+00
   -0.12329E-07        -0.79483E-08         0.00000E+00
   -0.12513E-07        -0.69260E-08         0.00000E+00
   -0.12676E-07        -0.58391E-08         0.00000E+00
   -0.12814E-07        -0.46825E-08         0.00000E+00
   -0.12923E-07        -0.34510E-08         0.00000E+00
   -0.13001E-07        -0.21392E-08         0.00000E+00
   -0.13042E-07        -0.74178E-09         0.00000E+00
    0.53435E-08        -0.99389E-09         0.00000E+00
    0.52674E-08        -0.28898E-08         0.00000E+00
    0.51213E-08        -0.46582E-08         0.00000E+00
    0.49120E-08        -0.62993E-08         0.00000E+00
    0.46464E-08        -0.78139E-08         0.00000E+00
    0.43308E-08        -0.92036E-08         0.00000E+00
    0.39716E-08        -0.10471E-07         0.00000E+00
    0.35745E-08        -0.11619E-07         0.00000E+00
    0.31451E-08        -0.12650E-07         0.00000E+00
    0.26885E-08        -0.13570E-07         0.00000E+00
    0.22095E-08        -0.14381E-07         0.00000E+00
    0.17125E-08        -0.15090E-07         0.00000E+00
    0.12014E-08        -0.15699E-07         0.00000E+00
    0.67989E-09        -0.16215E-07         0.00000E+00
    0.15124E-09        -0.16643E-07         0.00000E+00
   -0.38165E-09        -0.16987E-07         0.00000E+00
   -0.91623E-09        -0.17253E-07         0.00000E+00
   -0.14503E-08        -0.17446E-07         0.00000E+00
   -0.19818E-08        -0.17570E-07         0.00000E+00
   -0.25092E-08        -0.17630E-07         0.00000E+00
   -0.30311E-08        -0.17630E-07         0.00000E+00
   -0.35464E-08        -0.17576E-07         0.00000E+00
   -0.40540E-08        -0.17470E-07         0.00000E+00
   -0.45532E-08        -0.17317E-07         0.00000E+00
   -0.50434E-08        -0.17120E-07         0.00000E+00
   -0.55243E-08        -0.16881E-07         0.00000E+00
   -0.59953E-08        -0.16604E-07         0.00000E+00
   -0.64563E-08        -0.16290E-07         0.00000E+00
   -0.69071E-08        -0.15943E-07         0.00000E+00
   -0.73474E-08        -0.15563E-07         0.00000E+00
   -0.77772E-08        -0.15151E-07         0.00000E+00
   -0.81961E-08        -0.14709E-07         0.00000E+00
   -0.86041E-08        -0.14237E-07         0.00000E+00
   -0.90009E-08        -0.13735E-07         0.00000E+00
   -0.93860E-08        -0.13204E-07         0.00000E+00
   -0.97590E-08        -0.12642E-07         0.00000E+00
   -0.10119E-07        -0.12048E-07         0.00000E+00
   -0.10466E-07        -0.11423E-07         0.00000E+00
   -0.10799E-07        -0.10763E-07         0.00000E+00
   -0.11116E-07        -0.10068E-07         0.00000E+00
   -0.11416E-07        -0.93362E-08         0.00000E+00
   -0.11698E-07        -0.85642E-08         0.00000E+00
   -0.11960E-07        -0.77502E-08         0.00000E+00
   -0.12200E-07        -0.68913E-08         0.00000E+00
   -0.12415E-07        -0.59847E-08         0.00000E+00
   -0.12603E-07        -0.50275E-08         0.00000E+00
   -0.12760E-07        -0.40165E-08         0.00000E+00
   -0.12885E-07        -0.29484E-08         0.00000E+00
   -0.12972E-07        -0.18199E-08         0.00000E+00
   -0.13017E-07        -0.62767E-09         0.00000E+00
    0.66043E-08        -0.81041E-09         0.00000E+00
    0.65381E-08        -0.23617E-08         0.00000E+00
    0.64102E-08        -0.38162E-08         0.00000E+00
    0.62258E-08        -0.51732E-08         0.00000E+00
    0.59901E-08        -0.64330E-08         0.00000E+00
    0.57079E-08        -0.75961E-08         0.00000E+00
    0.53842E-08        -0.86638E-08         0.00000E+00
    0.50237E-08        -0.96376E-08         0.00000E+00
    0.46307E-08        -0.10520E-07         0.00000E+00
    0.42097E-08        -0.11312E-07         0.00000E+00
    0.37645E-08        -0.12018E-07         0.00000E+00
    0.32991E-08        -0.12640E-07         0.00000E+00
    0.28168E-08        -0.13182E-07         0.00000E+00
    0.23211E-08        -0.13646E-07         0.00000E+00
    0.18147E-08        -0.14037E-07         0.00000E+00
    0.13006E-08        -0.14358E-07         0.00000E+00
    0.78124E-09        -0.14612E-07         0.00000E+00
    0.25878E-09        -0.14804E-07         0.00000E+00
   -0.26472E-09        -0.14936E-07         0.00000E+00
   -0.78747E-09        -0.15012E-07         0.00000E+00
   -0.13079E-08        -0.15036E-07         0.00000E+00
   -0.18246E-08        -0.15011E-07         0.00000E+00
   -0.23364E-08        -0.14939E-07         0.00000E+00
   -0.28422E-08        -0.14823E-07         0.00000E+00
   -0.33411E-08        -0.14667E-07         0.00000E+00
   -0.38323E-08        -0.14473E-07         0.00000E+00
   -0.43150E-08        -0.14243E-07         0.00000E+00
   -0.47888E-08        -0.13978E-07         0.00000E+00
   -0.52530E-08        -0.13681E-07         0.00000E+00
   -0.57071E-08        -0.13353E-07         0.00000E+00
   -0.61507E-08        -0.12995E-07         0.00000E+00
   -0.65831E-08        -0.12608E-07         0.00000E+00
   -0.70040E-08        -0.12194E-07         0.00000E+00
   -0.74128E-08        -0.11751E-07         0.00000E+00
   -0.78088E-08        -0.11282E-07         0.00000E+00
   -0.81914E-08        -0.10785E-07         0.00000E+00
   -0.85598E-08        -0.10261E-07         0.00000E+00
   -0.89132E-08        -0.97086E-08         0.00000E+00
   -0.92506E-08        -0.91278E-08         0.00000E+00
   -0.95707E-08        -0.85177E-08         0.00000E+00
   -0.98723E-08        -0.78772E-08         0.00000E+00
   -0.10154E-07        -0.72051E-08         0.00000E+00
   -0.10414E-07        -0.65001E-08         0.00000E+00
   -0.10650E-07        -0.57608E-08         0.00000E+00
   -0.10861E-07        -0.49856E-08         0.00000E+00
   -0.11044E-07        -0.41728E-08         0.00000E+00
   -0.11196E-07        -0.33208E-08         0.00000E+00
   -0.11316E-07        -0.24278E-08         0.00000E+00
   -0.11398E-07        -0.14920E-08         0.00000E+00
   -0.11441E-07        -0.51183E-09         0.00000E+00
    0.72722E-08        -0.65307E-09         0.00000E+00
    0.72158E-08        -0.19063E-08         0.00000E+00
    0.71065E-08        -0.30857E-08         0.00000E+00
    0.69482E-08        -0.41905E-08         0.00000E+00
    0.67450E-08        -0.52205E-08         0.00000E+00
    0.65006E-08        -0.61760E-08         0.00000E+00
    0.62190E-08        -0.70573E-08         0.00000E+00
    0.59039E-08        -0.78655E-08         0.00000E+00
    0.55588E-08        -0.86017E-08         0.00000E+00
    0.51873E-08        -0.92673E-08         0.00000E+00
    0.47927E-08        -0.98641E-08         0.00000E+00
    0.43781E-08        -0.10394E-07         0.00000E+00
    0.39465E-08        -0.10859E-07         0.00000E+00
    0.35008E-08        -0.11262E-07         0.00000E+00
    0.30435E-08        -0.11604E-07         0.00000E+00
    0.25772E-08        -0.11889E-07         0.00000E+00
    0.21041E-08        -0.12119E-07         0.00000E+00
    0.16262E-08        -0.12296E-07         0.00000E+00
    0.11455E-08        -0.12423E-07         0.00000E+00
    0.66369E-09        -0.12503E-07         0.00000E+00
    0.18241E-09        -0.12537E-07         0.00000E+00
   -0.29694E-09        -0.12529E-07         0.00000E+00
   -0.77305E-09        -0.12481E-07         0.00000E+00
   -0.12448E-08        -0.12394E-07         0.00000E+00
   -0.17110E-08        -0.12271E-07         0.00000E+00
   -0.21709E-08        -0.12114E-07         0.00000E+00
   -0.26234E-08        -0.11925E-07         0.00000E+00
   -0.30679E-08        -0.11704E-07         0.00000E+00
   -0.35037E-08        -0.11455E-07         0.00000E+00
   -0.39299E-08        -0.11177E-07         0.00000E+00
   -0.43459E-08        -0.10872E-07         0.00000E+00
   -0.47512E-08        -0.10542E-07         0.00000E+00
   -0.51451E-08        -0.10186E-07         0.00000E+00
   -0.55268E-08        -0.98061E-08         0.00000E+00
   -0.58958E-08        -0.94021E-08         0.00000E+00
   -0.62512E-08        -0.89745E-08         0.00000E+00
   -0.65923E-08        -0.85235E-08         0.00000E+00
   -0.69183E-08        -0.80491E-08         0.00000E+00
   -0.72282E-08        -0.75512E-08         0.00000E+00
   -0.75210E-08        -0.70298E-08         0.00000E+00
   -0.77955E-08        -0.64844E-08         0.00000E+00
   -0.80505E-08        -0.59147E-08         0.00000E+00
   -0.82846E-08        -0.53201E-08         0.00000E+00
   -0.84963E-08        -0.47000E-08         0.00000E+00
   -0.86840E-08        -0.40539E-08         0.00000E+00
   -0.88458E-08        -0.33810E-08         0.00000E+00
   -0.89798E-08        -0.26806E-08         0.00000E+00
   -0.90839E-08        -0.19520E-08         0.00000E+00
   -0.91558E-08        -0.11946E-08         0.00000E+00
   -0.91930E-08        -0.40766E-09         0.00000E+00
    0.74923E-08        -0.52033E-09         0.00000E+00
    0.74451E-08        -0.15209E-08         0.00000E+00
    0.73533E-08        -0.24654E-08         0.00000E+00
    0.72200E-08        -0.33532E-08         0.00000E+00
    0.70484E-08        -0.41837E-08         0.00000E+00
    0.68416E-08        -0.49571E-08         0.00000E+00
    0.66027E-08        -0.56733E-08         0.00000E+00
    0.63345E-08        -0.63329E-08         0.00000E+00
    0.60400E-08        -0.69366E-08         0.00000E+00
    0.57220E-08        -0.74851E-08         0.00000E+00
    0.53833E-08        -0.79795E-08         0.00000E+00
    0.50264E-08        -0.84211E-08         0.00000E+00
    0.46539E-08        -0.88113E-08         0.00000E+00
    0.42680E-08        -0.91516E-08         0.00000E+00
    0.38711E-08        -0.94435E-08         0.00000E+00
    0.34652E-08        -0.96887E-08         0.00000E+00
    0.30524E-08        -0.98891E-08         0.00000E+00
    0.26344E-08        -0.10046E-07         0.00000E+00
    0.22130E-08        -0.10162E-07         0.00000E+00
    0.17898E-08        -0.10239E-07         0.00000E+00
    0.13663E-08        -0.10277E-07         0.00000E+00
    0.94378E-09        -0.10280E-07         0.00000E+00
    0.52354E-09        -0.10248E-07         0.00000E+00
    0.10673E-09        -0.10184E-07         0.00000E+00
   -0.30560E-09        -0.10088E-07         0.00000E+00
   -0.71246E-09        -0.99634E-08         0.00000E+00
   -0.11130E-08        -0.98101E-08         0.00000E+00
   -0.15063E-08        -0.96299E-08         0.00000E+00
   -0.18916E-08        -0.94240E-08         0.00000E+00
   -0.22682E-08        -0.91936E-08         0.00000E+00
   -0.26353E-08        -0.89396E-08         0.00000E+00
   -0.29924E-08        -0.86630E-08         0.00000E+00
   -0.33386E-08        -0.83645E-08         0.00000E+00
   -0.36735E-08        -0.80450E-08         0.00000E+00
   -0.39962E-08        -0.77049E-08         0.00000E+00
   -0.43061E-08        -0.73449E-08         0.00000E+00
   -0.46026E-08        -0.69653E-08         0.00000E+00
   -0.48847E-08        -0.65665E-08         0.00000E+00
   -0.51519E-08        -0.61487E-08         0.00000E+00
   -0.54031E-08        -0.57122E-08         0.00000E+00
   -0.56376E-08        -0.52570E-08         0.00000E+00
   -0.58544E-08        -0.47833E-08         0.00000E+00
   -0.60523E-08        -0.42910E-08         0.00000E+00
   -0.62304E-08        -0.37801E-08         0.00000E+00
   -0.63874E-08        -0.32506E-08         0.00000E+00
   -0.65219E-08        -0.27023E-08         0.00000E+00
   -0.66327E-08        -0.21352E-08         0.00000E+00
   -0.67183E-08        -0.15493E-08         0.00000E+00
   -0.67770E-08        -0.94446E-09         0.00000E+00
   -0.68072E-08        -0.32074E-09         0.00000E+00
    0.73935E-08        -0.41003E-09         0.00000E+00
    0.73545E-08        -0.12001E-08         0.00000E+00
    0.72787E-08        -0.19481E-08         0.00000E+00
    0.71685E-08        -0.26534E-08         0.00000E+00
    0.70265E-08        -0.33154E-08         0.00000E+00
    0.68550E-08        -0.39339E-08         0.00000E+00
    0.66564E-08        -0.45089E-08         0.00000E+00
    0.64332E-08        -0.50405E-08         0.00000E+00
    0.61877E-08        -0.55291E-08         0.00000E+00
    0.59222E-08        -0.59750E-08         0.00000E+00
    0.56388E-08        -0.63790E-08         0.00000E+00
    0.53397E-08        -0.67417E-08         0.00000E+00
    0.50269E-08        -0.70641E-08         0.00000E+00
    0.47024E-08        -0.73470E-08         0.00000E+00
    0.43680E-08        -0.75917E-08         0.00000E+00
    0.40256E-08        -0.77991E-08         0.00000E+00
    0.36768E-08        -0.79704E-08         0.00000E+00
    0.33232E-08        -0.81070E-08         0.00000E+00
    0.29662E-08        -0.82100E-08         0.00000E+00
    0.26074E-08        -0.82807E-08         0.00000E+00
    0.22479E-08        -0.83203E-08         0.00000E+00
    0.18891E-08        -0.83301E-08         0.00000E+00
    0.15320E-08        -0.83114E-08         0.00000E+00
    0.11777E-08        -0.82653E-08         0.00000E+00
    0.82726E-09        -0.81930E-08         0.00000E+00
    0.48153E-09        -0.80957E-08         0.00000E+00
    0.14137E-09        -0.79744E-08         0.00000E+00
   -0.19242E-09        -0.78302E-08         0.00000E+00
   -0.51907E-09        -0.76639E-08         0.00000E+00
   -0.83788E-09        -0.74767E-08         0.00000E+00
   -0.11482E-08        -0.72692E-08         0.00000E+00
   -0.14493E-08        -0.70424E-08         0.00000E+00
   -0.17407E-08        -0.67969E-08         0.00000E+00
   -0.20217E-08        -0.65334E-08         0.00000E+00
   -0.22918E-08        -0.62526E-08         0.00000E+00
   -0.25503E-08        -0.59550E-08         0.00000E+00
   -0.27966E-08        -0.56412E-08         0.00000E+00
   -0.30302E-08        -0.53117E-08         0.00000E+00
   -0.32504E-08        -0.49667E-08         0.00000E+00
   -0.34566E-08        -0.46068E-08         0.00000E+00
   -0.36482E-08        -0.42323E-08         0.00000E+00
   -0.38244E-08        -0.38434E-08         0.00000E+00
   -0.39845E-08        -0.34406E-08         0.00000E+00
   -0.41277E-08        -0.30240E-08         0.00000E+00
   -0.42533E-08        -0.25940E-08         0.00000E+00
   -0.43603E-08        -0.21508E-08         0.00000E+00
   -0.44479E-08        -0.16947E-08         0.00000E+00
   -0.45152E-08        -0.12259E-08         0.00000E+00
   -0.45610E-08        -0.74489E-09         0.00000E+00
   -0.45845E-08        -0.25192E-09         0.00000E+00
    0.70801E-08        -0.31989E-09         0.00000E+00
    0.70485E-08        -0.93766E-09         0.00000E+00
    0.69871E-08        -0.15244E-08         0.00000E+00
    0.68977E-08        -0.20793E-08         0.00000E+00
    0.67823E-08        -0.26021E-08         0.00000E+00
    0.66428E-08        -0.30922E-08         0.00000E+00
    0.64811E-08        -0.35496E-08         0.00000E+00
    0.62992E-08        -0.39742E-08         0.00000E+00
    0.60989E-08        -0.43661E-08         0.00000E+00
    0.58819E-08        -0.47254E-08         0.00000E+00
    0.56501E-08        -0.50525E-08         0.00000E+00
    0.54051E-08        -0.53478E-08         0.00000E+00
    0.51487E-08        -0.56118E-08         0.00000E+00
    0.48824E-08        -0.58451E-08         0.00000E+00
    0.46077E-08        -0.60484E-08         0.00000E+00
    0.43261E-08        -0.62223E-08         0.00000E+00
    0.40390E-08        -0.63677E-08         0.00000E+00
    0.37478E-08        -0.64854E-08         0.00000E+00
    0.34536E-08        -0.65762E-08         0.00000E+00
    0.31577E-08        -0.66409E-08         0.00000E+00
    0.28613E-08        -0.66805E-08         0.00000E+00
    0.25653E-08        -0.66958E-08         0.00000E+00
    0.22707E-08        -0.66876E-08         0.00000E+00
    0.19786E-08        -0.66570E-08         0.00000E+00
    0.16897E-08        -0.66046E-08         0.00000E+00
    0.14048E-08        -0.65314E-08         0.00000E+00
    0.11249E-08        -0.64381E-08         0.00000E+00
    0.85043E-09        -0.63255E-08         0.00000E+00
    0.58225E-09        -0.61944E-08         0.00000E+00
    0.32093E-09        -0.60455E-08         0.00000E+00
    0.67071E-10        -0.58795E-08         0.00000E+00
   -0.17875E-09        -0.56971E-08         0.00000E+00
   -0.41601E-09        -0.54989E-08         0.00000E+00
   -0.64419E-09        -0.52854E-08         0.00000E+00
   -0.86279E-09        -0.50574E-08         0.00000E+00
   -0.10713E-08        -0.48152E-08         0.00000E+00
   -0.12693E-08        -0.45593E-08         0.00000E+00
   -0.14564E-08        -0.42904E-08         0.00000E+00
   -0.16320E-08        -0.40089E-08         0.00000E+00
   -0.17957E-08        -0.37151E-08         0.00000E+00
   -0.19470E-08        -0.34096E-08         0.00000E+00
   -0.20855E-08        -0.30927E-08         0.00000E+00
   -0.22107E-08        -0.27649E-08         0.00000E+00
   -0.23221E-08        -0.24265E-08         0.00000E+00
   -0.24193E-08        -0.20780E-08         0.00000E+00
   -0.25016E-08        -0.17199E-08         0.00000E+00
   -0.25686E-08        -0.13525E-08         0.00000E+00
   -0.26197E-08        -0.97630E-09         0.00000E+00
   -0.26544E-08        -0.59181E-09         0.00000E+00
   -0.26720E-08        -0.19954E-09         0.00000E+00
    0.66338E-08        -0.24756E-09         0.00000E+00
    0.66087E-08        -0.72686E-09         0.00000E+00
    0.65599E-08        -0.11837E-08         0.00000E+00
    0.64888E-08        -0.16174E-08         0.00000E+00
    0.63969E-08        -0.20274E-08         0.00000E+00
    0.62857E-08        -0.24135E-08         0.00000E+00
    0.61567E-08        -0.27752E-08         0.00000E+00
    0.60114E-08        -0.31125E-08         0.00000E+00
    0.58512E-08        -0.34252E-08         0.00000E+00
    0.56775E-08        -0.37133E-08         0.00000E+00
    0.54919E-08        -0.39771E-08         0.00000E+00
    0.52955E-08        -0.42165E-08         0.00000E+00
    0.50897E-08        -0.44321E-08         0.00000E+00
    0.48759E-08        -0.46239E-08         0.00000E+00
    0.46552E-08        -0.47925E-08         0.00000E+00
    0.44288E-08        -0.49383E-08         0.00000E+00
    0.41978E-08        -0.50617E-08         0.00000E+00
    0.39634E-08        -0.51633E-08         0.00000E+00
    0.37266E-08        -0.52435E-08         0.00000E+00
    0.34884E-08        -0.53030E-08         0.00000E+00
    0.32497E-08        -0.53424E-08         0.00000E+00
    0.30114E-08        -0.53622E-08         0.00000E+00
    0.27743E-08        -0.53630E-08         0.00000E+00
    0.25392E-08        -0.53455E-08         0.00000E+00
    0.23069E-08        -0.53101E-08         0.00000E+00
    0.20781E-08        -0.52576E-08         0.00000E+00
    0.18534E-08        -0.51884E-08         0.00000E+00
    0.16334E-08        -0.51032E-08         0.00000E+00
    0.14188E-08        -0.50025E-08         0.00000E+00
    0.12100E-08        -0.48869E-08         0.00000E+00
    0.10076E-08        -0.47568E-08         0.00000E+00
    0.81203E-09        -0.46129E-08         0.00000E+00
    0.62375E-09        -0.44555E-08         0.00000E+00
    0.44319E-09        -0.42852E-08         0.00000E+00
    0.27073E-09        -0.41024E-08         0.00000E+00
    0.10676E-09        -0.39076E-08         0.00000E+00
   -0.48368E-10        -0.37012E-08         0.00000E+00
   -0.19432E-09        -0.34837E-08         0.00000E+00
   -0.33078E-09        -0.32554E-08         0.00000E+00
   -0.45742E-09        -0.30169E-08         0.00000E+00
   -0.57394E-09        -0.27685E-08         0.00000E+00
   -0.68006E-09        -0.25106E-08         0.00000E+00
   -0.77549E-09        -0.22437E-08         0.00000E+00
   -0.85995E-09        -0.19682E-08         0.00000E+00
   -0.93317E-09        -0.16846E-08         0.00000E+00
   -0.99485E-09        -0.13932E-08         0.00000E+00
   -0.10447E-08        -0.10947E-08         0.00000E+00
   -0.10826E-08        -0.78941E-09         0.00000E+00
   -0.11081E-08        -0.47797E-09         0.00000E+00
   -0.11209E-08        -0.16090E-09         0.00000E+00
    0.61169E-08        -0.19066E-09         0.00000E+00
    0.60974E-08        -0.56087E-09         0.00000E+00
    0.60594E-08        -0.91515E-09         0.00000E+00
    0.60039E-08        -0.12529E-08         0.00000E+00
    0.59321E-08        -0.15736E-08         0.00000E+00
    0.58453E-08        -0.18769E-08         0.00000E+00
    0.57444E-08        -0.21624E-08         0.00000E+00
    0.56306E-08        -0.24299E-08         0.00000E+00
    0.55051E-08        -0.26792E-08         0.00000E+00
    0.53689E-08        -0.29102E-08         0.00000E+00
    0.52231E-08        -0.31229E-08         0.00000E+00
    0.50689E-08        -0.33174E-08         0.00000E+00
    0.49071E-08        -0.34936E-08         0.00000E+00
    0.47388E-08        -0.36518E-08         0.00000E+00
    0.45651E-08        -0.37922E-08         0.00000E+00
    0.43867E-08        -0.39150E-08         0.00000E+00
    0.42048E-08        -0.40204E-08         0.00000E+00
    0.40200E-08        -0.41088E-08         0.00000E+00
    0.38333E-08        -0.41804E-08         0.00000E+00
    0.36454E-08        -0.42357E-08         0.00000E+00
    0.34572E-08        -0.42749E-08         0.00000E+00
    0.32692E-08        -0.42985E-08         0.00000E+00
    0.30824E-08        -0.43069E-08         0.00000E+00
    0.28972E-08        -0.43003E-08         0.00000E+00
    0.27143E-08        -0.42793E-08         0.00000E+00
    0.25342E-08        -0.42442E-08         0.00000E+00
    0.23577E-08        -0.41953E-08         0.00000E+00
    0.21850E-08        -0.41332E-08         0.00000E+00
    0.20168E-08        -0.40582E-08         0.00000E+00
    0.18534E-08        -0.39705E-08         0.00000E+00
    0.16953E-08        -0.38707E-08         0.00000E+00
    0.15429E-08        -0.37591E-08         0.00000E+00
    0.13965E-08        -0.36360E-08         0.00000E+00
    0.12565E-08        -0.35018E-08         0.00000E+00
    0.11232E-08        -0.33568E-08         0.00000E+00
    0.99684E-09        -0.32015E-08         0.00000E+00
    0.87771E-09        -0.30360E-08         0.00000E+00
    0.76606E-09        -0.28608E-08         0.00000E+00
    0.66210E-09        -0.26762E-08         0.00000E+00
    0.56604E-09        -0.24826E-08         0.00000E+00
    0.47806E-09        -0.22803E-08         0.00000E+00
    0.39833E-09        -0.20696E-08         0.00000E+00
    0.32701E-09        -0.18510E-08         0.00000E+00
    0.26424E-09        -0.16248E-08         0.00000E+00
    0.21015E-09        -0.13915E-08         0.00000E+00
    0.16484E-09        -0.11514E-08         0.00000E+00
    0.12844E-09        -0.90502E-09         0.00000E+00
    0.10102E-09        -0.65285E-09         0.00000E+00
    0.82667E-10        -0.39536E-09         0.00000E+00
    0.73462E-10        -0.13311E-09         0.00000E+00
    0.55752E-08        -0.14682E-09         0.00000E+00
    0.55604E-08        -0.43281E-09         0.00000E+00
    0.55313E-08        -0.70775E-09         0.00000E+00
    0.54890E-08        -0.97109E-09         0.00000E+00
    0.54341E-08        -0.12223E-08         0.00000E+00
    0.53676E-08        -0.14611E-08         0.00000E+00
    0.52902E-08        -0.16871E-08         0.00000E+00
    0.52029E-08        -0.18999E-08         0.00000E+00
    0.51065E-08        -0.20994E-08         0.00000E+00
    0.50017E-08        -0.22854E-08         0.00000E+00
    0.48895E-08        -0.24578E-08         0.00000E+00
    0.47706E-08        -0.26166E-08         0.00000E+00
    0.46459E-08        -0.27617E-08         0.00000E+00
    0.45160E-08        -0.28932E-08         0.00000E+00
    0.43818E-08        -0.30110E-08         0.00000E+00
    0.42440E-08        -0.31154E-08         0.00000E+00
    0.41032E-08        -0.32064E-08         0.00000E+00
    0.39603E-08        -0.32842E-08         0.00000E+00
    0.38158E-08        -0.33489E-08         0.00000E+00
    0.36703E-08        -0.34007E-08         0.00000E+00
    0.35246E-08        -0.34399E-08         0.00000E+00
    0.33791E-08        -0.34666E-08         0.00000E+00
    0.32345E-08        -0.34811E-08         0.00000E+00
    0.30912E-08        -0.34836E-08         0.00000E+00
    0.29497E-08        -0.34742E-08         0.00000E+00
    0.28106E-08        -0.34534E-08         0.00000E+00
    0.26742E-08        -0.34212E-08         0.00000E+00
    0.25410E-08        -0.33780E-08         0.00000E+00
    0.24114E-08        -0.33240E-08         0.00000E+00
    0.22857E-08        -0.32593E-08         0.00000E+00
    0.21642E-08        -0.31843E-08         0.00000E+00
    0.20474E-08        -0.30992E-08         0.00000E+00
    0.19354E-08        -0.30041E-08         0.00000E+00
    0.18285E-08        -0.28994E-08         0.00000E+00
    0.17270E-08        -0.27852E-08         0.00000E+00
    0.16311E-08        -0.26618E-08         0.00000E+00
    0.15410E-08        -0.25294E-08         0.00000E+00
    0.14569E-08        -0.23883E-08         0.00000E+00
    0.13788E-08        -0.22386E-08         0.00000E+00
    0.13069E-08        -0.20807E-08         0.00000E+00
    0.12414E-08        -0.19147E-08         0.00000E+00
    0.11823E-08        -0.17411E-08         0.00000E+00
    0.11298E-08        -0.15600E-08         0.00000E+00
    0.10837E-08        -0.13718E-08         0.00000E+00
    0.10443E-08        -0.11768E-08         0.00000E+00
    0.10115E-08        -0.97541E-09         0.00000E+00
    0.98528E-09        -0.76794E-09         0.00000E+00
    0.96568E-09        -0.55483E-09         0.00000E+00
    0.95266E-09        -0.33653E-09         0.00000E+00
    0.94618E-09        -0.11351E-09         0.00000E+00
    0.50411E-08        -0.11373E-09         0.00000E+00
    0.50300E-08        -0.33606E-09         0.00000E+00
    0.50083E-08        -0.55083E-09         0.00000E+00
    0.49766E-08        -0.75757E-09         0.00000E+00
    0.49354E-08        -0.95584E-09         0.00000E+00
    0.48855E-08        -0.11453E-08         0.00000E+00
    0.48273E-08        -0.13255E-08         0.00000E+00
    0.47616E-08        -0.14963E-08         0.00000E+00
    0.46889E-08        -0.16573E-08         0.00000E+00
    0.46099E-08        -0.18085E-08         0.00000E+00
    0.45251E-08        -0.19497E-08         0.00000E+00
    0.44352E-08        -0.20807E-08         0.00000E+00
    0.43407E-08        -0.22014E-08         0.00000E+00
    0.42422E-08        -0.23119E-08         0.00000E+00
    0.41404E-08        -0.24120E-08         0.00000E+00
    0.40357E-08        -0.25019E-08         0.00000E+00
    0.39287E-08        -0.25814E-08         0.00000E+00
    0.38200E-08        -0.26507E-08         0.00000E+00
    0.37100E-08        -0.27099E-08         0.00000E+00
    0.35992E-08        -0.27589E-08         0.00000E+00
    0.34882E-08        -0.27979E-08         0.00000E+00
    0.33773E-08        -0.28270E-08         0.00000E+00
    0.32671E-08        -0.28462E-08         0.00000E+00
    0.31579E-08        -0.28558E-08         0.00000E+00
    0.30501E-08        -0.28557E-08         0.00000E+00
    0.29441E-08        -0.28462E-08         0.00000E+00
    0.28402E-08        -0.28273E-08         0.00000E+00
    0.27389E-08        -0.27992E-08         0.00000E+00
    0.26403E-08        -0.27619E-08         0.00000E+00
    0.25448E-08        -0.27156E-08         0.00000E+00
    0.24527E-08        -0.26603E-08         0.00000E+00
    0.23642E-08        -0.25963E-08         0.00000E+00
    0.22795E-08        -0.25236E-08         0.00000E+00
    0.21988E-08        -0.24423E-08         0.00000E+00
    0.21224E-08        -0.23526E-08         0.00000E+00
    0.20503E-08        -0.22546E-08         0.00000E+00
    0.19828E-08        -0.21483E-08         0.00000E+00
    0.19199E-08        -0.20340E-08         0.00000E+00
    0.18617E-08        -0.19118E-08         0.00000E+00
    0.18084E-08        -0.17817E-08         0.00000E+00
    0.17600E-08        -0.16441E-08         0.00000E+00
    0.17165E-08        -0.14990E-08         0.00000E+00
    0.16780E-08        -0.13466E-08         0.00000E+00
    0.16444E-08        -0.11873E-08         0.00000E+00
    0.16159E-08        -0.10212E-08         0.00000E+00
    0.15922E-08        -0.84863E-09         0.00000E+00
    0.15734E-08        -0.66985E-09         0.00000E+00
    0.15595E-08        -0.48520E-09         0.00000E+00
    0.15503E-08        -0.29507E-09         0.00000E+00
    0.15458E-08        -0.99828E-10         0.00000E+00
    0.45356E-08        -0.89304E-10         0.00000E+00
    0.45275E-08        -0.26448E-09         0.00000E+00
    0.45117E-08        -0.43453E-09         0.00000E+00
    0.44884E-08        -0.59904E-09         0.00000E+00
    0.44582E-08        -0.75763E-09         0.00000E+00
    0.44214E-08        -0.90996E-09         0.00000E+00
    0.43785E-08        -0.10557E-08         0.00000E+00
    0.43300E-08        -0.11946E-08         0.00000E+00
    0.42762E-08        -0.13265E-08         0.00000E+00
    0.42176E-08        -0.14511E-08         0.00000E+00
    0.41546E-08        -0.15683E-08         0.00000E+00
    0.40877E-08        -0.16779E-08         0.00000E+00
    0.40173E-08        -0.17798E-08         0.00000E+00
    0.39439E-08        -0.18740E-08         0.00000E+00
    0.38678E-08        -0.19603E-08         0.00000E+00
    0.37895E-08        -0.20387E-08         0.00000E+00
    0.37094E-08        -0.21092E-08         0.00000E+00
    0.36279E-08        -0.21717E-08         0.00000E+00
    0.35453E-08        -0.22262E-08         0.00000E+00
    0.34621E-08        -0.22728E-08         0.00000E+00
    0.33787E-08        -0.23114E-08         0.00000E+00
    0.32953E-08        -0.23421E-08         0.00000E+00
    0.32123E-08        -0.23649E-08         0.00000E+00
    0.31300E-08        -0.23797E-08         0.00000E+00
    0.30488E-08        -0.23867E-08         0.00000E+00
    0.29689E-08        -0.23858E-08         0.00000E+00
    0.28906E-08        -0.23771E-08         0.00000E+00
    0.28142E-08        -0.23606E-08         0.00000E+00
    0.27399E-08        -0.23362E-08         0.00000E+00
    0.26680E-08        -0.23041E-08         0.00000E+00
    0.25986E-08        -0.22643E-08         0.00000E+00
    0.25320E-08        -0.22167E-08         0.00000E+00
    0.24684E-08        -0.21614E-08         0.00000E+00
    0.24078E-08        -0.20984E-08         0.00000E+00
    0.23505E-08        -0.20277E-08         0.00000E+00
    0.22965E-08        -0.19494E-08         0.00000E+00
    0.22460E-08        -0.18634E-08         0.00000E+00
    0.21991E-08        -0.17699E-08         0.00000E+00
    0.21558E-08        -0.16688E-08         0.00000E+00
    0.21162E-08        -0.15602E-08         0.00000E+00
    0.20804E-08        -0.14443E-08         0.00000E+00
    0.20483E-08        -0.13210E-08         0.00000E+00
    0.20200E-08        -0.11905E-08         0.00000E+00
    0.19954E-08        -0.10529E-08         0.00000E+00
    0.19746E-08        -0.90848E-09         0.00000E+00
    0.19574E-08        -0.75730E-09         0.00000E+00
    0.19439E-08        -0.59963E-09         0.00000E+00
    0.19339E-08        -0.43570E-09         0.00000E+00
    0.19273E-08        -0.26581E-09         0.00000E+00
    0.19241E-08        -0.90275E-10         0.00000E+00
    0.40716E-08        -0.71637E-10         0.00000E+00
    0.40658E-08        -0.21259E-09         0.00000E+00
    0.40544E-08        -0.35004E-09         0.00000E+00
    0.40377E-08        -0.48361E-09         0.00000E+00
    0.40159E-08        -0.61299E-09         0.00000E+00
    0.39893E-08        -0.73788E-09         0.00000E+00
    0.39582E-08        -0.85802E-09         0.00000E+00
    0.39230E-08        -0.97316E-09         0.00000E+00
    0.38838E-08        -0.10831E-08         0.00000E+00
    0.38410E-08        -0.11876E-08         0.00000E+00
    0.37949E-08        -0.12866E-08         0.00000E+00
    0.37459E-08        -0.13799E-08         0.00000E+00
    0.36942E-08        -0.14674E-08         0.00000E+00
    0.36402E-08        -0.15489E-08         0.00000E+00
    0.35841E-08        -0.16244E-08         0.00000E+00
    0.35262E-08        -0.16938E-08         0.00000E+00
    0.34669E-08        -0.17570E-08         0.00000E+00
    0.34065E-08        -0.18140E-08         0.00000E+00
    0.33452E-08        -0.18647E-08         0.00000E+00
    0.32833E-08        -0.19090E-08         0.00000E+00
    0.32212E-08        -0.19470E-08         0.00000E+00
    0.31590E-08        -0.19785E-08         0.00000E+00
    0.30970E-08        -0.20036E-08         0.00000E+00
    0.30355E-08        -0.20221E-08         0.00000E+00
    0.29747E-08        -0.20342E-08         0.00000E+00
    0.29148E-08        -0.20396E-08         0.00000E+00
    0.28561E-08        -0.20384E-08         0.00000E+00
    0.27987E-08        -0.20305E-08         0.00000E+00
    0.27429E-08        -0.20159E-08         0.00000E+00
    0.26888E-08        -0.19945E-08         0.00000E+00
    0.26367E-08        -0.19662E-08         0.00000E+00
    0.25865E-08        -0.19311E-08         0.00000E+00
    0.25386E-08        -0.18890E-08         0.00000E+00
    0.24930E-08        -0.18399E-08         0.00000E+00
    0.24499E-08        -0.17838E-08         0.00000E+00
    0.24093E-08        -0.17205E-08         0.00000E+00
    0.23713E-08        -0.16500E-08         0.00000E+00
    0.23360E-08        -0.15723E-08         0.00000E+00
    0.23035E-08        -0.14874E-08         0.00000E+00
    0.22738E-08        -0.13952E-08         0.00000E+00
    0.22470E-08        -0.12957E-08         0.00000E+00
    0.22229E-08        -0.11890E-08         0.00000E+00
    0.22018E-08        -0.10751E-08         0.00000E+00
    0.21835E-08        -0.95396E-09         0.00000E+00
    0.21680E-08        -0.82576E-09         0.00000E+00
    0.21552E-08        -0.69058E-09         0.00000E+00
    0.21452E-08        -0.54857E-09         0.00000E+00
    0.21379E-08        -0.39991E-09         0.00000E+00
    0.21331E-08        -0.24479E-09         0.00000E+00
    0.21307E-08        -0.83465E-10         0.00000E+00
    0.36551E-08        -0.59111E-10         0.00000E+00
    0.36510E-08        -0.17570E-09         0.00000E+00
    0.36430E-08        -0.28977E-09         0.00000E+00
    0.36312E-08        -0.40104E-09         0.00000E+00
    0.36157E-08        -0.50922E-09         0.00000E+00
    0.35967E-08        -0.61408E-09         0.00000E+00
    0.35745E-08        -0.71540E-09         0.00000E+00
    0.35493E-08        -0.81295E-09         0.00000E+00
    0.35211E-08        -0.90658E-09         0.00000E+00
    0.34902E-08        -0.99610E-09         0.00000E+00
    0.34569E-08        -0.10814E-08         0.00000E+00
    0.34214E-08        -0.11622E-08         0.00000E+00
    0.33838E-08        -0.12386E-08         0.00000E+00
    0.33444E-08        -0.13104E-08         0.00000E+00
    0.33033E-08        -0.13774E-08         0.00000E+00
    0.32609E-08        -0.14396E-08         0.00000E+00
    0.32174E-08        -0.14969E-08         0.00000E+00
    0.31728E-08        -0.15493E-08         0.00000E+00
    0.31276E-08        -0.15966E-08         0.00000E+00
    0.30817E-08        -0.16387E-08         0.00000E+00
    0.30356E-08        -0.16757E-08         0.00000E+00
    0.29893E-08        -0.17074E-08         0.00000E+00
    0.29431E-08        -0.17337E-08         0.00000E+00
    0.28972E-08        -0.17546E-08         0.00000E+00
    0.28516E-08        -0.17700E-08         0.00000E+00
    0.28067E-08        -0.17798E-08         0.00000E+00
    0.27625E-08        -0.17838E-08         0.00000E+00
    0.27193E-08        -0.17821E-08         0.00000E+00
    0.26772E-08        -0.17745E-08         0.00000E+00
    0.26363E-08        -0.17609E-08         0.00000E+00
    0.25968E-08        -0.17412E-08         0.00000E+00
    0.25587E-08        -0.17153E-08         0.00000E+00
    0.25223E-08        -0.16830E-08         0.00000E+00
    0.24876E-08        -0.16443E-08         0.00000E+00
    0.24546E-08        -0.15990E-08         0.00000E+00
    0.24236E-08        -0.15470E-08         0.00000E+00
    0.23945E-08        -0.14883E-08         0.00000E+00
    0.23675E-08        -0.14226E-08         0.00000E+00
    0.23426E-08        -0.13499E-08         0.00000E+00
    0.23197E-08        -0.12701E-08         0.00000E+00
    0.22991E-08        -0.11832E-08         0.00000E+00
    0.22806E-08        -0.10891E-08         0.00000E+00
    0.22642E-08        -0.98770E-09         0.00000E+00
    0.22501E-08        -0.87909E-09         0.00000E+00
    0.22381E-08        -0.76326E-09         0.00000E+00
    0.22283E-08        -0.64024E-09         0.00000E+00
    0.22205E-08        -0.51012E-09         0.00000E+00
    0.22148E-08        -0.37300E-09         0.00000E+00
    0.22111E-08        -0.22903E-09         0.00000E+00
    0.22093E-08        -0.78379E-10         0.00000E+00
    0.32876E-08        -0.50375E-10         0.00000E+00
    0.32847E-08        -0.14987E-09         0.00000E+00
    0.32791E-08        -0.24741E-09         0.00000E+00
    0.32708E-08        -0.34277E-09         0.00000E+00
    0.32600E-08        -0.43574E-09         0.00000E+00
    0.32466E-08        -0.52610E-09         0.00000E+00
    0.32309E-08        -0.61367E-09         0.00000E+00
    0.32129E-08        -0.69829E-09         0.00000E+00
    0.31928E-08        -0.77980E-09         0.00000E+00
    0.31706E-08        -0.85807E-09         0.00000E+00
    0.31467E-08        -0.93297E-09         0.00000E+00
    0.31210E-08        -0.10044E-08         0.00000E+00
    0.30937E-08        -0.10722E-08         0.00000E+00
    0.30650E-08        -0.11363E-08         0.00000E+00
    0.30351E-08        -0.11966E-08         0.00000E+00
    0.30040E-08        -0.12530E-08         0.00000E+00
    0.29719E-08        -0.13054E-08         0.00000E+00
    0.29391E-08        -0.13538E-08         0.00000E+00
    0.29055E-08        -0.13980E-08         0.00000E+00
    0.28715E-08        -0.14380E-08         0.00000E+00
    0.28371E-08        -0.14737E-08         0.00000E+00
    0.28025E-08        -0.15049E-08         0.00000E+00
    0.27678E-08        -0.15316E-08         0.00000E+00
    0.27331E-08        -0.15538E-08         0.00000E+00
    0.26987E-08        -0.15711E-08         0.00000E+00
    0.26647E-08        -0.15837E-08         0.00000E+00
    0.26311E-08        -0.15912E-08         0.00000E+00
    0.25981E-08        -0.15937E-08         0.00000E+00
    0.25658E-08        -0.15910E-08         0.00000E+00
    0.25343E-08        -0.15828E-08         0.00000E+00
    0.25038E-08        -0.15692E-08         0.00000E+00
    0.24744E-08        -0.15499E-08         0.00000E+00
    0.24461E-08        -0.15247E-08         0.00000E+00
    0.24190E-08        -0.14936E-08         0.00000E+00
    0.23932E-08        -0.14563E-08         0.00000E+00
    0.23689E-08        -0.14127E-08         0.00000E+00
    0.23459E-08        -0.13627E-08         0.00000E+00
    0.23245E-08        -0.13060E-08         0.00000E+00
    0.23047E-08        -0.12426E-08         0.00000E+00
    0.22865E-08        -0.11722E-08         0.00000E+00
    0.22699E-08        -0.10949E-08         0.00000E+00
    0.22551E-08        -0.10105E-08         0.00000E+00
    0.22419E-08        -0.91882E-09         0.00000E+00
    0.22304E-08        -0.81993E-09         0.00000E+00
    0.22207E-08        -0.71374E-09         0.00000E+00
    0.22126E-08        -0.60026E-09         0.00000E+00
    0.22062E-08        -0.47951E-09         0.00000E+00
    0.22015E-08        -0.35153E-09         0.00000E+00
    0.21984E-08        -0.21642E-09         0.00000E+00
    0.21969E-08        -0.74298E-10         0.00000E+00
    0.29673E-08        -0.44341E-10         0.00000E+00
    0.29653E-08        -0.13193E-09         0.00000E+00
    0.29614E-08        -0.21786E-09         0.00000E+00
    0.29556E-08        -0.30193E-09         0.00000E+00
    0.29480E-08        -0.38398E-09         0.00000E+00
    0.29386E-08        -0.46384E-09         0.00000E+00
    0.29274E-08        -0.54136E-09         0.00000E+00
    0.29145E-08        -0.61643E-09         0.00000E+00
    0.29001E-08        -0.68891E-09         0.00000E+00
    0.28842E-08        -0.75869E-09         0.00000E+00
    0.28668E-08        -0.82567E-09         0.00000E+00
    0.28481E-08        -0.88975E-09         0.00000E+00
    0.28282E-08        -0.95084E-09         0.00000E+00
    0.28071E-08        -0.10089E-08         0.00000E+00
    0.27850E-08        -0.10637E-08         0.00000E+00
    0.27620E-08        -0.11153E-08         0.00000E+00
    0.27381E-08        -0.11636E-08         0.00000E+00
    0.27136E-08        -0.12085E-08         0.00000E+00
    0.26884E-08        -0.12498E-08         0.00000E+00
    0.26627E-08        -0.12876E-08         0.00000E+00
    0.26366E-08        -0.13217E-08         0.00000E+00
    0.26103E-08        -0.13520E-08         0.00000E+00
    0.25837E-08        -0.13784E-08         0.00000E+00
    0.25571E-08        -0.14009E-08         0.00000E+00
    0.25306E-08        -0.14192E-08         0.00000E+00
    0.25042E-08        -0.14332E-08         0.00000E+00
    0.24780E-08        -0.14429E-08         0.00000E+00
    0.24522E-08        -0.14480E-08         0.00000E+00
    0.24268E-08        -0.14484E-08         0.00000E+00
    0.24019E-08        -0.14439E-08         0.00000E+00
    0.23777E-08        -0.14344E-08         0.00000E+00
    0.23542E-08        -0.14197E-08         0.00000E+00
    0.23314E-08        -0.13996E-08         0.00000E+00
    0.23096E-08        -0.13740E-08         0.00000E+00
    0.22887E-08        -0.13425E-08         0.00000E+00
    0.22688E-08        -0.13051E-08         0.00000E+00
    0.22499E-08        -0.12616E-08         0.00000E+00
    0.22322E-08        -0.12117E-08         0.00000E+00
    0.22158E-08        -0.11553E-08         0.00000E+00
    0.22005E-08        -0.10922E-08         0.00000E+00
    0.21866E-08        -0.10224E-08         0.00000E+00
    0.21740E-08        -0.94552E-09         0.00000E+00
    0.21627E-08        -0.86159E-09         0.00000E+00
    0.21528E-08        -0.77047E-09         0.00000E+00
    0.21444E-08        -0.67210E-09         0.00000E+00
    0.21373E-08        -0.56642E-09         0.00000E+00
    0.21317E-08        -0.45341E-09         0.00000E+00
    0.21275E-08        -0.33309E-09         0.00000E+00
    0.21248E-08        -0.20551E-09         0.00000E+00
    0.21234E-08        -0.70732E-10         0.00000E+00
    0.26907E-08        -0.40158E-10         0.00000E+00
    0.26893E-08        -0.11943E-09         0.00000E+00
    0.26866E-08        -0.19713E-09         0.00000E+00
    0.26825E-08        -0.27311E-09         0.00000E+00
    0.26770E-08        -0.34724E-09         0.00000E+00
    0.26702E-08        -0.41940E-09         0.00000E+00
    0.26621E-08        -0.48947E-09         0.00000E+00
    0.26528E-08        -0.55737E-09         0.00000E+00
    0.26422E-08        -0.62299E-09         0.00000E+00
    0.26305E-08        -0.68624E-09         0.00000E+00
    0.26176E-08        -0.74706E-09         0.00000E+00
    0.26037E-08        -0.80535E-09         0.00000E+00
    0.25888E-08        -0.86106E-09         0.00000E+00
    0.25730E-08        -0.91410E-09         0.00000E+00
    0.25562E-08        -0.96442E-09         0.00000E+00
    0.25387E-08        -0.10119E-08         0.00000E+00
    0.25205E-08        -0.10566E-08         0.00000E+00
    0.25016E-08        -0.10982E-08         0.00000E+00
    0.24822E-08        -0.11369E-08         0.00000E+00
    0.24623E-08        -0.11724E-08         0.00000E+00
    0.24419E-08        -0.12048E-08         0.00000E+00
    0.24212E-08        -0.12338E-08         0.00000E+00
    0.24003E-08        -0.12594E-08         0.00000E+00
    0.23792E-08        -0.12815E-08         0.00000E+00
    0.23580E-08        -0.12999E-08         0.00000E+00
    0.23368E-08        -0.13145E-08         0.00000E+00
    0.23157E-08        -0.13251E-08         0.00000E+00
    0.22948E-08        -0.13317E-08         0.00000E+00
    0.22740E-08        -0.13340E-08         0.00000E+00
    0.22536E-08        -0.13319E-08         0.00000E+00
    0.22336E-08        -0.13251E-08         0.00000E+00
    0.22140E-08        -0.13135E-08         0.00000E+00
    0.21950E-08        -0.12970E-08         0.00000E+00
    0.21765E-08        -0.12752E-08         0.00000E+00
    0.21588E-08        -0.12480E-08         0.00000E+00
    0.21418E-08        -0.12151E-08         0.00000E+00
    0.21256E-08        -0.11765E-08         0.00000E+00
    0.21102E-08        -0.11317E-08         0.00000E+00
    0.20958E-08        -0.10808E-08         0.00000E+00
    0.20824E-08        -0.10235E-08         0.00000E+00
    0.20700E-08        -0.95952E-09         0.00000E+00
    0.20587E-08        -0.88882E-09         0.00000E+00
    0.20486E-08        -0.81122E-09         0.00000E+00
    0.20396E-08        -0.72659E-09         0.00000E+00
    0.20318E-08        -0.63482E-09         0.00000E+00
    0.20253E-08        -0.53586E-09         0.00000E+00
    0.20201E-08        -0.42963E-09         0.00000E+00
    0.20161E-08        -0.31613E-09         0.00000E+00
    0.20134E-08        -0.19536E-09         0.00000E+00
    0.20121E-08        -0.67370E-10         0.00000E+00
    0.24532E-08        -0.37181E-10         0.00000E+00
    0.24522E-08        -0.11047E-09         0.00000E+00
    0.24501E-08        -0.18218E-09         0.00000E+00
    0.24471E-08        -0.25219E-09         0.00000E+00
    0.24430E-08        -0.32042E-09         0.00000E+00
    0.24379E-08        -0.38676E-09         0.00000E+00
    0.24318E-08        -0.45115E-09         0.00000E+00
    0.24247E-08        -0.51350E-09         0.00000E+00
    0.24167E-08        -0.57374E-09         0.00000E+00
    0.24077E-08        -0.63182E-09         0.00000E+00
    0.23978E-08        -0.68768E-09         0.00000E+00
    0.23870E-08        -0.74126E-09         0.00000E+00
    0.23753E-08        -0.79251E-09         0.00000E+00
    0.23629E-08        -0.84137E-09         0.00000E+00
    0.23498E-08        -0.88779E-09         0.00000E+00
    0.23359E-08        -0.93171E-09         0.00000E+00
    0.23214E-08        -0.97307E-09         0.00000E+00
    0.23063E-08        -0.10118E-08         0.00000E+00
    0.22906E-08        -0.10479E-08         0.00000E+00
    0.22745E-08        -0.10811E-08         0.00000E+00
    0.22579E-08        -0.11115E-08         0.00000E+00
    0.22410E-08        -0.11390E-08         0.00000E+00
    0.22238E-08        -0.11634E-08         0.00000E+00
    0.22063E-08        -0.11846E-08         0.00000E+00
    0.21886E-08        -0.12025E-08         0.00000E+00
    0.21709E-08        -0.12170E-08         0.00000E+00
    0.21531E-08        -0.12280E-08         0.00000E+00
    0.21353E-08        -0.12351E-08         0.00000E+00
    0.21176E-08        -0.12384E-08         0.00000E+00
    0.21000E-08        -0.12376E-08         0.00000E+00
    0.20827E-08        -0.12326E-08         0.00000E+00
    0.20657E-08        -0.12230E-08         0.00000E+00
    0.20490E-08        -0.12089E-08         0.00000E+00
    0.20327E-08        -0.11898E-08         0.00000E+00
    0.20170E-08        -0.11657E-08         0.00000E+00
    0.20017E-08        -0.11362E-08         0.00000E+00
    0.19871E-08        -0.11013E-08         0.00000E+00
    0.19732E-08        -0.10606E-08         0.00000E+00
    0.19600E-08        -0.10140E-08         0.00000E+00
    0.19477E-08        -0.96132E-09         0.00000E+00
    0.19362E-08        -0.90228E-09         0.00000E+00
    0.19256E-08        -0.83675E-09         0.00000E+00
    0.19160E-08        -0.76456E-09         0.00000E+00
    0.19074E-08        -0.68558E-09         0.00000E+00
    0.19000E-08        -0.59968E-09         0.00000E+00
    0.18937E-08        -0.50677E-09         0.00000E+00
    0.18885E-08        -0.40678E-09         0.00000E+00
    0.18846E-08        -0.29966E-09         0.00000E+00
    0.18820E-08        -0.18540E-09         0.00000E+00
    0.18807E-08        -0.64027E-10         0.00000E+00
    0.22498E-08        -0.34938E-10         0.00000E+00
    0.22490E-08        -0.10368E-09         0.00000E+00
    0.22474E-08        -0.17079E-09         0.00000E+00
    0.22450E-08        -0.23617E-09         0.00000E+00
    0.22417E-08        -0.29977E-09         0.00000E+00
    0.22376E-08        -0.36151E-09         0.00000E+00
    0.22327E-08        -0.42133E-09         0.00000E+00
    0.22270E-08        -0.47920E-09         0.00000E+00
    0.22204E-08        -0.53505E-09         0.00000E+00
    0.22131E-08        -0.58885E-09         0.00000E+00
    0.22050E-08        -0.64056E-09         0.00000E+00
    0.21961E-08        -0.69015E-09         0.00000E+00
    0.21865E-08        -0.73756E-09         0.00000E+00
    0.21763E-08        -0.78278E-09         0.00000E+00
    0.21653E-08        -0.82575E-09         0.00000E+00
    0.21537E-08        -0.86644E-09         0.00000E+00
    0.21415E-08        -0.90479E-09         0.00000E+00
    0.21287E-08        -0.94075E-09         0.00000E+00
    0.21155E-08        -0.97426E-09         0.00000E+00
    0.21017E-08        -0.10053E-08         0.00000E+00
    0.20875E-08        -0.10337E-08         0.00000E+00
    0.20730E-08        -0.10594E-08         0.00000E+00
    0.20581E-08        -0.10823E-08         0.00000E+00
    0.20429E-08        -0.11024E-08         0.00000E+00
    0.20274E-08        -0.11194E-08         0.00000E+00
    0.20118E-08        -0.11333E-08         0.00000E+00
    0.19961E-08        -0.11440E-08         0.00000E+00
    0.19803E-08        -0.11512E-08         0.00000E+00
    0.19645E-08        -0.11548E-08         0.00000E+00
    0.19487E-08        -0.11547E-08         0.00000E+00
    0.19331E-08        -0.11506E-08         0.00000E+00
    0.19176E-08        -0.11424E-08         0.00000E+00
    0.19024E-08        -0.11298E-08         0.00000E+00
    0.18874E-08        -0.11127E-08         0.00000E+00
    0.18728E-08        -0.10909E-08         0.00000E+00
    0.18586E-08        -0.10641E-08         0.00000E+00
    0.18449E-08        -0.10321E-08         0.00000E+00
    0.18318E-08        -0.99464E-09         0.00000E+00
    0.18193E-08        -0.95163E-09         0.00000E+00
    0.18075E-08        -0.90282E-09         0.00000E+00
    0.17964E-08        -0.84800E-09         0.00000E+00
    0.17862E-08        -0.78700E-09         0.00000E+00
    0.17769E-08        -0.71964E-09         0.00000E+00
    0.17685E-08        -0.64580E-09         0.00000E+00
    0.17611E-08        -0.56532E-09         0.00000E+00
    0.17548E-08        -0.47810E-09         0.00000E+00
    0.17497E-08        -0.38407E-09         0.00000E+00
    0.17458E-08        -0.28315E-09         0.00000E+00
    0.17431E-08        -0.17534E-09         0.00000E+00
    0.17417E-08        -0.60611E-10         0.00000E+00
    0.20757E-08        -0.33096E-10         0.00000E+00
    0.20750E-08        -0.98096E-10         0.00000E+00
    0.20736E-08        -0.16139E-09         0.00000E+00
    0.20715E-08        -0.22292E-09         0.00000E+00
    0.20687E-08        -0.28263E-09         0.00000E+00
    0.20651E-08        -0.34049E-09         0.00000E+00
    0.20609E-08        -0.39644E-09         0.00000E+00
    0.20559E-08        -0.45047E-09         0.00000E+00
    0.20502E-08        -0.50255E-09         0.00000E+00
    0.20437E-08        -0.55264E-09         0.00000E+00
    0.20366E-08        -0.60072E-09         0.00000E+00
    0.20289E-08        -0.64678E-09         0.00000E+00
    0.20204E-08        -0.69078E-09         0.00000E+00
    0.20113E-08        -0.73272E-09         0.00000E+00
    0.20017E-08        -0.77255E-09         0.00000E+00
    0.19914E-08        -0.81024E-09         0.00000E+00
    0.19805E-08        -0.84577E-09         0.00000E+00
    0.19691E-08        -0.87909E-09         0.00000E+00
    0.19573E-08        -0.91014E-09         0.00000E+00
    0.19449E-08        -0.93887E-09         0.00000E+00
    0.19321E-08        -0.96522E-09         0.00000E+00
    0.19190E-08        -0.98910E-09         0.00000E+00
    0.19055E-08        -0.10104E-08         0.00000E+00
    0.18916E-08        -0.10291E-08         0.00000E+00
    0.18775E-08        -0.10450E-08         0.00000E+00
    0.18632E-08        -0.10581E-08         0.00000E+00
    0.18487E-08        -0.10681E-08         0.00000E+00
    0.18341E-08        -0.10750E-08         0.00000E+00
    0.18194E-08        -0.10785E-08         0.00000E+00
    0.18047E-08        -0.10786E-08         0.00000E+00
    0.17900E-08        -0.10751E-08         0.00000E+00
    0.17754E-08        -0.10677E-08         0.00000E+00
    0.17610E-08        -0.10562E-08         0.00000E+00
    0.17468E-08        -0.10405E-08         0.00000E+00
    0.17329E-08        -0.10204E-08         0.00000E+00
    0.17193E-08        -0.99569E-09         0.00000E+00
    0.17061E-08        -0.96609E-09         0.00000E+00
    0.16934E-08        -0.93144E-09         0.00000E+00
    0.16812E-08        -0.89152E-09         0.00000E+00
    0.16697E-08        -0.84613E-09         0.00000E+00
    0.16588E-08        -0.79510E-09         0.00000E+00
    0.16487E-08        -0.73823E-09         0.00000E+00
    0.16395E-08        -0.67536E-09         0.00000E+00
    0.16311E-08        -0.60633E-09         0.00000E+00
    0.16237E-08        -0.53102E-09         0.00000E+00
    0.16174E-08        -0.44932E-09         0.00000E+00
    0.16122E-08        -0.36112E-09         0.00000E+00
    0.16082E-08        -0.26638E-09         0.00000E+00
    0.16054E-08        -0.16503E-09         0.00000E+00
    0.16040E-08        -0.57086E-10         0.00000E+00
    0.19263E-08        -0.31434E-10         0.00000E+00
    0.19257E-08        -0.93059E-10         0.00000E+00
    0.19244E-08        -0.15292E-09         0.00000E+00
    0.19224E-08        -0.21098E-09         0.00000E+00
    0.19198E-08        -0.26721E-09         0.00000E+00
    0.19164E-08        -0.32157E-09         0.00000E+00
    0.19124E-08        -0.37404E-09         0.00000E+00
    0.19078E-08        -0.42461E-09         0.00000E+00
    0.19025E-08        -0.47326E-09         0.00000E+00
    0.18965E-08        -0.51998E-09         0.00000E+00
    0.18899E-08        -0.56476E-09         0.00000E+00
    0.18826E-08        -0.60758E-09         0.00000E+00
    0.18747E-08        -0.64845E-09         0.00000E+00
    0.18663E-08        -0.68734E-09         0.00000E+00
    0.18572E-08        -0.72423E-09         0.00000E+00
    0.18476E-08        -0.75912E-09         0.00000E+00
    0.18375E-08        -0.79196E-09         0.00000E+00
    0.18268E-08        -0.82274E-09         0.00000E+00
    0.18157E-08        -0.85141E-09         0.00000E+00
    0.18041E-08        -0.87792E-09         0.00000E+00
    0.17921E-08        -0.90221E-09         0.00000E+00
    0.17797E-08        -0.92423E-09         0.00000E+00
    0.17669E-08        -0.94388E-09         0.00000E+00
    0.17538E-08        -0.96108E-09         0.00000E+00
    0.17405E-08        -0.97574E-09         0.00000E+00
    0.17269E-08        -0.98774E-09         0.00000E+00
    0.17131E-08        -0.99696E-09         0.00000E+00
    0.16991E-08        -0.10033E-08         0.00000E+00
    0.16850E-08        -0.10065E-08         0.00000E+00
    0.16709E-08        -0.10065E-08         0.00000E+00
    0.16568E-08        -0.10032E-08         0.00000E+00
    0.16427E-08        -0.99628E-09         0.00000E+00
    0.16287E-08        -0.98564E-09         0.00000E+00
    0.16149E-08        -0.97107E-09         0.00000E+00
    0.16014E-08        -0.95239E-09         0.00000E+00
    0.15881E-08        -0.92939E-09         0.00000E+00
    0.15752E-08        -0.90188E-09         0.00000E+00
    0.15627E-08        -0.86965E-09         0.00000E+00
    0.15507E-08        -0.83251E-09         0.00000E+00
    0.15392E-08        -0.79027E-09         0.00000E+00
    0.15285E-08        -0.74275E-09         0.00000E+00
    0.15184E-08        -0.68977E-09         0.00000E+00
    0.15091E-08        -0.63116E-09         0.00000E+00
    0.15008E-08        -0.56679E-09         0.00000E+00
    0.14933E-08        -0.49652E-09         0.00000E+00
    0.14869E-08        -0.42023E-09         0.00000E+00
    0.14817E-08        -0.33784E-09         0.00000E+00
    0.14776E-08        -0.24927E-09         0.00000E+00
    0.14748E-08        -0.15448E-09         0.00000E+00
    0.14734E-08        -0.53457E-10         0.00000E+00
    0.17979E-08        -0.29809E-10         0.00000E+00
    0.17972E-08        -0.88156E-10         0.00000E+00
    0.17959E-08        -0.14471E-09         0.00000E+00
    0.17939E-08        -0.19945E-09         0.00000E+00
    0.17913E-08        -0.25235E-09         0.00000E+00
    0.17880E-08        -0.30339E-09         0.00000E+00
    0.17841E-08        -0.35256E-09         0.00000E+00
    0.17795E-08        -0.39986E-09         0.00000E+00
    0.17742E-08        -0.44528E-09         0.00000E+00
    0.17684E-08        -0.48881E-09         0.00000E+00
    0.17619E-08        -0.53047E-09         0.00000E+00
    0.17549E-08        -0.57024E-09         0.00000E+00
    0.17472E-08        -0.60813E-09         0.00000E+00
    0.17390E-08        -0.64414E-09         0.00000E+00
    0.17302E-08        -0.67825E-09         0.00000E+00
    0.17208E-08        -0.71045E-09         0.00000E+00
    0.17110E-08        -0.74073E-09         0.00000E+00
    0.17007E-08        -0.76906E-09         0.00000E+00
    0.16899E-08        -0.79542E-09         0.00000E+00
    0.16786E-08        -0.81975E-09         0.00000E+00
    0.16670E-08        -0.84203E-09         0.00000E+00
    0.16549E-08        -0.86218E-09         0.00000E+00
    0.16425E-08        -0.88014E-09         0.00000E+00
    0.16298E-08        -0.89584E-09         0.00000E+00
    0.16168E-08        -0.90918E-09         0.00000E+00
    0.16036E-08        -0.92006E-09         0.00000E+00
    0.15901E-08        -0.92837E-09         0.00000E+00
    0.15765E-08        -0.93399E-09         0.00000E+00
    0.15628E-08        -0.93679E-09         0.00000E+00
    0.15490E-08        -0.93662E-09         0.00000E+00
    0.15352E-08        -0.93333E-09         0.00000E+00
    0.15214E-08        -0.92676E-09         0.00000E+00
    0.15076E-08        -0.91674E-09         0.00000E+00
    0.14941E-08        -0.90309E-09         0.00000E+00
    0.14807E-08        -0.88563E-09         0.00000E+00
    0.14676E-08        -0.86419E-09         0.00000E+00
    0.14548E-08        -0.83856E-09         0.00000E+00
    0.14424E-08        -0.80857E-09         0.00000E+00
    0.14305E-08        -0.77404E-09         0.00000E+00
    0.14191E-08        -0.73477E-09         0.00000E+00
    0.14084E-08        -0.69060E-09         0.00000E+00
    0.13983E-08        -0.64136E-09         0.00000E+00
    0.13891E-08        -0.58691E-09         0.00000E+00
    0.13807E-08        -0.52708E-09         0.00000E+00
    0.13732E-08        -0.46177E-09         0.00000E+00
    0.13668E-08        -0.39086E-09         0.00000E+00
    0.13614E-08        -0.31426E-09         0.00000E+00
    0.13573E-08        -0.23190E-09         0.00000E+00
    0.13545E-08        -0.14374E-09         0.00000E+00
    0.13530E-08        -0.49748E-10         0.00000E+00
    0.16868E-08        -0.28142E-10         0.00000E+00
    0.16861E-08        -0.83149E-10         0.00000E+00
    0.16848E-08        -0.13637E-09         0.00000E+00
    0.16827E-08        -0.18778E-09         0.00000E+00
    0.16800E-08        -0.23737E-09         0.00000E+00
    0.16767E-08        -0.28514E-09         0.00000E+00
    0.16727E-08        -0.33107E-09         0.00000E+00
    0.16680E-08        -0.37517E-09         0.00000E+00
    0.16627E-08        -0.41744E-09         0.00000E+00
    0.16568E-08        -0.45790E-09         0.00000E+00
    0.16503E-08        -0.49653E-09         0.00000E+00
    0.16432E-08        -0.53336E-09         0.00000E+00
    0.16356E-08        -0.56839E-09         0.00000E+00
    0.16274E-08        -0.60161E-09         0.00000E+00
    0.16186E-08        -0.63304E-09         0.00000E+00
    0.16093E-08        -0.66266E-09         0.00000E+00
    0.15996E-08        -0.69046E-09         0.00000E+00
    0.15893E-08        -0.71643E-09         0.00000E+00
    0.15786E-08        -0.74055E-09         0.00000E+00
    0.15675E-08        -0.76279E-09         0.00000E+00
    0.15560E-08        -0.78310E-09         0.00000E+00
    0.15441E-08        -0.80143E-09         0.00000E+00
    0.15318E-08        -0.81773E-09         0.00000E+00
    0.15193E-08        -0.83194E-09         0.00000E+00
    0.15065E-08        -0.84396E-09         0.00000E+00
    0.14934E-08        -0.85371E-09         0.00000E+00
    0.14801E-08        -0.86110E-09         0.00000E+00
    0.14667E-08        -0.86600E-09         0.00000E+00
    0.14531E-08        -0.86831E-09         0.00000E+00
    0.14395E-08        -0.86788E-09         0.00000E+00
    0.14258E-08        -0.86459E-09         0.00000E+00
    0.14122E-08        -0.85827E-09         0.00000E+00
    0.13986E-08        -0.84879E-09         0.00000E+00
    0.13852E-08        -0.83597E-09         0.00000E+00
    0.13719E-08        -0.81964E-09         0.00000E+00
    0.13589E-08        -0.79965E-09         0.00000E+00
    0.13462E-08        -0.77581E-09         0.00000E+00
    0.13340E-08        -0.74796E-09         0.00000E+00
    0.13221E-08        -0.71592E-09         0.00000E+00
    0.13108E-08        -0.67952E-09         0.00000E+00
    0.13001E-08        -0.63862E-09         0.00000E+00
    0.12901E-08        -0.59304E-09         0.00000E+00
    0.12808E-08        -0.54265E-09         0.00000E+00
    0.12724E-08        -0.48731E-09         0.00000E+00
    0.12650E-08        -0.42691E-09         0.00000E+00
    0.12585E-08        -0.36135E-09         0.00000E+00
    0.12532E-08        -0.29053E-09         0.00000E+00
    0.12491E-08        -0.21439E-09         0.00000E+00
    0.12462E-08        -0.13289E-09         0.00000E+00
    0.12448E-08        -0.45994E-10         0.00000E+00
    0.15904E-08        -0.26393E-10         0.00000E+00
    0.15897E-08        -0.77922E-10         0.00000E+00
    0.15883E-08        -0.12770E-09         0.00000E+00
    0.15861E-08        -0.17571E-09         0.00000E+00
    0.15833E-08        -0.22194E-09         0.00000E+00
    0.15799E-08        -0.26640E-09         0.00000E+00
    0.15757E-08        -0.30908E-09         0.00000E+00
    0.15709E-08        -0.35000E-09         0.00000E+00
    0.15655E-08        -0.38916E-09         0.00000E+00
    0.15595E-08        -0.42657E-09         0.00000E+00
    0.15529E-08        -0.46224E-09         0.00000E+00
    0.15457E-08        -0.49619E-09         0.00000E+00
    0.15379E-08        -0.52842E-09         0.00000E+00
    0.15296E-08        -0.55895E-09         0.00000E+00
    0.15208E-08        -0.58777E-09         0.00000E+00
    0.15115E-08        -0.61489E-09         0.00000E+00
    0.15016E-08        -0.64030E-09         0.00000E+00
    0.14914E-08        -0.66399E-09         0.00000E+00
    0.14807E-08        -0.68596E-09         0.00000E+00
    0.14695E-08        -0.70616E-09         0.00000E+00
    0.14580E-08        -0.72457E-09         0.00000E+00
    0.14462E-08        -0.74115E-09         0.00000E+00
    0.14340E-08        -0.75586E-09         0.00000E+00
    0.14215E-08        -0.76862E-09         0.00000E+00
    0.14087E-08        -0.77937E-09         0.00000E+00
    0.13957E-08        -0.78803E-09         0.00000E+00
    0.13826E-08        -0.79451E-09         0.00000E+00
    0.13692E-08        -0.79872E-09         0.00000E+00
    0.13558E-08        -0.80054E-09         0.00000E+00
    0.13423E-08        -0.79986E-09         0.00000E+00
    0.13287E-08        -0.79655E-09         0.00000E+00
    0.13152E-08        -0.79048E-09         0.00000E+00
    0.13017E-08        -0.78150E-09         0.00000E+00
    0.12884E-08        -0.76948E-09         0.00000E+00
    0.12753E-08        -0.75425E-09         0.00000E+00
    0.12624E-08        -0.73566E-09         0.00000E+00
    0.12498E-08        -0.71357E-09         0.00000E+00
    0.12376E-08        -0.68780E-09         0.00000E+00
    0.12259E-08        -0.65820E-09         0.00000E+00
    0.12147E-08        -0.62463E-09         0.00000E+00
    0.12041E-08        -0.58692E-09         0.00000E+00
    0.11941E-08        -0.54495E-09         0.00000E+00
    0.11849E-08        -0.49857E-09         0.00000E+00
    0.11766E-08        -0.44768E-09         0.00000E+00
    0.11692E-08        -0.39214E-09         0.00000E+00
    0.11628E-08        -0.33188E-09         0.00000E+00
    0.11575E-08        -0.26682E-09         0.00000E+00
    0.11534E-08        -0.19688E-09         0.00000E+00
    0.11505E-08        -0.12202E-09         0.00000E+00
    0.11491E-08        -0.42231E-10         0.00000E+00
    0.15063E-08        -0.24550E-10         0.00000E+00
    0.15056E-08        -0.72438E-10         0.00000E+00
    0.15041E-08        -0.11864E-09         0.00000E+00
    0.15019E-08        -0.16313E-09         0.00000E+00
    0.14990E-08        -0.20593E-09         0.00000E+00
    0.14954E-08        -0.24703E-09         0.00000E+00
    0.14911E-08        -0.28643E-09         0.00000E+00
    0.14862E-08        -0.32414E-09         0.00000E+00
    0.14806E-08        -0.36019E-09         0.00000E+00
    0.14745E-08        -0.39457E-09         0.00000E+00
    0.14677E-08        -0.42731E-09         0.00000E+00
    0.14604E-08        -0.45842E-09         0.00000E+00
    0.14525E-08        -0.48791E-09         0.00000E+00
    0.14440E-08        -0.51580E-09         0.00000E+00
    0.14351E-08        -0.54208E-09         0.00000E+00
    0.14257E-08        -0.56677E-09         0.00000E+00
    0.14158E-08        -0.58987E-09         0.00000E+00
    0.14054E-08        -0.61136E-09         0.00000E+00
    0.13947E-08        -0.63124E-09         0.00000E+00
    0.13835E-08        -0.64950E-09         0.00000E+00
    0.13720E-08        -0.66609E-09         0.00000E+00
    0.13601E-08        -0.68100E-09         0.00000E+00
    0.13480E-08        -0.69417E-09         0.00000E+00
    0.13355E-08        -0.70556E-09         0.00000E+00
    0.13228E-08        -0.71511E-09         0.00000E+00
    0.13099E-08        -0.72274E-09         0.00000E+00
    0.12968E-08        -0.72837E-09         0.00000E+00
    0.12835E-08        -0.73193E-09         0.00000E+00
    0.12702E-08        -0.73331E-09         0.00000E+00
    0.12567E-08        -0.73241E-09         0.00000E+00
    0.12433E-08        -0.72911E-09         0.00000E+00
    0.12299E-08        -0.72330E-09         0.00000E+00
    0.12166E-08        -0.71485E-09         0.00000E+00
    0.12034E-08        -0.70363E-09         0.00000E+00
    0.11904E-08        -0.68950E-09         0.00000E+00
    0.11777E-08        -0.67231E-09         0.00000E+00
    0.11653E-08        -0.65194E-09         0.00000E+00
    0.11532E-08        -0.62824E-09         0.00000E+00
    0.11416E-08        -0.60106E-09         0.00000E+00
    0.11305E-08        -0.57026E-09         0.00000E+00
    0.11200E-08        -0.53573E-09         0.00000E+00
    0.11102E-08        -0.49731E-09         0.00000E+00
    0.11011E-08        -0.45490E-09         0.00000E+00
    0.10929E-08        -0.40839E-09         0.00000E+00
    0.10855E-08        -0.35767E-09         0.00000E+00
    0.10792E-08        -0.30266E-09         0.00000E+00
    0.10740E-08        -0.24329E-09         0.00000E+00
    0.10699E-08        -0.17949E-09         0.00000E+00
    0.10671E-08        -0.11123E-09         0.00000E+00
    0.10657E-08        -0.38491E-10         0.00000E+00
    0.14328E-08        -0.22621E-10         0.00000E+00
    0.14321E-08        -0.66712E-10         0.00000E+00
    0.14305E-08        -0.10920E-09         0.00000E+00
    0.14282E-08        -0.15008E-09         0.00000E+00
    0.14252E-08        -0.18936E-09         0.00000E+00
    0.14215E-08        -0.22703E-09         0.00000E+00
    0.14171E-08        -0.26311E-09         0.00000E+00
    0.14121E-08        -0.29760E-09         0.00000E+00
    0.14064E-08        -0.33052E-09         0.00000E+00
    0.14001E-08        -0.36189E-09         0.00000E+00
    0.13932E-08        -0.39172E-09         0.00000E+00
    0.13857E-08        -0.42002E-09         0.00000E+00
    0.13777E-08        -0.44681E-09         0.00000E+00
    0.13692E-08        -0.47210E-09         0.00000E+00
    0.13601E-08        -0.49591E-09         0.00000E+00
    0.13506E-08        -0.51824E-09         0.00000E+00
    0.13407E-08        -0.53909E-09         0.00000E+00
    0.13303E-08        -0.55846E-09         0.00000E+00
    0.13195E-08        -0.57635E-09         0.00000E+00
    0.13083E-08        -0.59273E-09         0.00000E+00
    0.12968E-08        -0.60760E-09         0.00000E+00
    0.12849E-08        -0.62091E-09         0.00000E+00
    0.12728E-08        -0.63263E-09         0.00000E+00
    0.12603E-08        -0.64273E-09         0.00000E+00
    0.12477E-08        -0.65114E-09         0.00000E+00
    0.12348E-08        -0.65782E-09         0.00000E+00
    0.12218E-08        -0.66268E-09         0.00000E+00
    0.12087E-08        -0.66565E-09         0.00000E+00
    0.11954E-08        -0.66665E-09         0.00000E+00
    0.11822E-08        -0.66558E-09         0.00000E+00
    0.11689E-08        -0.66234E-09         0.00000E+00
    0.11556E-08        -0.65684E-09         0.00000E+00
    0.11425E-08        -0.64894E-09         0.00000E+00
    0.11294E-08        -0.63855E-09         0.00000E+00
    0.11166E-08        -0.62553E-09         0.00000E+00
    0.11041E-08        -0.60976E-09         0.00000E+00
    0.10918E-08        -0.59111E-09         0.00000E+00
    0.10799E-08        -0.56946E-09         0.00000E+00
    0.10685E-08        -0.54468E-09         0.00000E+00
    0.10576E-08        -0.51665E-09         0.00000E+00
    0.10473E-08        -0.48524E-09         0.00000E+00
    0.10376E-08        -0.45034E-09         0.00000E+00
    0.10287E-08        -0.41185E-09         0.00000E+00
    0.10206E-08        -0.36966E-09         0.00000E+00
    0.10134E-08        -0.32369E-09         0.00000E+00
    0.10071E-08        -0.27386E-09         0.00000E+00
    0.10020E-08        -0.22009E-09         0.00000E+00
    0.99798E-09        -0.16235E-09         0.00000E+00
    0.99523E-09        -0.10060E-09         0.00000E+00
    0.99381E-09        -0.34804E-10         0.00000E+00
    0.13685E-08        -0.20620E-10         0.00000E+00
    0.13677E-08        -0.60786E-10         0.00000E+00
    0.13661E-08        -0.99461E-10         0.00000E+00
    0.13637E-08        -0.13664E-09         0.00000E+00
    0.13607E-08        -0.17233E-09         0.00000E+00
    0.13569E-08        -0.20652E-09         0.00000E+00
    0.13524E-08        -0.23924E-09         0.00000E+00
    0.13472E-08        -0.27049E-09         0.00000E+00
    0.13415E-08        -0.30028E-09         0.00000E+00
    0.13351E-08        -0.32864E-09         0.00000E+00
    0.13281E-08        -0.35557E-09         0.00000E+00
    0.13205E-08        -0.38110E-09         0.00000E+00
    0.13124E-08        -0.40523E-09         0.00000E+00
    0.13038E-08        -0.42799E-09         0.00000E+00
    0.12947E-08        -0.44937E-09         0.00000E+00
    0.12852E-08        -0.46940E-09         0.00000E+00
    0.12752E-08        -0.48808E-09         0.00000E+00
    0.12647E-08        -0.50541E-09         0.00000E+00
    0.12539E-08        -0.52137E-09         0.00000E+00
    0.12428E-08        -0.53597E-09         0.00000E+00
    0.12313E-08        -0.54918E-09         0.00000E+00
    0.12194E-08        -0.56098E-09         0.00000E+00
    0.12073E-08        -0.57134E-09         0.00000E+00
    0.11950E-08        -0.58023E-09         0.00000E+00
    0.11824E-08        -0.58759E-09         0.00000E+00
    0.11697E-08        -0.59338E-09         0.00000E+00
    0.11568E-08        -0.59754E-09         0.00000E+00
    0.11438E-08        -0.60000E-09         0.00000E+00
    0.11307E-08        -0.60068E-09         0.00000E+00
    0.11176E-08        -0.59950E-09         0.00000E+00
    0.11045E-08        -0.59638E-09         0.00000E+00
    0.10914E-08        -0.59123E-09         0.00000E+00
    0.10784E-08        -0.58393E-09         0.00000E+00
    0.10656E-08        -0.57440E-09         0.00000E+00
    0.10530E-08        -0.56251E-09         0.00000E+00
    0.10406E-08        -0.54817E-09         0.00000E+00
    0.10286E-08        -0.53126E-09         0.00000E+00
    0.10169E-08        -0.51166E-09         0.00000E+00
    0.10057E-08        -0.48926E-09         0.00000E+00
    0.99502E-09        -0.46396E-09         0.00000E+00
    0.98489E-09        -0.43565E-09         0.00000E+00
    0.97542E-09        -0.40423E-09         0.00000E+00
    0.96667E-09        -0.36959E-09         0.00000E+00
    0.95873E-09        -0.33166E-09         0.00000E+00
    0.95167E-09        -0.29036E-09         0.00000E+00
    0.94558E-09        -0.24561E-09         0.00000E+00
    0.94053E-09        -0.19735E-09         0.00000E+00
    0.93662E-09        -0.14555E-09         0.00000E+00
    0.93393E-09        -0.90169E-10         0.00000E+00
    0.93254E-09        -0.31190E-10         0.00000E+00
    0.13122E-08        -0.18565E-10         0.00000E+00
    0.13114E-08        -0.54712E-10         0.00000E+00
    0.13098E-08        -0.89494E-10         0.00000E+00
    0.13074E-08        -0.12291E-09         0.00000E+00
    0.13043E-08        -0.15496E-09         0.00000E+00
    0.13004E-08        -0.18565E-09         0.00000E+00
    0.12959E-08        -0.21498E-09         0.00000E+00
    0.12907E-08        -0.24298E-09         0.00000E+00
    0.12848E-08        -0.26965E-09         0.00000E+00
    0.12784E-08        -0.29501E-09         0.00000E+00
    0.12713E-08        -0.31907E-09         0.00000E+00
    0.12637E-08        -0.34185E-09         0.00000E+00
    0.12556E-08        -0.36337E-09         0.00000E+00
    0.12470E-08        -0.38363E-09         0.00000E+00
    0.12379E-08        -0.40266E-09         0.00000E+00
    0.12283E-08        -0.42045E-09         0.00000E+00
    0.12183E-08        -0.43702E-09         0.00000E+00
    0.12079E-08        -0.45237E-09         0.00000E+00
    0.11971E-08        -0.46648E-09         0.00000E+00
    0.11860E-08        -0.47937E-09         0.00000E+00
    0.11745E-08        -0.49100E-09         0.00000E+00
    0.11628E-08        -0.50137E-09         0.00000E+00
    0.11508E-08        -0.51045E-09         0.00000E+00
    0.11386E-08        -0.51821E-09         0.00000E+00
    0.11261E-08        -0.52460E-09         0.00000E+00
    0.11135E-08        -0.52959E-09         0.00000E+00
    0.11008E-08        -0.53311E-09         0.00000E+00
    0.10879E-08        -0.53513E-09         0.00000E+00
    0.10750E-08        -0.53556E-09         0.00000E+00
    0.10621E-08        -0.53434E-09         0.00000E+00
    0.10492E-08        -0.53139E-09         0.00000E+00
    0.10363E-08        -0.52663E-09         0.00000E+00
    0.10236E-08        -0.51998E-09         0.00000E+00
    0.10110E-08        -0.51133E-09         0.00000E+00
    0.99858E-09        -0.50061E-09         0.00000E+00
    0.98647E-09        -0.48771E-09         0.00000E+00
    0.97467E-09        -0.47253E-09         0.00000E+00
    0.96325E-09        -0.45498E-09         0.00000E+00
    0.95227E-09        -0.43496E-09         0.00000E+00
    0.94179E-09        -0.41236E-09         0.00000E+00
    0.93189E-09        -0.38711E-09         0.00000E+00
    0.92263E-09        -0.35910E-09         0.00000E+00
    0.91408E-09        -0.32826E-09         0.00000E+00
    0.90633E-09        -0.29451E-09         0.00000E+00
    0.89944E-09        -0.25778E-09         0.00000E+00
    0.89350E-09        -0.21800E-09         0.00000E+00
    0.88858E-09        -0.17514E-09         0.00000E+00
    0.88476E-09        -0.12914E-09         0.00000E+00
    0.88214E-09        -0.79990E-10         0.00000E+00
    0.88079E-09        -0.27663E-10         0.00000E+00
    0.12633E-08        -0.16476E-10         0.00000E+00
    0.12625E-08        -0.48544E-10         0.00000E+00
    0.12608E-08        -0.79385E-10         0.00000E+00
    0.12584E-08        -0.10900E-09         0.00000E+00
    0.12553E-08        -0.13738E-09         0.00000E+00
    0.12514E-08        -0.16455E-09         0.00000E+00
    0.12468E-08        -0.19050E-09         0.00000E+00
    0.12416E-08        -0.21525E-09         0.00000E+00
    0.12357E-08        -0.23881E-09         0.00000E+00
    0.12292E-08        -0.26119E-09         0.00000E+00
    0.12222E-08        -0.28241E-09         0.00000E+00
    0.12146E-08        -0.30249E-09         0.00000E+00
    0.12064E-08        -0.32143E-09         0.00000E+00
    0.11978E-08        -0.33926E-09         0.00000E+00
    0.11887E-08        -0.35597E-09         0.00000E+00
    0.11792E-08        -0.37159E-09         0.00000E+00
    0.11692E-08        -0.38611E-09         0.00000E+00
    0.11589E-08        -0.39954E-09         0.00000E+00
    0.11482E-08        -0.41188E-09         0.00000E+00
    0.11371E-08        -0.42313E-09         0.00000E+00
    0.11258E-08        -0.43326E-09         0.00000E+00
    0.11141E-08        -0.44227E-09         0.00000E+00
    0.11023E-08        -0.45014E-09         0.00000E+00
    0.10902E-08        -0.45684E-09         0.00000E+00
    0.10779E-08        -0.46233E-09         0.00000E+00
    0.10654E-08        -0.46658E-09         0.00000E+00
    0.10529E-08        -0.46955E-09         0.00000E+00
    0.10402E-08        -0.47118E-09         0.00000E+00
    0.10275E-08        -0.47142E-09         0.00000E+00
    0.10148E-08        -0.47021E-09         0.00000E+00
    0.10021E-08        -0.46748E-09         0.00000E+00
    0.98947E-09        -0.46316E-09         0.00000E+00
    0.97696E-09        -0.45719E-09         0.00000E+00
    0.96462E-09        -0.44947E-09         0.00000E+00
    0.95249E-09        -0.43993E-09         0.00000E+00
    0.94062E-09        -0.42848E-09         0.00000E+00
    0.92907E-09        -0.41504E-09         0.00000E+00
    0.91791E-09        -0.39953E-09         0.00000E+00
    0.90718E-09        -0.38185E-09         0.00000E+00
    0.89694E-09        -0.36193E-09         0.00000E+00
    0.88728E-09        -0.33969E-09         0.00000E+00
    0.87824E-09        -0.31505E-09         0.00000E+00
    0.86991E-09        -0.28793E-09         0.00000E+00
    0.86235E-09        -0.25827E-09         0.00000E+00
    0.85564E-09        -0.22601E-09         0.00000E+00
    0.84985E-09        -0.19110E-09         0.00000E+00
    0.84506E-09        -0.15350E-09         0.00000E+00
    0.84135E-09        -0.11317E-09         0.00000E+00
    0.83880E-09        -0.70081E-10         0.00000E+00
    0.83748E-09        -0.24231E-10         0.00000E+00
    0.12211E-08        -0.14369E-10         0.00000E+00
    0.12203E-08        -0.42329E-10         0.00000E+00
    0.12186E-08        -0.69208E-10         0.00000E+00
    0.12162E-08        -0.95005E-10         0.00000E+00
    0.12130E-08        -0.11972E-09         0.00000E+00
    0.12092E-08        -0.14337E-09         0.00000E+00
    0.12046E-08        -0.16594E-09         0.00000E+00
    0.11993E-08        -0.18746E-09         0.00000E+00
    0.11935E-08        -0.20793E-09         0.00000E+00
    0.11870E-08        -0.22736E-09         0.00000E+00
    0.11800E-08        -0.24578E-09         0.00000E+00
    0.11724E-08        -0.26319E-09         0.00000E+00
    0.11643E-08        -0.27960E-09         0.00000E+00
    0.11557E-08        -0.29503E-09         0.00000E+00
    0.11467E-08        -0.30949E-09         0.00000E+00
    0.11372E-08        -0.32298E-09         0.00000E+00
    0.11273E-08        -0.33552E-09         0.00000E+00
    0.11171E-08        -0.34710E-09         0.00000E+00
    0.11064E-08        -0.35773E-09         0.00000E+00
    0.10955E-08        -0.36739E-09         0.00000E+00
    0.10843E-08        -0.37609E-09         0.00000E+00
    0.10728E-08        -0.38381E-09         0.00000E+00
    0.10611E-08        -0.39054E-09         0.00000E+00
    0.10491E-08        -0.39624E-09         0.00000E+00
    0.10370E-08        -0.40090E-09         0.00000E+00
    0.10247E-08        -0.40448E-09         0.00000E+00
    0.10124E-08        -0.40694E-09         0.00000E+00
    0.99991E-09        -0.40825E-09         0.00000E+00
    0.98742E-09        -0.40835E-09         0.00000E+00
    0.97492E-09        -0.40720E-09         0.00000E+00
    0.96246E-09        -0.40473E-09         0.00000E+00
    0.95008E-09        -0.40090E-09         0.00000E+00
    0.93782E-09        -0.39563E-09         0.00000E+00
    0.92573E-09        -0.38885E-09         0.00000E+00
    0.91385E-09        -0.38051E-09         0.00000E+00
    0.90224E-09        -0.37052E-09         0.00000E+00
    0.89095E-09        -0.35882E-09         0.00000E+00
    0.88004E-09        -0.34533E-09         0.00000E+00
    0.86956E-09        -0.32998E-09         0.00000E+00
    0.85957E-09        -0.31271E-09         0.00000E+00
    0.85014E-09        -0.29343E-09         0.00000E+00
    0.84133E-09        -0.27209E-09         0.00000E+00
    0.83321E-09        -0.24862E-09         0.00000E+00
    0.82584E-09        -0.22297E-09         0.00000E+00
    0.81931E-09        -0.19508E-09         0.00000E+00
    0.81367E-09        -0.16492E-09         0.00000E+00
    0.80901E-09        -0.13244E-09         0.00000E+00
    0.80541E-09        -0.97626E-10         0.00000E+00
    0.80292E-09        -0.60447E-10         0.00000E+00
    0.80165E-09        -0.20895E-10         0.00000E+00
    0.11852E-08        -0.12257E-10         0.00000E+00
    0.11844E-08        -0.36104E-10         0.00000E+00
    0.11828E-08        -0.59022E-10         0.00000E+00
    0.11803E-08        -0.81010E-10         0.00000E+00
    0.11772E-08        -0.10207E-09         0.00000E+00
    0.11733E-08        -0.12221E-09         0.00000E+00
    0.11687E-08        -0.14142E-09         0.00000E+00
    0.11635E-08        -0.15973E-09         0.00000E+00
    0.11577E-08        -0.17715E-09         0.00000E+00
    0.11513E-08        -0.19367E-09         0.00000E+00
    0.11443E-08        -0.20931E-09         0.00000E+00
    0.11367E-08        -0.22409E-09         0.00000E+00
    0.11287E-08        -0.23802E-09         0.00000E+00
    0.11202E-08        -0.25110E-09         0.00000E+00
    0.11112E-08        -0.26335E-09         0.00000E+00
    0.11018E-08        -0.27478E-09         0.00000E+00
    0.10920E-08        -0.28538E-09         0.00000E+00
    0.10819E-08        -0.29516E-09         0.00000E+00
    0.10714E-08        -0.30413E-09         0.00000E+00
    0.10606E-08        -0.31228E-09         0.00000E+00
    0.10495E-08        -0.31960E-09         0.00000E+00
    0.10381E-08        -0.32609E-09         0.00000E+00
    0.10266E-08        -0.33172E-09         0.00000E+00
    0.10148E-08        -0.33649E-09         0.00000E+00
    0.10028E-08        -0.34037E-09         0.00000E+00
    0.99077E-09        -0.34333E-09         0.00000E+00
    0.97860E-09        -0.34534E-09         0.00000E+00
    0.96635E-09        -0.34637E-09         0.00000E+00
    0.95408E-09        -0.34638E-09         0.00000E+00
    0.94181E-09        -0.34533E-09         0.00000E+00
    0.92958E-09        -0.34316E-09         0.00000E+00
    0.91743E-09        -0.33984E-09         0.00000E+00
    0.90541E-09        -0.33530E-09         0.00000E+00
    0.89357E-09        -0.32949E-09         0.00000E+00
    0.88194E-09        -0.32235E-09         0.00000E+00
    0.87058E-09        -0.31383E-09         0.00000E+00
    0.85953E-09        -0.30386E-09         0.00000E+00
    0.84886E-09        -0.29238E-09         0.00000E+00
    0.83862E-09        -0.27933E-09         0.00000E+00
    0.82887E-09        -0.26465E-09         0.00000E+00
    0.81966E-09        -0.24829E-09         0.00000E+00
    0.81107E-09        -0.23019E-09         0.00000E+00
    0.80315E-09        -0.21030E-09         0.00000E+00
    0.79597E-09        -0.18857E-09         0.00000E+00
    0.78960E-09        -0.16496E-09         0.00000E+00
    0.78411E-09        -0.13943E-09         0.00000E+00
    0.77957E-09        -0.11196E-09         0.00000E+00
    0.77606E-09        -0.82511E-10         0.00000E+00
    0.77365E-09        -0.51079E-10         0.00000E+00
    0.77240E-09        -0.17654E-10         0.00000E+00
    0.11554E-08        -0.10151E-10         0.00000E+00
    0.11546E-08        -0.29897E-10         0.00000E+00
    0.11529E-08        -0.48869E-10         0.00000E+00
    0.11505E-08        -0.67066E-10         0.00000E+00
    0.11474E-08        -0.84489E-10         0.00000E+00
    0.11435E-08        -0.10114E-09         0.00000E+00
    0.11390E-08        -0.11703E-09         0.00000E+00
    0.11338E-08        -0.13216E-09         0.00000E+00
    0.11280E-08        -0.14655E-09         0.00000E+00
    0.11216E-08        -0.16019E-09         0.00000E+00
    0.11147E-08        -0.17310E-09         0.00000E+00
    0.11072E-08        -0.18529E-09         0.00000E+00
    0.10993E-08        -0.19678E-09         0.00000E+00
    0.10908E-08        -0.20756E-09         0.00000E+00
    0.10819E-08        -0.21764E-09         0.00000E+00
    0.10726E-08        -0.22704E-09         0.00000E+00
    0.10629E-08        -0.23576E-09         0.00000E+00
    0.10529E-08        -0.24379E-09         0.00000E+00
    0.10425E-08        -0.25115E-09         0.00000E+00
    0.10319E-08        -0.25783E-09         0.00000E+00
    0.10209E-08        -0.26383E-09         0.00000E+00
    0.10097E-08        -0.26913E-09         0.00000E+00
    0.99828E-09        -0.27372E-09         0.00000E+00
    0.98668E-09        -0.27760E-09         0.00000E+00
    0.97492E-09        -0.28075E-09         0.00000E+00
    0.96302E-09        -0.28313E-09         0.00000E+00
    0.95104E-09        -0.28474E-09         0.00000E+00
    0.93899E-09        -0.28553E-09         0.00000E+00
    0.92692E-09        -0.28549E-09         0.00000E+00
    0.91486E-09        -0.28456E-09         0.00000E+00
    0.90285E-09        -0.28272E-09         0.00000E+00
    0.89093E-09        -0.27993E-09         0.00000E+00
    0.87913E-09        -0.27614E-09         0.00000E+00
    0.86751E-09        -0.27131E-09         0.00000E+00
    0.85611E-09        -0.26538E-09         0.00000E+00
    0.84498E-09        -0.25832E-09         0.00000E+00
    0.83416E-09        -0.25007E-09         0.00000E+00
    0.82372E-09        -0.24058E-09         0.00000E+00
    0.81369E-09        -0.22981E-09         0.00000E+00
    0.80415E-09        -0.21770E-09         0.00000E+00
    0.79515E-09        -0.20421E-09         0.00000E+00
    0.78675E-09        -0.18929E-09         0.00000E+00
    0.77901E-09        -0.17291E-09         0.00000E+00
    0.77200E-09        -0.15502E-09         0.00000E+00
    0.76578E-09        -0.13559E-09         0.00000E+00
    0.76043E-09        -0.11459E-09         0.00000E+00
    0.75600E-09        -0.91993E-10         0.00000E+00
    0.75258E-09        -0.67788E-10         0.00000E+00
    0.75022E-09        -0.41959E-10         0.00000E+00
    0.74901E-09        -0.14499E-10         0.00000E+00
    0.11314E-08        -0.80556E-11         0.00000E+00
    0.11306E-08        -0.23722E-10         0.00000E+00
    0.11290E-08        -0.38772E-10         0.00000E+00
    0.11266E-08        -0.53203E-10         0.00000E+00
    0.11235E-08        -0.67016E-10         0.00000E+00
    0.11196E-08        -0.80216E-10         0.00000E+00
    0.11151E-08        -0.92805E-10         0.00000E+00
    0.11100E-08        -0.10479E-09         0.00000E+00
    0.11042E-08        -0.11618E-09         0.00000E+00
    0.10979E-08        -0.12697E-09         0.00000E+00
    0.10910E-08        -0.13719E-09         0.00000E+00
    0.10836E-08        -0.14683E-09         0.00000E+00
    0.10757E-08        -0.15590E-09         0.00000E+00
    0.10673E-08        -0.16441E-09         0.00000E+00
    0.10586E-08        -0.17238E-09         0.00000E+00
    0.10493E-08        -0.17979E-09         0.00000E+00
    0.10398E-08        -0.18666E-09         0.00000E+00
    0.10298E-08        -0.19299E-09         0.00000E+00
    0.10196E-08        -0.19878E-09         0.00000E+00
    0.10090E-08        -0.20404E-09         0.00000E+00
    0.99819E-09        -0.20874E-09         0.00000E+00
    0.98712E-09        -0.21290E-09         0.00000E+00
    0.97585E-09        -0.21650E-09         0.00000E+00
    0.96440E-09        -0.21953E-09         0.00000E+00
    0.95279E-09        -0.22198E-09         0.00000E+00
    0.94106E-09        -0.22383E-09         0.00000E+00
    0.92925E-09        -0.22506E-09         0.00000E+00
    0.91738E-09        -0.22565E-09         0.00000E+00
    0.90549E-09        -0.22557E-09         0.00000E+00
    0.89362E-09        -0.22480E-09         0.00000E+00
    0.88180E-09        -0.22332E-09         0.00000E+00
    0.87007E-09        -0.22107E-09         0.00000E+00
    0.85847E-09        -0.21805E-09         0.00000E+00
    0.84705E-09        -0.21420E-09         0.00000E+00
    0.83585E-09        -0.20949E-09         0.00000E+00
    0.82491E-09        -0.20388E-09         0.00000E+00
    0.81430E-09        -0.19734E-09         0.00000E+00
    0.80404E-09        -0.18982E-09         0.00000E+00
    0.79421E-09        -0.18130E-09         0.00000E+00
    0.78486E-09        -0.17172E-09         0.00000E+00
    0.77603E-09        -0.16106E-09         0.00000E+00
    0.76780E-09        -0.14927E-09         0.00000E+00
    0.76022E-09        -0.13633E-09         0.00000E+00
    0.75335E-09        -0.12221E-09         0.00000E+00
    0.74727E-09        -0.10688E-09         0.00000E+00
    0.74203E-09        -0.90312E-10         0.00000E+00
    0.73770E-09        -0.72495E-10         0.00000E+00
    0.73435E-09        -0.53413E-10         0.00000E+00
    0.73204E-09        -0.33056E-10         0.00000E+00
    0.73086E-09        -0.11421E-10         0.00000E+00
    0.11132E-08        -0.59724E-11         0.00000E+00
    0.11124E-08        -0.17586E-10         0.00000E+00
    0.11107E-08        -0.28738E-10         0.00000E+00
    0.11084E-08        -0.39429E-10         0.00000E+00
    0.11053E-08        -0.49659E-10         0.00000E+00
    0.11015E-08        -0.59431E-10         0.00000E+00
    0.10970E-08        -0.68748E-10         0.00000E+00
    0.10919E-08        -0.77614E-10         0.00000E+00
    0.10862E-08        -0.86034E-10         0.00000E+00
    0.10799E-08        -0.94015E-10         0.00000E+00
    0.10731E-08        -0.10156E-09         0.00000E+00
    0.10657E-08        -0.10868E-09         0.00000E+00
    0.10579E-08        -0.11538E-09         0.00000E+00
    0.10496E-08        -0.12166E-09         0.00000E+00
    0.10409E-08        -0.12752E-09         0.00000E+00
    0.10317E-08        -0.13299E-09         0.00000E+00
    0.10222E-08        -0.13805E-09         0.00000E+00
    0.10124E-08        -0.14270E-09         0.00000E+00
    0.10022E-08        -0.14696E-09         0.00000E+00
    0.99177E-09        -0.15082E-09         0.00000E+00
    0.98105E-09        -0.15427E-09         0.00000E+00
    0.97010E-09        -0.15732E-09         0.00000E+00
    0.95895E-09        -0.15995E-09         0.00000E+00
    0.94762E-09        -0.16216E-09         0.00000E+00
    0.93615E-09        -0.16394E-09         0.00000E+00
    0.92456E-09        -0.16528E-09         0.00000E+00
    0.91288E-09        -0.16616E-09         0.00000E+00
    0.90116E-09        -0.16657E-09         0.00000E+00
    0.88942E-09        -0.16649E-09         0.00000E+00
    0.87770E-09        -0.16590E-09         0.00000E+00
    0.86603E-09        -0.16478E-09         0.00000E+00
    0.85446E-09        -0.16311E-09         0.00000E+00
    0.84303E-09        -0.16085E-09         0.00000E+00
    0.83177E-09        -0.15799E-09         0.00000E+00
    0.82073E-09        -0.15449E-09         0.00000E+00
    0.80996E-09        -0.15034E-09         0.00000E+00
    0.79950E-09        -0.14550E-09         0.00000E+00
    0.78940E-09        -0.13994E-09         0.00000E+00
    0.77973E-09        -0.13364E-09         0.00000E+00
    0.77052E-09        -0.12656E-09         0.00000E+00
    0.76184E-09        -0.11869E-09         0.00000E+00
    0.75374E-09        -0.10999E-09         0.00000E+00
    0.74629E-09        -0.10044E-09         0.00000E+00
    0.73954E-09        -0.90029E-10         0.00000E+00
    0.73356E-09        -0.78725E-10         0.00000E+00
    0.72841E-09        -0.66515E-10         0.00000E+00
    0.72416E-09        -0.53386E-10         0.00000E+00
    0.72087E-09        -0.39329E-10         0.00000E+00
    0.71861E-09        -0.24336E-10         0.00000E+00
    0.71745E-09        -0.84067E-11         0.00000E+00
    0.11006E-08        -0.39003E-11         0.00000E+00
    0.10998E-08        -0.11482E-10         0.00000E+00
    0.10982E-08        -0.18759E-10         0.00000E+00
    0.10958E-08        -0.25732E-10         0.00000E+00
    0.10927E-08        -0.32401E-10         0.00000E+00
    0.10889E-08        -0.38768E-10         0.00000E+00
    0.10845E-08        -0.44834E-10         0.00000E+00
    0.10794E-08        -0.50604E-10         0.00000E+00
    0.10737E-08        -0.56081E-10         0.00000E+00
    0.10675E-08        -0.61267E-10         0.00000E+00
    0.10607E-08        -0.66169E-10         0.00000E+00
    0.10534E-08        -0.70789E-10         0.00000E+00
    0.10456E-08        -0.75133E-10         0.00000E+00
    0.10374E-08        -0.79203E-10         0.00000E+00
    0.10287E-08        -0.83004E-10         0.00000E+00
    0.10196E-08        -0.86539E-10         0.00000E+00
    0.10102E-08        -0.89810E-10         0.00000E+00
    0.10004E-08        -0.92820E-10         0.00000E+00
    0.99030E-09        -0.95568E-10         0.00000E+00
    0.97993E-09        -0.98055E-10         0.00000E+00
    0.96929E-09        -0.10028E-09         0.00000E+00
    0.95842E-09        -0.10224E-09         0.00000E+00
    0.94736E-09        -0.10393E-09         0.00000E+00
    0.93612E-09        -0.10535E-09         0.00000E+00
    0.92474E-09        -0.10648E-09         0.00000E+00
    0.91325E-09        -0.10734E-09         0.00000E+00
    0.90168E-09        -0.10789E-09         0.00000E+00
    0.89006E-09        -0.10814E-09         0.00000E+00
    0.87843E-09        -0.10807E-09         0.00000E+00
    0.86682E-09        -0.10767E-09         0.00000E+00
    0.85526E-09        -0.10693E-09         0.00000E+00
    0.84381E-09        -0.10583E-09         0.00000E+00
    0.83249E-09        -0.10435E-09         0.00000E+00
    0.82135E-09        -0.10248E-09         0.00000E+00
    0.81043E-09        -0.10020E-09         0.00000E+00
    0.79977E-09        -0.97497E-10         0.00000E+00
    0.78943E-09        -0.94346E-10         0.00000E+00
    0.77945E-09        -0.90732E-10         0.00000E+00
    0.76989E-09        -0.86637E-10         0.00000E+00
    0.76079E-09        -0.82041E-10         0.00000E+00
    0.75221E-09        -0.76929E-10         0.00000E+00
    0.74422E-09        -0.71284E-10         0.00000E+00
    0.73686E-09        -0.65091E-10         0.00000E+00
    0.73020E-09        -0.58335E-10         0.00000E+00
    0.72429E-09        -0.51004E-10         0.00000E+00
    0.71921E-09        -0.43089E-10         0.00000E+00
    0.71502E-09        -0.34580E-10         0.00000E+00
    0.71178E-09        -0.25471E-10         0.00000E+00
    0.70955E-09        -0.15759E-10         0.00000E+00
    0.70840E-09        -0.54426E-11         0.00000E+00
    0.10937E-08        -0.18351E-11         0.00000E+00
    0.10929E-08        -0.53988E-11         0.00000E+00
    0.10913E-08        -0.88149E-11         0.00000E+00
    0.10889E-08        -0.12083E-10         0.00000E+00
    0.10858E-08        -0.15204E-10         0.00000E+00
    0.10821E-08        -0.18179E-10         0.00000E+00
    0.10776E-08        -0.21010E-10         0.00000E+00
    0.10725E-08        -0.23697E-10         0.00000E+00
    0.10669E-08        -0.26243E-10         0.00000E+00
    0.10606E-08        -0.28651E-10         0.00000E+00
    0.10539E-08        -0.30922E-10         0.00000E+00
    0.10466E-08        -0.33060E-10         0.00000E+00
    0.10388E-08        -0.35065E-10         0.00000E+00
    0.10306E-08        -0.36942E-10         0.00000E+00
    0.10219E-08        -0.38691E-10         0.00000E+00
    0.10129E-08        -0.40315E-10         0.00000E+00
    0.10035E-08        -0.41815E-10         0.00000E+00
    0.99375E-09        -0.43192E-10         0.00000E+00
    0.98369E-09        -0.44448E-10         0.00000E+00
    0.97335E-09        -0.45582E-10         0.00000E+00
    0.96276E-09        -0.46594E-10         0.00000E+00
    0.95194E-09        -0.47483E-10         0.00000E+00
    0.94091E-09        -0.48248E-10         0.00000E+00
    0.92972E-09        -0.48887E-10         0.00000E+00
    0.91840E-09        -0.49397E-10         0.00000E+00
    0.90696E-09        -0.49775E-10         0.00000E+00
    0.89544E-09        -0.50017E-10         0.00000E+00
    0.88388E-09        -0.50118E-10         0.00000E+00
    0.87231E-09        -0.50073E-10         0.00000E+00
    0.86076E-09        -0.49877E-10         0.00000E+00
    0.84927E-09        -0.49522E-10         0.00000E+00
    0.83788E-09        -0.49002E-10         0.00000E+00
    0.82663E-09        -0.48310E-10         0.00000E+00
    0.81555E-09        -0.47437E-10         0.00000E+00
    0.80470E-09        -0.46376E-10         0.00000E+00
    0.79412E-09        -0.45119E-10         0.00000E+00
    0.78384E-09        -0.43656E-10         0.00000E+00
    0.77393E-09        -0.41979E-10         0.00000E+00
    0.76444E-09        -0.40080E-10         0.00000E+00
    0.75540E-09        -0.37950E-10         0.00000E+00
    0.74689E-09        -0.35582E-10         0.00000E+00
    0.73895E-09        -0.32967E-10         0.00000E+00
    0.73165E-09        -0.30099E-10         0.00000E+00
    0.72504E-09        -0.26972E-10         0.00000E+00
    0.71919E-09        -0.23579E-10         0.00000E+00
    0.71415E-09        -0.19916E-10         0.00000E+00
    0.70999E-09        -0.15980E-10         0.00000E+00
    0.70677E-09        -0.11768E-10         0.00000E+00
    0.70456E-09        -0.72788E-11         0.00000E+00
    0.70343E-09        -0.25129E-11         0.00000E+00
    0.10924E-08         0.22947E-12         0.00000E+00
    0.10916E-08         0.68223E-12         0.00000E+00
    0.10900E-08         0.11261E-11         0.00000E+00
    0.10876E-08         0.15606E-11         0.00000E+00
    0.10845E-08         0.19854E-11         0.00000E+00
    0.10808E-08         0.23997E-11         0.00000E+00
    0.10763E-08         0.28032E-11         0.00000E+00
    0.10712E-08         0.31953E-11         0.00000E+00
    0.10656E-08         0.35755E-11         0.00000E+00
    0.10593E-08         0.39431E-11         0.00000E+00
    0.10525E-08         0.42976E-11         0.00000E+00
    0.10452E-08         0.46385E-11         0.00000E+00
    0.10375E-08         0.49651E-11         0.00000E+00
    0.10292E-08         0.52769E-11         0.00000E+00
    0.10206E-08         0.55733E-11         0.00000E+00
    0.10115E-08         0.58538E-11         0.00000E+00
    0.10021E-08         0.61177E-11         0.00000E+00
    0.99237E-09         0.63644E-11         0.00000E+00
    0.98231E-09         0.65933E-11         0.00000E+00
    0.97196E-09         0.68038E-11         0.00000E+00
    0.96136E-09         0.69953E-11         0.00000E+00
    0.95054E-09         0.71670E-11         0.00000E+00
    0.93952E-09         0.73182E-11         0.00000E+00
    0.92833E-09         0.74483E-11         0.00000E+00
    0.91700E-09         0.75564E-11         0.00000E+00
    0.90556E-09         0.76418E-11         0.00000E+00
    0.89405E-09         0.77036E-11         0.00000E+00
    0.88249E-09         0.77410E-11         0.00000E+00
    0.87093E-09         0.77530E-11         0.00000E+00
    0.85939E-09         0.77388E-11         0.00000E+00
    0.84791E-09         0.76975E-11         0.00000E+00
    0.83653E-09         0.76279E-11         0.00000E+00
    0.82529E-09         0.75292E-11         0.00000E+00
    0.81423E-09         0.74004E-11         0.00000E+00
    0.80339E-09         0.72403E-11         0.00000E+00
    0.79282E-09         0.70481E-11         0.00000E+00
    0.78256E-09         0.68226E-11         0.00000E+00
    0.77267E-09         0.65628E-11         0.00000E+00
    0.76319E-09         0.62677E-11         0.00000E+00
    0.75418E-09         0.59364E-11         0.00000E+00
    0.74568E-09         0.55676E-11         0.00000E+00
    0.73776E-09         0.51606E-11         0.00000E+00
    0.73048E-09         0.47141E-11         0.00000E+00
    0.72388E-09         0.42273E-11         0.00000E+00
    0.71804E-09         0.36992E-11         0.00000E+00
    0.71302E-09         0.31285E-11         0.00000E+00
    0.70887E-09         0.25144E-11         0.00000E+00
    0.70566E-09         0.18555E-11         0.00000E+00
    0.70346E-09         0.11508E-11         0.00000E+00
    0.70233E-09         0.39889E-12         0.00000E+00
    0.10968E-08         0.23014E-11         0.00000E+00
    0.10960E-08         0.67849E-11         0.00000E+00
    0.10944E-08         0.11102E-10         0.00000E+00
    0.10920E-08         0.15252E-10         0.00000E+00
    0.10889E-08         0.19235E-10         0.00000E+00
    0.10851E-08         0.23050E-10         0.00000E+00
    0.10806E-08         0.26698E-10         0.00000E+00
    0.10755E-08         0.30179E-10         0.00000E+00
    0.10698E-08         0.33495E-10         0.00000E+00
    0.10635E-08         0.36646E-10         0.00000E+00
    0.10567E-08         0.39633E-10         0.00000E+00
    0.10494E-08         0.42459E-10         0.00000E+00
    0.10416E-08         0.45123E-10         0.00000E+00
    0.10333E-08         0.47628E-10         0.00000E+00
    0.10246E-08         0.49973E-10         0.00000E+00
    0.10155E-08         0.52161E-10         0.00000E+00
    0.10060E-08         0.54191E-10         0.00000E+00
    0.99623E-09         0.56063E-10         0.00000E+00
    0.98611E-09         0.57776E-10         0.00000E+00
    0.97572E-09         0.59331E-10         0.00000E+00
    0.96506E-09         0.60724E-10         0.00000E+00
    0.95419E-09         0.61955E-10         0.00000E+00
    0.94311E-09         0.63020E-10         0.00000E+00
    0.93187E-09         0.63916E-10         0.00000E+00
    0.92049E-09         0.64639E-10         0.00000E+00
    0.90900E-09         0.65183E-10         0.00000E+00
    0.89743E-09         0.65543E-10         0.00000E+00
    0.88582E-09         0.65714E-10         0.00000E+00
    0.87421E-09         0.65687E-10         0.00000E+00
    0.86262E-09         0.65456E-10         0.00000E+00
    0.85109E-09         0.65012E-10         0.00000E+00
    0.83966E-09         0.64346E-10         0.00000E+00
    0.82838E-09         0.63449E-10         0.00000E+00
    0.81727E-09         0.62312E-10         0.00000E+00
    0.80639E-09         0.60924E-10         0.00000E+00
    0.79578E-09         0.59274E-10         0.00000E+00
    0.78548E-09         0.57353E-10         0.00000E+00
    0.77555E-09         0.55150E-10         0.00000E+00
    0.76604E-09         0.52654E-10         0.00000E+00
    0.75699E-09         0.49855E-10         0.00000E+00
    0.74847E-09         0.46743E-10         0.00000E+00
    0.74052E-09         0.43309E-10         0.00000E+00
    0.73321E-09         0.39543E-10         0.00000E+00
    0.72660E-09         0.35437E-10         0.00000E+00
    0.72074E-09         0.30984E-10         0.00000E+00
    0.71570E-09         0.26177E-10         0.00000E+00
    0.71154E-09         0.21010E-10         0.00000E+00
    0.70832E-09         0.15479E-10         0.00000E+00
    0.70611E-09         0.95794E-11         0.00000E+00
    0.70498E-09         0.33100E-11         0.00000E+00
    0.11069E-08         0.43897E-11         0.00000E+00
    0.11061E-08         0.12936E-10         0.00000E+00
    0.11044E-08         0.21157E-10         0.00000E+00
    0.11020E-08         0.29053E-10         0.00000E+00
    0.10989E-08         0.36621E-10         0.00000E+00
    0.10951E-08         0.43863E-10         0.00000E+00
    0.10906E-08         0.50781E-10         0.00000E+00
    0.10854E-08         0.57375E-10         0.00000E+00
    0.10796E-08         0.63648E-10         0.00000E+00
    0.10733E-08         0.69603E-10         0.00000E+00
    0.10664E-08         0.75243E-10         0.00000E+00
    0.10590E-08         0.80571E-10         0.00000E+00
    0.10511E-08         0.85590E-10         0.00000E+00
    0.10427E-08         0.90303E-10         0.00000E+00
    0.10340E-08         0.94712E-10         0.00000E+00
    0.10248E-08         0.98819E-10         0.00000E+00
    0.10152E-08         0.10263E-09         0.00000E+00
    0.10053E-08         0.10613E-09         0.00000E+00
    0.99511E-09         0.10934E-09         0.00000E+00
    0.98461E-09         0.11225E-09         0.00000E+00
    0.97385E-09         0.11485E-09         0.00000E+00
    0.96287E-09         0.11714E-09         0.00000E+00
    0.95169E-09         0.11913E-09         0.00000E+00
    0.94033E-09         0.12079E-09         0.00000E+00
    0.92884E-09         0.12213E-09         0.00000E+00
    0.91724E-09         0.12313E-09         0.00000E+00
    0.90557E-09         0.12379E-09         0.00000E+00
    0.89385E-09         0.12409E-09         0.00000E+00
    0.88212E-09         0.12402E-09         0.00000E+00
    0.87042E-09         0.12357E-09         0.00000E+00
    0.85878E-09         0.12272E-09         0.00000E+00
    0.84725E-09         0.12145E-09         0.00000E+00
    0.83586E-09         0.11975E-09         0.00000E+00
    0.82465E-09         0.11759E-09         0.00000E+00
    0.81366E-09         0.11496E-09         0.00000E+00
    0.80295E-09         0.11184E-09         0.00000E+00
    0.79256E-09         0.10821E-09         0.00000E+00
    0.78254E-09         0.10405E-09         0.00000E+00
    0.77294E-09         0.99337E-10         0.00000E+00
    0.76381E-09         0.94053E-10         0.00000E+00
    0.75521E-09         0.88178E-10         0.00000E+00
    0.74719E-09         0.81695E-10         0.00000E+00
    0.73981E-09         0.74587E-10         0.00000E+00
    0.73314E-09         0.66839E-10         0.00000E+00
    0.72722E-09         0.58435E-10         0.00000E+00
    0.72214E-09         0.49364E-10         0.00000E+00
    0.71794E-09         0.39616E-10         0.00000E+00
    0.71469E-09         0.29183E-10         0.00000E+00
    0.71247E-09         0.18058E-10         0.00000E+00
    0.71132E-09         0.62382E-11         0.00000E+00
    0.11228E-08         0.65043E-11         0.00000E+00
    0.11219E-08         0.19164E-10         0.00000E+00
    0.11203E-08         0.31338E-10         0.00000E+00
    0.11178E-08         0.43025E-10         0.00000E+00
    0.11147E-08         0.54224E-10         0.00000E+00
    0.11108E-08         0.64936E-10         0.00000E+00
    0.11062E-08         0.75163E-10         0.00000E+00
    0.11010E-08         0.84908E-10         0.00000E+00
    0.10951E-08         0.94175E-10         0.00000E+00
    0.10887E-08         0.10297E-09         0.00000E+00
    0.10817E-08         0.11129E-09         0.00000E+00
    0.10742E-08         0.11915E-09         0.00000E+00
    0.10662E-08         0.12656E-09         0.00000E+00
    0.10577E-08         0.13350E-09         0.00000E+00
    0.10488E-08         0.14000E-09         0.00000E+00
    0.10394E-08         0.14605E-09         0.00000E+00
    0.10297E-08         0.15166E-09         0.00000E+00
    0.10197E-08         0.15682E-09         0.00000E+00
    0.10093E-08         0.16154E-09         0.00000E+00
    0.99868E-09         0.16581E-09         0.00000E+00
    0.98777E-09         0.16964E-09         0.00000E+00
    0.97662E-09         0.17301E-09         0.00000E+00
    0.96528E-09         0.17592E-09         0.00000E+00
    0.95376E-09         0.17836E-09         0.00000E+00
    0.94210E-09         0.18032E-09         0.00000E+00
    0.93033E-09         0.18179E-09         0.00000E+00
    0.91848E-09         0.18275E-09         0.00000E+00
    0.90659E-09         0.18318E-09         0.00000E+00
    0.89469E-09         0.18307E-09         0.00000E+00
    0.88282E-09         0.18239E-09         0.00000E+00
    0.87101E-09         0.18113E-09         0.00000E+00
    0.85930E-09         0.17924E-09         0.00000E+00
    0.84774E-09         0.17672E-09         0.00000E+00
    0.83637E-09         0.17354E-09         0.00000E+00
    0.82522E-09         0.16965E-09         0.00000E+00
    0.81435E-09         0.16505E-09         0.00000E+00
    0.80381E-09         0.15969E-09         0.00000E+00
    0.79364E-09         0.15354E-09         0.00000E+00
    0.78389E-09         0.14658E-09         0.00000E+00
    0.77463E-09         0.13878E-09         0.00000E+00
    0.76590E-09         0.13011E-09         0.00000E+00
    0.75776E-09         0.12054E-09         0.00000E+00
    0.75027E-09         0.11005E-09         0.00000E+00
    0.74350E-09         0.98617E-10         0.00000E+00
    0.73750E-09         0.86216E-10         0.00000E+00
    0.73234E-09         0.72830E-10         0.00000E+00
    0.72808E-09         0.58446E-10         0.00000E+00
    0.72478E-09         0.43051E-10         0.00000E+00
    0.72252E-09         0.26638E-10         0.00000E+00
    0.72136E-09         0.92014E-11         0.00000E+00
    0.11445E-08         0.86549E-11         0.00000E+00
    0.11436E-08         0.25498E-10         0.00000E+00
    0.11419E-08         0.41692E-10         0.00000E+00
    0.11395E-08         0.57235E-10         0.00000E+00
    0.11362E-08         0.72125E-10         0.00000E+00
    0.11322E-08         0.86365E-10         0.00000E+00
    0.11276E-08         0.99958E-10         0.00000E+00
    0.11222E-08         0.11291E-09         0.00000E+00
    0.11163E-08         0.12522E-09         0.00000E+00
    0.11097E-08         0.13690E-09         0.00000E+00
    0.11026E-08         0.14795E-09         0.00000E+00
    0.10949E-08         0.15839E-09         0.00000E+00
    0.10868E-08         0.16822E-09         0.00000E+00
    0.10781E-08         0.17744E-09         0.00000E+00
    0.10690E-08         0.18606E-09         0.00000E+00
    0.10596E-08         0.19408E-09         0.00000E+00
    0.10497E-08         0.20152E-09         0.00000E+00
    0.10394E-08         0.20837E-09         0.00000E+00
    0.10289E-08         0.21462E-09         0.00000E+00
    0.10180E-08         0.22029E-09         0.00000E+00
    0.10069E-08         0.22536E-09         0.00000E+00
    0.99553E-09         0.22982E-09         0.00000E+00
    0.98396E-09         0.23368E-09         0.00000E+00
    0.97221E-09         0.23691E-09         0.00000E+00
    0.96033E-09         0.23951E-09         0.00000E+00
    0.94833E-09         0.24145E-09         0.00000E+00
    0.93625E-09         0.24272E-09         0.00000E+00
    0.92412E-09         0.24329E-09         0.00000E+00
    0.91199E-09         0.24313E-09         0.00000E+00
    0.89988E-09         0.24223E-09         0.00000E+00
    0.88784E-09         0.24054E-09         0.00000E+00
    0.87590E-09         0.23804E-09         0.00000E+00
    0.86411E-09         0.23469E-09         0.00000E+00
    0.85251E-09         0.23046E-09         0.00000E+00
    0.84114E-09         0.22530E-09         0.00000E+00
    0.83005E-09         0.21918E-09         0.00000E+00
    0.81930E-09         0.21206E-09         0.00000E+00
    0.80892E-09         0.20390E-09         0.00000E+00
    0.79898E-09         0.19466E-09         0.00000E+00
    0.78952E-09         0.18430E-09         0.00000E+00
    0.78062E-09         0.17279E-09         0.00000E+00
    0.77231E-09         0.16008E-09         0.00000E+00
    0.76467E-09         0.14615E-09         0.00000E+00
    0.75776E-09         0.13096E-09         0.00000E+00
    0.75163E-09         0.11449E-09         0.00000E+00
    0.74636E-09         0.96716E-10         0.00000E+00
    0.74201E-09         0.77613E-10         0.00000E+00
    0.73865E-09         0.57169E-10         0.00000E+00
    0.73634E-09         0.35372E-10         0.00000E+00
    0.73516E-09         0.12218E-10         0.00000E+00
    0.11721E-08         0.10851E-10         0.00000E+00
    0.11712E-08         0.31966E-10         0.00000E+00
    0.11695E-08         0.52265E-10         0.00000E+00
    0.11670E-08         0.71744E-10         0.00000E+00
    0.11636E-08         0.90404E-10         0.00000E+00
    0.11596E-08         0.10825E-09         0.00000E+00
    0.11548E-08         0.12528E-09         0.00000E+00
    0.11494E-08         0.14150E-09         0.00000E+00
    0.11433E-08         0.15692E-09         0.00000E+00
    0.11365E-08         0.17154E-09         0.00000E+00
    0.11293E-08         0.18539E-09         0.00000E+00
    0.11214E-08         0.19845E-09         0.00000E+00
    0.11131E-08         0.21076E-09         0.00000E+00
    0.11042E-08         0.22230E-09         0.00000E+00
    0.10949E-08         0.23309E-09         0.00000E+00
    0.10852E-08         0.24314E-09         0.00000E+00
    0.10751E-08         0.25244E-09         0.00000E+00
    0.10646E-08         0.26101E-09         0.00000E+00
    0.10538E-08         0.26884E-09         0.00000E+00
    0.10427E-08         0.27593E-09         0.00000E+00
    0.10313E-08         0.28227E-09         0.00000E+00
    0.10197E-08         0.28786E-09         0.00000E+00
    0.10078E-08         0.29269E-09         0.00000E+00
    0.99582E-09         0.29674E-09         0.00000E+00
    0.98365E-09         0.29998E-09         0.00000E+00
    0.97136E-09         0.30241E-09         0.00000E+00
    0.95899E-09         0.30400E-09         0.00000E+00
    0.94657E-09         0.30471E-09         0.00000E+00
    0.93415E-09         0.30452E-09         0.00000E+00
    0.92174E-09         0.30339E-09         0.00000E+00
    0.90941E-09         0.30128E-09         0.00000E+00
    0.89718E-09         0.29815E-09         0.00000E+00
    0.88509E-09         0.29396E-09         0.00000E+00
    0.87320E-09         0.28866E-09         0.00000E+00
    0.86155E-09         0.28220E-09         0.00000E+00
    0.85018E-09         0.27454E-09         0.00000E+00
    0.83916E-09         0.26563E-09         0.00000E+00
    0.82852E-09         0.25541E-09         0.00000E+00
    0.81832E-09         0.24384E-09         0.00000E+00
    0.80863E-09         0.23087E-09         0.00000E+00
    0.79949E-09         0.21645E-09         0.00000E+00
    0.79097E-09         0.20053E-09         0.00000E+00
    0.78314E-09         0.18308E-09         0.00000E+00
    0.77604E-09         0.16406E-09         0.00000E+00
    0.76976E-09         0.14343E-09         0.00000E+00
    0.76435E-09         0.12116E-09         0.00000E+00
    0.75989E-09         0.97232E-10         0.00000E+00
    0.75644E-09         0.71620E-10         0.00000E+00
    0.75407E-09         0.44314E-10         0.00000E+00
    0.75285E-09         0.15307E-10         0.00000E+00
    0.12057E-08         0.13101E-10         0.00000E+00
    0.12048E-08         0.38593E-10         0.00000E+00
    0.12031E-08         0.63097E-10         0.00000E+00
    0.12005E-08         0.86609E-10         0.00000E+00
    0.11971E-08         0.10913E-09         0.00000E+00
    0.11929E-08         0.13066E-09         0.00000E+00
    0.11880E-08         0.15121E-09         0.00000E+00
    0.11824E-08         0.17079E-09         0.00000E+00
    0.11761E-08         0.18939E-09         0.00000E+00
    0.11693E-08         0.20704E-09         0.00000E+00
    0.11618E-08         0.22374E-09         0.00000E+00
    0.11537E-08         0.23951E-09         0.00000E+00
    0.11452E-08         0.25435E-09         0.00000E+00
    0.11361E-08         0.26827E-09         0.00000E+00
    0.11265E-08         0.28129E-09         0.00000E+00
    0.11166E-08         0.29341E-09         0.00000E+00
    0.11062E-08         0.30464E-09         0.00000E+00
    0.10954E-08         0.31498E-09         0.00000E+00
    0.10843E-08         0.32442E-09         0.00000E+00
    0.10729E-08         0.33298E-09         0.00000E+00
    0.10612E-08         0.34064E-09         0.00000E+00
    0.10493E-08         0.34738E-09         0.00000E+00
    0.10371E-08         0.35321E-09         0.00000E+00
    0.10247E-08         0.35810E-09         0.00000E+00
    0.10122E-08         0.36202E-09         0.00000E+00
    0.99961E-09         0.36496E-09         0.00000E+00
    0.98689E-09         0.36688E-09         0.00000E+00
    0.97412E-09         0.36775E-09         0.00000E+00
    0.96134E-09         0.36753E-09         0.00000E+00
    0.94859E-09         0.36617E-09         0.00000E+00
    0.93589E-09         0.36363E-09         0.00000E+00
    0.92331E-09         0.35987E-09         0.00000E+00
    0.91088E-09         0.35482E-09         0.00000E+00
    0.89864E-09         0.34843E-09         0.00000E+00
    0.88665E-09         0.34065E-09         0.00000E+00
    0.87495E-09         0.33142E-09         0.00000E+00
    0.86359E-09         0.32067E-09         0.00000E+00
    0.85263E-09         0.30834E-09         0.00000E+00
    0.84213E-09         0.29438E-09         0.00000E+00
    0.83215E-09         0.27873E-09         0.00000E+00
    0.82273E-09         0.26133E-09         0.00000E+00
    0.81395E-09         0.24213E-09         0.00000E+00
    0.80588E-09         0.22107E-09         0.00000E+00
    0.79856E-09         0.19810E-09         0.00000E+00
    0.79209E-09         0.17320E-09         0.00000E+00
    0.78651E-09         0.14631E-09         0.00000E+00
    0.78191E-09         0.11742E-09         0.00000E+00
    0.77835E-09         0.86492E-10         0.00000E+00
    0.77590E-09         0.53517E-10         0.00000E+00
    0.77464E-09         0.18486E-10         0.00000E+00
    0.12455E-08         0.15412E-10         0.00000E+00
    0.12446E-08         0.45399E-10         0.00000E+00
    0.12428E-08         0.74221E-10         0.00000E+00
    0.12401E-08         0.10188E-09         0.00000E+00
    0.12366E-08         0.12836E-09         0.00000E+00
    0.12323E-08         0.15369E-09         0.00000E+00
    0.12273E-08         0.17786E-09         0.00000E+00
    0.12215E-08         0.20088E-09         0.00000E+00
    0.12151E-08         0.22276E-09         0.00000E+00
    0.12080E-08         0.24351E-09         0.00000E+00
    0.12003E-08         0.26315E-09         0.00000E+00
    0.11920E-08         0.28169E-09         0.00000E+00
    0.11832E-08         0.29915E-09         0.00000E+00
    0.11739E-08         0.31552E-09         0.00000E+00
    0.11641E-08         0.33084E-09         0.00000E+00
    0.11538E-08         0.34510E-09         0.00000E+00
    0.11431E-08         0.35830E-09         0.00000E+00
    0.11320E-08         0.37047E-09         0.00000E+00
    0.11206E-08         0.38159E-09         0.00000E+00
    0.11088E-08         0.39166E-09         0.00000E+00
    0.10968E-08         0.40067E-09         0.00000E+00
    0.10845E-08         0.40862E-09         0.00000E+00
    0.10719E-08         0.41549E-09         0.00000E+00
    0.10592E-08         0.42125E-09         0.00000E+00
    0.10463E-08         0.42589E-09         0.00000E+00
    0.10333E-08         0.42936E-09         0.00000E+00
    0.10202E-08         0.43164E-09         0.00000E+00
    0.10070E-08         0.43268E-09         0.00000E+00
    0.99383E-09         0.43244E-09         0.00000E+00
    0.98066E-09         0.43086E-09         0.00000E+00
    0.96756E-09         0.42790E-09         0.00000E+00
    0.95457E-09         0.42349E-09         0.00000E+00
    0.94173E-09         0.41757E-09         0.00000E+00
    0.92909E-09         0.41007E-09         0.00000E+00
    0.91670E-09         0.40094E-09         0.00000E+00
    0.90461E-09         0.39009E-09         0.00000E+00
    0.89287E-09         0.37746E-09         0.00000E+00
    0.88155E-09         0.36297E-09         0.00000E+00
    0.87069E-09         0.34656E-09         0.00000E+00
    0.86036E-09         0.32815E-09         0.00000E+00
    0.85062E-09         0.30768E-09         0.00000E+00
    0.84153E-09         0.28508E-09         0.00000E+00
    0.83317E-09         0.26030E-09         0.00000E+00
    0.82561E-09         0.23327E-09         0.00000E+00
    0.81890E-09         0.20396E-09         0.00000E+00
    0.81312E-09         0.17231E-09         0.00000E+00
    0.80835E-09         0.13829E-09         0.00000E+00
    0.80467E-09         0.10187E-09         0.00000E+00
    0.80213E-09         0.63034E-10         0.00000E+00
    0.80083E-09         0.21775E-10         0.00000E+00
    0.12915E-08         0.17788E-10         0.00000E+00
    0.12906E-08         0.52397E-10         0.00000E+00
    0.12887E-08         0.85662E-10         0.00000E+00
    0.12860E-08         0.11758E-09         0.00000E+00
    0.12824E-08         0.14815E-09         0.00000E+00
    0.12780E-08         0.17737E-09         0.00000E+00
    0.12728E-08         0.20526E-09         0.00000E+00
    0.12669E-08         0.23183E-09         0.00000E+00
    0.12602E-08         0.25708E-09         0.00000E+00
    0.12530E-08         0.28104E-09         0.00000E+00
    0.12450E-08         0.30371E-09         0.00000E+00
    0.12365E-08         0.32511E-09         0.00000E+00
    0.12274E-08         0.34527E-09         0.00000E+00
    0.12178E-08         0.36418E-09         0.00000E+00
    0.12077E-08         0.38186E-09         0.00000E+00
    0.11971E-08         0.39833E-09         0.00000E+00
    0.11861E-08         0.41359E-09         0.00000E+00
    0.11747E-08         0.42765E-09         0.00000E+00
    0.11629E-08         0.44050E-09         0.00000E+00
    0.11507E-08         0.45215E-09         0.00000E+00
    0.11383E-08         0.46258E-09         0.00000E+00
    0.11256E-08         0.47178E-09         0.00000E+00
    0.11127E-08         0.47974E-09         0.00000E+00
    0.10995E-08         0.48642E-09         0.00000E+00
    0.10862E-08         0.49180E-09         0.00000E+00
    0.10727E-08         0.49585E-09         0.00000E+00
    0.10592E-08         0.49851E-09         0.00000E+00
    0.10456E-08         0.49974E-09         0.00000E+00
    0.10319E-08         0.49950E-09         0.00000E+00
    0.10183E-08         0.49771E-09         0.00000E+00
    0.10047E-08         0.49433E-09         0.00000E+00
    0.99130E-09         0.48927E-09         0.00000E+00
    0.97800E-09         0.48247E-09         0.00000E+00
    0.96491E-09         0.47384E-09         0.00000E+00
    0.95207E-09         0.46332E-09         0.00000E+00
    0.93954E-09         0.45082E-09         0.00000E+00
    0.92737E-09         0.43625E-09         0.00000E+00
    0.91562E-09         0.41954E-09         0.00000E+00
    0.90436E-09         0.40060E-09         0.00000E+00
    0.89364E-09         0.37935E-09         0.00000E+00
    0.88353E-09         0.35571E-09         0.00000E+00
    0.87410E-09         0.32961E-09         0.00000E+00
    0.86542E-09         0.30098E-09         0.00000E+00
    0.85755E-09         0.26975E-09         0.00000E+00
    0.85058E-09         0.23587E-09         0.00000E+00
    0.84458E-09         0.19928E-09         0.00000E+00
    0.83963E-09         0.15994E-09         0.00000E+00
    0.83579E-09         0.11783E-09         0.00000E+00
    0.83315E-09         0.72916E-10         0.00000E+00
    0.83180E-09         0.25191E-10         0.00000E+00
    0.13441E-08         0.20231E-10         0.00000E+00
    0.13431E-08         0.59594E-10         0.00000E+00
    0.13412E-08         0.97427E-10         0.00000E+00
    0.13383E-08         0.13373E-09         0.00000E+00
    0.13346E-08         0.16850E-09         0.00000E+00
    0.13301E-08         0.20174E-09         0.00000E+00
    0.13248E-08         0.23347E-09         0.00000E+00
    0.13187E-08         0.26369E-09         0.00000E+00
    0.13118E-08         0.29242E-09         0.00000E+00
    0.13043E-08         0.31968E-09         0.00000E+00
    0.12962E-08         0.34548E-09         0.00000E+00
    0.12874E-08         0.36984E-09         0.00000E+00
    0.12781E-08         0.39278E-09         0.00000E+00
    0.12681E-08         0.41431E-09         0.00000E+00
    0.12577E-08         0.43446E-09         0.00000E+00
    0.12468E-08         0.45322E-09         0.00000E+00
    0.12354E-08         0.47061E-09         0.00000E+00
    0.12237E-08         0.48664E-09         0.00000E+00
    0.12115E-08         0.50130E-09         0.00000E+00
    0.11990E-08         0.51459E-09         0.00000E+00
    0.11861E-08         0.52650E-09         0.00000E+00
    0.11730E-08         0.53702E-09         0.00000E+00
    0.11596E-08         0.54612E-09         0.00000E+00
    0.11460E-08         0.55378E-09         0.00000E+00
    0.11322E-08         0.55995E-09         0.00000E+00
    0.11183E-08         0.56461E-09         0.00000E+00
    0.11043E-08         0.56769E-09         0.00000E+00
    0.10902E-08         0.56915E-09         0.00000E+00
    0.10761E-08         0.56893E-09         0.00000E+00
    0.10619E-08         0.56695E-09         0.00000E+00
    0.10479E-08         0.56315E-09         0.00000E+00
    0.10339E-08         0.55744E-09         0.00000E+00
    0.10201E-08         0.54975E-09         0.00000E+00
    0.10065E-08         0.53998E-09         0.00000E+00
    0.99321E-09         0.52804E-09         0.00000E+00
    0.98020E-09         0.51384E-09         0.00000E+00
    0.96755E-09         0.49729E-09         0.00000E+00
    0.95534E-09         0.47829E-09         0.00000E+00
    0.94363E-09         0.45674E-09         0.00000E+00
    0.93248E-09         0.43256E-09         0.00000E+00
    0.92196E-09         0.40564E-09         0.00000E+00
    0.91214E-09         0.37592E-09         0.00000E+00
    0.90310E-09         0.34329E-09         0.00000E+00
    0.89491E-09         0.30770E-09         0.00000E+00
    0.88765E-09         0.26908E-09         0.00000E+00
    0.88140E-09         0.22736E-09         0.00000E+00
    0.87623E-09         0.18250E-09         0.00000E+00
    0.87223E-09         0.13446E-09         0.00000E+00
    0.86948E-09         0.83212E-10         0.00000E+00
    0.86806E-09         0.28750E-10         0.00000E+00
    0.14032E-08         0.22739E-10         0.00000E+00
    0.14022E-08         0.66982E-10         0.00000E+00
    0.14003E-08         0.10951E-09         0.00000E+00
    0.13974E-08         0.15031E-09         0.00000E+00
    0.13936E-08         0.18940E-09         0.00000E+00
    0.13889E-08         0.22678E-09         0.00000E+00
    0.13834E-08         0.26245E-09         0.00000E+00
    0.13772E-08         0.29644E-09         0.00000E+00
    0.13702E-08         0.32876E-09         0.00000E+00
    0.13625E-08         0.35942E-09         0.00000E+00
    0.13541E-08         0.38846E-09         0.00000E+00
    0.13451E-08         0.41588E-09         0.00000E+00
    0.13354E-08         0.44171E-09         0.00000E+00
    0.13252E-08         0.46596E-09         0.00000E+00
    0.13145E-08         0.48865E-09         0.00000E+00
    0.13032E-08         0.50980E-09         0.00000E+00
    0.12915E-08         0.52941E-09         0.00000E+00
    0.12794E-08         0.54750E-09         0.00000E+00
    0.12668E-08         0.56405E-09         0.00000E+00
    0.12539E-08         0.57906E-09         0.00000E+00
    0.12406E-08         0.59253E-09         0.00000E+00
    0.12271E-08         0.60444E-09         0.00000E+00
    0.12132E-08         0.61475E-09         0.00000E+00
    0.11992E-08         0.62344E-09         0.00000E+00
    0.11849E-08         0.63047E-09         0.00000E+00
    0.11705E-08         0.63579E-09         0.00000E+00
    0.11560E-08         0.63934E-09         0.00000E+00
    0.11414E-08         0.64107E-09         0.00000E+00
    0.11267E-08         0.64090E-09         0.00000E+00
    0.11121E-08         0.63875E-09         0.00000E+00
    0.10975E-08         0.63455E-09         0.00000E+00
    0.10830E-08         0.62820E-09         0.00000E+00
    0.10687E-08         0.61961E-09         0.00000E+00
    0.10546E-08         0.60867E-09         0.00000E+00
    0.10407E-08         0.59529E-09         0.00000E+00
    0.10272E-08         0.57936E-09         0.00000E+00
    0.10140E-08         0.56077E-09         0.00000E+00
    0.10013E-08         0.53941E-09         0.00000E+00
    0.98911E-09         0.51518E-09         0.00000E+00
    0.97749E-09         0.48796E-09         0.00000E+00
    0.96653E-09         0.45765E-09         0.00000E+00
    0.95630E-09         0.42416E-09         0.00000E+00
    0.94687E-09         0.38740E-09         0.00000E+00
    0.93832E-09         0.34728E-09         0.00000E+00
    0.93074E-09         0.30372E-09         0.00000E+00
    0.92421E-09         0.25665E-09         0.00000E+00
    0.91881E-09         0.20603E-09         0.00000E+00
    0.91463E-09         0.15182E-09         0.00000E+00
    0.91175E-09         0.93965E-10         0.00000E+00
    0.91027E-09         0.32470E-10         0.00000E+00
    0.14694E-08         0.25305E-10         0.00000E+00
    0.14684E-08         0.74542E-10         0.00000E+00
    0.14664E-08         0.12187E-09         0.00000E+00
    0.14634E-08         0.16730E-09         0.00000E+00
    0.14595E-08         0.21082E-09         0.00000E+00
    0.14548E-08         0.25244E-09         0.00000E+00
    0.14492E-08         0.29217E-09         0.00000E+00
    0.14428E-08         0.33003E-09         0.00000E+00
    0.14356E-08         0.36605E-09         0.00000E+00
    0.14277E-08         0.40023E-09         0.00000E+00
    0.14191E-08         0.43260E-09         0.00000E+00
    0.14098E-08         0.46318E-09         0.00000E+00
    0.13999E-08         0.49200E-09         0.00000E+00
    0.13895E-08         0.51907E-09         0.00000E+00
    0.13784E-08         0.54442E-09         0.00000E+00
    0.13669E-08         0.56805E-09         0.00000E+00
    0.13548E-08         0.58998E-09         0.00000E+00
    0.13423E-08         0.61021E-09         0.00000E+00
    0.13294E-08         0.62875E-09         0.00000E+00
    0.13161E-08         0.64558E-09         0.00000E+00
    0.13024E-08         0.66069E-09         0.00000E+00
    0.12884E-08         0.67406E-09         0.00000E+00
    0.12741E-08         0.68566E-09         0.00000E+00
    0.12596E-08         0.69546E-09         0.00000E+00
    0.12449E-08         0.70341E-09         0.00000E+00
    0.12299E-08         0.70946E-09         0.00000E+00
    0.12149E-08         0.71354E-09         0.00000E+00
    0.11998E-08         0.71558E-09         0.00000E+00
    0.11846E-08         0.71551E-09         0.00000E+00
    0.11694E-08         0.71323E-09         0.00000E+00
    0.11543E-08         0.70865E-09         0.00000E+00
    0.11392E-08         0.70167E-09         0.00000E+00
    0.11244E-08         0.69218E-09         0.00000E+00
    0.11097E-08         0.68008E-09         0.00000E+00
    0.10953E-08         0.66523E-09         0.00000E+00
    0.10812E-08         0.64753E-09         0.00000E+00
    0.10675E-08         0.62685E-09         0.00000E+00
    0.10543E-08         0.60307E-09         0.00000E+00
    0.10416E-08         0.57606E-09         0.00000E+00
    0.10294E-08         0.54570E-09         0.00000E+00
    0.10180E-08         0.51189E-09         0.00000E+00
    0.10073E-08         0.47450E-09         0.00000E+00
    0.99749E-09         0.43344E-09         0.00000E+00
    0.98856E-09         0.38860E-09         0.00000E+00
    0.98064E-09         0.33990E-09         0.00000E+00
    0.97382E-09         0.28727E-09         0.00000E+00
    0.96817E-09         0.23064E-09         0.00000E+00
    0.96380E-09         0.16997E-09         0.00000E+00
    0.96079E-09         0.10522E-09         0.00000E+00
    0.95924E-09         0.36363E-10         0.00000E+00
    0.15430E-08         0.27916E-10         0.00000E+00
    0.15420E-08         0.82242E-10         0.00000E+00
    0.15399E-08         0.13448E-09         0.00000E+00
    0.15369E-08         0.18461E-09         0.00000E+00
    0.15329E-08         0.23266E-09         0.00000E+00
    0.15281E-08         0.27862E-09         0.00000E+00
    0.15224E-08         0.32252E-09         0.00000E+00
    0.15159E-08         0.36436E-09         0.00000E+00
    0.15086E-08         0.40416E-09         0.00000E+00
    0.15005E-08         0.44196E-09         0.00000E+00
    0.14917E-08         0.47777E-09         0.00000E+00
    0.14822E-08         0.51163E-09         0.00000E+00
    0.14721E-08         0.54354E-09         0.00000E+00
    0.14614E-08         0.57354E-09         0.00000E+00
    0.14501E-08         0.60164E-09         0.00000E+00
    0.14383E-08         0.62786E-09         0.00000E+00
    0.14259E-08         0.65221E-09         0.00000E+00
    0.14131E-08         0.67470E-09         0.00000E+00
    0.13998E-08         0.69532E-09         0.00000E+00
    0.13861E-08         0.71406E-09         0.00000E+00
    0.13720E-08         0.73091E-09         0.00000E+00
    0.13576E-08         0.74584E-09         0.00000E+00
    0.13429E-08         0.75883E-09         0.00000E+00
    0.13279E-08         0.76983E-09         0.00000E+00
    0.13127E-08         0.77878E-09         0.00000E+00
    0.12973E-08         0.78563E-09         0.00000E+00
    0.12818E-08         0.79030E-09         0.00000E+00
    0.12661E-08         0.79272E-09         0.00000E+00
    0.12504E-08         0.79279E-09         0.00000E+00
    0.12347E-08         0.79042E-09         0.00000E+00
    0.12190E-08         0.78550E-09         0.00000E+00
    0.12034E-08         0.77792E-09         0.00000E+00
    0.11880E-08         0.76755E-09         0.00000E+00
    0.11728E-08         0.75427E-09         0.00000E+00
    0.11578E-08         0.73795E-09         0.00000E+00
    0.11431E-08         0.71845E-09         0.00000E+00
    0.11289E-08         0.69563E-09         0.00000E+00
    0.11151E-08         0.66936E-09         0.00000E+00
    0.11019E-08         0.63950E-09         0.00000E+00
    0.10893E-08         0.60591E-09         0.00000E+00
    0.10773E-08         0.56846E-09         0.00000E+00
    0.10662E-08         0.52703E-09         0.00000E+00
    0.10559E-08         0.48150E-09         0.00000E+00
    0.10466E-08         0.43176E-09         0.00000E+00
    0.10383E-08         0.37771E-09         0.00000E+00
    0.10312E-08         0.31927E-09         0.00000E+00
    0.10253E-08         0.25638E-09         0.00000E+00
    0.10207E-08         0.18896E-09         0.00000E+00
    0.10176E-08         0.11699E-09         0.00000E+00
    0.10160E-08         0.40439E-10         0.00000E+00
    0.16245E-08         0.30555E-10         0.00000E+00
    0.16234E-08         0.90030E-10         0.00000E+00
    0.16214E-08         0.14723E-09         0.00000E+00
    0.16183E-08         0.20215E-09         0.00000E+00
    0.16143E-08         0.25480E-09         0.00000E+00
    0.16095E-08         0.30519E-09         0.00000E+00
    0.16037E-08         0.35333E-09         0.00000E+00
    0.15971E-08         0.39923E-09         0.00000E+00
    0.15897E-08         0.44293E-09         0.00000E+00
    0.15815E-08         0.48444E-09         0.00000E+00
    0.15726E-08         0.52380E-09         0.00000E+00
    0.15629E-08         0.56102E-09         0.00000E+00
    0.15526E-08         0.59614E-09         0.00000E+00
    0.15417E-08         0.62917E-09         0.00000E+00
    0.15302E-08         0.66014E-09         0.00000E+00
    0.15181E-08         0.68906E-09         0.00000E+00
    0.15055E-08         0.71594E-09         0.00000E+00
    0.14924E-08         0.74079E-09         0.00000E+00
    0.14788E-08         0.76360E-09         0.00000E+00
    0.14647E-08         0.78436E-09         0.00000E+00
    0.14503E-08         0.80306E-09         0.00000E+00
    0.14355E-08         0.81966E-09         0.00000E+00
    0.14204E-08         0.83413E-09         0.00000E+00
    0.14050E-08         0.84642E-09         0.00000E+00
    0.13894E-08         0.85647E-09         0.00000E+00
    0.13735E-08         0.86420E-09         0.00000E+00
    0.13575E-08         0.86955E-09         0.00000E+00
    0.13414E-08         0.87242E-09         0.00000E+00
    0.13251E-08         0.87271E-09         0.00000E+00
    0.13089E-08         0.87031E-09         0.00000E+00
    0.12927E-08         0.86510E-09         0.00000E+00
    0.12766E-08         0.85694E-09         0.00000E+00
    0.12606E-08         0.84572E-09         0.00000E+00
    0.12448E-08         0.83127E-09         0.00000E+00
    0.12292E-08         0.81346E-09         0.00000E+00
    0.12140E-08         0.79214E-09         0.00000E+00
    0.11992E-08         0.76715E-09         0.00000E+00
    0.11849E-08         0.73833E-09         0.00000E+00
    0.11712E-08         0.70553E-09         0.00000E+00
    0.11580E-08         0.66861E-09         0.00000E+00
    0.11456E-08         0.62741E-09         0.00000E+00
    0.11340E-08         0.58179E-09         0.00000E+00
    0.11233E-08         0.53163E-09         0.00000E+00
    0.11136E-08         0.47680E-09         0.00000E+00
    0.11050E-08         0.41719E-09         0.00000E+00
    0.10975E-08         0.35271E-09         0.00000E+00
    0.10913E-08         0.28327E-09         0.00000E+00
    0.10866E-08         0.20882E-09         0.00000E+00
    0.10833E-08         0.12931E-09         0.00000E+00
    0.10816E-08         0.44705E-10         0.00000E+00
    0.17146E-08         0.33200E-10         0.00000E+00
    0.17136E-08         0.97841E-10         0.00000E+00
    0.17115E-08         0.16004E-09         0.00000E+00
    0.17085E-08         0.21978E-09         0.00000E+00
    0.17045E-08         0.27708E-09         0.00000E+00
    0.16996E-08         0.33195E-09         0.00000E+00
    0.16938E-08         0.38439E-09         0.00000E+00
    0.16871E-08         0.43444E-09         0.00000E+00
    0.16797E-08         0.48210E-09         0.00000E+00
    0.16714E-08         0.52742E-09         0.00000E+00
    0.16624E-08         0.57041E-09         0.00000E+00
    0.16527E-08         0.61110E-09         0.00000E+00
    0.16423E-08         0.64952E-09         0.00000E+00
    0.16313E-08         0.68569E-09         0.00000E+00
    0.16196E-08         0.71963E-09         0.00000E+00
    0.16073E-08         0.75136E-09         0.00000E+00
    0.15945E-08         0.78089E-09         0.00000E+00
    0.15811E-08         0.80822E-09         0.00000E+00
    0.15673E-08         0.83334E-09         0.00000E+00
    0.15530E-08         0.85624E-09         0.00000E+00
    0.15383E-08         0.87691E-09         0.00000E+00
    0.15231E-08         0.89529E-09         0.00000E+00
    0.15077E-08         0.91136E-09         0.00000E+00
    0.14919E-08         0.92505E-09         0.00000E+00
    0.14759E-08         0.93630E-09         0.00000E+00
    0.14596E-08         0.94503E-09         0.00000E+00
    0.14431E-08         0.95115E-09         0.00000E+00
    0.14265E-08         0.95455E-09         0.00000E+00
    0.14098E-08         0.95513E-09         0.00000E+00
    0.13931E-08         0.95277E-09         0.00000E+00
    0.13764E-08         0.94732E-09         0.00000E+00
    0.13597E-08         0.93864E-09         0.00000E+00
    0.13432E-08         0.92659E-09         0.00000E+00
    0.13269E-08         0.91100E-09         0.00000E+00
    0.13108E-08         0.89171E-09         0.00000E+00
    0.12951E-08         0.86855E-09         0.00000E+00
    0.12798E-08         0.84135E-09         0.00000E+00
    0.12649E-08         0.80994E-09         0.00000E+00
    0.12506E-08         0.77414E-09         0.00000E+00
    0.12370E-08         0.73379E-09         0.00000E+00
    0.12241E-08         0.68873E-09         0.00000E+00
    0.12121E-08         0.63879E-09         0.00000E+00
    0.12009E-08         0.58383E-09         0.00000E+00
    0.11908E-08         0.52372E-09         0.00000E+00
    0.11818E-08         0.45834E-09         0.00000E+00
    0.11741E-08         0.38757E-09         0.00000E+00
    0.11677E-08         0.31133E-09         0.00000E+00
    0.11627E-08         0.22954E-09         0.00000E+00
    0.11593E-08         0.14216E-09         0.00000E+00
    0.11575E-08         0.49161E-10         0.00000E+00
    0.18144E-08         0.35823E-10         0.00000E+00
    0.18133E-08         0.10560E-09         0.00000E+00
    0.18113E-08         0.17277E-09         0.00000E+00
    0.18083E-08         0.23734E-09         0.00000E+00
    0.18043E-08         0.29930E-09         0.00000E+00
    0.17994E-08         0.35867E-09         0.00000E+00
    0.17937E-08         0.41546E-09         0.00000E+00
    0.17871E-08         0.46969E-09         0.00000E+00
    0.17796E-08         0.52139E-09         0.00000E+00
    0.17714E-08         0.57058E-09         0.00000E+00
    0.17624E-08         0.61728E-09         0.00000E+00
    0.17526E-08         0.66153E-09         0.00000E+00
    0.17422E-08         0.70335E-09         0.00000E+00
    0.17310E-08         0.74277E-09         0.00000E+00
    0.17193E-08         0.77980E-09         0.00000E+00
    0.17069E-08         0.81446E-09         0.00000E+00
    0.16939E-08         0.84675E-09         0.00000E+00
    0.16804E-08         0.87668E-09         0.00000E+00
    0.16664E-08         0.90424E-09         0.00000E+00
    0.16519E-08         0.92941E-09         0.00000E+00
    0.16369E-08         0.95216E-09         0.00000E+00
    0.16215E-08         0.97245E-09         0.00000E+00
    0.16058E-08         0.99024E-09         0.00000E+00
    0.15897E-08         0.10055E-08         0.00000E+00
    0.15733E-08         0.10180E-08         0.00000E+00
    0.15567E-08         0.10279E-08         0.00000E+00
    0.15398E-08         0.10348E-08         0.00000E+00
    0.15228E-08         0.10389E-08         0.00000E+00
    0.15057E-08         0.10399E-08         0.00000E+00
    0.14885E-08         0.10376E-08         0.00000E+00
    0.14714E-08         0.10320E-08         0.00000E+00
    0.14542E-08         0.10228E-08         0.00000E+00
    0.14372E-08         0.10100E-08         0.00000E+00
    0.14204E-08         0.99330E-09         0.00000E+00
    0.14039E-08         0.97254E-09         0.00000E+00
    0.13876E-08         0.94754E-09         0.00000E+00
    0.13718E-08         0.91811E-09         0.00000E+00
    0.13565E-08         0.88406E-09         0.00000E+00
    0.13417E-08         0.84520E-09         0.00000E+00
    0.13276E-08         0.80135E-09         0.00000E+00
    0.13143E-08         0.75231E-09         0.00000E+00
    0.13018E-08         0.69792E-09         0.00000E+00
    0.12903E-08         0.63802E-09         0.00000E+00
    0.12798E-08         0.57245E-09         0.00000E+00
    0.12705E-08         0.50109E-09         0.00000E+00
    0.12624E-08         0.42380E-09         0.00000E+00
    0.12558E-08         0.34050E-09         0.00000E+00
    0.12506E-08         0.25110E-09         0.00000E+00
    0.12470E-08         0.15554E-09         0.00000E+00
    0.12452E-08         0.53799E-10         0.00000E+00
    0.19250E-08         0.38392E-10         0.00000E+00
    0.19240E-08         0.11321E-09         0.00000E+00
    0.19220E-08         0.18529E-09         0.00000E+00
    0.19190E-08         0.25464E-09         0.00000E+00
    0.19152E-08         0.32124E-09         0.00000E+00
    0.19104E-08         0.38511E-09         0.00000E+00
    0.19047E-08         0.44626E-09         0.00000E+00
    0.18981E-08         0.50471E-09         0.00000E+00
    0.18908E-08         0.56048E-09         0.00000E+00
    0.18826E-08         0.61359E-09         0.00000E+00
    0.18736E-08         0.66409E-09         0.00000E+00
    0.18639E-08         0.71198E-09         0.00000E+00
    0.18535E-08         0.75729E-09         0.00000E+00
    0.18424E-08         0.80005E-09         0.00000E+00
    0.18306E-08         0.84028E-09         0.00000E+00
    0.18182E-08         0.87798E-09         0.00000E+00
    0.18052E-08         0.91317E-09         0.00000E+00
    0.17916E-08         0.94583E-09         0.00000E+00
    0.17774E-08         0.97595E-09         0.00000E+00
    0.17628E-08         0.10035E-08         0.00000E+00
    0.17476E-08         0.10285E-08         0.00000E+00
    0.17321E-08         0.10508E-08         0.00000E+00
    0.17161E-08         0.10705E-08         0.00000E+00
    0.16998E-08         0.10873E-08         0.00000E+00
    0.16831E-08         0.11013E-08         0.00000E+00
    0.16662E-08         0.11124E-08         0.00000E+00
    0.16490E-08         0.11204E-08         0.00000E+00
    0.16316E-08         0.11252E-08         0.00000E+00
    0.16142E-08         0.11266E-08         0.00000E+00
    0.15966E-08         0.11245E-08         0.00000E+00
    0.15790E-08         0.11188E-08         0.00000E+00
    0.15615E-08         0.11093E-08         0.00000E+00
    0.15440E-08         0.10957E-08         0.00000E+00
    0.15268E-08         0.10779E-08         0.00000E+00
    0.15098E-08         0.10557E-08         0.00000E+00
    0.14931E-08         0.10289E-08         0.00000E+00
    0.14768E-08         0.99722E-09         0.00000E+00
    0.14611E-08         0.96050E-09         0.00000E+00
    0.14459E-08         0.91853E-09         0.00000E+00
    0.14314E-08         0.87109E-09         0.00000E+00
    0.14176E-08         0.81798E-09         0.00000E+00
    0.14047E-08         0.75903E-09         0.00000E+00
    0.13929E-08         0.69404E-09         0.00000E+00
    0.13820E-08         0.62285E-09         0.00000E+00
    0.13724E-08         0.54532E-09         0.00000E+00
    0.13641E-08         0.46131E-09         0.00000E+00
    0.13573E-08         0.37070E-09         0.00000E+00
    0.13519E-08         0.27342E-09         0.00000E+00
    0.13482E-08         0.16940E-09         0.00000E+00
    0.13463E-08         0.58605E-10         0.00000E+00
    0.20482E-08         0.40878E-10         0.00000E+00
    0.20472E-08         0.12060E-09         0.00000E+00
    0.20453E-08         0.19748E-09         0.00000E+00
    0.20424E-08         0.27151E-09         0.00000E+00
    0.20387E-08         0.34269E-09         0.00000E+00
    0.20340E-08         0.41102E-09         0.00000E+00
    0.20284E-08         0.47652E-09         0.00000E+00
    0.20220E-08         0.53919E-09         0.00000E+00
    0.20148E-08         0.59907E-09         0.00000E+00
    0.20067E-08         0.65616E-09         0.00000E+00
    0.19979E-08         0.71050E-09         0.00000E+00
    0.19883E-08         0.76211E-09         0.00000E+00
    0.19779E-08         0.81101E-09         0.00000E+00
    0.19669E-08         0.85722E-09         0.00000E+00
    0.19551E-08         0.90075E-09         0.00000E+00
    0.19427E-08         0.94162E-09         0.00000E+00
    0.19297E-08         0.97982E-09         0.00000E+00
    0.19161E-08         0.10153E-08         0.00000E+00
    0.19019E-08         0.10482E-08         0.00000E+00
    0.18871E-08         0.10783E-08         0.00000E+00
    0.18719E-08         0.11056E-08         0.00000E+00
    0.18562E-08         0.11301E-08         0.00000E+00
    0.18400E-08         0.11517E-08         0.00000E+00
    0.18235E-08         0.11704E-08         0.00000E+00
    0.18066E-08         0.11860E-08         0.00000E+00
    0.17894E-08         0.11984E-08         0.00000E+00
    0.17720E-08         0.12074E-08         0.00000E+00
    0.17544E-08         0.12131E-08         0.00000E+00
    0.17366E-08         0.12151E-08         0.00000E+00
    0.17187E-08         0.12133E-08         0.00000E+00
    0.17008E-08         0.12076E-08         0.00000E+00
    0.16829E-08         0.11977E-08         0.00000E+00
    0.16651E-08         0.11834E-08         0.00000E+00
    0.16474E-08         0.11646E-08         0.00000E+00
    0.16301E-08         0.11410E-08         0.00000E+00
    0.16130E-08         0.11123E-08         0.00000E+00
    0.15963E-08         0.10784E-08         0.00000E+00
    0.15802E-08         0.10390E-08         0.00000E+00
    0.15646E-08         0.99383E-09         0.00000E+00
    0.15497E-08         0.94274E-09         0.00000E+00
    0.15357E-08         0.88549E-09         0.00000E+00
    0.15225E-08         0.82186E-09         0.00000E+00
    0.15103E-08         0.75166E-09         0.00000E+00
    0.14992E-08         0.67471E-09         0.00000E+00
    0.14893E-08         0.59084E-09         0.00000E+00
    0.14808E-08         0.49991E-09         0.00000E+00
    0.14737E-08         0.40180E-09         0.00000E+00
    0.14683E-08         0.29641E-09         0.00000E+00
    0.14645E-08         0.18367E-09         0.00000E+00
    0.14625E-08         0.63555E-10         0.00000E+00
    0.21861E-08         0.43257E-10         0.00000E+00
    0.21852E-08         0.12769E-09         0.00000E+00
    0.21833E-08         0.20922E-09         0.00000E+00
    0.21806E-08         0.28782E-09         0.00000E+00
    0.21769E-08         0.36350E-09         0.00000E+00
    0.21724E-08         0.43624E-09         0.00000E+00
    0.21670E-08         0.50606E-09         0.00000E+00
    0.21608E-08         0.57296E-09         0.00000E+00
    0.21537E-08         0.63696E-09         0.00000E+00
    0.21458E-08         0.69807E-09         0.00000E+00
    0.21371E-08         0.75632E-09         0.00000E+00
    0.21276E-08         0.81173E-09         0.00000E+00
    0.21173E-08         0.86430E-09         0.00000E+00
    0.21064E-08         0.91406E-09         0.00000E+00
    0.20947E-08         0.96102E-09         0.00000E+00
    0.20823E-08         0.10052E-08         0.00000E+00
    0.20693E-08         0.10465E-08         0.00000E+00
    0.20557E-08         0.10850E-08         0.00000E+00
    0.20414E-08         0.11207E-08         0.00000E+00
    0.20266E-08         0.11535E-08         0.00000E+00
    0.20113E-08         0.11833E-08         0.00000E+00
    0.19955E-08         0.12101E-08         0.00000E+00
    0.19792E-08         0.12338E-08         0.00000E+00
    0.19625E-08         0.12544E-08         0.00000E+00
    0.19454E-08         0.12717E-08         0.00000E+00
    0.19280E-08         0.12855E-08         0.00000E+00
    0.19103E-08         0.12958E-08         0.00000E+00
    0.18924E-08         0.13024E-08         0.00000E+00
    0.18744E-08         0.13051E-08         0.00000E+00
    0.18562E-08         0.13037E-08         0.00000E+00
    0.18380E-08         0.12980E-08         0.00000E+00
    0.18198E-08         0.12878E-08         0.00000E+00
    0.18017E-08         0.12729E-08         0.00000E+00
    0.17837E-08         0.12531E-08         0.00000E+00
    0.17660E-08         0.12280E-08         0.00000E+00
    0.17486E-08         0.11975E-08         0.00000E+00
    0.17317E-08         0.11613E-08         0.00000E+00
    0.17152E-08         0.11191E-08         0.00000E+00
    0.16993E-08         0.10708E-08         0.00000E+00
    0.16842E-08         0.10160E-08         0.00000E+00
    0.16698E-08         0.95450E-09         0.00000E+00
    0.16563E-08         0.88610E-09         0.00000E+00
    0.16439E-08         0.81058E-09         0.00000E+00
    0.16326E-08         0.72773E-09         0.00000E+00
    0.16226E-08         0.63738E-09         0.00000E+00
    0.16139E-08         0.53937E-09         0.00000E+00
    0.16067E-08         0.43358E-09         0.00000E+00
    0.16011E-08         0.31990E-09         0.00000E+00
    0.15973E-08         0.19826E-09         0.00000E+00
    0.15953E-08         0.68613E-10         0.00000E+00
    0.23416E-08         0.45519E-10         0.00000E+00
    0.23407E-08         0.13446E-09         0.00000E+00
    0.23389E-08         0.22048E-09         0.00000E+00
    0.23363E-08         0.30355E-09         0.00000E+00
    0.23327E-08         0.38364E-09         0.00000E+00
    0.23283E-08         0.46074E-09         0.00000E+00
    0.23231E-08         0.53486E-09         0.00000E+00
    0.23170E-08         0.60599E-09         0.00000E+00
    0.23100E-08         0.67415E-09         0.00000E+00
    0.23022E-08         0.73934E-09         0.00000E+00
    0.22936E-08         0.80157E-09         0.00000E+00
    0.22842E-08         0.86086E-09         0.00000E+00
    0.22741E-08         0.91722E-09         0.00000E+00
    0.22631E-08         0.97065E-09         0.00000E+00
    0.22515E-08         0.10211E-08         0.00000E+00
    0.22391E-08         0.10687E-08         0.00000E+00
    0.22260E-08         0.11133E-08         0.00000E+00
    0.22123E-08         0.11550E-08         0.00000E+00
    0.21980E-08         0.11936E-08         0.00000E+00
    0.21831E-08         0.12292E-08         0.00000E+00
    0.21676E-08         0.12616E-08         0.00000E+00
    0.21516E-08         0.12909E-08         0.00000E+00
    0.21351E-08         0.13169E-08         0.00000E+00
    0.21182E-08         0.13394E-08         0.00000E+00
    0.21009E-08         0.13585E-08         0.00000E+00
    0.20833E-08         0.13739E-08         0.00000E+00
    0.20654E-08         0.13855E-08         0.00000E+00
    0.20472E-08         0.13931E-08         0.00000E+00
    0.20288E-08         0.13965E-08         0.00000E+00
    0.20104E-08         0.13955E-08         0.00000E+00
    0.19919E-08         0.13899E-08         0.00000E+00
    0.19734E-08         0.13794E-08         0.00000E+00
    0.19550E-08         0.13639E-08         0.00000E+00
    0.19367E-08         0.13430E-08         0.00000E+00
    0.19187E-08         0.13165E-08         0.00000E+00
    0.19011E-08         0.12842E-08         0.00000E+00
    0.18838E-08         0.12456E-08         0.00000E+00
    0.18671E-08         0.12007E-08         0.00000E+00
    0.18510E-08         0.11491E-08         0.00000E+00
    0.18356E-08         0.10905E-08         0.00000E+00
    0.18211E-08         0.10247E-08         0.00000E+00
    0.18074E-08         0.95140E-09         0.00000E+00
    0.17948E-08         0.87044E-09         0.00000E+00
    0.17834E-08         0.78158E-09         0.00000E+00
    0.17732E-08         0.68463E-09         0.00000E+00
    0.17644E-08         0.57943E-09         0.00000E+00
    0.17572E-08         0.46583E-09         0.00000E+00
    0.17515E-08         0.34373E-09         0.00000E+00
    0.17477E-08         0.21304E-09         0.00000E+00
    0.17457E-08         0.73734E-10         0.00000E+00
    0.25180E-08         0.47681E-10         0.00000E+00
    0.25172E-08         0.14098E-09         0.00000E+00
    0.25155E-08         0.23137E-09         0.00000E+00
    0.25129E-08         0.31881E-09         0.00000E+00
    0.25094E-08         0.40328E-09         0.00000E+00
    0.25051E-08         0.48474E-09         0.00000E+00
    0.24999E-08         0.56319E-09         0.00000E+00
    0.24938E-08         0.63861E-09         0.00000E+00
    0.24869E-08         0.71100E-09         0.00000E+00
    0.24791E-08         0.78036E-09         0.00000E+00
    0.24705E-08         0.84668E-09         0.00000E+00
    0.24610E-08         0.90998E-09         0.00000E+00
    0.24508E-08         0.97025E-09         0.00000E+00
    0.24397E-08         0.10275E-08         0.00000E+00
    0.24279E-08         0.10817E-08         0.00000E+00
    0.24154E-08         0.11328E-08         0.00000E+00
    0.24021E-08         0.11808E-08         0.00000E+00
    0.23882E-08         0.12257E-08         0.00000E+00
    0.23736E-08         0.12674E-08         0.00000E+00
    0.23584E-08         0.13060E-08         0.00000E+00
    0.23426E-08         0.13411E-08         0.00000E+00
    0.23263E-08         0.13729E-08         0.00000E+00
    0.23094E-08         0.14012E-08         0.00000E+00
    0.22922E-08         0.14259E-08         0.00000E+00
    0.22745E-08         0.14468E-08         0.00000E+00
    0.22565E-08         0.14638E-08         0.00000E+00
    0.22382E-08         0.14767E-08         0.00000E+00
    0.22196E-08         0.14854E-08         0.00000E+00
    0.22009E-08         0.14895E-08         0.00000E+00
    0.21821E-08         0.14889E-08         0.00000E+00
    0.21632E-08         0.14834E-08         0.00000E+00
    0.21444E-08         0.14726E-08         0.00000E+00
    0.21256E-08         0.14564E-08         0.00000E+00
    0.21071E-08         0.14345E-08         0.00000E+00
    0.20888E-08         0.14065E-08         0.00000E+00
    0.20709E-08         0.13721E-08         0.00000E+00
    0.20534E-08         0.13312E-08         0.00000E+00
    0.20364E-08         0.12834E-08         0.00000E+00
    0.20201E-08         0.12284E-08         0.00000E+00
    0.20046E-08         0.11659E-08         0.00000E+00
    0.19899E-08         0.10956E-08         0.00000E+00
    0.19761E-08         0.10174E-08         0.00000E+00
    0.19634E-08         0.93089E-09         0.00000E+00
    0.19519E-08         0.83591E-09         0.00000E+00
    0.19417E-08         0.73226E-09         0.00000E+00
    0.19329E-08         0.61976E-09         0.00000E+00
    0.19256E-08         0.49827E-09         0.00000E+00
    0.19199E-08         0.36767E-09         0.00000E+00
    0.19161E-08         0.22788E-09         0.00000E+00
    0.19141E-08         0.78868E-10         0.00000E+00
    0.27198E-08         0.49802E-10         0.00000E+00
    0.27189E-08         0.14740E-09         0.00000E+00
    0.27172E-08         0.24216E-09         0.00000E+00
    0.27146E-08         0.33402E-09         0.00000E+00
    0.27110E-08         0.42294E-09         0.00000E+00
    0.27066E-08         0.50886E-09         0.00000E+00
    0.27013E-08         0.59177E-09         0.00000E+00
    0.26950E-08         0.67162E-09         0.00000E+00
    0.26879E-08         0.74841E-09         0.00000E+00
    0.26798E-08         0.82211E-09         0.00000E+00
    0.26709E-08         0.89272E-09         0.00000E+00
    0.26611E-08         0.96021E-09         0.00000E+00
    0.26504E-08         0.10246E-08         0.00000E+00
    0.26390E-08         0.10858E-08         0.00000E+00
    0.26267E-08         0.11438E-08         0.00000E+00
    0.26136E-08         0.11987E-08         0.00000E+00
    0.25998E-08         0.12503E-08         0.00000E+00
    0.25853E-08         0.12986E-08         0.00000E+00
    0.25701E-08         0.13435E-08         0.00000E+00
    0.25542E-08         0.13851E-08         0.00000E+00
    0.25378E-08         0.14231E-08         0.00000E+00
    0.25208E-08         0.14575E-08         0.00000E+00
    0.25033E-08         0.14882E-08         0.00000E+00
    0.24854E-08         0.15150E-08         0.00000E+00
    0.24670E-08         0.15378E-08         0.00000E+00
    0.24484E-08         0.15564E-08         0.00000E+00
    0.24294E-08         0.15706E-08         0.00000E+00
    0.24102E-08         0.15802E-08         0.00000E+00
    0.23909E-08         0.15850E-08         0.00000E+00
    0.23715E-08         0.15847E-08         0.00000E+00
    0.23521E-08         0.15791E-08         0.00000E+00
    0.23327E-08         0.15679E-08         0.00000E+00
    0.23135E-08         0.15509E-08         0.00000E+00
    0.22945E-08         0.15277E-08         0.00000E+00
    0.22758E-08         0.14980E-08         0.00000E+00
    0.22575E-08         0.14616E-08         0.00000E+00
    0.22397E-08         0.14181E-08         0.00000E+00
    0.22225E-08         0.13672E-08         0.00000E+00
    0.22060E-08         0.13086E-08         0.00000E+00
    0.21903E-08         0.12421E-08         0.00000E+00
    0.21755E-08         0.11672E-08         0.00000E+00
    0.21616E-08         0.10838E-08         0.00000E+00
    0.21489E-08         0.99164E-09         0.00000E+00
    0.21373E-08         0.89041E-09         0.00000E+00
    0.21271E-08         0.77995E-09         0.00000E+00
    0.21183E-08         0.66007E-09         0.00000E+00
    0.21111E-08         0.53062E-09         0.00000E+00
    0.21055E-08         0.39150E-09         0.00000E+00
    0.21016E-08         0.24263E-09         0.00000E+00
    0.20997E-08         0.83957E-10         0.00000E+00
    0.29519E-08         0.52005E-10         0.00000E+00
    0.29510E-08         0.15410E-09         0.00000E+00
    0.29491E-08         0.25346E-09         0.00000E+00
    0.29463E-08         0.35000E-09         0.00000E+00
    0.29425E-08         0.44365E-09         0.00000E+00
    0.29376E-08         0.53434E-09         0.00000E+00
    0.29318E-08         0.62201E-09         0.00000E+00
    0.29250E-08         0.70662E-09         0.00000E+00
    0.29172E-08         0.78812E-09         0.00000E+00
    0.29085E-08         0.86649E-09         0.00000E+00
    0.28987E-08         0.94167E-09         0.00000E+00
    0.28881E-08         0.10137E-08         0.00000E+00
    0.28765E-08         0.10824E-08         0.00000E+00
    0.28640E-08         0.11479E-08         0.00000E+00
    0.28506E-08         0.12100E-08         0.00000E+00
    0.28364E-08         0.12688E-08         0.00000E+00
    0.28214E-08         0.13241E-08         0.00000E+00
    0.28057E-08         0.13760E-08         0.00000E+00
    0.27893E-08         0.14243E-08         0.00000E+00
    0.27722E-08         0.14690E-08         0.00000E+00
    0.27545E-08         0.15099E-08         0.00000E+00
    0.27362E-08         0.15469E-08         0.00000E+00
    0.27175E-08         0.15800E-08         0.00000E+00
    0.26983E-08         0.16088E-08         0.00000E+00
    0.26788E-08         0.16334E-08         0.00000E+00
    0.26589E-08         0.16535E-08         0.00000E+00
    0.26388E-08         0.16688E-08         0.00000E+00
    0.26185E-08         0.16792E-08         0.00000E+00
    0.25981E-08         0.16845E-08         0.00000E+00
    0.25777E-08         0.16843E-08         0.00000E+00
    0.25574E-08         0.16784E-08         0.00000E+00
    0.25371E-08         0.16665E-08         0.00000E+00
    0.25171E-08         0.16484E-08         0.00000E+00
    0.24974E-08         0.16237E-08         0.00000E+00
    0.24781E-08         0.15920E-08         0.00000E+00
    0.24593E-08         0.15532E-08         0.00000E+00
    0.24410E-08         0.15068E-08         0.00000E+00
    0.24234E-08         0.14525E-08         0.00000E+00
    0.24066E-08         0.13901E-08         0.00000E+00
    0.23906E-08         0.13192E-08         0.00000E+00
    0.23756E-08         0.12394E-08         0.00000E+00
    0.23616E-08         0.11507E-08         0.00000E+00
    0.23488E-08         0.10526E-08         0.00000E+00
    0.23372E-08         0.94492E-09         0.00000E+00
    0.23270E-08         0.82750E-09         0.00000E+00
    0.23183E-08         0.70014E-09         0.00000E+00
    0.23111E-08         0.56269E-09         0.00000E+00
    0.23056E-08         0.41505E-09         0.00000E+00
    0.23018E-08         0.25714E-09         0.00000E+00
    0.22999E-08         0.88950E-10         0.00000E+00
    0.32204E-08         0.54503E-10         0.00000E+00
    0.32193E-08         0.16170E-09         0.00000E+00
    0.32171E-08         0.26629E-09         0.00000E+00
    0.32138E-08         0.36814E-09         0.00000E+00
    0.32093E-08         0.46715E-09         0.00000E+00
    0.32036E-08         0.56323E-09         0.00000E+00
    0.31968E-08         0.65629E-09         0.00000E+00
    0.31888E-08         0.74625E-09         0.00000E+00
    0.31797E-08         0.83304E-09         0.00000E+00
    0.31694E-08         0.91661E-09         0.00000E+00
    0.31581E-08         0.99689E-09         0.00000E+00
    0.31457E-08         0.10738E-08         0.00000E+00
    0.31323E-08         0.11474E-08         0.00000E+00
    0.31178E-08         0.12175E-08         0.00000E+00
    0.31025E-08         0.12840E-08         0.00000E+00
    0.30862E-08         0.13470E-08         0.00000E+00
    0.30691E-08         0.14064E-08         0.00000E+00
    0.30511E-08         0.14620E-08         0.00000E+00
    0.30325E-08         0.15137E-08         0.00000E+00
    0.30132E-08         0.15616E-08         0.00000E+00
    0.29932E-08         0.16054E-08         0.00000E+00
    0.29728E-08         0.16450E-08         0.00000E+00
    0.29518E-08         0.16803E-08         0.00000E+00
    0.29305E-08         0.17111E-08         0.00000E+00
    0.29088E-08         0.17373E-08         0.00000E+00
    0.28869E-08         0.17585E-08         0.00000E+00
    0.28648E-08         0.17747E-08         0.00000E+00
    0.28426E-08         0.17856E-08         0.00000E+00
    0.28205E-08         0.17909E-08         0.00000E+00
    0.27984E-08         0.17904E-08         0.00000E+00
    0.27764E-08         0.17838E-08         0.00000E+00
    0.27547E-08         0.17707E-08         0.00000E+00
    0.27334E-08         0.17510E-08         0.00000E+00
    0.27124E-08         0.17242E-08         0.00000E+00
    0.26920E-08         0.16901E-08         0.00000E+00
    0.26722E-08         0.16483E-08         0.00000E+00
    0.26531E-08         0.15985E-08         0.00000E+00
    0.26348E-08         0.15404E-08         0.00000E+00
    0.26174E-08         0.14736E-08         0.00000E+00
    0.26009E-08         0.13978E-08         0.00000E+00
    0.25855E-08         0.13128E-08         0.00000E+00
    0.25713E-08         0.12183E-08         0.00000E+00
    0.25583E-08         0.11139E-08         0.00000E+00
    0.25466E-08         0.99955E-09         0.00000E+00
    0.25364E-08         0.87495E-09         0.00000E+00
    0.25277E-08         0.73993E-09         0.00000E+00
    0.25206E-08         0.59439E-09         0.00000E+00
    0.25151E-08         0.43821E-09         0.00000E+00
    0.25114E-08         0.27136E-09         0.00000E+00
    0.25096E-08         0.93807E-10         0.00000E+00
    0.35321E-08         0.57634E-10         0.00000E+00
    0.35306E-08         0.17119E-09         0.00000E+00
    0.35278E-08         0.28224E-09         0.00000E+00
    0.35234E-08         0.39062E-09         0.00000E+00
    0.35176E-08         0.49618E-09         0.00000E+00
    0.35104E-08         0.59878E-09         0.00000E+00
    0.35017E-08         0.69830E-09         0.00000E+00
    0.34916E-08         0.79463E-09         0.00000E+00
    0.34801E-08         0.88768E-09         0.00000E+00
    0.34673E-08         0.97734E-09         0.00000E+00
    0.34532E-08         0.10635E-08         0.00000E+00
    0.34378E-08         0.11462E-08         0.00000E+00
    0.34212E-08         0.12252E-08         0.00000E+00
    0.34035E-08         0.13004E-08         0.00000E+00
    0.33847E-08         0.13719E-08         0.00000E+00
    0.33649E-08         0.14395E-08         0.00000E+00
    0.33441E-08         0.15031E-08         0.00000E+00
    0.33226E-08         0.15627E-08         0.00000E+00
    0.33002E-08         0.16180E-08         0.00000E+00
    0.32772E-08         0.16691E-08         0.00000E+00
    0.32535E-08         0.17157E-08         0.00000E+00
    0.32294E-08         0.17578E-08         0.00000E+00
    0.32048E-08         0.17951E-08         0.00000E+00
    0.31799E-08         0.18276E-08         0.00000E+00
    0.31548E-08         0.18549E-08         0.00000E+00
    0.31295E-08         0.18769E-08         0.00000E+00
    0.31041E-08         0.18934E-08         0.00000E+00
    0.30788E-08         0.19042E-08         0.00000E+00
    0.30537E-08         0.19090E-08         0.00000E+00
    0.30288E-08         0.19074E-08         0.00000E+00
    0.30042E-08         0.18993E-08         0.00000E+00
    0.29801E-08         0.18844E-08         0.00000E+00
    0.29565E-08         0.18622E-08         0.00000E+00
    0.29335E-08         0.18326E-08         0.00000E+00
    0.29112E-08         0.17952E-08         0.00000E+00
    0.28897E-08         0.17497E-08         0.00000E+00
    0.28691E-08         0.16956E-08         0.00000E+00
    0.28495E-08         0.16328E-08         0.00000E+00
    0.28310E-08         0.15609E-08         0.00000E+00
    0.28136E-08         0.14796E-08         0.00000E+00
    0.27975E-08         0.13886E-08         0.00000E+00
    0.27827E-08         0.12877E-08         0.00000E+00
    0.27692E-08         0.11765E-08         0.00000E+00
    0.27573E-08         0.10549E-08         0.00000E+00
    0.27469E-08         0.92271E-09         0.00000E+00
    0.27381E-08         0.77974E-09         0.00000E+00
    0.27309E-08         0.62588E-09         0.00000E+00
    0.27255E-08         0.46107E-09         0.00000E+00
    0.27219E-08         0.28528E-09         0.00000E+00
    0.27200E-08         0.98525E-10         0.00000E+00
    0.38941E-08         0.61901E-10         0.00000E+00
    0.38921E-08         0.18405E-09         0.00000E+00
    0.38881E-08         0.30371E-09         0.00000E+00
    0.38821E-08         0.42068E-09         0.00000E+00
    0.38742E-08         0.53474E-09         0.00000E+00
    0.38643E-08         0.64573E-09         0.00000E+00
    0.38526E-08         0.75347E-09         0.00000E+00
    0.38390E-08         0.85781E-09         0.00000E+00
    0.38237E-08         0.95861E-09         0.00000E+00
    0.38066E-08         0.10557E-08         0.00000E+00
    0.37880E-08         0.11491E-08         0.00000E+00
    0.37678E-08         0.12385E-08         0.00000E+00
    0.37462E-08         0.13239E-08         0.00000E+00
    0.37232E-08         0.14052E-08         0.00000E+00
    0.36989E-08         0.14823E-08         0.00000E+00
    0.36735E-08         0.15551E-08         0.00000E+00
    0.36471E-08         0.16234E-08         0.00000E+00
    0.36197E-08         0.16871E-08         0.00000E+00
    0.35915E-08         0.17462E-08         0.00000E+00
    0.35627E-08         0.18005E-08         0.00000E+00
    0.35332E-08         0.18498E-08         0.00000E+00
    0.35033E-08         0.18941E-08         0.00000E+00
    0.34730E-08         0.19330E-08         0.00000E+00
    0.34425E-08         0.19666E-08         0.00000E+00
    0.34119E-08         0.19945E-08         0.00000E+00
    0.33813E-08         0.20166E-08         0.00000E+00
    0.33509E-08         0.20327E-08         0.00000E+00
    0.33207E-08         0.20424E-08         0.00000E+00
    0.32909E-08         0.20456E-08         0.00000E+00
    0.32615E-08         0.20421E-08         0.00000E+00
    0.32327E-08         0.20314E-08         0.00000E+00
    0.32047E-08         0.20134E-08         0.00000E+00
    0.31774E-08         0.19877E-08         0.00000E+00
    0.31510E-08         0.19540E-08         0.00000E+00
    0.31256E-08         0.19121E-08         0.00000E+00
    0.31014E-08         0.18616E-08         0.00000E+00
    0.30783E-08         0.18021E-08         0.00000E+00
    0.30565E-08         0.17335E-08         0.00000E+00
    0.30360E-08         0.16553E-08         0.00000E+00
    0.30170E-08         0.15673E-08         0.00000E+00
    0.29994E-08         0.14693E-08         0.00000E+00
    0.29835E-08         0.13609E-08         0.00000E+00
    0.29691E-08         0.12420E-08         0.00000E+00
    0.29565E-08         0.11124E-08         0.00000E+00
    0.29456E-08         0.97189E-09         0.00000E+00
    0.29364E-08         0.82036E-09         0.00000E+00
    0.29290E-08         0.65774E-09         0.00000E+00
    0.29235E-08         0.48398E-09         0.00000E+00
    0.29198E-08         0.29910E-09         0.00000E+00
    0.29180E-08         0.10315E-09         0.00000E+00
    0.43138E-08         0.68016E-10         0.00000E+00
    0.43109E-08         0.20233E-09         0.00000E+00
    0.43052E-08         0.33404E-09         0.00000E+00
    0.42967E-08         0.46285E-09         0.00000E+00
    0.42854E-08         0.58851E-09         0.00000E+00
    0.42715E-08         0.71077E-09         0.00000E+00
    0.42550E-08         0.82942E-09         0.00000E+00
    0.42361E-08         0.94425E-09         0.00000E+00
    0.42149E-08         0.10551E-08         0.00000E+00
    0.41914E-08         0.11618E-08         0.00000E+00
    0.41659E-08         0.12641E-08         0.00000E+00
    0.41384E-08         0.13620E-08         0.00000E+00
    0.41091E-08         0.14553E-08         0.00000E+00
    0.40781E-08         0.15438E-08         0.00000E+00
    0.40456E-08         0.16275E-08         0.00000E+00
    0.40117E-08         0.17061E-08         0.00000E+00
    0.39767E-08         0.17797E-08         0.00000E+00
    0.39406E-08         0.18480E-08         0.00000E+00
    0.39037E-08         0.19110E-08         0.00000E+00
    0.38660E-08         0.19684E-08         0.00000E+00
    0.38278E-08         0.20203E-08         0.00000E+00
    0.37892E-08         0.20663E-08         0.00000E+00
    0.37504E-08         0.21063E-08         0.00000E+00
    0.37115E-08         0.21403E-08         0.00000E+00
    0.36726E-08         0.21679E-08         0.00000E+00
    0.36341E-08         0.21890E-08         0.00000E+00
    0.35959E-08         0.22034E-08         0.00000E+00
    0.35582E-08         0.22109E-08         0.00000E+00
    0.35213E-08         0.22112E-08         0.00000E+00
    0.34851E-08         0.22041E-08         0.00000E+00
    0.34499E-08         0.21893E-08         0.00000E+00
    0.34157E-08         0.21666E-08         0.00000E+00
    0.33828E-08         0.21357E-08         0.00000E+00
    0.33511E-08         0.20962E-08         0.00000E+00
    0.33209E-08         0.20480E-08         0.00000E+00
    0.32921E-08         0.19907E-08         0.00000E+00
    0.32650E-08         0.19241E-08         0.00000E+00
    0.32395E-08         0.18478E-08         0.00000E+00
    0.32159E-08         0.17617E-08         0.00000E+00
    0.31940E-08         0.16654E-08         0.00000E+00
    0.31740E-08         0.15587E-08         0.00000E+00
    0.31560E-08         0.14415E-08         0.00000E+00
    0.31399E-08         0.13134E-08         0.00000E+00
    0.31259E-08         0.11745E-08         0.00000E+00
    0.31139E-08         0.10245E-08         0.00000E+00
    0.31039E-08         0.86341E-09         0.00000E+00
    0.30959E-08         0.69116E-09         0.00000E+00
    0.30900E-08         0.50777E-09         0.00000E+00
    0.30861E-08         0.31329E-09         0.00000E+00
    0.30842E-08         0.10784E-09         0.00000E+00
    0.47981E-08         0.76951E-10         0.00000E+00
    0.47939E-08         0.22889E-09         0.00000E+00
    0.47855E-08         0.37781E-09         0.00000E+00
    0.47732E-08         0.52334E-09         0.00000E+00
    0.47571E-08         0.66516E-09         0.00000E+00
    0.47372E-08         0.80296E-09         0.00000E+00
    0.47138E-08         0.93648E-09         0.00000E+00
    0.46870E-08         0.10654E-08         0.00000E+00
    0.46571E-08         0.11896E-08         0.00000E+00
    0.46243E-08         0.13088E-08         0.00000E+00
    0.45887E-08         0.14229E-08         0.00000E+00
    0.45505E-08         0.15315E-08         0.00000E+00
    0.45101E-08         0.16347E-08         0.00000E+00
    0.44675E-08         0.17321E-08         0.00000E+00
    0.44230E-08         0.18238E-08         0.00000E+00
    0.43769E-08         0.19095E-08         0.00000E+00
    0.43294E-08         0.19891E-08         0.00000E+00
    0.42807E-08         0.20625E-08         0.00000E+00
    0.42311E-08         0.21296E-08         0.00000E+00
    0.41807E-08         0.21901E-08         0.00000E+00
    0.41298E-08         0.22441E-08         0.00000E+00
    0.40786E-08         0.22914E-08         0.00000E+00
    0.40273E-08         0.23317E-08         0.00000E+00
    0.39762E-08         0.23650E-08         0.00000E+00
    0.39254E-08         0.23911E-08         0.00000E+00
    0.38752E-08         0.24098E-08         0.00000E+00
    0.38257E-08         0.24210E-08         0.00000E+00
    0.37771E-08         0.24244E-08         0.00000E+00
    0.37297E-08         0.24199E-08         0.00000E+00
    0.36835E-08         0.24072E-08         0.00000E+00
    0.36387E-08         0.23862E-08         0.00000E+00
    0.35955E-08         0.23565E-08         0.00000E+00
    0.35540E-08         0.23179E-08         0.00000E+00
    0.35144E-08         0.22703E-08         0.00000E+00
    0.34767E-08         0.22134E-08         0.00000E+00
    0.34411E-08         0.21469E-08         0.00000E+00
    0.34077E-08         0.20706E-08         0.00000E+00
    0.33766E-08         0.19843E-08         0.00000E+00
    0.33477E-08         0.18878E-08         0.00000E+00
    0.33213E-08         0.17808E-08         0.00000E+00
    0.32973E-08         0.16632E-08         0.00000E+00
    0.32758E-08         0.15348E-08         0.00000E+00
    0.32568E-08         0.13955E-08         0.00000E+00
    0.32402E-08         0.12453E-08         0.00000E+00
    0.32262E-08         0.10840E-08         0.00000E+00
    0.32147E-08         0.91163E-09         0.00000E+00
    0.32055E-08         0.72825E-09         0.00000E+00
    0.31988E-08         0.53390E-09         0.00000E+00
    0.31944E-08         0.32871E-09         0.00000E+00
    0.31922E-08         0.11286E-09         0.00000E+00
    0.53521E-08         0.89989E-10         0.00000E+00
    0.53460E-08         0.26744E-09         0.00000E+00
    0.53340E-08         0.44102E-09         0.00000E+00
    0.53163E-08         0.61028E-09         0.00000E+00
    0.52931E-08         0.77480E-09         0.00000E+00
    0.52648E-08         0.93422E-09         0.00000E+00
    0.52316E-08         0.10882E-08         0.00000E+00
    0.51938E-08         0.12364E-08         0.00000E+00
    0.51517E-08         0.13786E-08         0.00000E+00
    0.51056E-08         0.15146E-08         0.00000E+00
    0.50559E-08         0.16440E-08         0.00000E+00
    0.50028E-08         0.17667E-08         0.00000E+00
    0.49466E-08         0.18825E-08         0.00000E+00
    0.48878E-08         0.19913E-08         0.00000E+00
    0.48266E-08         0.20929E-08         0.00000E+00
    0.47633E-08         0.21871E-08         0.00000E+00
    0.46983E-08         0.22739E-08         0.00000E+00
    0.46319E-08         0.23531E-08         0.00000E+00
    0.45645E-08         0.24246E-08         0.00000E+00
    0.44963E-08         0.24882E-08         0.00000E+00
    0.44276E-08         0.25440E-08         0.00000E+00
    0.43587E-08         0.25917E-08         0.00000E+00
    0.42900E-08         0.26313E-08         0.00000E+00
    0.42216E-08         0.26627E-08         0.00000E+00
    0.41540E-08         0.26856E-08         0.00000E+00
    0.40873E-08         0.27001E-08         0.00000E+00
    0.40218E-08         0.27059E-08         0.00000E+00
    0.39577E-08         0.27029E-08         0.00000E+00
    0.38952E-08         0.26910E-08         0.00000E+00
    0.38347E-08         0.26700E-08         0.00000E+00
    0.37762E-08         0.26398E-08         0.00000E+00
    0.37199E-08         0.26001E-08         0.00000E+00
    0.36661E-08         0.25509E-08         0.00000E+00
    0.36148E-08         0.24919E-08         0.00000E+00
    0.35663E-08         0.24229E-08         0.00000E+00
    0.35205E-08         0.23439E-08         0.00000E+00
    0.34778E-08         0.22546E-08         0.00000E+00
    0.34380E-08         0.21548E-08         0.00000E+00
    0.34014E-08         0.20445E-08         0.00000E+00
    0.33679E-08         0.19235E-08         0.00000E+00
    0.33376E-08         0.17917E-08         0.00000E+00
    0.33106E-08         0.16491E-08         0.00000E+00
    0.32867E-08         0.14955E-08         0.00000E+00
    0.32661E-08         0.13310E-08         0.00000E+00
    0.32487E-08         0.11556E-08         0.00000E+00
    0.32344E-08         0.96933E-09         0.00000E+00
    0.32232E-08         0.77233E-09         0.00000E+00
    0.32149E-08         0.56475E-09         0.00000E+00
    0.32095E-08         0.34678E-09         0.00000E+00
    0.32069E-08         0.11869E-09         0.00000E+00
    0.59782E-08         0.10877E-09         0.00000E+00
    0.59695E-08         0.32274E-09         0.00000E+00
    0.59524E-08         0.53135E-09         0.00000E+00
    0.59273E-08         0.73403E-09         0.00000E+00
    0.58946E-08         0.93029E-09         0.00000E+00
    0.58547E-08         0.11197E-08         0.00000E+00
    0.58081E-08         0.13018E-08         0.00000E+00
    0.57552E-08         0.14764E-08         0.00000E+00
    0.56964E-08         0.16430E-08         0.00000E+00
    0.56323E-08         0.18013E-08         0.00000E+00
    0.55633E-08         0.19512E-08         0.00000E+00
    0.54898E-08         0.20925E-08         0.00000E+00
    0.54123E-08         0.22248E-08         0.00000E+00
    0.53313E-08         0.23481E-08         0.00000E+00
    0.52473E-08         0.24622E-08         0.00000E+00
    0.51607E-08         0.25671E-08         0.00000E+00
    0.50720E-08         0.26625E-08         0.00000E+00
    0.49816E-08         0.27485E-08         0.00000E+00
    0.48899E-08         0.28249E-08         0.00000E+00
    0.47973E-08         0.28917E-08         0.00000E+00
    0.47044E-08         0.29488E-08         0.00000E+00
    0.46114E-08         0.29961E-08         0.00000E+00
    0.45188E-08         0.30336E-08         0.00000E+00
    0.44270E-08         0.30613E-08         0.00000E+00
    0.43362E-08         0.30790E-08         0.00000E+00
    0.42469E-08         0.30868E-08         0.00000E+00
    0.41593E-08         0.30845E-08         0.00000E+00
    0.40738E-08         0.30722E-08         0.00000E+00
    0.39907E-08         0.30496E-08         0.00000E+00
    0.39102E-08         0.30169E-08         0.00000E+00
    0.38325E-08         0.29737E-08         0.00000E+00
    0.37580E-08         0.29202E-08         0.00000E+00
    0.36867E-08         0.28562E-08         0.00000E+00
    0.36190E-08         0.27816E-08         0.00000E+00
    0.35549E-08         0.26963E-08         0.00000E+00
    0.34947E-08         0.26003E-08         0.00000E+00
    0.34384E-08         0.24935E-08         0.00000E+00
    0.33861E-08         0.23759E-08         0.00000E+00
    0.33380E-08         0.22473E-08         0.00000E+00
    0.32941E-08         0.21078E-08         0.00000E+00
    0.32544E-08         0.19573E-08         0.00000E+00
    0.32189E-08         0.17960E-08         0.00000E+00
    0.31877E-08         0.16238E-08         0.00000E+00
    0.31608E-08         0.14407E-08         0.00000E+00
    0.31380E-08         0.12471E-08         0.00000E+00
    0.31192E-08         0.10429E-08         0.00000E+00
    0.31045E-08         0.82843E-09         0.00000E+00
    0.30937E-08         0.60393E-09         0.00000E+00
    0.30867E-08         0.36969E-09         0.00000E+00
    0.30833E-08         0.12606E-09         0.00000E+00
    0.66739E-08         0.13531E-09         0.00000E+00
    0.66617E-08         0.40069E-09         0.00000E+00
    0.66378E-08         0.65827E-09         0.00000E+00
    0.66029E-08         0.90741E-09         0.00000E+00
    0.65574E-08         0.11475E-08         0.00000E+00
    0.65022E-08         0.13781E-08         0.00000E+00
    0.64378E-08         0.15987E-08         0.00000E+00
    0.63648E-08         0.18089E-08         0.00000E+00
    0.62840E-08         0.20083E-08         0.00000E+00
    0.61960E-08         0.21967E-08         0.00000E+00
    0.61014E-08         0.23738E-08         0.00000E+00
    0.60010E-08         0.25395E-08         0.00000E+00
    0.58953E-08         0.26934E-08         0.00000E+00
    0.57851E-08         0.28355E-08         0.00000E+00
    0.56709E-08         0.29657E-08         0.00000E+00
    0.55534E-08         0.30840E-08         0.00000E+00
    0.54333E-08         0.31902E-08         0.00000E+00
    0.53110E-08         0.32843E-08         0.00000E+00
    0.51873E-08         0.33663E-08         0.00000E+00
    0.50626E-08         0.34363E-08         0.00000E+00
    0.49375E-08         0.34942E-08         0.00000E+00
    0.48126E-08         0.35401E-08         0.00000E+00
    0.46883E-08         0.35740E-08         0.00000E+00
    0.45651E-08         0.35960E-08         0.00000E+00
    0.44435E-08         0.36060E-08         0.00000E+00
    0.43239E-08         0.36042E-08         0.00000E+00
    0.42068E-08         0.35905E-08         0.00000E+00
    0.40926E-08         0.35650E-08         0.00000E+00
    0.39815E-08         0.35278E-08         0.00000E+00
    0.38740E-08         0.34788E-08         0.00000E+00
    0.37704E-08         0.34182E-08         0.00000E+00
    0.36709E-08         0.33459E-08         0.00000E+00
    0.35759E-08         0.32620E-08         0.00000E+00
    0.34855E-08         0.31664E-08         0.00000E+00
    0.34000E-08         0.30594E-08         0.00000E+00
    0.33195E-08         0.29408E-08         0.00000E+00
    0.32443E-08         0.28108E-08         0.00000E+00
    0.31744E-08         0.26693E-08         0.00000E+00
    0.31100E-08         0.25166E-08         0.00000E+00
    0.30511E-08         0.23526E-08         0.00000E+00
    0.29978E-08         0.21775E-08         0.00000E+00
    0.29501E-08         0.19914E-08         0.00000E+00
    0.29080E-08         0.17946E-08         0.00000E+00
    0.28716E-08         0.15871E-08         0.00000E+00
    0.28406E-08         0.13693E-08         0.00000E+00
    0.28152E-08         0.11414E-08         0.00000E+00
    0.27951E-08         0.90373E-09         0.00000E+00
    0.27803E-08         0.65667E-09         0.00000E+00
    0.27706E-08         0.40063E-09         0.00000E+00
    0.27659E-08         0.13607E-09         0.00000E+00
    0.74295E-08         0.17205E-09         0.00000E+00
    0.74128E-08         0.50833E-09         0.00000E+00
    0.73802E-08         0.83315E-09         0.00000E+00
    0.73325E-08         0.11458E-08         0.00000E+00
    0.72706E-08         0.14455E-08         0.00000E+00
    0.71955E-08         0.17318E-08         0.00000E+00
    0.71081E-08         0.20042E-08         0.00000E+00
    0.70093E-08         0.22622E-08         0.00000E+00
    0.69000E-08         0.25055E-08         0.00000E+00
    0.67812E-08         0.27337E-08         0.00000E+00
    0.66538E-08         0.29468E-08         0.00000E+00
    0.65187E-08         0.31444E-08         0.00000E+00
    0.63767E-08         0.33265E-08         0.00000E+00
    0.62288E-08         0.34930E-08         0.00000E+00
    0.60758E-08         0.36439E-08         0.00000E+00
    0.59186E-08         0.37791E-08         0.00000E+00
    0.57580E-08         0.38988E-08         0.00000E+00
    0.55948E-08         0.40030E-08         0.00000E+00
    0.54297E-08         0.40918E-08         0.00000E+00
    0.52635E-08         0.41653E-08         0.00000E+00
    0.50969E-08         0.42236E-08         0.00000E+00
    0.49306E-08         0.42670E-08         0.00000E+00
    0.47653E-08         0.42955E-08         0.00000E+00
    0.46015E-08         0.43093E-08         0.00000E+00
    0.44399E-08         0.43087E-08         0.00000E+00
    0.42810E-08         0.42937E-08         0.00000E+00
    0.41254E-08         0.42646E-08         0.00000E+00
    0.39735E-08         0.42216E-08         0.00000E+00
    0.38259E-08         0.41648E-08         0.00000E+00
    0.36829E-08         0.40944E-08         0.00000E+00
    0.35449E-08         0.40106E-08         0.00000E+00
    0.34124E-08         0.39135E-08         0.00000E+00
    0.32856E-08         0.38034E-08         0.00000E+00
    0.31649E-08         0.36804E-08         0.00000E+00
    0.30505E-08         0.35448E-08         0.00000E+00
    0.29428E-08         0.33966E-08         0.00000E+00
    0.28418E-08         0.32361E-08         0.00000E+00
    0.27477E-08         0.30635E-08         0.00000E+00
    0.26608E-08         0.28790E-08         0.00000E+00
    0.25812E-08         0.26829E-08         0.00000E+00
    0.25089E-08         0.24753E-08         0.00000E+00
    0.24439E-08         0.22567E-08         0.00000E+00
    0.23864E-08         0.20272E-08         0.00000E+00
    0.23364E-08         0.17872E-08         0.00000E+00
    0.22937E-08         0.15371E-08         0.00000E+00
    0.22584E-08         0.12772E-08         0.00000E+00
    0.22305E-08         0.10081E-08         0.00000E+00
    0.22097E-08         0.73021E-09         0.00000E+00
    0.21960E-08         0.44406E-09         0.00000E+00
    0.21892E-08         0.15024E-09         0.00000E+00
    0.82256E-08         0.22181E-09         0.00000E+00
    0.82032E-08         0.65386E-09         0.00000E+00
    0.81595E-08         0.10692E-08         0.00000E+00
    0.80958E-08         0.14669E-08         0.00000E+00
    0.80133E-08         0.18463E-08         0.00000E+00
    0.79132E-08         0.22067E-08         0.00000E+00
    0.77969E-08         0.25478E-08         0.00000E+00
    0.76657E-08         0.28689E-08         0.00000E+00
    0.75207E-08         0.31699E-08         0.00000E+00
    0.73633E-08         0.34505E-08         0.00000E+00
    0.71946E-08         0.37104E-08         0.00000E+00
    0.70160E-08         0.39497E-08         0.00000E+00
    0.68286E-08         0.41683E-08         0.00000E+00
    0.66335E-08         0.43662E-08         0.00000E+00
    0.64319E-08         0.45436E-08         0.00000E+00
    0.62249E-08         0.47005E-08         0.00000E+00
    0.60135E-08         0.48372E-08         0.00000E+00
    0.57989E-08         0.49540E-08         0.00000E+00
    0.55819E-08         0.50510E-08         0.00000E+00
    0.53636E-08         0.51286E-08         0.00000E+00
    0.51448E-08         0.51870E-08         0.00000E+00
    0.49265E-08         0.52267E-08         0.00000E+00
    0.47095E-08         0.52479E-08         0.00000E+00
    0.44944E-08         0.52509E-08         0.00000E+00
    0.42822E-08         0.52362E-08         0.00000E+00
    0.40735E-08         0.52042E-08         0.00000E+00
    0.38689E-08         0.51551E-08         0.00000E+00
    0.36692E-08         0.50893E-08         0.00000E+00
    0.34748E-08         0.50073E-08         0.00000E+00
    0.32863E-08         0.49093E-08         0.00000E+00
    0.31043E-08         0.47957E-08         0.00000E+00
    0.29291E-08         0.46669E-08         0.00000E+00
    0.27612E-08         0.45232E-08         0.00000E+00
    0.26011E-08         0.43649E-08         0.00000E+00
    0.24490E-08         0.41925E-08         0.00000E+00
    0.23053E-08         0.40063E-08         0.00000E+00
    0.21703E-08         0.38065E-08         0.00000E+00
    0.20442E-08         0.35937E-08         0.00000E+00
    0.19272E-08         0.33681E-08         0.00000E+00
    0.18196E-08         0.31302E-08         0.00000E+00
    0.17215E-08         0.28802E-08         0.00000E+00
    0.16331E-08         0.26188E-08         0.00000E+00
    0.15543E-08         0.23462E-08         0.00000E+00
    0.14854E-08         0.20630E-08         0.00000E+00
    0.14264E-08         0.17696E-08         0.00000E+00
    0.13773E-08         0.14667E-08         0.00000E+00
    0.13381E-08         0.11547E-08         0.00000E+00
    0.13087E-08         0.83421E-09         0.00000E+00
    0.12893E-08         0.50598E-09         0.00000E+00
    0.12796E-08         0.17066E-09         0.00000E+00
    0.90295E-08         0.28774E-09         0.00000E+00
    0.90002E-08         0.84641E-09         0.00000E+00
    0.89430E-08         0.13810E-08         0.00000E+00
    0.88596E-08         0.18906E-08         0.00000E+00
    0.87518E-08         0.23744E-08         0.00000E+00
    0.86212E-08         0.28317E-08         0.00000E+00
    0.84696E-08         0.32622E-08         0.00000E+00
    0.82986E-08         0.36655E-08         0.00000E+00
    0.81101E-08         0.40412E-08         0.00000E+00
    0.79055E-08         0.43893E-08         0.00000E+00
    0.76865E-08         0.47096E-08         0.00000E+00
    0.74548E-08         0.50024E-08         0.00000E+00
    0.72118E-08         0.52676E-08         0.00000E+00
    0.69591E-08         0.55056E-08         0.00000E+00
    0.66982E-08         0.57167E-08         0.00000E+00
    0.64305E-08         0.59011E-08         0.00000E+00
    0.61573E-08         0.60594E-08         0.00000E+00
    0.58799E-08         0.61919E-08         0.00000E+00
    0.55996E-08         0.62992E-08         0.00000E+00
    0.53177E-08         0.63818E-08         0.00000E+00
    0.50352E-08         0.64402E-08         0.00000E+00
    0.47532E-08         0.64750E-08         0.00000E+00
    0.44728E-08         0.64869E-08         0.00000E+00
    0.41949E-08         0.64763E-08         0.00000E+00
    0.39205E-08         0.64440E-08         0.00000E+00
    0.36504E-08         0.63904E-08         0.00000E+00
    0.33855E-08         0.63162E-08         0.00000E+00
    0.31265E-08         0.62220E-08         0.00000E+00
    0.28742E-08         0.61083E-08         0.00000E+00
    0.26291E-08         0.59758E-08         0.00000E+00
    0.23920E-08         0.58249E-08         0.00000E+00
    0.21635E-08         0.56563E-08         0.00000E+00
    0.19439E-08         0.54705E-08         0.00000E+00
    0.17340E-08         0.52681E-08         0.00000E+00
    0.15340E-08         0.50495E-08         0.00000E+00
    0.13445E-08         0.48152E-08         0.00000E+00
    0.11659E-08         0.45659E-08         0.00000E+00
    0.99845E-09         0.43020E-08         0.00000E+00
    0.84254E-09         0.40241E-08         0.00000E+00
    0.69848E-09         0.37326E-08         0.00000E+00
    0.56654E-09         0.34281E-08         0.00000E+00
    0.44697E-09         0.31111E-08         0.00000E+00
    0.34001E-09         0.27823E-08         0.00000E+00
    0.24587E-09         0.24421E-08         0.00000E+00
    0.16474E-09         0.20913E-08         0.00000E+00
    0.96800E-10         0.17304E-08         0.00000E+00
    0.42195E-10         0.13601E-08         0.00000E+00
    0.10718E-11         0.98107E-09         0.00000E+00
   -0.26447E-10         0.59413E-09         0.00000E+00
   -0.40252E-10         0.20004E-09         0.00000E+00
    0.97922E-08         0.37325E-09         0.00000E+00
    0.97545E-08         0.10958E-08         0.00000E+00
    0.96812E-08         0.17845E-08         0.00000E+00
    0.95743E-08         0.24382E-08         0.00000E+00
    0.94363E-08         0.30561E-08         0.00000E+00
    0.92693E-08         0.36378E-08         0.00000E+00
    0.90756E-08         0.41827E-08         0.00000E+00
    0.88574E-08         0.46906E-08         0.00000E+00
    0.86170E-08         0.51614E-08         0.00000E+00
    0.83563E-08         0.55952E-08         0.00000E+00
    0.80776E-08         0.59921E-08         0.00000E+00
    0.77829E-08         0.63523E-08         0.00000E+00
    0.74741E-08         0.66764E-08         0.00000E+00
    0.71532E-08         0.69647E-08         0.00000E+00
    0.68220E-08         0.72180E-08         0.00000E+00
    0.64823E-08         0.74368E-08         0.00000E+00
    0.61359E-08         0.76220E-08         0.00000E+00
    0.57843E-08         0.77742E-08         0.00000E+00
    0.54291E-08         0.78943E-08         0.00000E+00
    0.50717E-08         0.79831E-08         0.00000E+00
    0.47137E-08         0.80416E-08         0.00000E+00
    0.43563E-08         0.80707E-08         0.00000E+00
    0.40007E-08         0.80711E-08         0.00000E+00
    0.36482E-08         0.80440E-08         0.00000E+00
    0.32999E-08         0.79901E-08         0.00000E+00
    0.29567E-08         0.79103E-08         0.00000E+00
    0.26198E-08         0.78056E-08         0.00000E+00
    0.22899E-08         0.76767E-08         0.00000E+00
    0.19681E-08         0.75246E-08         0.00000E+00
    0.16550E-08         0.73501E-08         0.00000E+00
    0.13515E-08         0.71538E-08         0.00000E+00
    0.10582E-08         0.69368E-08         0.00000E+00
    0.77583E-09         0.66995E-08         0.00000E+00
    0.50502E-09         0.64429E-08         0.00000E+00
    0.24637E-09         0.61676E-08         0.00000E+00
    0.42337E-12         0.58743E-08         0.00000E+00
   -0.23228E-09         0.55636E-08         0.00000E+00
   -0.45123E-09         0.52363E-08         0.00000E+00
   -0.65595E-09         0.48929E-08         0.00000E+00
   -0.84595E-09         0.45341E-08         0.00000E+00
   -0.10208E-08         0.41605E-08         0.00000E+00
   -0.11800E-08         0.37727E-08         0.00000E+00
   -0.13233E-08         0.33715E-08         0.00000E+00
   -0.14500E-08         0.29574E-08         0.00000E+00
   -0.15599E-08         0.25311E-08         0.00000E+00
   -0.16525E-08         0.20933E-08         0.00000E+00
   -0.17274E-08         0.16447E-08         0.00000E+00
   -0.17842E-08         0.11860E-08         0.00000E+00
   -0.18225E-08         0.71810E-09         0.00000E+00
   -0.18418E-08         0.24175E-09         0.00000E+00
    0.10444E-07         0.48184E-09         0.00000E+00
    0.10396E-07         0.14123E-08         0.00000E+00
    0.10304E-07         0.22959E-08         0.00000E+00
    0.10170E-07         0.31316E-08         0.00000E+00
    0.99970E-08         0.39186E-08         0.00000E+00
    0.97878E-08         0.46564E-08         0.00000E+00
    0.95453E-08         0.53448E-08         0.00000E+00
    0.92725E-08         0.59837E-08         0.00000E+00
    0.89720E-08         0.65731E-08         0.00000E+00
    0.86466E-08         0.71135E-08         0.00000E+00
    0.82991E-08         0.76053E-08         0.00000E+00
    0.79318E-08         0.80491E-08         0.00000E+00
    0.75474E-08         0.84457E-08         0.00000E+00
    0.71481E-08         0.87961E-08         0.00000E+00
    0.67364E-08         0.91012E-08         0.00000E+00
    0.63144E-08         0.93621E-08         0.00000E+00
    0.58841E-08         0.95801E-08         0.00000E+00
    0.54477E-08         0.97563E-08         0.00000E+00
    0.50069E-08         0.98921E-08         0.00000E+00
    0.45635E-08         0.99886E-08         0.00000E+00
    0.41193E-08         0.10047E-07         0.00000E+00
    0.36758E-08         0.10070E-07         0.00000E+00
    0.32345E-08         0.10057E-07         0.00000E+00
    0.27968E-08         0.10010E-07         0.00000E+00
    0.23639E-08         0.99303E-08         0.00000E+00
    0.19371E-08         0.98195E-08         0.00000E+00
    0.15176E-08         0.96786E-08         0.00000E+00
    0.11064E-08         0.95088E-08         0.00000E+00
    0.70457E-09         0.93112E-08         0.00000E+00
    0.31297E-09         0.90869E-08         0.00000E+00
   -0.67476E-10         0.88369E-08         0.00000E+00
   -0.43591E-09         0.85623E-08         0.00000E+00
   -0.79154E-09         0.82639E-08         0.00000E+00
   -0.11336E-08         0.79428E-08         0.00000E+00
   -0.14613E-08         0.75997E-08         0.00000E+00
   -0.17740E-08         0.72354E-08         0.00000E+00
   -0.20710E-08         0.68508E-08         0.00000E+00
   -0.23515E-08         0.64464E-08         0.00000E+00
   -0.26148E-08         0.60232E-08         0.00000E+00
   -0.28604E-08         0.55816E-08         0.00000E+00
   -0.30875E-08         0.51224E-08         0.00000E+00
   -0.32953E-08         0.46462E-08         0.00000E+00
   -0.34832E-08         0.41536E-08         0.00000E+00
   -0.36505E-08         0.36453E-08         0.00000E+00
   -0.37963E-08         0.31217E-08         0.00000E+00
   -0.39199E-08         0.25837E-08         0.00000E+00
   -0.40205E-08         0.20318E-08         0.00000E+00
   -0.40972E-08         0.14666E-08         0.00000E+00
   -0.41493E-08         0.88905E-09         0.00000E+00
   -0.41757E-08         0.29978E-09         0.00000E+00
    0.10890E-07         0.61703E-09         0.00000E+00
    0.10832E-07         0.18059E-08         0.00000E+00
    0.10718E-07         0.29313E-08         0.00000E+00
    0.10553E-07         0.39922E-08         0.00000E+00
    0.10340E-07         0.49879E-08         0.00000E+00
    0.10083E-07         0.59180E-08         0.00000E+00
    0.97856E-08         0.67826E-08         0.00000E+00
    0.94513E-08         0.75817E-08         0.00000E+00
    0.90837E-08         0.83159E-08         0.00000E+00
    0.86860E-08         0.89859E-08         0.00000E+00
    0.82617E-08         0.95926E-08         0.00000E+00
    0.78138E-08         0.10137E-07         0.00000E+00
    0.73455E-08         0.10621E-07         0.00000E+00
    0.68598E-08         0.11046E-07         0.00000E+00
    0.63593E-08         0.11413E-07         0.00000E+00
    0.58468E-08         0.11723E-07         0.00000E+00
    0.53247E-08         0.11980E-07         0.00000E+00
    0.47955E-08         0.12185E-07         0.00000E+00
    0.42614E-08         0.12338E-07         0.00000E+00
    0.37244E-08         0.12444E-07         0.00000E+00
    0.31865E-08         0.12503E-07         0.00000E+00
    0.26495E-08         0.12517E-07         0.00000E+00
    0.21152E-08         0.12488E-07         0.00000E+00
    0.15851E-08         0.12418E-07         0.00000E+00
    0.10607E-08         0.12309E-07         0.00000E+00
    0.54328E-09         0.12162E-07         0.00000E+00
    0.34204E-10         0.11979E-07         0.00000E+00
   -0.46536E-09         0.11762E-07         0.00000E+00
   -0.95429E-09         0.11512E-07         0.00000E+00
   -0.14315E-08         0.11230E-07         0.00000E+00
   -0.18961E-08         0.10918E-07         0.00000E+00
   -0.23470E-08         0.10578E-07         0.00000E+00
   -0.27834E-08         0.10209E-07         0.00000E+00
   -0.32042E-08         0.98128E-08         0.00000E+00
   -0.36087E-08         0.93909E-08         0.00000E+00
   -0.39960E-08         0.89439E-08         0.00000E+00
   -0.43652E-08         0.84726E-08         0.00000E+00
   -0.47152E-08         0.79776E-08         0.00000E+00
   -0.50454E-08         0.74595E-08         0.00000E+00
   -0.53545E-08         0.69190E-08         0.00000E+00
   -0.56418E-08         0.63565E-08         0.00000E+00
   -0.59060E-08         0.57726E-08         0.00000E+00
   -0.61462E-08         0.51676E-08         0.00000E+00
   -0.63611E-08         0.45420E-08         0.00000E+00
   -0.65495E-08         0.38962E-08         0.00000E+00
   -0.67102E-08         0.32306E-08         0.00000E+00
   -0.68417E-08         0.25455E-08         0.00000E+00
   -0.69426E-08         0.18415E-08         0.00000E+00
   -0.70115E-08         0.11189E-08         0.00000E+00
   -0.70468E-08         0.37844E-09         0.00000E+00
    0.11007E-07         0.78223E-09         0.00000E+00
    0.10936E-07         0.22864E-08         0.00000E+00
    0.10799E-07         0.37059E-08         0.00000E+00
    0.10599E-07         0.50399E-08         0.00000E+00
    0.10343E-07         0.62878E-08         0.00000E+00
    0.10033E-07         0.74495E-08         0.00000E+00
    0.96759E-08         0.85253E-08         0.00000E+00
    0.92748E-08         0.95157E-08         0.00000E+00
    0.88345E-08         0.10422E-07         0.00000E+00
    0.83591E-08         0.11245E-07         0.00000E+00
    0.78528E-08         0.11987E-07         0.00000E+00
    0.73193E-08         0.12649E-07         0.00000E+00
    0.67625E-08         0.13234E-07         0.00000E+00
    0.61859E-08         0.13744E-07         0.00000E+00
    0.55928E-08         0.14182E-07         0.00000E+00
    0.49864E-08         0.14549E-07         0.00000E+00
    0.43696E-08         0.14849E-07         0.00000E+00
    0.37452E-08         0.15084E-07         0.00000E+00
    0.31157E-08         0.15257E-07         0.00000E+00
    0.24836E-08         0.15371E-07         0.00000E+00
    0.18509E-08         0.15428E-07         0.00000E+00
    0.12198E-08         0.15431E-07         0.00000E+00
    0.59206E-09         0.15383E-07         0.00000E+00
   -0.30579E-10         0.15286E-07         0.00000E+00
   -0.64654E-09         0.15142E-07         0.00000E+00
   -0.12544E-08         0.14954E-07         0.00000E+00
   -0.18528E-08         0.14724E-07         0.00000E+00
   -0.24405E-08         0.14453E-07         0.00000E+00
   -0.30163E-08         0.14144E-07         0.00000E+00
   -0.35792E-08         0.13799E-07         0.00000E+00
   -0.41280E-08         0.13417E-07         0.00000E+00
   -0.46619E-08         0.13002E-07         0.00000E+00
   -0.51797E-08         0.12555E-07         0.00000E+00
   -0.56805E-08         0.12075E-07         0.00000E+00
   -0.61633E-08         0.11565E-07         0.00000E+00
   -0.66271E-08         0.11025E-07         0.00000E+00
   -0.70708E-08         0.10456E-07         0.00000E+00
   -0.74932E-08         0.98573E-08         0.00000E+00
   -0.78932E-08         0.92305E-08         0.00000E+00
   -0.82696E-08         0.85756E-08         0.00000E+00
   -0.86209E-08         0.78926E-08         0.00000E+00
   -0.89457E-08         0.71817E-08         0.00000E+00
   -0.92424E-08         0.64429E-08         0.00000E+00
   -0.95093E-08         0.56760E-08         0.00000E+00
   -0.97447E-08         0.48811E-08         0.00000E+00
   -0.99465E-08         0.40580E-08         0.00000E+00
   -0.10113E-07         0.32066E-08         0.00000E+00
   -0.10241E-07         0.23268E-08         0.00000E+00
   -0.10329E-07         0.14185E-08         0.00000E+00
   -0.10374E-07         0.48175E-09         0.00000E+00
    0.10636E-07         0.98074E-09         0.00000E+00
    0.10552E-07         0.28626E-08         0.00000E+00
    0.10389E-07         0.46332E-08         0.00000E+00
    0.10152E-07         0.62915E-08         0.00000E+00
    0.98486E-08         0.78374E-08         0.00000E+00
    0.94838E-08         0.92709E-08         0.00000E+00
    0.90634E-08         0.10593E-07         0.00000E+00
    0.85930E-08         0.11805E-07         0.00000E+00
    0.80781E-08         0.12909E-07         0.00000E+00
    0.75238E-08         0.13907E-07         0.00000E+00
    0.69351E-08         0.14801E-07         0.00000E+00
    0.63167E-08         0.15595E-07         0.00000E+00
    0.56731E-08         0.16291E-07         0.00000E+00
    0.50085E-08         0.16894E-07         0.00000E+00
    0.43268E-08         0.17406E-07         0.00000E+00
    0.36316E-08         0.17832E-07         0.00000E+00
    0.29264E-08         0.18176E-07         0.00000E+00
    0.22141E-08         0.18440E-07         0.00000E+00
    0.14977E-08         0.18630E-07         0.00000E+00
    0.77975E-09         0.18749E-07         0.00000E+00
    0.62540E-10         0.18800E-07         0.00000E+00
   -0.65177E-09         0.18787E-07         0.00000E+00
   -0.13613E-08         0.18714E-07         0.00000E+00
   -0.20642E-08         0.18584E-07         0.00000E+00
   -0.27591E-08         0.18399E-07         0.00000E+00
   -0.34445E-08         0.18164E-07         0.00000E+00
   -0.41192E-08         0.17880E-07         0.00000E+00
   -0.47819E-08         0.17550E-07         0.00000E+00
   -0.54316E-08         0.17176E-07         0.00000E+00
   -0.60673E-08         0.16760E-07         0.00000E+00
   -0.66879E-08         0.16304E-07         0.00000E+00
   -0.72926E-08         0.15809E-07         0.00000E+00
   -0.78804E-08         0.15276E-07         0.00000E+00
   -0.84503E-08         0.14707E-07         0.00000E+00
   -0.90013E-08         0.14102E-07         0.00000E+00
   -0.95322E-08         0.13462E-07         0.00000E+00
   -0.10042E-07         0.12786E-07         0.00000E+00
   -0.10529E-07         0.12075E-07         0.00000E+00
   -0.10992E-07         0.11329E-07         0.00000E+00
   -0.11430E-07         0.10548E-07         0.00000E+00
   -0.11841E-07         0.97303E-08         0.00000E+00
   -0.12223E-07         0.88761E-08         0.00000E+00
   -0.12573E-07         0.79844E-08         0.00000E+00
   -0.12890E-07         0.70544E-08         0.00000E+00
   -0.13171E-07         0.60851E-08         0.00000E+00
   -0.13414E-07         0.50754E-08         0.00000E+00
   -0.13614E-07         0.40243E-08         0.00000E+00
   -0.13770E-07         0.29307E-08         0.00000E+00
   -0.13878E-07         0.17936E-08         0.00000E+00
   -0.13934E-07         0.61213E-09         0.00000E+00
    0.95826E-08         0.12156E-08         0.00000E+00
    0.94839E-08         0.35423E-08         0.00000E+00
    0.92932E-08         0.57232E-08         0.00000E+00
    0.90184E-08         0.77576E-08         0.00000E+00
    0.86671E-08         0.96457E-08         0.00000E+00
    0.82467E-08         0.11389E-07         0.00000E+00
    0.77646E-08         0.12988E-07         0.00000E+00
    0.72278E-08         0.14446E-07         0.00000E+00
    0.66429E-08         0.15767E-07         0.00000E+00
    0.60163E-08         0.16953E-07         0.00000E+00
    0.53541E-08         0.18009E-07         0.00000E+00
    0.46618E-08         0.18940E-07         0.00000E+00
    0.39447E-08         0.19749E-07         0.00000E+00
    0.32077E-08         0.20444E-07         0.00000E+00
    0.24551E-08         0.21028E-07         0.00000E+00
    0.16912E-08         0.21507E-07         0.00000E+00
    0.91946E-09         0.21886E-07         0.00000E+00
    0.14334E-09         0.22172E-07         0.00000E+00
   -0.63423E-09         0.22369E-07         0.00000E+00
   -0.14106E-08         0.22482E-07         0.00000E+00
   -0.21835E-08         0.22517E-07         0.00000E+00
   -0.29508E-08         0.22478E-07         0.00000E+00
   -0.37109E-08         0.22370E-07         0.00000E+00
   -0.44620E-08         0.22198E-07         0.00000E+00
   -0.52030E-08         0.21964E-07         0.00000E+00
   -0.59325E-08         0.21674E-07         0.00000E+00
   -0.66498E-08         0.21329E-07         0.00000E+00
   -0.73537E-08         0.20934E-07         0.00000E+00
   -0.80436E-08         0.20490E-07         0.00000E+00
   -0.87187E-08         0.20000E-07         0.00000E+00
   -0.93782E-08         0.19465E-07         0.00000E+00
   -0.10022E-07         0.18887E-07         0.00000E+00
   -0.10648E-07         0.18268E-07         0.00000E+00
   -0.11256E-07         0.17607E-07         0.00000E+00
   -0.11846E-07         0.16906E-07         0.00000E+00
   -0.12416E-07         0.16163E-07         0.00000E+00
   -0.12965E-07         0.15379E-07         0.00000E+00
   -0.13492E-07         0.14553E-07         0.00000E+00
   -0.13995E-07         0.13684E-07         0.00000E+00
   -0.14473E-07         0.12771E-07         0.00000E+00
   -0.14924E-07         0.11812E-07         0.00000E+00
   -0.15344E-07         0.10806E-07         0.00000E+00
   -0.15733E-07         0.97495E-08         0.00000E+00
   -0.16086E-07         0.86416E-08         0.00000E+00
   -0.16401E-07         0.74796E-08         0.00000E+00
   -0.16675E-07         0.62609E-08         0.00000E+00
   -0.16903E-07         0.49830E-08         0.00000E+00
   -0.17081E-07         0.36433E-08         0.00000E+00
   -0.17205E-07         0.22392E-08         0.00000E+00
   -0.17270E-07         0.76823E-09         0.00000E+00
    0.76259E-08         0.14890E-08         0.00000E+00
    0.75126E-08         0.43288E-08         0.00000E+00
    0.72952E-08         0.69770E-08         0.00000E+00
    0.69841E-08         0.94336E-08         0.00000E+00
    0.65893E-08         0.11700E-07         0.00000E+00
    0.61207E-08         0.13779E-07         0.00000E+00
    0.55873E-08         0.15674E-07         0.00000E+00
    0.49981E-08         0.17390E-07         0.00000E+00
    0.43612E-08         0.18932E-07         0.00000E+00
    0.36842E-08         0.20305E-07         0.00000E+00
    0.29744E-08         0.21517E-07         0.00000E+00
    0.22382E-08         0.22574E-07         0.00000E+00
    0.14815E-08         0.23484E-07         0.00000E+00
    0.70969E-09         0.24253E-07         0.00000E+00
   -0.72353E-10         0.24891E-07         0.00000E+00
   -0.86039E-09         0.25403E-07         0.00000E+00
   -0.16506E-08         0.25799E-07         0.00000E+00
   -0.24398E-08         0.26085E-07         0.00000E+00
   -0.32252E-08         0.26269E-07         0.00000E+00
   -0.40042E-08         0.26358E-07         0.00000E+00
   -0.47750E-08         0.26359E-07         0.00000E+00
   -0.55358E-08         0.26277E-07         0.00000E+00
   -0.62853E-08         0.26119E-07         0.00000E+00
   -0.70224E-08         0.25890E-07         0.00000E+00
   -0.77464E-08         0.25596E-07         0.00000E+00
   -0.84565E-08         0.25240E-07         0.00000E+00
   -0.91522E-08         0.24827E-07         0.00000E+00
   -0.98334E-08         0.24361E-07         0.00000E+00
   -0.10500E-07         0.23843E-07         0.00000E+00
   -0.11151E-07         0.23277E-07         0.00000E+00
   -0.11786E-07         0.22664E-07         0.00000E+00
   -0.12406E-07         0.22005E-07         0.00000E+00
   -0.13010E-07         0.21302E-07         0.00000E+00
   -0.13598E-07         0.20554E-07         0.00000E+00
   -0.14169E-07         0.19762E-07         0.00000E+00
   -0.14722E-07         0.18924E-07         0.00000E+00
   -0.15257E-07         0.18038E-07         0.00000E+00
   -0.15772E-07         0.17105E-07         0.00000E+00
   -0.16267E-07         0.16120E-07         0.00000E+00
   -0.16738E-07         0.15082E-07         0.00000E+00
   -0.17185E-07         0.13988E-07         0.00000E+00
   -0.17605E-07         0.12833E-07         0.00000E+00
   -0.17995E-07         0.11615E-07         0.00000E+00
   -0.18353E-07         0.10330E-07         0.00000E+00
   -0.18673E-07         0.89721E-08         0.00000E+00
   -0.18954E-07         0.75382E-08         0.00000E+00
   -0.19189E-07         0.60230E-08         0.00000E+00
   -0.19375E-07         0.44218E-08         0.00000E+00
   -0.19505E-07         0.27296E-08         0.00000E+00
   -0.19573E-07         0.94156E-09         0.00000E+00
    0.45827E-08         0.17987E-08         0.00000E+00
    0.44576E-08         0.52112E-08         0.00000E+00
    0.42200E-08         0.83694E-08         0.00000E+00
    0.38842E-08         0.11276E-07         0.00000E+00
    0.34635E-08         0.13935E-07         0.00000E+00
    0.29703E-08         0.16353E-07         0.00000E+00
    0.24162E-08         0.18537E-07         0.00000E+00
    0.18120E-08         0.20495E-07         0.00000E+00
    0.11673E-08         0.22235E-07         0.00000E+00
    0.49112E-09         0.23768E-07         0.00000E+00
   -0.20874E-09         0.25103E-07         0.00000E+00
   -0.92515E-09         0.26251E-07         0.00000E+00
   -0.16519E-08         0.27224E-07         0.00000E+00
   -0.23834E-08         0.28030E-07         0.00000E+00
   -0.31151E-08         0.28683E-07         0.00000E+00
   -0.38429E-08         0.29191E-07         0.00000E+00
   -0.45635E-08         0.29566E-07         0.00000E+00
   -0.52741E-08         0.29818E-07         0.00000E+00
   -0.59724E-08         0.29956E-07         0.00000E+00
   -0.66569E-08         0.29990E-07         0.00000E+00
   -0.73262E-08         0.29928E-07         0.00000E+00
   -0.79794E-08         0.29778E-07         0.00000E+00
   -0.86160E-08         0.29549E-07         0.00000E+00
   -0.92358E-08         0.29246E-07         0.00000E+00
   -0.98388E-08         0.28875E-07         0.00000E+00
   -0.10425E-07         0.28443E-07         0.00000E+00
   -0.10995E-07         0.27954E-07         0.00000E+00
   -0.11550E-07         0.27412E-07         0.00000E+00
   -0.12089E-07         0.26819E-07         0.00000E+00
   -0.12613E-07         0.26178E-07         0.00000E+00
   -0.13124E-07         0.25492E-07         0.00000E+00
   -0.13620E-07         0.24761E-07         0.00000E+00
   -0.14104E-07         0.23984E-07         0.00000E+00
   -0.14574E-07         0.23163E-07         0.00000E+00
   -0.15032E-07         0.22295E-07         0.00000E+00
   -0.15476E-07         0.21379E-07         0.00000E+00
   -0.15907E-07         0.20413E-07         0.00000E+00
   -0.16325E-07         0.19393E-07         0.00000E+00
   -0.16727E-07         0.18316E-07         0.00000E+00
   -0.17114E-07         0.17177E-07         0.00000E+00
   -0.17482E-07         0.15972E-07         0.00000E+00
   -0.17832E-07         0.14695E-07         0.00000E+00
   -0.18159E-07         0.13340E-07         0.00000E+00
   -0.18461E-07         0.11902E-07         0.00000E+00
   -0.18735E-07         0.10374E-07         0.00000E+00
   -0.18977E-07         0.87472E-08         0.00000E+00
   -0.19182E-07         0.70158E-08         0.00000E+00
   -0.19345E-07         0.51714E-08         0.00000E+00
   -0.19460E-07         0.32062E-08         0.00000E+00
   -0.19521E-07         0.11119E-08         0.00000E+00
    0.50494E-09         0.21297E-08         0.00000E+00
    0.37832E-09         0.61391E-08         0.00000E+00
    0.14241E-09         0.98089E-08         0.00000E+00
   -0.18413E-09         0.13148E-07         0.00000E+00
   -0.58440E-09         0.16168E-07         0.00000E+00
   -0.10432E-08         0.18881E-07         0.00000E+00
   -0.15470E-08         0.21299E-07         0.00000E+00
   -0.20837E-08         0.23438E-07         0.00000E+00
   -0.26429E-08         0.25311E-07         0.00000E+00
   -0.32154E-08         0.26935E-07         0.00000E+00
   -0.37933E-08         0.28325E-07         0.00000E+00
   -0.43701E-08         0.29496E-07         0.00000E+00
   -0.49400E-08         0.30463E-07         0.00000E+00
   -0.54986E-08         0.31242E-07         0.00000E+00
   -0.60421E-08         0.31847E-07         0.00000E+00
   -0.65677E-08         0.32293E-07         0.00000E+00
   -0.70732E-08         0.32594E-07         0.00000E+00
   -0.75571E-08         0.32762E-07         0.00000E+00
   -0.80185E-08         0.32810E-07         0.00000E+00
   -0.84570E-08         0.32750E-07         0.00000E+00
   -0.88726E-08         0.32592E-07         0.00000E+00
   -0.92656E-08         0.32345E-07         0.00000E+00
   -0.96368E-08         0.32020E-07         0.00000E+00
   -0.99871E-08         0.31624E-07         0.00000E+00
   -0.10318E-07         0.31164E-07         0.00000E+00
   -0.10630E-07         0.30647E-07         0.00000E+00
   -0.10925E-07         0.30077E-07         0.00000E+00
   -0.11204E-07         0.29459E-07         0.00000E+00
   -0.11470E-07         0.28795E-07         0.00000E+00
   -0.11723E-07         0.28089E-07         0.00000E+00
   -0.11965E-07         0.27343E-07         0.00000E+00
   -0.12197E-07         0.26555E-07         0.00000E+00
   -0.12421E-07         0.25727E-07         0.00000E+00
   -0.12638E-07         0.24856E-07         0.00000E+00
   -0.12848E-07         0.23941E-07         0.00000E+00
   -0.13053E-07         0.22980E-07         0.00000E+00
   -0.13253E-07         0.21968E-07         0.00000E+00
   -0.13448E-07         0.20901E-07         0.00000E+00
   -0.13639E-07         0.19773E-07         0.00000E+00
   -0.13825E-07         0.18580E-07         0.00000E+00
   -0.14005E-07         0.17314E-07         0.00000E+00
   -0.14179E-07         0.15968E-07         0.00000E+00
   -0.14346E-07         0.14535E-07         0.00000E+00
   -0.14503E-07         0.13005E-07         0.00000E+00
   -0.14648E-07         0.11369E-07         0.00000E+00
   -0.14780E-07         0.96178E-08         0.00000E+00
   -0.14894E-07         0.77408E-08         0.00000E+00
   -0.14987E-07         0.57270E-08         0.00000E+00
   -0.15055E-07         0.35649E-08         0.00000E+00
   -0.15091E-07         0.12425E-08         0.00000E+00
   -0.38255E-08         0.24355E-08         0.00000E+00
   -0.39264E-08         0.69711E-08         0.00000E+00
   -0.41071E-08         0.11060E-07         0.00000E+00
   -0.43458E-08         0.14723E-07         0.00000E+00
   -0.46238E-08         0.17984E-07         0.00000E+00
   -0.49255E-08         0.20866E-07         0.00000E+00
   -0.52375E-08         0.23392E-07         0.00000E+00
   -0.55491E-08         0.25586E-07         0.00000E+00
   -0.58512E-08         0.27470E-07         0.00000E+00
   -0.61368E-08         0.29067E-07         0.00000E+00
   -0.64002E-08         0.30400E-07         0.00000E+00
   -0.66374E-08         0.31490E-07         0.00000E+00
   -0.68451E-08         0.32357E-07         0.00000E+00
   -0.70215E-08         0.33022E-07         0.00000E+00
   -0.71652E-08         0.33503E-07         0.00000E+00
   -0.72758E-08         0.33818E-07         0.00000E+00
   -0.73535E-08         0.33985E-07         0.00000E+00
   -0.73989E-08         0.34018E-07         0.00000E+00
   -0.74131E-08         0.33933E-07         0.00000E+00
   -0.73977E-08         0.33743E-07         0.00000E+00
   -0.73543E-08         0.33460E-07         0.00000E+00
   -0.72849E-08         0.33096E-07         0.00000E+00
   -0.71916E-08         0.32660E-07         0.00000E+00
   -0.70768E-08         0.32162E-07         0.00000E+00
   -0.69428E-08         0.31609E-07         0.00000E+00
   -0.67920E-08         0.31009E-07         0.00000E+00
   -0.66269E-08         0.30365E-07         0.00000E+00
   -0.64497E-08         0.29683E-07         0.00000E+00
   -0.62630E-08         0.28965E-07         0.00000E+00
   -0.60691E-08         0.28215E-07         0.00000E+00
   -0.58702E-08         0.27433E-07         0.00000E+00
   -0.56686E-08         0.26618E-07         0.00000E+00
   -0.54662E-08         0.25771E-07         0.00000E+00
   -0.52651E-08         0.24890E-07         0.00000E+00
   -0.50672E-08         0.23970E-07         0.00000E+00
   -0.48743E-08         0.23010E-07         0.00000E+00
   -0.46879E-08         0.22005E-07         0.00000E+00
   -0.45097E-08         0.20949E-07         0.00000E+00
   -0.43410E-08         0.19835E-07         0.00000E+00
   -0.41831E-08         0.18658E-07         0.00000E+00
   -0.40373E-08         0.17409E-07         0.00000E+00
   -0.39046E-08         0.16080E-07         0.00000E+00
   -0.37858E-08         0.14661E-07         0.00000E+00
   -0.36818E-08         0.13143E-07         0.00000E+00
   -0.35931E-08         0.11515E-07         0.00000E+00
   -0.35201E-08         0.97644E-08         0.00000E+00
   -0.34629E-08         0.78792E-08         0.00000E+00
   -0.34213E-08         0.58460E-08         0.00000E+00
   -0.33948E-08         0.36506E-08         0.00000E+00
   -0.33824E-08         0.12777E-08         0.00000E+00
   -0.58910E-08         0.26089E-08         0.00000E+00
   -0.59105E-08         0.73998E-08         0.00000E+00
   -0.59304E-08         0.11634E-07         0.00000E+00
   -0.59328E-08         0.15355E-07         0.00000E+00
   -0.59043E-08         0.18601E-07         0.00000E+00
   -0.58348E-08         0.21411E-07         0.00000E+00
   -0.57176E-08         0.23822E-07         0.00000E+00
   -0.55483E-08         0.25867E-07         0.00000E+00
   -0.53245E-08         0.27580E-07         0.00000E+00
   -0.50454E-08         0.28990E-07         0.00000E+00
   -0.47116E-08         0.30126E-07         0.00000E+00
   -0.43243E-08         0.31014E-07         0.00000E+00
   -0.38859E-08         0.31680E-07         0.00000E+00
   -0.33989E-08         0.32146E-07         0.00000E+00
   -0.28664E-08         0.32435E-07         0.00000E+00
   -0.22918E-08         0.32566E-07         0.00000E+00
   -0.16784E-08         0.32559E-07         0.00000E+00
   -0.10300E-08         0.32429E-07         0.00000E+00
   -0.35004E-09         0.32193E-07         0.00000E+00
    0.35785E-09         0.31865E-07         0.00000E+00
    0.10902E-08         0.31458E-07         0.00000E+00
    0.18434E-08         0.30984E-07         0.00000E+00
    0.26143E-08         0.30451E-07         0.00000E+00
    0.33995E-08         0.29871E-07         0.00000E+00
    0.41960E-08         0.29249E-07         0.00000E+00
    0.50007E-08         0.28592E-07         0.00000E+00
    0.58106E-08         0.27906E-07         0.00000E+00
    0.66230E-08         0.27194E-07         0.00000E+00
    0.74352E-08         0.26460E-07         0.00000E+00
    0.82445E-08         0.25705E-07         0.00000E+00
    0.90484E-08         0.24929E-07         0.00000E+00
    0.98444E-08         0.24133E-07         0.00000E+00
    0.10630E-07         0.23316E-07         0.00000E+00
    0.11403E-07         0.22475E-07         0.00000E+00
    0.12160E-07         0.21608E-07         0.00000E+00
    0.12900E-07         0.20710E-07         0.00000E+00
    0.13619E-07         0.19778E-07         0.00000E+00
    0.14314E-07         0.18806E-07         0.00000E+00
    0.14984E-07         0.17788E-07         0.00000E+00
    0.15623E-07         0.16717E-07         0.00000E+00
    0.16230E-07         0.15587E-07         0.00000E+00
    0.16800E-07         0.14389E-07         0.00000E+00
    0.17329E-07         0.13115E-07         0.00000E+00
    0.17812E-07         0.11754E-07         0.00000E+00
    0.18244E-07         0.10298E-07         0.00000E+00
    0.18621E-07         0.87343E-08         0.00000E+00
    0.18935E-07         0.70512E-08         0.00000E+00
    0.19181E-07         0.52356E-08         0.00000E+00
    0.19352E-07         0.32730E-08         0.00000E+00
    0.19441E-07         0.11476E-08         0.00000E+00
    0.15036E-09         0.24569E-08         0.00000E+00
    0.30159E-09         0.68929E-08         0.00000E+00
    0.60536E-09         0.10722E-07         0.00000E+00
    0.10594E-08         0.14009E-07         0.00000E+00
    0.16580E-08         0.16811E-07         0.00000E+00
    0.23927E-08         0.19180E-07         0.00000E+00
    0.32536E-08         0.21162E-07         0.00000E+00
    0.42298E-08         0.22800E-07         0.00000E+00
    0.53097E-08         0.24129E-07         0.00000E+00
    0.64822E-08         0.25183E-07         0.00000E+00
    0.77361E-08         0.25993E-07         0.00000E+00
    0.90608E-08         0.26586E-07         0.00000E+00
    0.10446E-07         0.26987E-07         0.00000E+00
    0.11883E-07         0.27218E-07         0.00000E+00
    0.13363E-07         0.27300E-07         0.00000E+00
    0.14878E-07         0.27252E-07         0.00000E+00
    0.16422E-07         0.27090E-07         0.00000E+00
    0.17987E-07         0.26830E-07         0.00000E+00
    0.19568E-07         0.26487E-07         0.00000E+00
    0.21160E-07         0.26072E-07         0.00000E+00
    0.22759E-07         0.25598E-07         0.00000E+00
    0.24359E-07         0.25074E-07         0.00000E+00
    0.25959E-07         0.24509E-07         0.00000E+00
    0.27554E-07         0.23912E-07         0.00000E+00
    0.29141E-07         0.23288E-07         0.00000E+00
    0.30718E-07         0.22643E-07         0.00000E+00
    0.32283E-07         0.21981E-07         0.00000E+00
    0.33834E-07         0.21306E-07         0.00000E+00
    0.35367E-07         0.20620E-07         0.00000E+00
    0.36882E-07         0.19924E-07         0.00000E+00
    0.38376E-07         0.19219E-07         0.00000E+00
    0.39848E-07         0.18505E-07         0.00000E+00
    0.41295E-07         0.17781E-07         0.00000E+00
    0.42715E-07         0.17045E-07         0.00000E+00
    0.44107E-07         0.16296E-07         0.00000E+00
    0.45466E-07         0.15530E-07         0.00000E+00
    0.46789E-07         0.14745E-07         0.00000E+00
    0.48074E-07         0.13936E-07         0.00000E+00
    0.49316E-07         0.13102E-07         0.00000E+00
    0.50510E-07         0.12237E-07         0.00000E+00
    0.51649E-07         0.11337E-07         0.00000E+00
    0.52728E-07         0.10398E-07         0.00000E+00
    0.53737E-07         0.94143E-08         0.00000E+00
    0.54669E-07         0.83817E-08         0.00000E+00
    0.55512E-07         0.72941E-08         0.00000E+00
    0.56254E-07         0.61455E-08         0.00000E+00
    0.56882E-07         0.49289E-08         0.00000E+00
    0.57380E-07         0.36366E-08         0.00000E+00
    0.57731E-07         0.22594E-08         0.00000E+00
    0.57917E-07         0.78699E-09         0.00000E+00
    0.25097E-07         0.17220E-08         0.00000E+00
    0.25517E-07         0.47702E-08         0.00000E+00
    0.26316E-07         0.73315E-08         0.00000E+00
    0.27447E-07         0.94767E-08         0.00000E+00
    0.28864E-07         0.11265E-07         0.00000E+00
    0.30525E-07         0.12745E-07         0.00000E+00
    0.32392E-07         0.13957E-07         0.00000E+00
    0.34430E-07         0.14936E-07         0.00000E+00
    0.36607E-07         0.15709E-07         0.00000E+00
    0.38894E-07         0.16302E-07         0.00000E+00
    0.41268E-07         0.16736E-07         0.00000E+00
    0.43707E-07         0.17027E-07         0.00000E+00
    0.46192E-07         0.17193E-07         0.00000E+00
    0.48708E-07         0.17248E-07         0.00000E+00
    0.51241E-07         0.17205E-07         0.00000E+00
    0.53780E-07         0.17075E-07         0.00000E+00
    0.56316E-07         0.16870E-07         0.00000E+00
    0.58841E-07         0.16600E-07         0.00000E+00
    0.61349E-07         0.16273E-07         0.00000E+00
    0.63834E-07         0.15899E-07         0.00000E+00
    0.66293E-07         0.15484E-07         0.00000E+00
    0.68722E-07         0.15037E-07         0.00000E+00
    0.71119E-07         0.14563E-07         0.00000E+00
    0.73482E-07         0.14068E-07         0.00000E+00
    0.75810E-07         0.13556E-07         0.00000E+00
    0.78101E-07         0.13032E-07         0.00000E+00
    0.80355E-07         0.12498E-07         0.00000E+00
    0.82571E-07         0.11957E-07         0.00000E+00
    0.84749E-07         0.11411E-07         0.00000E+00
    0.86888E-07         0.10861E-07         0.00000E+00
    0.88989E-07         0.10308E-07         0.00000E+00
    0.91050E-07         0.97531E-08         0.00000E+00
    0.93070E-07         0.91954E-08         0.00000E+00
    0.95049E-07         0.86351E-08         0.00000E+00
    0.96984E-07         0.80722E-08         0.00000E+00
    0.98875E-07         0.75064E-08         0.00000E+00
    0.10072E-06         0.69379E-08         0.00000E+00
    0.10251E-06         0.63670E-08         0.00000E+00
    0.10424E-06         0.57946E-08         0.00000E+00
    0.10591E-06         0.52217E-08         0.00000E+00
    0.10751E-06         0.46504E-08         0.00000E+00
    0.10903E-06         0.40831E-08         0.00000E+00
    0.11047E-06         0.35230E-08         0.00000E+00
    0.11179E-06         0.29738E-08         0.00000E+00
    0.11300E-06         0.24400E-08         0.00000E+00
    0.11408E-06         0.19263E-08         0.00000E+00
    0.11499E-06         0.14378E-08         0.00000E+00
    0.11572E-06         0.97966E-09         0.00000E+00
    0.11624E-06         0.55652E-09         0.00000E+00
    0.11652E-06         0.17233E-09         0.00000E+00
    0.84614E-07         0.21657E-09         0.00000E+00
    0.85333E-07         0.57748E-09         0.00000E+00
    0.86665E-07         0.86769E-09         0.00000E+00
    0.88500E-07         0.11169E-08         0.00000E+00
    0.90739E-07         0.13429E-08         0.00000E+00
    0.93300E-07         0.15549E-08         0.00000E+00
    0.96111E-07         0.17563E-08         0.00000E+00
    0.99111E-07         0.19464E-08         0.00000E+00
    0.10225E-06         0.21221E-08         0.00000E+00
    0.10548E-06         0.22791E-08         0.00000E+00
    0.10878E-06         0.24129E-08         0.00000E+00
    0.11211E-06         0.25192E-08         0.00000E+00
    0.11544E-06         0.25945E-08         0.00000E+00
    0.11877E-06         0.26362E-08         0.00000E+00
    0.12207E-06         0.26428E-08         0.00000E+00
    0.12534E-06         0.26138E-08         0.00000E+00
    0.12856E-06         0.25497E-08         0.00000E+00
    0.13173E-06         0.24518E-08         0.00000E+00
    0.13484E-06         0.23219E-08         0.00000E+00
    0.13789E-06         0.21625E-08         0.00000E+00
    0.14088E-06         0.19762E-08         0.00000E+00
    0.14381E-06         0.17660E-08         0.00000E+00
    0.14667E-06         0.15347E-08         0.00000E+00
    0.14947E-06         0.12852E-08         0.00000E+00
    0.15221E-06         0.10200E-08         0.00000E+00
    0.15488E-06         0.74168E-09         0.00000E+00
    0.15749E-06         0.45233E-09         0.00000E+00
    0.16005E-06         0.15392E-09         0.00000E+00
    0.16254E-06        -0.15185E-09         0.00000E+00
    0.16498E-06        -0.46342E-09         0.00000E+00
    0.16736E-06        -0.77931E-09         0.00000E+00
    0.16969E-06        -0.10980E-08         0.00000E+00
    0.17196E-06        -0.14178E-08         0.00000E+00
    0.17418E-06        -0.17366E-08         0.00000E+00
    0.17634E-06        -0.20520E-08         0.00000E+00
    0.17845E-06        -0.23605E-08         0.00000E+00
    0.18050E-06        -0.26581E-08         0.00000E+00
    0.18249E-06        -0.29392E-08         0.00000E+00
    0.18442E-06        -0.31971E-08         0.00000E+00
    0.18627E-06        -0.34235E-08         0.00000E+00
    0.18805E-06        -0.36081E-08         0.00000E+00
    0.18975E-06        -0.37386E-08         0.00000E+00
    0.19135E-06        -0.38006E-08         0.00000E+00
    0.19283E-06        -0.37775E-08         0.00000E+00
    0.19419E-06        -0.36503E-08         0.00000E+00
    0.19540E-06        -0.33976E-08         0.00000E+00
    0.19644E-06        -0.29958E-08         0.00000E+00
    0.19727E-06        -0.24191E-08         0.00000E+00
    0.19787E-06        -0.16396E-08         0.00000E+00
    0.19819E-06        -0.62833E-09         0.00000E+00
    0.19455E-06        -0.19153E-08         0.00000E+00
    0.19542E-06        -0.52114E-08         0.00000E+00
    0.19699E-06        -0.78460E-08         0.00000E+00
    0.19910E-06        -0.99037E-08         0.00000E+00
    0.20162E-06        -0.11466E-07         0.00000E+00
    0.20446E-06        -0.12610E-07         0.00000E+00
    0.20751E-06        -0.13408E-07         0.00000E+00
    0.21072E-06        -0.13924E-07         0.00000E+00
    0.21402E-06        -0.14218E-07         0.00000E+00
    0.21738E-06        -0.14340E-07         0.00000E+00
    0.22076E-06        -0.14332E-07         0.00000E+00
    0.22413E-06        -0.14229E-07         0.00000E+00
    0.22747E-06        -0.14063E-07         0.00000E+00
    0.23078E-06        -0.13855E-07         0.00000E+00
    0.23403E-06        -0.13626E-07         0.00000E+00
    0.23722E-06        -0.13389E-07         0.00000E+00
    0.24034E-06        -0.13156E-07         0.00000E+00
    0.24339E-06        -0.12933E-07         0.00000E+00
    0.24636E-06        -0.12728E-07         0.00000E+00
    0.24926E-06        -0.12543E-07         0.00000E+00
    0.25208E-06        -0.12379E-07         0.00000E+00
    0.25483E-06        -0.12239E-07         0.00000E+00
    0.25750E-06        -0.12122E-07         0.00000E+00
    0.26009E-06        -0.12027E-07         0.00000E+00
    0.26261E-06        -0.11954E-07         0.00000E+00
    0.26506E-06        -0.11900E-07         0.00000E+00
    0.26744E-06        -0.11864E-07         0.00000E+00
    0.26975E-06        -0.11846E-07         0.00000E+00
    0.27199E-06        -0.11842E-07         0.00000E+00
    0.27417E-06        -0.11850E-07         0.00000E+00
    0.27628E-06        -0.11869E-07         0.00000E+00
    0.27833E-06        -0.11895E-07         0.00000E+00
    0.28032E-06        -0.11925E-07         0.00000E+00
    0.28225E-06        -0.11956E-07         0.00000E+00
    0.28412E-06        -0.11981E-07         0.00000E+00
    0.28592E-06        -0.11995E-07         0.00000E+00
    0.28766E-06        -0.11990E-07         0.00000E+00
    0.28934E-06        -0.11956E-07         0.00000E+00
    0.29096E-06        -0.11882E-07         0.00000E+00
    0.29250E-06        -0.11752E-07         0.00000E+00
    0.29398E-06        -0.11548E-07         0.00000E+00
    0.29537E-06        -0.11250E-07         0.00000E+00
    0.29668E-06        -0.10832E-07         0.00000E+00
    0.29790E-06        -0.10264E-07         0.00000E+00
    0.29901E-06        -0.95111E-08         0.00000E+00
    0.30000E-06        -0.85348E-08         0.00000E+00
    0.30085E-06        -0.72902E-08         0.00000E+00
    0.30154E-06        -0.57276E-08         0.00000E+00
    0.30203E-06        -0.37920E-08         0.00000E+00
    0.30230E-06        -0.14222E-08         0.00000E+00
    0.35999E-06        -0.39183E-08         0.00000E+00
    0.36060E-06        -0.10556E-07         0.00000E+00
    0.36167E-06        -0.15727E-07         0.00000E+00
    0.36309E-06        -0.19672E-07         0.00000E+00
    0.36475E-06        -0.22613E-07         0.00000E+00
    0.36657E-06        -0.24740E-07         0.00000E+00
    0.36850E-06        -0.26216E-07         0.00000E+00
    0.37051E-06        -0.27177E-07         0.00000E+00
    0.37256E-06        -0.27734E-07         0.00000E+00
    0.37463E-06        -0.27979E-07         0.00000E+00
    0.37671E-06        -0.27985E-07         0.00000E+00
    0.37879E-06        -0.27814E-07         0.00000E+00
    0.38085E-06        -0.27513E-07         0.00000E+00
    0.38289E-06        -0.27120E-07         0.00000E+00
    0.38490E-06        -0.26666E-07         0.00000E+00
    0.38687E-06        -0.26174E-07         0.00000E+00
    0.38881E-06        -0.25663E-07         0.00000E+00
    0.39071E-06        -0.25146E-07         0.00000E+00
    0.39256E-06        -0.24635E-07         0.00000E+00
    0.39436E-06        -0.24135E-07         0.00000E+00
    0.39611E-06        -0.23653E-07         0.00000E+00
    0.39781E-06        -0.23192E-07         0.00000E+00
    0.39945E-06        -0.22753E-07         0.00000E+00
    0.40105E-06        -0.22339E-07         0.00000E+00
    0.40259E-06        -0.21948E-07         0.00000E+00
    0.40408E-06        -0.21580E-07         0.00000E+00
    0.40551E-06        -0.21235E-07         0.00000E+00
    0.40688E-06        -0.20909E-07         0.00000E+00
    0.40821E-06        -0.20602E-07         0.00000E+00
    0.40947E-06        -0.20310E-07         0.00000E+00
    0.41069E-06        -0.20032E-07         0.00000E+00
    0.41184E-06        -0.19762E-07         0.00000E+00
    0.41294E-06        -0.19496E-07         0.00000E+00
    0.41398E-06        -0.19231E-07         0.00000E+00
    0.41497E-06        -0.18958E-07         0.00000E+00
    0.41589E-06        -0.18672E-07         0.00000E+00
    0.41676E-06        -0.18361E-07         0.00000E+00
    0.41757E-06        -0.18017E-07         0.00000E+00
    0.41831E-06        -0.17624E-07         0.00000E+00
    0.41900E-06        -0.17167E-07         0.00000E+00
    0.41962E-06        -0.16625E-07         0.00000E+00
    0.42019E-06        -0.15975E-07         0.00000E+00
    0.42069E-06        -0.15188E-07         0.00000E+00
    0.42114E-06        -0.14228E-07         0.00000E+00
    0.42153E-06        -0.13054E-07         0.00000E+00
    0.42187E-06        -0.11616E-07         0.00000E+00
    0.42215E-06        -0.98548E-08         0.00000E+00
    0.42237E-06        -0.77004E-08         0.00000E+00
    0.42252E-06        -0.50747E-08         0.00000E+00
    0.42261E-06        -0.18927E-08         0.00000E+00
    0.56162E-06        -0.46090E-08         0.00000E+00
    0.56148E-06        -0.12207E-07         0.00000E+00
    0.56118E-06        -0.17981E-07         0.00000E+00
    0.56075E-06        -0.22347E-07         0.00000E+00
    0.56023E-06        -0.25613E-07         0.00000E+00
    0.55967E-06        -0.28018E-07         0.00000E+00
    0.55909E-06        -0.29742E-07         0.00000E+00
    0.55854E-06        -0.30927E-07         0.00000E+00
    0.55803E-06        -0.31685E-07         0.00000E+00
    0.55758E-06        -0.32105E-07         0.00000E+00
    0.55717E-06        -0.32260E-07         0.00000E+00
    0.55683E-06        -0.32206E-07         0.00000E+00
    0.55654E-06        -0.31992E-07         0.00000E+00
    0.55631E-06        -0.31656E-07         0.00000E+00
    0.55612E-06        -0.31229E-07         0.00000E+00
    0.55597E-06        -0.30735E-07         0.00000E+00
    0.55585E-06        -0.30196E-07         0.00000E+00
    0.55576E-06        -0.29628E-07         0.00000E+00
    0.55568E-06        -0.29043E-07         0.00000E+00
    0.55563E-06        -0.28451E-07         0.00000E+00
    0.55558E-06        -0.27859E-07         0.00000E+00
    0.55554E-06        -0.27274E-07         0.00000E+00
    0.55550E-06        -0.26698E-07         0.00000E+00
    0.55545E-06        -0.26136E-07         0.00000E+00
    0.55540E-06        -0.25587E-07         0.00000E+00
    0.55533E-06        -0.25052E-07         0.00000E+00
    0.55526E-06        -0.24531E-07         0.00000E+00
    0.55516E-06        -0.24023E-07         0.00000E+00
    0.55505E-06        -0.23526E-07         0.00000E+00
    0.55491E-06        -0.23037E-07         0.00000E+00
    0.55475E-06        -0.22553E-07         0.00000E+00
    0.55456E-06        -0.22070E-07         0.00000E+00
    0.55434E-06        -0.21584E-07         0.00000E+00
    0.55409E-06        -0.21089E-07         0.00000E+00
    0.55380E-06        -0.20580E-07         0.00000E+00
    0.55347E-06        -0.20048E-07         0.00000E+00
    0.55310E-06        -0.19487E-07         0.00000E+00
    0.55270E-06        -0.18885E-07         0.00000E+00
    0.55225E-06        -0.18233E-07         0.00000E+00
    0.55175E-06        -0.17518E-07         0.00000E+00
    0.55122E-06        -0.16726E-07         0.00000E+00
    0.55065E-06        -0.15840E-07         0.00000E+00
    0.55005E-06        -0.14841E-07         0.00000E+00
    0.54943E-06        -0.13706E-07         0.00000E+00
    0.54880E-06        -0.12406E-07         0.00000E+00
    0.54819E-06        -0.10907E-07         0.00000E+00
    0.54763E-06        -0.91642E-08         0.00000E+00
    0.54716E-06        -0.71184E-08         0.00000E+00
    0.54680E-06        -0.46892E-08         0.00000E+00
    0.54662E-06        -0.17657E-08         0.00000E+00
    0.75037E-06        -0.25824E-08         0.00000E+00
    0.74909E-06        -0.71867E-08         0.00000E+00
    0.74700E-06        -0.11057E-07         0.00000E+00
    0.74444E-06        -0.14291E-07         0.00000E+00
    0.74162E-06        -0.16966E-07         0.00000E+00
    0.73868E-06        -0.19147E-07         0.00000E+00
    0.73571E-06        -0.20892E-07         0.00000E+00
    0.73275E-06        -0.22255E-07         0.00000E+00
    0.72985E-06        -0.23288E-07         0.00000E+00
    0.72702E-06        -0.24036E-07         0.00000E+00
    0.72426E-06        -0.24541E-07         0.00000E+00
    0.72159E-06        -0.24842E-07         0.00000E+00
    0.71900E-06        -0.24974E-07         0.00000E+00
    0.71649E-06        -0.24965E-07         0.00000E+00
    0.71407E-06        -0.24842E-07         0.00000E+00
    0.71172E-06        -0.24629E-07         0.00000E+00
    0.70945E-06        -0.24343E-07         0.00000E+00
    0.70724E-06        -0.24002E-07         0.00000E+00
    0.70510E-06        -0.23618E-07         0.00000E+00
    0.70302E-06        -0.23203E-07         0.00000E+00
    0.70100E-06        -0.22766E-07         0.00000E+00
    0.69903E-06        -0.22313E-07         0.00000E+00
    0.69711E-06        -0.21851E-07         0.00000E+00
    0.69524E-06        -0.21383E-07         0.00000E+00
    0.69341E-06        -0.20912E-07         0.00000E+00
    0.69161E-06        -0.20440E-07         0.00000E+00
    0.68986E-06        -0.19966E-07         0.00000E+00
    0.68813E-06        -0.19491E-07         0.00000E+00
    0.68644E-06        -0.19014E-07         0.00000E+00
    0.68477E-06        -0.18532E-07         0.00000E+00
    0.68313E-06        -0.18044E-07         0.00000E+00
    0.68151E-06        -0.17545E-07         0.00000E+00
    0.67992E-06        -0.17032E-07         0.00000E+00
    0.67834E-06        -0.16500E-07         0.00000E+00
    0.67679E-06        -0.15943E-07         0.00000E+00
    0.67525E-06        -0.15355E-07         0.00000E+00
    0.67372E-06        -0.14730E-07         0.00000E+00
    0.67222E-06        -0.14061E-07         0.00000E+00
    0.67072E-06        -0.13340E-07         0.00000E+00
    0.66924E-06        -0.12559E-07         0.00000E+00
    0.66778E-06        -0.11712E-07         0.00000E+00
    0.66634E-06        -0.10790E-07         0.00000E+00
    0.66492E-06        -0.97881E-08         0.00000E+00
    0.66353E-06        -0.87029E-08         0.00000E+00
    0.66218E-06        -0.75329E-08         0.00000E+00
    0.66089E-06        -0.62811E-08         0.00000E+00
    0.65968E-06        -0.49556E-08         0.00000E+00
    0.65861E-06        -0.35707E-08         0.00000E+00
    0.65774E-06        -0.21477E-08         0.00000E+00
    0.65721E-06        -0.71256E-09         0.00000E+00
    0.85810E-06        -0.34706E-09         0.00000E+00
    0.85776E-06        -0.13558E-08         0.00000E+00
    0.85698E-06        -0.25339E-08         0.00000E+00
    0.85573E-06        -0.37285E-08         0.00000E+00
    0.85401E-06        -0.48525E-08         0.00000E+00
    0.85187E-06        -0.58597E-08         0.00000E+00
    0.84935E-06        -0.67301E-08         0.00000E+00
    0.84651E-06        -0.74594E-08         0.00000E+00
    0.84341E-06        -0.80529E-08         0.00000E+00
    0.84010E-06        -0.85208E-08         0.00000E+00
    0.83662E-06        -0.88761E-08         0.00000E+00
    0.83301E-06        -0.91324E-08         0.00000E+00
    0.82933E-06        -0.93035E-08         0.00000E+00
    0.82559E-06        -0.94021E-08         0.00000E+00
    0.82182E-06        -0.94399E-08         0.00000E+00
    0.81804E-06        -0.94275E-08         0.00000E+00
    0.81428E-06        -0.93740E-08         0.00000E+00
    0.81055E-06        -0.92874E-08         0.00000E+00
    0.80686E-06        -0.91743E-08         0.00000E+00
    0.80322E-06        -0.90404E-08         0.00000E+00
    0.79963E-06        -0.88904E-08         0.00000E+00
    0.79611E-06        -0.87278E-08         0.00000E+00
    0.79265E-06        -0.85557E-08         0.00000E+00
    0.78926E-06        -0.83763E-08         0.00000E+00
    0.78595E-06        -0.81912E-08         0.00000E+00
    0.78271E-06        -0.80015E-08         0.00000E+00
    0.77955E-06        -0.78076E-08         0.00000E+00
    0.77647E-06        -0.76097E-08         0.00000E+00
    0.77346E-06        -0.74075E-08         0.00000E+00
    0.77054E-06        -0.72001E-08         0.00000E+00
    0.76770E-06        -0.69866E-08         0.00000E+00
    0.76495E-06        -0.67654E-08         0.00000E+00
    0.76229E-06        -0.65347E-08         0.00000E+00
    0.75973E-06        -0.62925E-08         0.00000E+00
    0.75726E-06        -0.60362E-08         0.00000E+00
    0.75490E-06        -0.57632E-08         0.00000E+00
    0.75266E-06        -0.54705E-08         0.00000E+00
    0.75053E-06        -0.51549E-08         0.00000E+00
    0.74854E-06        -0.48134E-08         0.00000E+00
    0.74669E-06        -0.44428E-08         0.00000E+00
    0.74499E-06        -0.40406E-08         0.00000E+00
    0.74346E-06        -0.36051E-08         0.00000E+00
    0.74211E-06        -0.31359E-08         0.00000E+00
    0.74096E-06        -0.26350E-08         0.00000E+00
    0.74001E-06        -0.21084E-08         0.00000E+00
    0.73927E-06        -0.15678E-08         0.00000E+00
    0.73875E-06        -0.10340E-08         0.00000E+00
    0.73844E-06        -0.54225E-09         0.00000E+00
    0.73830E-06        -0.14955E-09         0.00000E+00
    0.73828E-06         0.53114E-10         0.00000E+00
POINT_DATA       5151
VECTORS vDarcyNodal double 
    0.57621E-06         0.00000E+00         0.00000E+00
    0.57613E-06         0.00000E+00         0.00000E+00
    0.57579E-06         0.00000E+00         0.00000E+00
    0.57509E-06         0.00000E+00         0.00000E+00
    0.57398E-06         0.00000E+00         0.00000E+00
    0.57244E-06         0.00000E+00         0.00000E+00
    0.57046E-06         0.00000E+00         0.00000E+00
    0.56820E-06         0.00000E+00         0.00000E+00
    0.56583E-06         0.00000E+00         0.00000E+00
    0.56341E-06         0.00000E+00         0.00000E+00
    0.56092E-06         0.00000E+00         0.00000E+00
    0.55840E-06         0.00000E+00         0.00000E+00
    0.55585E-06         0.00000E+00         0.00000E+00
    0.55327E-06         0.00000E+00         0.00000E+00
    0.55069E-06         0.00000E+00         0.00000E+00
    0.54812E-06         0.00000E+00         0.00000E+00
    0.54556E-06         0.00000E+00         0.00000E+00
    0.54303E-06         0.00000E+00         0.00000E+00
    0.54052E-06         0.00000E+00         0.00000E+00
    0.53805E-06         0.00000E+00         0.00000E+00
    0.53562E-06         0.00000E+00         0.00000E+00
    0.53323E-06         0.00000E+00         0.00000E+00
    0.53089E-06         0.00000E+00         0.00000E+00
    0.52859E-06         0.00000E+00         0.00000E+00
    0.52635E-06         0.00000E+00         0.00000E+00
    0.52415E-06         0.00000E+00         0.00000E+00
    0.52200E-06         0.00000E+00         0.00000E+00
    0.51991E-06         0.00000E+00         0.00000E+00
    0.51787E-06         0.00000E+00         0.00000E+00
    0.51588E-06         0.00000E+00         0.00000E+00
    0.51395E-06         0.00000E+00         0.00000E+00
    0.51207E-06         0.00000E+00         0.00000E+00
    0.51026E-06         0.00000E+00         0.00000E+00
    0.50850E-06         0.00000E+00         0.00000E+00
    0.50681E-06         0.00000E+00         0.00000E+00
    0.50519E-06         0.00000E+00         0.00000E+00
    0.50365E-06         0.00000E+00         0.00000E+00
    0.50218E-06         0.00000E+00         0.00000E+00
    0.50080E-06         0.00000E+00         0.00000E+00
    0.49950E-06         0.00000E+00         0.00000E+00
    0.49831E-06         0.00000E+00         0.00000E+00
    0.49723E-06         0.00000E+00         0.00000E+00
    0.49626E-06         0.00000E+00         0.00000E+00
    0.49542E-06         0.00000E+00         0.00000E+00
    0.49471E-06         0.00000E+00         0.00000E+00
    0.49414E-06         0.00000E+00         0.00000E+00
    0.49372E-06         0.00000E+00         0.00000E+00
    0.49345E-06         0.00000E+00         0.00000E+00
    0.49330E-06         0.00000E+00         0.00000E+00
    0.49326E-06         0.00000E+00         0.00000E+00
    0.49327E-06         0.00000E+00         0.00000E+00
    0.53602E-06         0.39448E-09         0.00000E+00
    0.53574E-06         0.10497E-08         0.00000E+00
    0.53499E-06         0.26033E-08         0.00000E+00
    0.53389E-06         0.45276E-08         0.00000E+00
    0.53253E-06         0.66373E-08         0.00000E+00
    0.53098E-06         0.87967E-08         0.00000E+00
    0.52929E-06         0.10583E-07         0.00000E+00
    0.52749E-06         0.11565E-07         0.00000E+00
    0.52559E-06         0.11991E-07         0.00000E+00
    0.52363E-06         0.12276E-07         0.00000E+00
    0.52162E-06         0.12514E-07         0.00000E+00
    0.51959E-06         0.12698E-07         0.00000E+00
    0.51755E-06         0.12818E-07         0.00000E+00
    0.51551E-06         0.12876E-07         0.00000E+00
    0.51348E-06         0.12877E-07         0.00000E+00
    0.51148E-06         0.12826E-07         0.00000E+00
    0.50949E-06         0.12732E-07         0.00000E+00
    0.50753E-06         0.12601E-07         0.00000E+00
    0.50561E-06         0.12439E-07         0.00000E+00
    0.50371E-06         0.12254E-07         0.00000E+00
    0.50185E-06         0.12050E-07         0.00000E+00
    0.50003E-06         0.11830E-07         0.00000E+00
    0.49824E-06         0.11599E-07         0.00000E+00
    0.49649E-06         0.11359E-07         0.00000E+00
    0.49477E-06         0.11113E-07         0.00000E+00
    0.49309E-06         0.10860E-07         0.00000E+00
    0.49144E-06         0.10603E-07         0.00000E+00
    0.48983E-06         0.10340E-07         0.00000E+00
    0.48825E-06         0.10072E-07         0.00000E+00
    0.48671E-06         0.97984E-08         0.00000E+00
    0.48521E-06         0.95168E-08         0.00000E+00
    0.48374E-06         0.92259E-08         0.00000E+00
    0.48230E-06         0.89233E-08         0.00000E+00
    0.48090E-06         0.86064E-08         0.00000E+00
    0.47954E-06         0.82722E-08         0.00000E+00
    0.47822E-06         0.79172E-08         0.00000E+00
    0.47694E-06         0.75376E-08         0.00000E+00
    0.47571E-06         0.71294E-08         0.00000E+00
    0.47452E-06         0.66883E-08         0.00000E+00
    0.47338E-06         0.62103E-08         0.00000E+00
    0.47229E-06         0.56917E-08         0.00000E+00
    0.47127E-06         0.51295E-08         0.00000E+00
    0.47031E-06         0.45225E-08         0.00000E+00
    0.46942E-06         0.38718E-08         0.00000E+00
    0.46861E-06         0.31827E-08         0.00000E+00
    0.46788E-06         0.24671E-08         0.00000E+00
    0.46725E-06         0.17467E-08         0.00000E+00
    0.46673E-06         0.10591E-08         0.00000E+00
    0.46632E-06         0.46591E-09         0.00000E+00
    0.46606E-06         0.66084E-10         0.00000E+00
    0.46596E-06        -0.70268E-10         0.00000E+00
    0.43361E-06         0.28643E-08         0.00000E+00
    0.43335E-06         0.51818E-08         0.00000E+00
    0.43272E-06         0.92342E-08         0.00000E+00
    0.43189E-06         0.12276E-07         0.00000E+00
    0.43098E-06         0.14556E-07         0.00000E+00
    0.43007E-06         0.16227E-07         0.00000E+00
    0.42922E-06         0.17474E-07         0.00000E+00
    0.42841E-06         0.18487E-07         0.00000E+00
    0.42758E-06         0.19290E-07         0.00000E+00
    0.42674E-06         0.19847E-07         0.00000E+00
    0.42591E-06         0.20188E-07         0.00000E+00
    0.42510E-06         0.20358E-07         0.00000E+00
    0.42432E-06         0.20395E-07         0.00000E+00
    0.42355E-06         0.20327E-07         0.00000E+00
    0.42282E-06         0.20180E-07         0.00000E+00
    0.42211E-06         0.19970E-07         0.00000E+00
    0.42142E-06         0.19713E-07         0.00000E+00
    0.42076E-06         0.19420E-07         0.00000E+00
    0.42011E-06         0.19102E-07         0.00000E+00
    0.41949E-06         0.18767E-07         0.00000E+00
    0.41887E-06         0.18420E-07         0.00000E+00
    0.41827E-06         0.18066E-07         0.00000E+00
    0.41768E-06         0.17708E-07         0.00000E+00
    0.41710E-06         0.17350E-07         0.00000E+00
    0.41653E-06         0.16993E-07         0.00000E+00
    0.41596E-06         0.16638E-07         0.00000E+00
    0.41539E-06         0.16286E-07         0.00000E+00
    0.41482E-06         0.15935E-07         0.00000E+00
    0.41426E-06         0.15585E-07         0.00000E+00
    0.41369E-06         0.15236E-07         0.00000E+00
    0.41312E-06         0.14884E-07         0.00000E+00
    0.41254E-06         0.14528E-07         0.00000E+00
    0.41196E-06         0.14166E-07         0.00000E+00
    0.41138E-06         0.13794E-07         0.00000E+00
    0.41079E-06         0.13408E-07         0.00000E+00
    0.41018E-06         0.13004E-07         0.00000E+00
    0.40957E-06         0.12578E-07         0.00000E+00
    0.40895E-06         0.12125E-07         0.00000E+00
    0.40832E-06         0.11639E-07         0.00000E+00
    0.40767E-06         0.11115E-07         0.00000E+00
    0.40702E-06         0.10545E-07         0.00000E+00
    0.40636E-06         0.99246E-08         0.00000E+00
    0.40569E-06         0.92453E-08         0.00000E+00
    0.40502E-06         0.85001E-08         0.00000E+00
    0.40436E-06         0.76804E-08         0.00000E+00
    0.40371E-06         0.67758E-08         0.00000E+00
    0.40309E-06         0.57718E-08         0.00000E+00
    0.40253E-06         0.46460E-08         0.00000E+00
    0.40206E-06         0.33606E-08         0.00000E+00
    0.40172E-06         0.18481E-08         0.00000E+00
    0.40158E-06         0.10241E-08         0.00000E+00
    0.30501E-06         0.29693E-08         0.00000E+00
    0.30510E-06         0.54654E-08         0.00000E+00
    0.30533E-06         0.98795E-08         0.00000E+00
    0.30566E-06         0.13242E-07         0.00000E+00
    0.30605E-06         0.15754E-07         0.00000E+00
    0.30650E-06         0.17598E-07         0.00000E+00
    0.30697E-06         0.18906E-07         0.00000E+00
    0.30749E-06         0.19773E-07         0.00000E+00
    0.30805E-06         0.20304E-07         0.00000E+00
    0.30865E-06         0.20598E-07         0.00000E+00
    0.30929E-06         0.20714E-07         0.00000E+00
    0.30995E-06         0.20692E-07         0.00000E+00
    0.31063E-06         0.20566E-07         0.00000E+00
    0.31132E-06         0.20362E-07         0.00000E+00
    0.31202E-06         0.20103E-07         0.00000E+00
    0.31272E-06         0.19804E-07         0.00000E+00
    0.31342E-06         0.19481E-07         0.00000E+00
    0.31411E-06         0.19143E-07         0.00000E+00
    0.31479E-06         0.18799E-07         0.00000E+00
    0.31546E-06         0.18454E-07         0.00000E+00
    0.31611E-06         0.18114E-07         0.00000E+00
    0.31674E-06         0.17781E-07         0.00000E+00
    0.31735E-06         0.17457E-07         0.00000E+00
    0.31794E-06         0.17145E-07         0.00000E+00
    0.31851E-06         0.16843E-07         0.00000E+00
    0.31905E-06         0.16552E-07         0.00000E+00
    0.31956E-06         0.16273E-07         0.00000E+00
    0.32004E-06         0.16003E-07         0.00000E+00
    0.32050E-06         0.15742E-07         0.00000E+00
    0.32093E-06         0.15488E-07         0.00000E+00
    0.32133E-06         0.15240E-07         0.00000E+00
    0.32170E-06         0.14995E-07         0.00000E+00
    0.32204E-06         0.14750E-07         0.00000E+00
    0.32235E-06         0.14503E-07         0.00000E+00
    0.32262E-06         0.14250E-07         0.00000E+00
    0.32286E-06         0.13986E-07         0.00000E+00
    0.32306E-06         0.13705E-07         0.00000E+00
    0.32323E-06         0.13402E-07         0.00000E+00
    0.32336E-06         0.13069E-07         0.00000E+00
    0.32346E-06         0.12695E-07         0.00000E+00
    0.32352E-06         0.12271E-07         0.00000E+00
    0.32354E-06         0.11782E-07         0.00000E+00
    0.32353E-06         0.11211E-07         0.00000E+00
    0.32350E-06         0.10539E-07         0.00000E+00
    0.32343E-06         0.97388E-08         0.00000E+00
    0.32335E-06         0.87800E-08         0.00000E+00
    0.32326E-06         0.76237E-08         0.00000E+00
    0.32317E-06         0.62230E-08         0.00000E+00
    0.32310E-06         0.45227E-08         0.00000E+00
    0.32305E-06         0.24624E-08         0.00000E+00
    0.32303E-06         0.13346E-08         0.00000E+00
    0.18404E-06         0.19152E-08         0.00000E+00
    0.18430E-06         0.35376E-08         0.00000E+00
    0.18499E-06         0.64304E-08         0.00000E+00
    0.18600E-06         0.86756E-08         0.00000E+00
    0.18727E-06         0.10378E-07         0.00000E+00
    0.18871E-06         0.11627E-07         0.00000E+00
    0.19029E-06         0.12510E-07         0.00000E+00
    0.19197E-06         0.13104E-07         0.00000E+00
    0.19370E-06         0.13469E-07         0.00000E+00
    0.19548E-06         0.13653E-07         0.00000E+00
    0.19728E-06         0.13701E-07         0.00000E+00
    0.19908E-06         0.13651E-07         0.00000E+00
    0.20089E-06         0.13533E-07         0.00000E+00
    0.20268E-06         0.13370E-07         0.00000E+00
    0.20446E-06         0.13180E-07         0.00000E+00
    0.20621E-06         0.12976E-07         0.00000E+00
    0.20793E-06         0.12768E-07         0.00000E+00
    0.20962E-06         0.12563E-07         0.00000E+00
    0.21127E-06         0.12366E-07         0.00000E+00
    0.21289E-06         0.12181E-07         0.00000E+00
    0.21446E-06         0.12010E-07         0.00000E+00
    0.21599E-06         0.11853E-07         0.00000E+00
    0.21748E-06         0.11712E-07         0.00000E+00
    0.21893E-06         0.11585E-07         0.00000E+00
    0.22034E-06         0.11473E-07         0.00000E+00
    0.22170E-06         0.11374E-07         0.00000E+00
    0.22302E-06         0.11287E-07         0.00000E+00
    0.22430E-06         0.11211E-07         0.00000E+00
    0.22554E-06         0.11145E-07         0.00000E+00
    0.22673E-06         0.11087E-07         0.00000E+00
    0.22789E-06         0.11036E-07         0.00000E+00
    0.22900E-06         0.10989E-07         0.00000E+00
    0.23007E-06         0.10944E-07         0.00000E+00
    0.23110E-06         0.10899E-07         0.00000E+00
    0.23209E-06         0.10849E-07         0.00000E+00
    0.23304E-06         0.10790E-07         0.00000E+00
    0.23395E-06         0.10717E-07         0.00000E+00
    0.23481E-06         0.10624E-07         0.00000E+00
    0.23563E-06         0.10501E-07         0.00000E+00
    0.23641E-06         0.10340E-07         0.00000E+00
    0.23715E-06         0.10126E-07         0.00000E+00
    0.23783E-06         0.98452E-08         0.00000E+00
    0.23847E-06         0.94791E-08         0.00000E+00
    0.23906E-06         0.90060E-08         0.00000E+00
    0.23960E-06         0.84001E-08         0.00000E+00
    0.24008E-06         0.76316E-08         0.00000E+00
    0.24049E-06         0.66664E-08         0.00000E+00
    0.24084E-06         0.54657E-08         0.00000E+00
    0.24110E-06         0.39864E-08         0.00000E+00
    0.24127E-06         0.21798E-08         0.00000E+00
    0.24134E-06         0.11882E-08         0.00000E+00
    0.93112E-07         0.39670E-09         0.00000E+00
    0.93388E-07         0.74272E-09         0.00000E+00
    0.94136E-07         0.13653E-08         0.00000E+00
    0.95262E-07         0.18527E-08         0.00000E+00
    0.96686E-07         0.22152E-08         0.00000E+00
    0.98340E-07         0.24687E-08         0.00000E+00
    0.10017E-06         0.26296E-08         0.00000E+00
    0.10213E-06         0.27142E-08         0.00000E+00
    0.10419E-06         0.27409E-08         0.00000E+00
    0.10630E-06         0.27272E-08         0.00000E+00
    0.10846E-06         0.26869E-08         0.00000E+00
    0.11064E-06         0.26321E-08         0.00000E+00
    0.11282E-06         0.25729E-08         0.00000E+00
    0.11499E-06         0.25177E-08         0.00000E+00
    0.11715E-06         0.24729E-08         0.00000E+00
    0.11928E-06         0.24431E-08         0.00000E+00
    0.12138E-06         0.24312E-08         0.00000E+00
    0.12345E-06         0.24388E-08         0.00000E+00
    0.12548E-06         0.24663E-08         0.00000E+00
    0.12747E-06         0.25134E-08         0.00000E+00
    0.12942E-06         0.25792E-08         0.00000E+00
    0.13132E-06         0.26623E-08         0.00000E+00
    0.13318E-06         0.27610E-08         0.00000E+00
    0.13500E-06         0.28735E-08         0.00000E+00
    0.13678E-06         0.29981E-08         0.00000E+00
    0.13851E-06         0.31330E-08         0.00000E+00
    0.14020E-06         0.32765E-08         0.00000E+00
    0.14185E-06         0.34271E-08         0.00000E+00
    0.14345E-06         0.35834E-08         0.00000E+00
    0.14502E-06         0.37438E-08         0.00000E+00
    0.14655E-06         0.39070E-08         0.00000E+00
    0.14803E-06         0.40715E-08         0.00000E+00
    0.14948E-06         0.42357E-08         0.00000E+00
    0.15089E-06         0.43977E-08         0.00000E+00
    0.15226E-06         0.45549E-08         0.00000E+00
    0.15360E-06         0.47045E-08         0.00000E+00
    0.15489E-06         0.48427E-08         0.00000E+00
    0.15614E-06         0.49646E-08         0.00000E+00
    0.15735E-06         0.50645E-08         0.00000E+00
    0.15852E-06         0.51350E-08         0.00000E+00
    0.15963E-06         0.51672E-08         0.00000E+00
    0.16070E-06         0.51506E-08         0.00000E+00
    0.16170E-06         0.50725E-08         0.00000E+00
    0.16265E-06         0.49182E-08         0.00000E+00
    0.16352E-06         0.46708E-08         0.00000E+00
    0.16430E-06         0.43111E-08         0.00000E+00
    0.16499E-06         0.38176E-08         0.00000E+00
    0.16556E-06         0.31663E-08         0.00000E+00
    0.16601E-06         0.23308E-08         0.00000E+00
    0.16629E-06         0.12826E-08         0.00000E+00
    0.16640E-06         0.70159E-09         0.00000E+00
    0.37058E-07        -0.84310E-09         0.00000E+00
    0.37252E-07        -0.15837E-08         0.00000E+00
    0.37794E-07        -0.29410E-08         0.00000E+00
    0.38628E-07        -0.40718E-08         0.00000E+00
    0.39706E-07        -0.50136E-08         0.00000E+00
    0.40984E-07        -0.57964E-08         0.00000E+00
    0.42426E-07        -0.64428E-08         0.00000E+00
    0.43998E-07        -0.69704E-08         0.00000E+00
    0.45671E-07        -0.73937E-08         0.00000E+00
    0.47422E-07        -0.77242E-08         0.00000E+00
    0.49230E-07        -0.79710E-08         0.00000E+00
    0.51079E-07        -0.81419E-08         0.00000E+00
    0.52953E-07        -0.82437E-08         0.00000E+00
    0.54841E-07        -0.82826E-08         0.00000E+00
    0.56733E-07        -0.82644E-08         0.00000E+00
    0.58621E-07        -0.81947E-08         0.00000E+00
    0.60500E-07        -0.80788E-08         0.00000E+00
    0.62363E-07        -0.79217E-08         0.00000E+00
    0.64207E-07        -0.77285E-08         0.00000E+00
    0.66029E-07        -0.75040E-08         0.00000E+00
    0.67825E-07        -0.72527E-08         0.00000E+00
    0.69595E-07        -0.69789E-08         0.00000E+00
    0.71337E-07        -0.66866E-08         0.00000E+00
    0.73050E-07        -0.63794E-08         0.00000E+00
    0.74734E-07        -0.60605E-08         0.00000E+00
    0.76387E-07        -0.57327E-08         0.00000E+00
    0.78011E-07        -0.53985E-08         0.00000E+00
    0.79604E-07        -0.50598E-08         0.00000E+00
    0.81167E-07        -0.47184E-08         0.00000E+00
    0.82700E-07        -0.43756E-08         0.00000E+00
    0.84203E-07        -0.40324E-08         0.00000E+00
    0.85676E-07        -0.36898E-08         0.00000E+00
    0.87119E-07        -0.33483E-08         0.00000E+00
    0.88531E-07        -0.30087E-08         0.00000E+00
    0.89912E-07        -0.26717E-08         0.00000E+00
    0.91261E-07        -0.23383E-08         0.00000E+00
    0.92575E-07        -0.20097E-08         0.00000E+00
    0.93855E-07        -0.16874E-08         0.00000E+00
    0.95096E-07        -0.13736E-08         0.00000E+00
    0.96295E-07        -0.10709E-08         0.00000E+00
    0.97448E-07        -0.78267E-09         0.00000E+00
    0.98550E-07        -0.51313E-09         0.00000E+00
    0.99594E-07        -0.26722E-09         0.00000E+00
    0.10057E-06        -0.50733E-10         0.00000E+00
    0.10147E-06         0.12967E-09         0.00000E+00
    0.10229E-06         0.26652E-09         0.00000E+00
    0.10300E-06         0.35167E-09         0.00000E+00
    0.10359E-06         0.37637E-09         0.00000E+00
    0.10404E-06         0.33160E-09         0.00000E+00
    0.10433E-06         0.20829E-09         0.00000E+00
    0.10444E-06         0.12588E-09         0.00000E+00
    0.90419E-08        -0.15492E-08         0.00000E+00
    0.91360E-08        -0.29374E-08         0.00000E+00
    0.94077E-08        -0.55119E-08         0.00000E+00
    0.98412E-08        -0.77067E-08         0.00000E+00
    0.10420E-07        -0.95671E-08         0.00000E+00
    0.11129E-07        -0.11132E-07         0.00000E+00
    0.11950E-07        -0.12437E-07         0.00000E+00
    0.12870E-07        -0.13511E-07         0.00000E+00
    0.13874E-07        -0.14381E-07         0.00000E+00
    0.14949E-07        -0.15069E-07         0.00000E+00
    0.16084E-07        -0.15596E-07         0.00000E+00
    0.17267E-07        -0.15980E-07         0.00000E+00
    0.18490E-07        -0.16238E-07         0.00000E+00
    0.19744E-07        -0.16384E-07         0.00000E+00
    0.21022E-07        -0.16431E-07         0.00000E+00
    0.22318E-07        -0.16391E-07         0.00000E+00
    0.23626E-07        -0.16277E-07         0.00000E+00
    0.24942E-07        -0.16097E-07         0.00000E+00
    0.26261E-07        -0.15861E-07         0.00000E+00
    0.27581E-07        -0.15578E-07         0.00000E+00
    0.28897E-07        -0.15254E-07         0.00000E+00
    0.30209E-07        -0.14898E-07         0.00000E+00
    0.31512E-07        -0.14514E-07         0.00000E+00
    0.32807E-07        -0.14109E-07         0.00000E+00
    0.34090E-07        -0.13687E-07         0.00000E+00
    0.35361E-07        -0.13252E-07         0.00000E+00
    0.36618E-07        -0.12807E-07         0.00000E+00
    0.37860E-07        -0.12355E-07         0.00000E+00
    0.39087E-07        -0.11898E-07         0.00000E+00
    0.40297E-07        -0.11437E-07         0.00000E+00
    0.41490E-07        -0.10973E-07         0.00000E+00
    0.42664E-07        -0.10507E-07         0.00000E+00
    0.43819E-07        -0.10038E-07         0.00000E+00
    0.44953E-07        -0.95670E-08         0.00000E+00
    0.46065E-07        -0.90921E-08         0.00000E+00
    0.47153E-07        -0.86129E-08         0.00000E+00
    0.48216E-07        -0.81282E-08         0.00000E+00
    0.49250E-07        -0.76367E-08         0.00000E+00
    0.50254E-07        -0.71373E-08         0.00000E+00
    0.51224E-07        -0.66285E-08         0.00000E+00
    0.52155E-07        -0.61090E-08         0.00000E+00
    0.53044E-07        -0.55776E-08         0.00000E+00
    0.53883E-07        -0.50329E-08         0.00000E+00
    0.54666E-07        -0.44736E-08         0.00000E+00
    0.55385E-07        -0.38984E-08         0.00000E+00
    0.56031E-07        -0.33057E-08         0.00000E+00
    0.56592E-07        -0.26938E-08         0.00000E+00
    0.57057E-07        -0.20604E-08         0.00000E+00
    0.57410E-07        -0.14028E-08         0.00000E+00
    0.57637E-07        -0.71725E-09         0.00000E+00
    0.57719E-07        -0.36700E-09         0.00000E+00
   -0.13023E-08        -0.17845E-08         0.00000E+00
   -0.12843E-08        -0.34127E-08         0.00000E+00
   -0.12237E-08        -0.64671E-08         0.00000E+00
   -0.11136E-08        -0.91353E-08         0.00000E+00
   -0.95012E-09        -0.11451E-07         0.00000E+00
   -0.73168E-09        -0.13446E-07         0.00000E+00
   -0.45831E-09        -0.15150E-07         0.00000E+00
   -0.13136E-09        -0.16589E-07         0.00000E+00
    0.24691E-09        -0.17789E-07         0.00000E+00
    0.67362E-09        -0.18772E-07         0.00000E+00
    0.11455E-08        -0.19560E-07         0.00000E+00
    0.16590E-08        -0.20173E-07         0.00000E+00
    0.22106E-08        -0.20628E-07         0.00000E+00
    0.27967E-08        -0.20944E-07         0.00000E+00
    0.34138E-08        -0.21135E-07         0.00000E+00
    0.40584E-08        -0.21215E-07         0.00000E+00
    0.47272E-08        -0.21199E-07         0.00000E+00
    0.54173E-08        -0.21097E-07         0.00000E+00
    0.61256E-08        -0.20923E-07         0.00000E+00
    0.68495E-08        -0.20684E-07         0.00000E+00
    0.75862E-08        -0.20392E-07         0.00000E+00
    0.83335E-08        -0.20053E-07         0.00000E+00
    0.90889E-08        -0.19676E-07         0.00000E+00
    0.98503E-08        -0.19267E-07         0.00000E+00
    0.10616E-07        -0.18831E-07         0.00000E+00
    0.11383E-07        -0.18373E-07         0.00000E+00
    0.12151E-07        -0.17897E-07         0.00000E+00
    0.12918E-07        -0.17407E-07         0.00000E+00
    0.13681E-07        -0.16904E-07         0.00000E+00
    0.14440E-07        -0.16390E-07         0.00000E+00
    0.15192E-07        -0.15867E-07         0.00000E+00
    0.15936E-07        -0.15334E-07         0.00000E+00
    0.16671E-07        -0.14791E-07         0.00000E+00
    0.17396E-07        -0.14238E-07         0.00000E+00
    0.18107E-07        -0.13672E-07         0.00000E+00
    0.18804E-07        -0.13093E-07         0.00000E+00
    0.19485E-07        -0.12496E-07         0.00000E+00
    0.20147E-07        -0.11880E-07         0.00000E+00
    0.20788E-07        -0.11242E-07         0.00000E+00
    0.21406E-07        -0.10577E-07         0.00000E+00
    0.21997E-07        -0.98810E-08         0.00000E+00
    0.22558E-07        -0.91500E-08         0.00000E+00
    0.23085E-07        -0.83789E-08         0.00000E+00
    0.23575E-07        -0.75623E-08         0.00000E+00
    0.24021E-07        -0.66943E-08         0.00000E+00
    0.24419E-07        -0.57685E-08         0.00000E+00
    0.24762E-07        -0.47779E-08         0.00000E+00
    0.25043E-07        -0.37146E-08         0.00000E+00
    0.25255E-07        -0.25699E-08         0.00000E+00
    0.25389E-07        -0.13343E-08         0.00000E+00
    0.25437E-07        -0.69247E-09         0.00000E+00
   -0.27022E-08        -0.17288E-08         0.00000E+00
   -0.27267E-08        -0.33304E-08         0.00000E+00
   -0.27881E-08        -0.63656E-08         0.00000E+00
   -0.28718E-08        -0.90745E-08         0.00000E+00
   -0.29660E-08        -0.11477E-07         0.00000E+00
   -0.30610E-08        -0.13592E-07         0.00000E+00
   -0.31492E-08        -0.15439E-07         0.00000E+00
   -0.32245E-08        -0.17037E-07         0.00000E+00
   -0.32824E-08        -0.18406E-07         0.00000E+00
   -0.33196E-08        -0.19562E-07         0.00000E+00
   -0.33335E-08        -0.20523E-07         0.00000E+00
   -0.33228E-08        -0.21306E-07         0.00000E+00
   -0.32864E-08        -0.21926E-07         0.00000E+00
   -0.32242E-08        -0.22399E-07         0.00000E+00
   -0.31363E-08        -0.22739E-07         0.00000E+00
   -0.30232E-08        -0.22959E-07         0.00000E+00
   -0.28859E-08        -0.23071E-07         0.00000E+00
   -0.27253E-08        -0.23089E-07         0.00000E+00
   -0.25427E-08        -0.23022E-07         0.00000E+00
   -0.23397E-08        -0.22881E-07         0.00000E+00
   -0.21177E-08        -0.22674E-07         0.00000E+00
   -0.18784E-08        -0.22411E-07         0.00000E+00
   -0.16235E-08        -0.22099E-07         0.00000E+00
   -0.13547E-08        -0.21744E-07         0.00000E+00
   -0.10737E-08        -0.21352E-07         0.00000E+00
   -0.78238E-09        -0.20929E-07         0.00000E+00
   -0.48242E-09        -0.20478E-07         0.00000E+00
   -0.17555E-09        -0.20004E-07         0.00000E+00
    0.13653E-09        -0.19507E-07         0.00000E+00
    0.45213E-09        -0.18992E-07         0.00000E+00
    0.76962E-09        -0.18457E-07         0.00000E+00
    0.10874E-08        -0.17905E-07         0.00000E+00
    0.14039E-08        -0.17335E-07         0.00000E+00
    0.17176E-08        -0.16745E-07         0.00000E+00
    0.20270E-08        -0.16134E-07         0.00000E+00
    0.23306E-08        -0.15501E-07         0.00000E+00
    0.26269E-08        -0.14842E-07         0.00000E+00
    0.29145E-08        -0.14153E-07         0.00000E+00
    0.31917E-08        -0.13432E-07         0.00000E+00
    0.34572E-08        -0.12673E-07         0.00000E+00
    0.37093E-08        -0.11871E-07         0.00000E+00
    0.39463E-08        -0.11021E-07         0.00000E+00
    0.41666E-08        -0.10117E-07         0.00000E+00
    0.43684E-08        -0.91518E-08         0.00000E+00
    0.45499E-08        -0.81184E-08         0.00000E+00
    0.47091E-08        -0.70089E-08         0.00000E+00
    0.48439E-08        -0.58147E-08         0.00000E+00
    0.49524E-08        -0.45266E-08         0.00000E+00
    0.50324E-08        -0.31348E-08         0.00000E+00
    0.50820E-08        -0.16285E-08         0.00000E+00
    0.50991E-08        -0.84535E-09         0.00000E+00
   -0.65608E-09        -0.15394E-08         0.00000E+00
   -0.69773E-09        -0.29831E-08         0.00000E+00
   -0.81136E-09        -0.57413E-08         0.00000E+00
   -0.98271E-09        -0.82456E-08         0.00000E+00
   -0.11991E-08        -0.10505E-07         0.00000E+00
   -0.14496E-08        -0.12531E-07         0.00000E+00
   -0.17244E-08        -0.14333E-07         0.00000E+00
   -0.20153E-08        -0.15923E-07         0.00000E+00
   -0.23150E-08        -0.17314E-07         0.00000E+00
   -0.26177E-08        -0.18517E-07         0.00000E+00
   -0.29181E-08        -0.19544E-07         0.00000E+00
   -0.32122E-08        -0.20408E-07         0.00000E+00
   -0.34965E-08        -0.21121E-07         0.00000E+00
   -0.37684E-08        -0.21694E-07         0.00000E+00
   -0.40258E-08        -0.22139E-07         0.00000E+00
   -0.42671E-08        -0.22467E-07         0.00000E+00
   -0.44914E-08        -0.22689E-07         0.00000E+00
   -0.46980E-08        -0.22813E-07         0.00000E+00
   -0.48867E-08        -0.22850E-07         0.00000E+00
   -0.50575E-08        -0.22809E-07         0.00000E+00
   -0.52108E-08        -0.22698E-07         0.00000E+00
   -0.53471E-08        -0.22524E-07         0.00000E+00
   -0.54673E-08        -0.22295E-07         0.00000E+00
   -0.55722E-08        -0.22015E-07         0.00000E+00
   -0.56629E-08        -0.21692E-07         0.00000E+00
   -0.57406E-08        -0.21329E-07         0.00000E+00
   -0.58064E-08        -0.20931E-07         0.00000E+00
   -0.58615E-08        -0.20501E-07         0.00000E+00
   -0.59074E-08        -0.20042E-07         0.00000E+00
   -0.59451E-08        -0.19556E-07         0.00000E+00
   -0.59761E-08        -0.19043E-07         0.00000E+00
   -0.60014E-08        -0.18505E-07         0.00000E+00
   -0.60222E-08        -0.17942E-07         0.00000E+00
   -0.60397E-08        -0.17353E-07         0.00000E+00
   -0.60548E-08        -0.16737E-07         0.00000E+00
   -0.60685E-08        -0.16092E-07         0.00000E+00
   -0.60815E-08        -0.15416E-07         0.00000E+00
   -0.60946E-08        -0.14704E-07         0.00000E+00
   -0.61083E-08        -0.13955E-07         0.00000E+00
   -0.61231E-08        -0.13164E-07         0.00000E+00
   -0.61394E-08        -0.12327E-07         0.00000E+00
   -0.61572E-08        -0.11437E-07         0.00000E+00
   -0.61766E-08        -0.10490E-07         0.00000E+00
   -0.61974E-08        -0.94787E-08         0.00000E+00
   -0.62192E-08        -0.83974E-08         0.00000E+00
   -0.62414E-08        -0.72386E-08         0.00000E+00
   -0.62631E-08        -0.59946E-08         0.00000E+00
   -0.62833E-08        -0.46572E-08         0.00000E+00
   -0.63003E-08        -0.32179E-08         0.00000E+00
   -0.63125E-08        -0.16674E-08         0.00000E+00
   -0.63174E-08        -0.86330E-09         0.00000E+00
    0.20689E-08        -0.13123E-08         0.00000E+00
    0.20242E-08        -0.25540E-08         0.00000E+00
    0.18987E-08        -0.49407E-08         0.00000E+00
    0.17038E-08        -0.71356E-08         0.00000E+00
    0.14500E-08        -0.91422E-08         0.00000E+00
    0.11469E-08        -0.10965E-07         0.00000E+00
    0.80335E-09        -0.12610E-07         0.00000E+00
    0.42740E-09        -0.14084E-07         0.00000E+00
    0.26228E-10        -0.15394E-07         0.00000E+00
   -0.39373E-09        -0.16546E-07         0.00000E+00
   -0.82678E-09        -0.17550E-07         0.00000E+00
   -0.12679E-08        -0.18414E-07         0.00000E+00
   -0.17128E-08        -0.19145E-07         0.00000E+00
   -0.21577E-08        -0.19753E-07         0.00000E+00
   -0.25995E-08        -0.20245E-07         0.00000E+00
   -0.30354E-08        -0.20631E-07         0.00000E+00
   -0.34635E-08        -0.20917E-07         0.00000E+00
   -0.38818E-08        -0.21113E-07         0.00000E+00
   -0.42892E-08        -0.21225E-07         0.00000E+00
   -0.46846E-08        -0.21260E-07         0.00000E+00
   -0.50674E-08        -0.21226E-07         0.00000E+00
   -0.54373E-08        -0.21128E-07         0.00000E+00
   -0.57940E-08        -0.20973E-07         0.00000E+00
   -0.61378E-08        -0.20766E-07         0.00000E+00
   -0.64688E-08        -0.20510E-07         0.00000E+00
   -0.67874E-08        -0.20212E-07         0.00000E+00
   -0.70942E-08        -0.19873E-07         0.00000E+00
   -0.73896E-08        -0.19498E-07         0.00000E+00
   -0.76745E-08        -0.19089E-07         0.00000E+00
   -0.79493E-08        -0.18648E-07         0.00000E+00
   -0.82149E-08        -0.18176E-07         0.00000E+00
   -0.84717E-08        -0.17674E-07         0.00000E+00
   -0.87205E-08        -0.17143E-07         0.00000E+00
   -0.89616E-08        -0.16582E-07         0.00000E+00
   -0.91956E-08        -0.15991E-07         0.00000E+00
   -0.94226E-08        -0.15368E-07         0.00000E+00
   -0.96430E-08        -0.14711E-07         0.00000E+00
   -0.98566E-08        -0.14019E-07         0.00000E+00
   -0.10063E-07        -0.13289E-07         0.00000E+00
   -0.10263E-07        -0.12517E-07         0.00000E+00
   -0.10454E-07        -0.11701E-07         0.00000E+00
   -0.10637E-07        -0.10835E-07         0.00000E+00
   -0.10811E-07        -0.99160E-08         0.00000E+00
   -0.10973E-07        -0.89389E-08         0.00000E+00
   -0.11123E-07        -0.78985E-08         0.00000E+00
   -0.11257E-07        -0.67892E-08         0.00000E+00
   -0.11375E-07        -0.56053E-08         0.00000E+00
   -0.11473E-07        -0.43407E-08         0.00000E+00
   -0.11548E-07        -0.29888E-08         0.00000E+00
   -0.11596E-07        -0.15432E-08         0.00000E+00
   -0.11614E-07        -0.79613E-09         0.00000E+00
    0.43778E-08        -0.10923E-08         0.00000E+00
    0.43362E-08        -0.21322E-08         0.00000E+00
    0.42173E-08        -0.41394E-08         0.00000E+00
    0.40297E-08        -0.60019E-08         0.00000E+00
    0.37813E-08        -0.77207E-08         0.00000E+00
    0.34798E-08        -0.92975E-08         0.00000E+00
    0.31323E-08        -0.10735E-07         0.00000E+00
    0.27456E-08        -0.12037E-07         0.00000E+00
    0.23259E-08        -0.13208E-07         0.00000E+00
    0.18790E-08        -0.14251E-07         0.00000E+00
    0.14103E-08        -0.15173E-07         0.00000E+00
    0.92454E-09        -0.15978E-07         0.00000E+00
    0.42609E-09        -0.16672E-07         0.00000E+00
   -0.81163E-10        -0.17261E-07         0.00000E+00
   -0.59376E-09        -0.17751E-07         0.00000E+00
   -0.11087E-08        -0.18147E-07         0.00000E+00
   -0.16233E-08        -0.18457E-07         0.00000E+00
   -0.21354E-08        -0.18685E-07         0.00000E+00
   -0.26430E-08        -0.18837E-07         0.00000E+00
   -0.31445E-08        -0.18918E-07         0.00000E+00
   -0.36388E-08        -0.18935E-07         0.00000E+00
   -0.41247E-08        -0.18891E-07         0.00000E+00
   -0.46014E-08        -0.18792E-07         0.00000E+00
   -0.50685E-08        -0.18642E-07         0.00000E+00
   -0.55254E-08        -0.18444E-07         0.00000E+00
   -0.59720E-08        -0.18202E-07         0.00000E+00
   -0.64082E-08        -0.17920E-07         0.00000E+00
   -0.68338E-08        -0.17600E-07         0.00000E+00
   -0.72489E-08        -0.17244E-07         0.00000E+00
   -0.76537E-08        -0.16854E-07         0.00000E+00
   -0.80481E-08        -0.16431E-07         0.00000E+00
   -0.84324E-08        -0.15977E-07         0.00000E+00
   -0.88065E-08        -0.15493E-07         0.00000E+00
   -0.91704E-08        -0.14978E-07         0.00000E+00
   -0.95240E-08        -0.14432E-07         0.00000E+00
   -0.98672E-08        -0.13855E-07         0.00000E+00
   -0.10200E-07        -0.13246E-07         0.00000E+00
   -0.10521E-07        -0.12603E-07         0.00000E+00
   -0.10830E-07        -0.11924E-07         0.00000E+00
   -0.11126E-07        -0.11209E-07         0.00000E+00
   -0.11409E-07        -0.10453E-07         0.00000E+00
   -0.11676E-07        -0.96552E-08         0.00000E+00
   -0.11926E-07        -0.88119E-08         0.00000E+00
   -0.12159E-07        -0.79199E-08         0.00000E+00
   -0.12370E-07        -0.69758E-08         0.00000E+00
   -0.12558E-07        -0.59759E-08         0.00000E+00
   -0.12720E-07        -0.49162E-08         0.00000E+00
   -0.12854E-07        -0.37928E-08         0.00000E+00
   -0.12954E-07        -0.26014E-08         0.00000E+00
   -0.13018E-07        -0.13378E-08         0.00000E+00
   -0.13041E-07        -0.68743E-09         0.00000E+00
    0.59922E-08        -0.89550E-09         0.00000E+00
    0.59556E-08        -0.17515E-08         0.00000E+00
    0.58499E-08        -0.34086E-08         0.00000E+00
    0.56815E-08        -0.49556E-08         0.00000E+00
    0.54563E-08        -0.63925E-08         0.00000E+00
    0.51801E-08        -0.77199E-08         0.00000E+00
    0.48586E-08        -0.89392E-08         0.00000E+00
    0.44972E-08        -0.10052E-07         0.00000E+00
    0.41010E-08        -0.11061E-07         0.00000E+00
    0.36749E-08        -0.11969E-07         0.00000E+00
    0.32234E-08        -0.12778E-07         0.00000E+00
    0.27507E-08        -0.13493E-07         0.00000E+00
    0.22608E-08        -0.14117E-07         0.00000E+00
    0.17574E-08        -0.14654E-07         0.00000E+00
    0.12436E-08        -0.15108E-07         0.00000E+00
    0.72241E-09        -0.15483E-07         0.00000E+00
    0.19658E-09        -0.15784E-07         0.00000E+00
   -0.33157E-09        -0.16014E-07         0.00000E+00
   -0.85991E-09        -0.16179E-07         0.00000E+00
   -0.13866E-08        -0.16281E-07         0.00000E+00
   -0.19101E-08        -0.16325E-07         0.00000E+00
   -0.24289E-08        -0.16315E-07         0.00000E+00
   -0.29420E-08        -0.16254E-07         0.00000E+00
   -0.34483E-08        -0.16146E-07         0.00000E+00
   -0.39470E-08        -0.15993E-07         0.00000E+00
   -0.44375E-08        -0.15798E-07         0.00000E+00
   -0.49191E-08        -0.15565E-07         0.00000E+00
   -0.53913E-08        -0.15295E-07         0.00000E+00
   -0.58538E-08        -0.14990E-07         0.00000E+00
   -0.63063E-08        -0.14652E-07         0.00000E+00
   -0.67483E-08        -0.14283E-07         0.00000E+00
   -0.71795E-08        -0.13883E-07         0.00000E+00
   -0.75997E-08        -0.13453E-07         0.00000E+00
   -0.80084E-08        -0.12994E-07         0.00000E+00
   -0.84052E-08        -0.12507E-07         0.00000E+00
   -0.87895E-08        -0.11990E-07         0.00000E+00
   -0.91608E-08        -0.11444E-07         0.00000E+00
   -0.95183E-08        -0.10868E-07         0.00000E+00
   -0.98611E-08        -0.10262E-07         0.00000E+00
   -0.10188E-07        -0.96231E-08         0.00000E+00
   -0.10498E-07        -0.89515E-08         0.00000E+00
   -0.10790E-07        -0.82452E-08         0.00000E+00
   -0.11062E-07        -0.75025E-08         0.00000E+00
   -0.11312E-07        -0.67215E-08         0.00000E+00
   -0.11538E-07        -0.59002E-08         0.00000E+00
   -0.11738E-07        -0.50364E-08         0.00000E+00
   -0.11909E-07        -0.41278E-08         0.00000E+00
   -0.12048E-07        -0.31720E-08         0.00000E+00
   -0.12152E-07        -0.21668E-08         0.00000E+00
   -0.12218E-07        -0.11097E-08         0.00000E+00
   -0.12241E-07        -0.56792E-09         0.00000E+00
    0.69540E-08        -0.72533E-09         0.00000E+00
    0.69225E-08        -0.14206E-08         0.00000E+00
    0.68314E-08        -0.27693E-08         0.00000E+00
    0.66853E-08        -0.40337E-08         0.00000E+00
    0.64888E-08        -0.52137E-08         0.00000E+00
    0.62463E-08        -0.63091E-08         0.00000E+00
    0.59623E-08        -0.73207E-08         0.00000E+00
    0.56410E-08        -0.82493E-08         0.00000E+00
    0.52866E-08        -0.90963E-08         0.00000E+00
    0.49030E-08        -0.98633E-08         0.00000E+00
    0.44940E-08        -0.10552E-07         0.00000E+00
    0.40632E-08        -0.11165E-07         0.00000E+00
    0.36140E-08        -0.11705E-07         0.00000E+00
    0.31494E-08        -0.12175E-07         0.00000E+00
    0.26725E-08        -0.12576E-07         0.00000E+00
    0.21858E-08        -0.12912E-07         0.00000E+00
    0.16920E-08        -0.13187E-07         0.00000E+00
    0.11933E-08        -0.13402E-07         0.00000E+00
    0.69168E-09        -0.13561E-07         0.00000E+00
    0.18908E-09        -0.13667E-07         0.00000E+00
   -0.31286E-09        -0.13723E-07         0.00000E+00
   -0.81264E-09        -0.13732E-07         0.00000E+00
   -0.13089E-08        -0.13695E-07         0.00000E+00
   -0.18005E-08        -0.13617E-07         0.00000E+00
   -0.22864E-08        -0.13498E-07         0.00000E+00
   -0.27657E-08        -0.13342E-07         0.00000E+00
   -0.32375E-08        -0.13151E-07         0.00000E+00
   -0.37010E-08        -0.12926E-07         0.00000E+00
   -0.41557E-08        -0.12669E-07         0.00000E+00
   -0.46009E-08        -0.12381E-07         0.00000E+00
   -0.50361E-08        -0.12065E-07         0.00000E+00
   -0.54605E-08        -0.11720E-07         0.00000E+00
   -0.58738E-08        -0.11349E-07         0.00000E+00
   -0.62753E-08        -0.10951E-07         0.00000E+00
   -0.66643E-08        -0.10527E-07         0.00000E+00
   -0.70402E-08        -0.10077E-07         0.00000E+00
   -0.74024E-08        -0.96018E-08         0.00000E+00
   -0.77498E-08        -0.91012E-08         0.00000E+00
   -0.80817E-08        -0.85749E-08         0.00000E+00
   -0.83971E-08        -0.80224E-08         0.00000E+00
   -0.86946E-08        -0.74434E-08         0.00000E+00
   -0.89732E-08        -0.68370E-08         0.00000E+00
   -0.92313E-08        -0.62027E-08         0.00000E+00
   -0.94673E-08        -0.55393E-08         0.00000E+00
   -0.96794E-08        -0.48461E-08         0.00000E+00
   -0.98658E-08        -0.41220E-08         0.00000E+00
   -0.10024E-07        -0.33658E-08         0.00000E+00
   -0.10152E-07        -0.25765E-08         0.00000E+00
   -0.10247E-07        -0.17530E-08         0.00000E+00
   -0.10307E-07        -0.89413E-09         0.00000E+00
   -0.10328E-07        -0.45575E-09         0.00000E+00
    0.73955E-08        -0.58080E-09         0.00000E+00
    0.73690E-08        -0.11388E-08         0.00000E+00
    0.72919E-08        -0.22227E-08         0.00000E+00
    0.71679E-08        -0.32424E-08         0.00000E+00
    0.70004E-08        -0.41974E-08         0.00000E+00
    0.67930E-08        -0.50874E-08         0.00000E+00
    0.65492E-08        -0.59126E-08         0.00000E+00
    0.62724E-08        -0.66736E-08         0.00000E+00
    0.59659E-08        -0.73709E-08         0.00000E+00
    0.56329E-08        -0.80057E-08         0.00000E+00
    0.52764E-08        -0.85791E-08         0.00000E+00
    0.48995E-08        -0.90925E-08         0.00000E+00
    0.45050E-08        -0.95476E-08         0.00000E+00
    0.40954E-08        -0.99461E-08         0.00000E+00
    0.36734E-08        -0.10290E-07         0.00000E+00
    0.32413E-08        -0.10581E-07         0.00000E+00
    0.28012E-08        -0.10821E-07         0.00000E+00
    0.23553E-08        -0.11013E-07         0.00000E+00
    0.19053E-08        -0.11158E-07         0.00000E+00
    0.14532E-08        -0.11258E-07         0.00000E+00
    0.10004E-08        -0.11317E-07         0.00000E+00
    0.54835E-09        -0.11335E-07         0.00000E+00
    0.98494E-10        -0.11315E-07         0.00000E+00
   -0.34800E-09        -0.11258E-07         0.00000E+00
   -0.79003E-09        -0.11167E-07         0.00000E+00
   -0.12266E-08        -0.11043E-07         0.00000E+00
   -0.16567E-08        -0.10888E-07         0.00000E+00
   -0.20797E-08        -0.10703E-07         0.00000E+00
   -0.24945E-08        -0.10490E-07         0.00000E+00
   -0.29007E-08        -0.10250E-07         0.00000E+00
   -0.32974E-08        -0.99845E-08         0.00000E+00
   -0.36839E-08        -0.96939E-08         0.00000E+00
   -0.40597E-08        -0.93794E-08         0.00000E+00
   -0.44240E-08        -0.90418E-08         0.00000E+00
   -0.47763E-08        -0.86817E-08         0.00000E+00
   -0.51157E-08        -0.82997E-08         0.00000E+00
   -0.54416E-08        -0.78961E-08         0.00000E+00
   -0.57533E-08        -0.74713E-08         0.00000E+00
   -0.60498E-08        -0.70254E-08         0.00000E+00
   -0.63303E-08        -0.65586E-08         0.00000E+00
   -0.65938E-08        -0.60708E-08         0.00000E+00
   -0.68393E-08        -0.55620E-08         0.00000E+00
   -0.70656E-08        -0.50321E-08         0.00000E+00
   -0.72714E-08        -0.44807E-08         0.00000E+00
   -0.74554E-08        -0.39077E-08         0.00000E+00
   -0.76160E-08        -0.33129E-08         0.00000E+00
   -0.77517E-08        -0.26957E-08         0.00000E+00
   -0.78608E-08        -0.20561E-08         0.00000E+00
   -0.79414E-08        -0.13936E-08         0.00000E+00
   -0.79914E-08        -0.70812E-09         0.00000E+00
   -0.80088E-08        -0.35957E-09         0.00000E+00
    0.74539E-08        -0.45985E-09         0.00000E+00
    0.74319E-08        -0.90250E-09         0.00000E+00
    0.73677E-08        -0.17637E-08         0.00000E+00
    0.72642E-08        -0.25762E-08         0.00000E+00
    0.71243E-08        -0.33395E-08         0.00000E+00
    0.69506E-08        -0.40534E-08         0.00000E+00
    0.67460E-08        -0.47177E-08         0.00000E+00
    0.65131E-08        -0.53327E-08         0.00000E+00
    0.62546E-08        -0.58985E-08         0.00000E+00
    0.59731E-08        -0.64159E-08         0.00000E+00
    0.56711E-08        -0.68855E-08         0.00000E+00
    0.53510E-08        -0.73081E-08         0.00000E+00
    0.50151E-08        -0.76848E-08         0.00000E+00
    0.46657E-08        -0.80168E-08         0.00000E+00
    0.43047E-08        -0.83052E-08         0.00000E+00
    0.39344E-08        -0.85514E-08         0.00000E+00
    0.35564E-08        -0.87568E-08         0.00000E+00
    0.31727E-08        -0.89228E-08         0.00000E+00
    0.27848E-08        -0.90508E-08         0.00000E+00
    0.23944E-08        -0.91425E-08         0.00000E+00
    0.20028E-08        -0.91991E-08         0.00000E+00
    0.16114E-08        -0.92223E-08         0.00000E+00
    0.12214E-08        -0.92135E-08         0.00000E+00
    0.83408E-09        -0.91740E-08         0.00000E+00
    0.45037E-09        -0.91053E-08         0.00000E+00
    0.71295E-10        -0.90087E-08         0.00000E+00
   -0.30223E-09        -0.88855E-08         0.00000E+00
   -0.66937E-09        -0.87367E-08         0.00000E+00
   -0.10293E-08        -0.85637E-08         0.00000E+00
   -0.13813E-08        -0.83673E-08         0.00000E+00
   -0.17247E-08        -0.81487E-08         0.00000E+00
   -0.20588E-08        -0.79087E-08         0.00000E+00
   -0.23829E-08        -0.76481E-08         0.00000E+00
   -0.26964E-08        -0.73677E-08         0.00000E+00
   -0.29988E-08        -0.70681E-08         0.00000E+00
   -0.32892E-08        -0.67501E-08         0.00000E+00
   -0.35672E-08        -0.64140E-08         0.00000E+00
   -0.38320E-08        -0.60604E-08         0.00000E+00
   -0.40829E-08        -0.56897E-08         0.00000E+00
   -0.43193E-08        -0.53023E-08         0.00000E+00
   -0.45404E-08        -0.48984E-08         0.00000E+00
   -0.47454E-08        -0.44783E-08         0.00000E+00
   -0.49334E-08        -0.40423E-08         0.00000E+00
   -0.51034E-08        -0.35904E-08         0.00000E+00
   -0.52547E-08        -0.31229E-08         0.00000E+00
   -0.53860E-08        -0.26400E-08         0.00000E+00
   -0.54963E-08        -0.21418E-08         0.00000E+00
   -0.55844E-08        -0.16284E-08         0.00000E+00
   -0.56491E-08        -0.11001E-08         0.00000E+00
   -0.56890E-08        -0.55708E-09         0.00000E+00
   -0.57027E-08        -0.28192E-09         0.00000E+00
    0.72458E-08        -0.36021E-09         0.00000E+00
    0.72278E-08        -0.70767E-09         0.00000E+00
    0.71753E-08        -0.13846E-08         0.00000E+00
    0.70905E-08        -0.20253E-08         0.00000E+00
    0.69757E-08        -0.26292E-08         0.00000E+00
    0.68330E-08        -0.31958E-08         0.00000E+00
    0.66647E-08        -0.37250E-08         0.00000E+00
    0.64729E-08        -0.42167E-08         0.00000E+00
    0.62596E-08        -0.46710E-08         0.00000E+00
    0.60270E-08        -0.50882E-08         0.00000E+00
    0.57771E-08        -0.54685E-08         0.00000E+00
    0.55118E-08        -0.58125E-08         0.00000E+00
    0.52330E-08        -0.61209E-08         0.00000E+00
    0.49426E-08        -0.63943E-08         0.00000E+00
    0.46422E-08        -0.66335E-08         0.00000E+00
    0.43335E-08        -0.68393E-08         0.00000E+00
    0.40182E-08        -0.70127E-08         0.00000E+00
    0.36976E-08        -0.71547E-08         0.00000E+00
    0.33733E-08        -0.72662E-08         0.00000E+00
    0.30465E-08        -0.73482E-08         0.00000E+00
    0.27186E-08        -0.74019E-08         0.00000E+00
    0.23906E-08        -0.74281E-08         0.00000E+00
    0.20637E-08        -0.74281E-08         0.00000E+00
    0.17390E-08        -0.74027E-08         0.00000E+00
    0.14173E-08        -0.73530E-08         0.00000E+00
    0.10996E-08        -0.72800E-08         0.00000E+00
    0.78674E-09        -0.71847E-08         0.00000E+00
    0.47947E-09        -0.70678E-08         0.00000E+00
    0.17854E-09        -0.69304E-08         0.00000E+00
   -0.11536E-09        -0.67733E-08         0.00000E+00
   -0.40159E-09        -0.65972E-08         0.00000E+00
   -0.67952E-09        -0.64029E-08         0.00000E+00
   -0.94857E-09        -0.61912E-08         0.00000E+00
   -0.12082E-08        -0.59626E-08         0.00000E+00
   -0.14578E-08        -0.57179E-08         0.00000E+00
   -0.16968E-08        -0.54576E-08         0.00000E+00
   -0.19248E-08        -0.51823E-08         0.00000E+00
   -0.21412E-08        -0.48925E-08         0.00000E+00
   -0.23454E-08        -0.45886E-08         0.00000E+00
   -0.25370E-08        -0.42712E-08         0.00000E+00
   -0.27153E-08        -0.39407E-08         0.00000E+00
   -0.28799E-08        -0.35974E-08         0.00000E+00
   -0.30300E-08        -0.32418E-08         0.00000E+00
   -0.31652E-08        -0.28742E-08         0.00000E+00
   -0.32847E-08        -0.24951E-08         0.00000E+00
   -0.33879E-08        -0.21048E-08         0.00000E+00
   -0.34740E-08        -0.17037E-08         0.00000E+00
   -0.35425E-08        -0.12922E-08         0.00000E+00
   -0.35924E-08        -0.87070E-09         0.00000E+00
   -0.36230E-08        -0.43973E-09         0.00000E+00
   -0.36335E-08        -0.22193E-09         0.00000E+00
    0.68642E-08        -0.27957E-09         0.00000E+00
    0.68497E-08        -0.54988E-09         0.00000E+00
    0.68075E-08        -0.10774E-08         0.00000E+00
    0.67394E-08        -0.15784E-08         0.00000E+00
    0.66470E-08        -0.20522E-08         0.00000E+00
    0.65321E-08        -0.24985E-08         0.00000E+00
    0.63964E-08        -0.29168E-08         0.00000E+00
    0.62415E-08        -0.33071E-08         0.00000E+00
    0.60691E-08        -0.36693E-08         0.00000E+00
    0.58809E-08        -0.40033E-08         0.00000E+00
    0.56785E-08        -0.43094E-08         0.00000E+00
    0.54634E-08        -0.45877E-08         0.00000E+00
    0.52372E-08        -0.48387E-08         0.00000E+00
    0.50012E-08        -0.50626E-08         0.00000E+00
    0.47570E-08        -0.52600E-08         0.00000E+00
    0.45058E-08        -0.54314E-08         0.00000E+00
    0.42490E-08        -0.55773E-08         0.00000E+00
    0.39878E-08        -0.56984E-08         0.00000E+00
    0.37234E-08        -0.57954E-08         0.00000E+00
    0.34569E-08        -0.58689E-08         0.00000E+00
    0.31893E-08        -0.59195E-08         0.00000E+00
    0.29217E-08        -0.59481E-08         0.00000E+00
    0.26550E-08        -0.59553E-08         0.00000E+00
    0.23900E-08        -0.59419E-08         0.00000E+00
    0.21277E-08        -0.59085E-08         0.00000E+00
    0.18688E-08        -0.58559E-08         0.00000E+00
    0.16141E-08        -0.57848E-08         0.00000E+00
    0.13642E-08        -0.56957E-08         0.00000E+00
    0.11197E-08        -0.55895E-08         0.00000E+00
    0.88133E-09        -0.54667E-08         0.00000E+00
    0.64961E-09        -0.53279E-08         0.00000E+00
    0.42506E-09        -0.51738E-08         0.00000E+00
    0.20821E-09        -0.50049E-08         0.00000E+00
   -0.46985E-12        -0.48217E-08         0.00000E+00
   -0.20053E-09        -0.46249E-08         0.00000E+00
   -0.39152E-09        -0.44149E-08         0.00000E+00
   -0.57304E-09        -0.41922E-08         0.00000E+00
   -0.74467E-09        -0.39573E-08         0.00000E+00
   -0.90603E-09        -0.37107E-08         0.00000E+00
   -0.10567E-08        -0.34528E-08         0.00000E+00
   -0.11964E-08        -0.31840E-08         0.00000E+00
   -0.13246E-08        -0.29049E-08         0.00000E+00
   -0.14410E-08        -0.26158E-08         0.00000E+00
   -0.15452E-08        -0.23171E-08         0.00000E+00
   -0.16369E-08        -0.20094E-08         0.00000E+00
   -0.17156E-08        -0.16931E-08         0.00000E+00
   -0.17809E-08        -0.13687E-08         0.00000E+00
   -0.18324E-08        -0.10366E-08         0.00000E+00
   -0.18698E-08        -0.69740E-09         0.00000E+00
   -0.18926E-08        -0.35162E-09         0.00000E+00
   -0.19003E-08        -0.17716E-09         0.00000E+00
    0.63811E-08        -0.21556E-09         0.00000E+00
    0.63697E-08        -0.42454E-09         0.00000E+00
    0.63365E-08        -0.83315E-09         0.00000E+00
    0.62828E-08        -0.12227E-08         0.00000E+00
    0.62099E-08        -0.15926E-08         0.00000E+00
    0.61191E-08        -0.19425E-08         0.00000E+00
    0.60118E-08        -0.22719E-08         0.00000E+00
    0.58892E-08        -0.25806E-08         0.00000E+00
    0.57527E-08        -0.28684E-08         0.00000E+00
    0.56035E-08        -0.31352E-08         0.00000E+00
    0.54429E-08        -0.33810E-08         0.00000E+00
    0.52721E-08        -0.36059E-08         0.00000E+00
    0.50922E-08        -0.38099E-08         0.00000E+00
    0.49046E-08        -0.39934E-08         0.00000E+00
    0.47101E-08        -0.41564E-08         0.00000E+00
    0.45101E-08        -0.42994E-08         0.00000E+00
    0.43054E-08        -0.44227E-08         0.00000E+00
    0.40972E-08        -0.45265E-08         0.00000E+00
    0.38863E-08        -0.46114E-08         0.00000E+00
    0.36736E-08        -0.46777E-08         0.00000E+00
    0.34602E-08        -0.47259E-08         0.00000E+00
    0.32467E-08        -0.47565E-08         0.00000E+00
    0.30339E-08        -0.47699E-08         0.00000E+00
    0.28227E-08        -0.47666E-08         0.00000E+00
    0.26137E-08        -0.47470E-08         0.00000E+00
    0.24075E-08        -0.47118E-08         0.00000E+00
    0.22048E-08        -0.46612E-08         0.00000E+00
    0.20062E-08        -0.45959E-08         0.00000E+00
    0.18122E-08        -0.45163E-08         0.00000E+00
    0.16233E-08        -0.44228E-08         0.00000E+00
    0.14401E-08        -0.43158E-08         0.00000E+00
    0.12628E-08        -0.41959E-08         0.00000E+00
    0.10921E-08        -0.40635E-08         0.00000E+00
    0.92819E-09        -0.39189E-08         0.00000E+00
    0.77152E-09        -0.37626E-08         0.00000E+00
    0.62241E-09        -0.35950E-08         0.00000E+00
    0.48119E-09        -0.34165E-08         0.00000E+00
    0.34815E-09        -0.32275E-08         0.00000E+00
    0.22358E-09        -0.30284E-08         0.00000E+00
    0.10774E-09        -0.28196E-08         0.00000E+00
    0.88034E-12        -0.26014E-08         0.00000E+00
   -0.96764E-10        -0.23743E-08         0.00000E+00
   -0.18497E-09        -0.21386E-08         0.00000E+00
   -0.26351E-09        -0.18948E-08         0.00000E+00
   -0.33220E-09        -0.16434E-08         0.00000E+00
   -0.39082E-09        -0.13847E-08         0.00000E+00
   -0.43919E-09        -0.11192E-08         0.00000E+00
   -0.47712E-09        -0.84748E-09         0.00000E+00
   -0.50443E-09        -0.56998E-09         0.00000E+00
   -0.52095E-09        -0.28725E-09         0.00000E+00
   -0.52651E-09        -0.14465E-09         0.00000E+00
    0.58505E-08        -0.16577E-09         0.00000E+00
    0.58417E-08        -0.32699E-09         0.00000E+00
    0.58161E-08        -0.64287E-09         0.00000E+00
    0.57746E-08        -0.94535E-09         0.00000E+00
    0.57182E-08        -0.12339E-08         0.00000E+00
    0.56480E-08        -0.15081E-08         0.00000E+00
    0.55648E-08        -0.17674E-08         0.00000E+00
    0.54698E-08        -0.20118E-08         0.00000E+00
    0.53637E-08        -0.22407E-08         0.00000E+00
    0.52478E-08        -0.24543E-08         0.00000E+00
    0.51228E-08        -0.26522E-08         0.00000E+00
    0.49898E-08        -0.28344E-08         0.00000E+00
    0.48497E-08        -0.30011E-08         0.00000E+00
    0.47033E-08        -0.31521E-08         0.00000E+00
    0.45515E-08        -0.32876E-08         0.00000E+00
    0.43953E-08        -0.34078E-08         0.00000E+00
    0.42354E-08        -0.35127E-08         0.00000E+00
    0.40726E-08        -0.36027E-08         0.00000E+00
    0.39077E-08        -0.36778E-08         0.00000E+00
    0.37414E-08        -0.37384E-08         0.00000E+00
    0.35744E-08        -0.37847E-08         0.00000E+00
    0.34074E-08        -0.38169E-08         0.00000E+00
    0.32410E-08        -0.38355E-08         0.00000E+00
    0.30758E-08        -0.38406E-08         0.00000E+00
    0.29125E-08        -0.38325E-08         0.00000E+00
    0.27515E-08        -0.38117E-08         0.00000E+00
    0.25933E-08        -0.37783E-08         0.00000E+00
    0.24385E-08        -0.37326E-08         0.00000E+00
    0.22875E-08        -0.36751E-08         0.00000E+00
    0.21406E-08        -0.36059E-08         0.00000E+00
    0.19984E-08        -0.35254E-08         0.00000E+00
    0.18611E-08        -0.34339E-08         0.00000E+00
    0.17291E-08        -0.33316E-08         0.00000E+00
    0.16028E-08        -0.32189E-08         0.00000E+00
    0.14823E-08        -0.30960E-08         0.00000E+00
    0.13680E-08        -0.29633E-08         0.00000E+00
    0.12600E-08        -0.28209E-08         0.00000E+00
    0.11587E-08        -0.26693E-08         0.00000E+00
    0.10642E-08        -0.25086E-08         0.00000E+00
    0.97668E-09        -0.23392E-08         0.00000E+00
    0.89629E-09        -0.21615E-08         0.00000E+00
    0.82319E-09        -0.19756E-08         0.00000E+00
    0.75749E-09        -0.17820E-08         0.00000E+00
    0.69929E-09        -0.15810E-08         0.00000E+00
    0.64869E-09        -0.13729E-08         0.00000E+00
    0.60576E-09        -0.11582E-08         0.00000E+00
    0.57057E-09        -0.93719E-09         0.00000E+00
    0.54315E-09        -0.71039E-09         0.00000E+00
    0.52355E-09        -0.47823E-09         0.00000E+00
    0.51178E-09        -0.24123E-09         0.00000E+00
    0.50786E-09        -0.12157E-09         0.00000E+00
    0.53115E-08        -0.12786E-09         0.00000E+00
    0.53048E-08        -0.25264E-09         0.00000E+00
    0.52855E-08        -0.49769E-09         0.00000E+00
    0.52541E-08        -0.73348E-09         0.00000E+00
    0.52114E-08        -0.95952E-09         0.00000E+00
    0.51581E-08        -0.11754E-08         0.00000E+00
    0.50949E-08        -0.13807E-08         0.00000E+00
    0.50226E-08        -0.15752E-08         0.00000E+00
    0.49419E-08        -0.17585E-08         0.00000E+00
    0.48535E-08        -0.19306E-08         0.00000E+00
    0.47581E-08        -0.20911E-08         0.00000E+00
    0.46565E-08        -0.22400E-08         0.00000E+00
    0.45493E-08        -0.23773E-08         0.00000E+00
    0.44372E-08        -0.25028E-08         0.00000E+00
    0.43210E-08        -0.26166E-08         0.00000E+00
    0.42012E-08        -0.27187E-08         0.00000E+00
    0.40785E-08        -0.28091E-08         0.00000E+00
    0.39535E-08        -0.28879E-08         0.00000E+00
    0.38268E-08        -0.29553E-08         0.00000E+00
    0.36990E-08        -0.30112E-08         0.00000E+00
    0.35706E-08        -0.30560E-08         0.00000E+00
    0.34422E-08        -0.30896E-08         0.00000E+00
    0.33143E-08        -0.31122E-08         0.00000E+00
    0.31873E-08        -0.31241E-08         0.00000E+00
    0.30617E-08        -0.31253E-08         0.00000E+00
    0.29380E-08        -0.31160E-08         0.00000E+00
    0.28166E-08        -0.30964E-08         0.00000E+00
    0.26978E-08        -0.30666E-08         0.00000E+00
    0.25820E-08        -0.30269E-08         0.00000E+00
    0.24696E-08        -0.29774E-08         0.00000E+00
    0.23609E-08        -0.29183E-08         0.00000E+00
    0.22561E-08        -0.28496E-08         0.00000E+00
    0.21555E-08        -0.27717E-08         0.00000E+00
    0.20594E-08        -0.26846E-08         0.00000E+00
    0.19680E-08        -0.25886E-08         0.00000E+00
    0.18815E-08        -0.24838E-08         0.00000E+00
    0.18000E-08        -0.23703E-08         0.00000E+00
    0.17238E-08        -0.22484E-08         0.00000E+00
    0.16529E-08        -0.21182E-08         0.00000E+00
    0.15876E-08        -0.19800E-08         0.00000E+00
    0.15278E-08        -0.18339E-08         0.00000E+00
    0.14736E-08        -0.16802E-08         0.00000E+00
    0.14252E-08        -0.15191E-08         0.00000E+00
    0.13825E-08        -0.13509E-08         0.00000E+00
    0.13456E-08        -0.11757E-08         0.00000E+00
    0.13145E-08        -0.99406E-09         0.00000E+00
    0.12892E-08        -0.80616E-09         0.00000E+00
    0.12696E-08        -0.61238E-09         0.00000E+00
    0.12556E-08        -0.41312E-09         0.00000E+00
    0.12473E-08        -0.20881E-09         0.00000E+00
    0.12446E-08        -0.10544E-09         0.00000E+00
    0.47908E-08        -0.99608E-10         0.00000E+00
    0.47859E-08        -0.19716E-09         0.00000E+00
    0.47716E-08        -0.38920E-09         0.00000E+00
    0.47483E-08        -0.57492E-09         0.00000E+00
    0.47166E-08        -0.75389E-09         0.00000E+00
    0.46770E-08        -0.92570E-09         0.00000E+00
    0.46299E-08        -0.10900E-08         0.00000E+00
    0.45760E-08        -0.12466E-08         0.00000E+00
    0.45156E-08        -0.13951E-08         0.00000E+00
    0.44495E-08        -0.15353E-08         0.00000E+00
    0.43780E-08        -0.16671E-08         0.00000E+00
    0.43017E-08        -0.17903E-08         0.00000E+00
    0.42212E-08        -0.19048E-08         0.00000E+00
    0.41368E-08        -0.20105E-08         0.00000E+00
    0.40493E-08        -0.21073E-08         0.00000E+00
    0.39589E-08        -0.21952E-08         0.00000E+00
    0.38663E-08        -0.22742E-08         0.00000E+00
    0.37718E-08        -0.23442E-08         0.00000E+00
    0.36760E-08        -0.24053E-08         0.00000E+00
    0.35793E-08        -0.24575E-08         0.00000E+00
    0.34821E-08        -0.25008E-08         0.00000E+00
    0.33848E-08        -0.25353E-08         0.00000E+00
    0.32878E-08        -0.25610E-08         0.00000E+00
    0.31915E-08        -0.25780E-08         0.00000E+00
    0.30963E-08        -0.25863E-08         0.00000E+00
    0.30025E-08        -0.25860E-08         0.00000E+00
    0.29104E-08        -0.25771E-08         0.00000E+00
    0.28204E-08        -0.25598E-08         0.00000E+00
    0.27327E-08        -0.25341E-08         0.00000E+00
    0.26476E-08        -0.25000E-08         0.00000E+00
    0.25653E-08        -0.24576E-08         0.00000E+00
    0.24861E-08        -0.24070E-08         0.00000E+00
    0.24101E-08        -0.23482E-08         0.00000E+00
    0.23377E-08        -0.22813E-08         0.00000E+00
    0.22689E-08        -0.22064E-08         0.00000E+00
    0.22039E-08        -0.21235E-08         0.00000E+00
    0.21429E-08        -0.20326E-08         0.00000E+00
    0.20859E-08        -0.19339E-08         0.00000E+00
    0.20331E-08        -0.18275E-08         0.00000E+00
    0.19845E-08        -0.17134E-08         0.00000E+00
    0.19402E-08        -0.15918E-08         0.00000E+00
    0.19002E-08        -0.14628E-08         0.00000E+00
    0.18646E-08        -0.13265E-08         0.00000E+00
    0.18334E-08        -0.11831E-08         0.00000E+00
    0.18065E-08        -0.10328E-08         0.00000E+00
    0.17840E-08        -0.87579E-09         0.00000E+00
    0.17657E-08        -0.71232E-09         0.00000E+00
    0.17516E-08        -0.54267E-09         0.00000E+00
    0.17417E-08        -0.36714E-09         0.00000E+00
    0.17359E-08        -0.18609E-09         0.00000E+00
    0.17340E-08        -0.94218E-10         0.00000E+00
    0.43054E-08        -0.78999E-10         0.00000E+00
    0.43019E-08        -0.15662E-09         0.00000E+00
    0.42915E-08        -0.30980E-09         0.00000E+00
    0.42746E-08        -0.45865E-09         0.00000E+00
    0.42515E-08        -0.60279E-09         0.00000E+00
    0.42226E-08        -0.74189E-09         0.00000E+00
    0.41882E-08        -0.87564E-09         0.00000E+00
    0.41486E-08        -0.10038E-08         0.00000E+00
    0.41043E-08        -0.11261E-08         0.00000E+00
    0.40556E-08        -0.12423E-08         0.00000E+00
    0.40029E-08        -0.13523E-08         0.00000E+00
    0.39466E-08        -0.14559E-08         0.00000E+00
    0.38870E-08        -0.15529E-08         0.00000E+00
    0.38245E-08        -0.16433E-08         0.00000E+00
    0.37595E-08        -0.17269E-08         0.00000E+00
    0.36924E-08        -0.18037E-08         0.00000E+00
    0.36234E-08        -0.18736E-08         0.00000E+00
    0.35530E-08        -0.19366E-08         0.00000E+00
    0.34814E-08        -0.19926E-08         0.00000E+00
    0.34091E-08        -0.20415E-08         0.00000E+00
    0.33364E-08        -0.20834E-08         0.00000E+00
    0.32635E-08        -0.21183E-08         0.00000E+00
    0.31908E-08        -0.21460E-08         0.00000E+00
    0.31185E-08        -0.21666E-08         0.00000E+00
    0.30470E-08        -0.21802E-08         0.00000E+00
    0.29765E-08        -0.21865E-08         0.00000E+00
    0.29072E-08        -0.21858E-08         0.00000E+00
    0.28395E-08        -0.21778E-08         0.00000E+00
    0.27735E-08        -0.21627E-08         0.00000E+00
    0.27094E-08        -0.21404E-08         0.00000E+00
    0.26475E-08        -0.21108E-08         0.00000E+00
    0.25878E-08        -0.20740E-08         0.00000E+00
    0.25307E-08        -0.20299E-08         0.00000E+00
    0.24763E-08        -0.19785E-08         0.00000E+00
    0.24246E-08        -0.19197E-08         0.00000E+00
    0.23758E-08        -0.18536E-08         0.00000E+00
    0.23300E-08        -0.17802E-08         0.00000E+00
    0.22873E-08        -0.16994E-08         0.00000E+00
    0.22478E-08        -0.16111E-08         0.00000E+00
    0.22115E-08        -0.15156E-08         0.00000E+00
    0.21785E-08        -0.14126E-08         0.00000E+00
    0.21488E-08        -0.13024E-08         0.00000E+00
    0.21224E-08        -0.11849E-08         0.00000E+00
    0.20994E-08        -0.10603E-08         0.00000E+00
    0.20796E-08        -0.92861E-09         0.00000E+00
    0.20630E-08        -0.78999E-09         0.00000E+00
    0.20497E-08        -0.64461E-09         0.00000E+00
    0.20395E-08        -0.49266E-09         0.00000E+00
    0.20323E-08        -0.33437E-09         0.00000E+00
    0.20281E-08        -0.17000E-09         0.00000E+00
    0.20267E-08        -0.86332E-10         0.00000E+00
    0.38646E-08        -0.64274E-10         0.00000E+00
    0.38621E-08        -0.12761E-09         0.00000E+00
    0.38547E-08        -0.25283E-09         0.00000E+00
    0.38427E-08        -0.37500E-09         0.00000E+00
    0.38262E-08        -0.49381E-09         0.00000E+00
    0.38054E-08        -0.60899E-09         0.00000E+00
    0.37806E-08        -0.72026E-09         0.00000E+00
    0.37521E-08        -0.82739E-09         0.00000E+00
    0.37201E-08        -0.93018E-09         0.00000E+00
    0.36848E-08        -0.10284E-08         0.00000E+00
    0.36465E-08        -0.11220E-08         0.00000E+00
    0.36054E-08        -0.12107E-08         0.00000E+00
    0.35619E-08        -0.12944E-08         0.00000E+00
    0.35161E-08        -0.13730E-08         0.00000E+00
    0.34684E-08        -0.14464E-08         0.00000E+00
    0.34190E-08        -0.15145E-08         0.00000E+00
    0.33682E-08        -0.15772E-08         0.00000E+00
    0.33161E-08        -0.16344E-08         0.00000E+00
    0.32632E-08        -0.16861E-08         0.00000E+00
    0.32096E-08        -0.17322E-08         0.00000E+00
    0.31555E-08        -0.17726E-08         0.00000E+00
    0.31013E-08        -0.18072E-08         0.00000E+00
    0.30470E-08        -0.18361E-08         0.00000E+00
    0.29931E-08        -0.18591E-08         0.00000E+00
    0.29396E-08        -0.18761E-08         0.00000E+00
    0.28867E-08        -0.18872E-08         0.00000E+00
    0.28348E-08        -0.18922E-08         0.00000E+00
    0.27839E-08        -0.18910E-08         0.00000E+00
    0.27342E-08        -0.18837E-08         0.00000E+00
    0.26859E-08        -0.18700E-08         0.00000E+00
    0.26392E-08        -0.18499E-08         0.00000E+00
    0.25942E-08        -0.18234E-08         0.00000E+00
    0.25511E-08        -0.17903E-08         0.00000E+00
    0.25099E-08        -0.17505E-08         0.00000E+00
    0.24707E-08        -0.17040E-08         0.00000E+00
    0.24338E-08        -0.16506E-08         0.00000E+00
    0.23991E-08        -0.15903E-08         0.00000E+00
    0.23667E-08        -0.15230E-08         0.00000E+00
    0.23368E-08        -0.14486E-08         0.00000E+00
    0.23093E-08        -0.13671E-08         0.00000E+00
    0.22843E-08        -0.12783E-08         0.00000E+00
    0.22617E-08        -0.11824E-08         0.00000E+00
    0.22418E-08        -0.10792E-08         0.00000E+00
    0.22243E-08        -0.96873E-09         0.00000E+00
    0.22093E-08        -0.85111E-09         0.00000E+00
    0.21968E-08        -0.72635E-09         0.00000E+00
    0.21867E-08        -0.59454E-09         0.00000E+00
    0.21790E-08        -0.45581E-09         0.00000E+00
    0.21737E-08        -0.31032E-09         0.00000E+00
    0.21705E-08        -0.15825E-09         0.00000E+00
    0.21695E-08        -0.80598E-10         0.00000E+00
    0.34722E-08        -0.53947E-10         0.00000E+00
    0.34705E-08        -0.10720E-09         0.00000E+00
    0.34653E-08        -0.21264E-09         0.00000E+00
    0.34568E-08        -0.31581E-09         0.00000E+00
    0.34452E-08        -0.41644E-09         0.00000E+00
    0.34305E-08        -0.51432E-09         0.00000E+00
    0.34129E-08        -0.60922E-09         0.00000E+00
    0.33925E-08        -0.70096E-09         0.00000E+00
    0.33696E-08        -0.78935E-09         0.00000E+00
    0.33442E-08        -0.87423E-09         0.00000E+00
    0.33166E-08        -0.95546E-09         0.00000E+00
    0.32870E-08        -0.10329E-08         0.00000E+00
    0.32554E-08        -0.11064E-08         0.00000E+00
    0.32221E-08        -0.11759E-08         0.00000E+00
    0.31873E-08        -0.12413E-08         0.00000E+00
    0.31511E-08        -0.13025E-08         0.00000E+00
    0.31138E-08        -0.13593E-08         0.00000E+00
    0.30755E-08        -0.14118E-08         0.00000E+00
    0.30364E-08        -0.14598E-08         0.00000E+00
    0.29967E-08        -0.15031E-08         0.00000E+00
    0.29565E-08        -0.15419E-08         0.00000E+00
    0.29161E-08        -0.15759E-08         0.00000E+00
    0.28756E-08        -0.16050E-08         0.00000E+00
    0.28352E-08        -0.16293E-08         0.00000E+00
    0.27951E-08        -0.16485E-08         0.00000E+00
    0.27553E-08        -0.16626E-08         0.00000E+00
    0.27161E-08        -0.16714E-08         0.00000E+00
    0.26775E-08        -0.16750E-08         0.00000E+00
    0.26399E-08        -0.16730E-08         0.00000E+00
    0.26031E-08        -0.16655E-08         0.00000E+00
    0.25675E-08        -0.16523E-08         0.00000E+00
    0.25331E-08        -0.16332E-08         0.00000E+00
    0.25000E-08        -0.16081E-08         0.00000E+00
    0.24683E-08        -0.15769E-08         0.00000E+00
    0.24382E-08        -0.15394E-08         0.00000E+00
    0.24097E-08        -0.14955E-08         0.00000E+00
    0.23828E-08        -0.14450E-08         0.00000E+00
    0.23577E-08        -0.13878E-08         0.00000E+00
    0.23344E-08        -0.13238E-08         0.00000E+00
    0.23129E-08        -0.12529E-08         0.00000E+00
    0.22933E-08        -0.11750E-08         0.00000E+00
    0.22757E-08        -0.10899E-08         0.00000E+00
    0.22600E-08        -0.99759E-09         0.00000E+00
    0.22462E-08        -0.89805E-09         0.00000E+00
    0.22343E-08        -0.79124E-09         0.00000E+00
    0.22244E-08        -0.67715E-09         0.00000E+00
    0.22164E-08        -0.55582E-09         0.00000E+00
    0.22103E-08        -0.42730E-09         0.00000E+00
    0.22060E-08        -0.29171E-09         0.00000E+00
    0.22035E-08        -0.14916E-09         0.00000E+00
    0.22027E-08        -0.76161E-10         0.00000E+00
    0.31280E-08        -0.46803E-10         0.00000E+00
    0.31268E-08        -0.93039E-10         0.00000E+00
    0.31232E-08        -0.18464E-09         0.00000E+00
    0.31173E-08        -0.27438E-09         0.00000E+00
    0.31092E-08        -0.36207E-09         0.00000E+00
    0.30988E-08        -0.44751E-09         0.00000E+00
    0.30864E-08        -0.53054E-09         0.00000E+00
    0.30719E-08        -0.61100E-09         0.00000E+00
    0.30555E-08        -0.68875E-09         0.00000E+00
    0.30373E-08        -0.76365E-09         0.00000E+00
    0.30175E-08        -0.83558E-09         0.00000E+00
    0.29960E-08        -0.90444E-09         0.00000E+00
    0.29731E-08        -0.97011E-09         0.00000E+00
    0.29488E-08        -0.10325E-08         0.00000E+00
    0.29233E-08        -0.10915E-08         0.00000E+00
    0.28968E-08        -0.11471E-08         0.00000E+00
    0.28692E-08        -0.11991E-08         0.00000E+00
    0.28408E-08        -0.12475E-08         0.00000E+00
    0.28118E-08        -0.12921E-08         0.00000E+00
    0.27821E-08        -0.13329E-08         0.00000E+00
    0.27520E-08        -0.13698E-08         0.00000E+00
    0.27217E-08        -0.14027E-08         0.00000E+00
    0.26911E-08        -0.14316E-08         0.00000E+00
    0.26604E-08        -0.14561E-08         0.00000E+00
    0.26299E-08        -0.14764E-08         0.00000E+00
    0.25995E-08        -0.14922E-08         0.00000E+00
    0.25694E-08        -0.15035E-08         0.00000E+00
    0.25397E-08        -0.15100E-08         0.00000E+00
    0.25105E-08        -0.15116E-08         0.00000E+00
    0.24820E-08        -0.15083E-08         0.00000E+00
    0.24542E-08        -0.14998E-08         0.00000E+00
    0.24273E-08        -0.14859E-08         0.00000E+00
    0.24013E-08        -0.14665E-08         0.00000E+00
    0.23762E-08        -0.14415E-08         0.00000E+00
    0.23523E-08        -0.14105E-08         0.00000E+00
    0.23296E-08        -0.13736E-08         0.00000E+00
    0.23080E-08        -0.13304E-08         0.00000E+00
    0.22878E-08        -0.12808E-08         0.00000E+00
    0.22690E-08        -0.12247E-08         0.00000E+00
    0.22515E-08        -0.11619E-08         0.00000E+00
    0.22355E-08        -0.10922E-08         0.00000E+00
    0.22210E-08        -0.10155E-08         0.00000E+00
    0.22080E-08        -0.93169E-09         0.00000E+00
    0.21966E-08        -0.84070E-09         0.00000E+00
    0.21867E-08        -0.74244E-09         0.00000E+00
    0.21784E-08        -0.63686E-09         0.00000E+00
    0.21716E-08        -0.52395E-09         0.00000E+00
    0.21664E-08        -0.40373E-09         0.00000E+00
    0.21627E-08        -0.27624E-09         0.00000E+00
    0.21605E-08        -0.14156E-09         0.00000E+00
    0.21598E-08        -0.72434E-10         0.00000E+00
    0.28294E-08        -0.41879E-10         0.00000E+00
    0.28286E-08        -0.83237E-10         0.00000E+00
    0.28261E-08        -0.16516E-09         0.00000E+00
    0.28219E-08        -0.24541E-09         0.00000E+00
    0.28162E-08        -0.32384E-09         0.00000E+00
    0.28088E-08        -0.40030E-09         0.00000E+00
    0.27999E-08        -0.47466E-09         0.00000E+00
    0.27896E-08        -0.54679E-09         0.00000E+00
    0.27777E-08        -0.61659E-09         0.00000E+00
    0.27646E-08        -0.68395E-09         0.00000E+00
    0.27501E-08        -0.74877E-09         0.00000E+00
    0.27343E-08        -0.81098E-09         0.00000E+00
    0.27175E-08        -0.87047E-09         0.00000E+00
    0.26995E-08        -0.92718E-09         0.00000E+00
    0.26806E-08        -0.98103E-09         0.00000E+00
    0.26607E-08        -0.10319E-08         0.00000E+00
    0.26400E-08        -0.10798E-08         0.00000E+00
    0.26186E-08        -0.11246E-08         0.00000E+00
    0.25966E-08        -0.11662E-08         0.00000E+00
    0.25740E-08        -0.12045E-08         0.00000E+00
    0.25510E-08        -0.12395E-08         0.00000E+00
    0.25276E-08        -0.12710E-08         0.00000E+00
    0.25039E-08        -0.12989E-08         0.00000E+00
    0.24801E-08        -0.13232E-08         0.00000E+00
    0.24562E-08        -0.13436E-08         0.00000E+00
    0.24324E-08        -0.13601E-08         0.00000E+00
    0.24086E-08        -0.13726E-08         0.00000E+00
    0.23851E-08        -0.13808E-08         0.00000E+00
    0.23618E-08        -0.13847E-08         0.00000E+00
    0.23390E-08        -0.13840E-08         0.00000E+00
    0.23166E-08        -0.13786E-08         0.00000E+00
    0.22947E-08        -0.13683E-08         0.00000E+00
    0.22735E-08        -0.13528E-08         0.00000E+00
    0.22529E-08        -0.13321E-08         0.00000E+00
    0.22332E-08        -0.13059E-08         0.00000E+00
    0.22143E-08        -0.12741E-08         0.00000E+00
    0.21963E-08        -0.12363E-08         0.00000E+00
    0.21792E-08        -0.11924E-08         0.00000E+00
    0.21632E-08        -0.11423E-08         0.00000E+00
    0.21483E-08        -0.10857E-08         0.00000E+00
    0.21346E-08        -0.10224E-08         0.00000E+00
    0.21220E-08        -0.95240E-09         0.00000E+00
    0.21107E-08        -0.87541E-09         0.00000E+00
    0.21006E-08        -0.79136E-09         0.00000E+00
    0.20918E-08        -0.70013E-09         0.00000E+00
    0.20844E-08        -0.60166E-09         0.00000E+00
    0.20783E-08        -0.49588E-09         0.00000E+00
    0.20735E-08        -0.38278E-09         0.00000E+00
    0.20701E-08        -0.26237E-09         0.00000E+00
    0.20681E-08        -0.13468E-09         0.00000E+00
    0.20674E-08        -0.69030E-10         0.00000E+00
    0.25722E-08        -0.38436E-10         0.00000E+00
    0.25716E-08        -0.76349E-10         0.00000E+00
    0.25699E-08        -0.15139E-09         0.00000E+00
    0.25669E-08        -0.22482E-09         0.00000E+00
    0.25627E-08        -0.29650E-09         0.00000E+00
    0.25573E-08        -0.36633E-09         0.00000E+00
    0.25508E-08        -0.43421E-09         0.00000E+00
    0.25431E-08        -0.50005E-09         0.00000E+00
    0.25343E-08        -0.56377E-09         0.00000E+00
    0.25245E-08        -0.62528E-09         0.00000E+00
    0.25136E-08        -0.68453E-09         0.00000E+00
    0.25017E-08        -0.74143E-09         0.00000E+00
    0.24889E-08        -0.79594E-09         0.00000E+00
    0.24752E-08        -0.84798E-09         0.00000E+00
    0.24607E-08        -0.89749E-09         0.00000E+00
    0.24453E-08        -0.94441E-09         0.00000E+00
    0.24293E-08        -0.98868E-09         0.00000E+00
    0.24126E-08        -0.10302E-08         0.00000E+00
    0.23953E-08        -0.10690E-08         0.00000E+00
    0.23775E-08        -0.11048E-08         0.00000E+00
    0.23592E-08        -0.11377E-08         0.00000E+00
    0.23406E-08        -0.11676E-08         0.00000E+00
    0.23216E-08        -0.11943E-08         0.00000E+00
    0.23024E-08        -0.12177E-08         0.00000E+00
    0.22831E-08        -0.12377E-08         0.00000E+00
    0.22636E-08        -0.12542E-08         0.00000E+00
    0.22441E-08        -0.12670E-08         0.00000E+00
    0.22247E-08        -0.12760E-08         0.00000E+00
    0.22054E-08        -0.12810E-08         0.00000E+00
    0.21862E-08        -0.12819E-08         0.00000E+00
    0.21674E-08        -0.12784E-08         0.00000E+00
    0.21489E-08        -0.12704E-08         0.00000E+00
    0.21308E-08        -0.12577E-08         0.00000E+00
    0.21132E-08        -0.12400E-08         0.00000E+00
    0.20961E-08        -0.12172E-08         0.00000E+00
    0.20796E-08        -0.11890E-08         0.00000E+00
    0.20639E-08        -0.11553E-08         0.00000E+00
    0.20488E-08        -0.11158E-08         0.00000E+00
    0.20346E-08        -0.10703E-08         0.00000E+00
    0.20212E-08        -0.10186E-08         0.00000E+00
    0.20088E-08        -0.96055E-09         0.00000E+00
    0.19974E-08        -0.89595E-09         0.00000E+00
    0.19870E-08        -0.82463E-09         0.00000E+00
    0.19776E-08        -0.74645E-09         0.00000E+00
    0.19694E-08        -0.66128E-09         0.00000E+00
    0.19624E-08        -0.56903E-09         0.00000E+00
    0.19566E-08        -0.46961E-09         0.00000E+00
    0.19520E-08        -0.36298E-09         0.00000E+00
    0.19487E-08        -0.24912E-09         0.00000E+00
    0.19467E-08        -0.12805E-09         0.00000E+00
    0.19461E-08        -0.65710E-10         0.00000E+00
    0.23517E-08        -0.35925E-10         0.00000E+00
    0.23513E-08        -0.71300E-10         0.00000E+00
    0.23499E-08        -0.14125E-09         0.00000E+00
    0.23476E-08        -0.20955E-09         0.00000E+00
    0.23444E-08        -0.27611E-09         0.00000E+00
    0.23403E-08        -0.34085E-09         0.00000E+00
    0.23352E-08        -0.40370E-09         0.00000E+00
    0.23293E-08        -0.46459E-09         0.00000E+00
    0.23224E-08        -0.52347E-09         0.00000E+00
    0.23147E-08        -0.58028E-09         0.00000E+00
    0.23061E-08        -0.63498E-09         0.00000E+00
    0.22967E-08        -0.68751E-09         0.00000E+00
    0.22864E-08        -0.73783E-09         0.00000E+00
    0.22755E-08        -0.78590E-09         0.00000E+00
    0.22637E-08        -0.83167E-09         0.00000E+00
    0.22513E-08        -0.87509E-09         0.00000E+00
    0.22383E-08        -0.91610E-09         0.00000E+00
    0.22246E-08        -0.95466E-09         0.00000E+00
    0.22104E-08        -0.99069E-09         0.00000E+00
    0.21957E-08        -0.10241E-08         0.00000E+00
    0.21805E-08        -0.10549E-08         0.00000E+00
    0.21649E-08        -0.10829E-08         0.00000E+00
    0.21490E-08        -0.11081E-08         0.00000E+00
    0.21328E-08        -0.11303E-08         0.00000E+00
    0.21163E-08        -0.11494E-08         0.00000E+00
    0.20997E-08        -0.11654E-08         0.00000E+00
    0.20830E-08        -0.11780E-08         0.00000E+00
    0.20662E-08        -0.11871E-08         0.00000E+00
    0.20494E-08        -0.11925E-08         0.00000E+00
    0.20327E-08        -0.11942E-08         0.00000E+00
    0.20161E-08        -0.11918E-08         0.00000E+00
    0.19997E-08        -0.11852E-08         0.00000E+00
    0.19836E-08        -0.11742E-08         0.00000E+00
    0.19678E-08        -0.11587E-08         0.00000E+00
    0.19524E-08        -0.11383E-08         0.00000E+00
    0.19374E-08        -0.11129E-08         0.00000E+00
    0.19230E-08        -0.10823E-08         0.00000E+00
    0.19091E-08        -0.10462E-08         0.00000E+00
    0.18959E-08        -0.10044E-08         0.00000E+00
    0.18834E-08        -0.95676E-09         0.00000E+00
    0.18717E-08        -0.90305E-09         0.00000E+00
    0.18609E-08        -0.84308E-09         0.00000E+00
    0.18509E-08        -0.77668E-09         0.00000E+00
    0.18419E-08        -0.70369E-09         0.00000E+00
    0.18340E-08        -0.62398E-09         0.00000E+00
    0.18271E-08        -0.53742E-09         0.00000E+00
    0.18214E-08        -0.44394E-09         0.00000E+00
    0.18168E-08        -0.34346E-09         0.00000E+00
    0.18135E-08        -0.23594E-09         0.00000E+00
    0.18115E-08        -0.12138E-09         0.00000E+00
    0.18108E-08        -0.62345E-10         0.00000E+00
    0.21629E-08        -0.33950E-10         0.00000E+00
    0.21625E-08        -0.67319E-10         0.00000E+00
    0.21614E-08        -0.13322E-09         0.00000E+00
    0.21596E-08        -0.19741E-09         0.00000E+00
    0.21569E-08        -0.25983E-09         0.00000E+00
    0.21535E-08        -0.32043E-09         0.00000E+00
    0.21493E-08        -0.37914E-09         0.00000E+00
    0.21443E-08        -0.43594E-09         0.00000E+00
    0.21385E-08        -0.49077E-09         0.00000E+00
    0.21320E-08        -0.54362E-09         0.00000E+00
    0.21248E-08        -0.59443E-09         0.00000E+00
    0.21168E-08        -0.64320E-09         0.00000E+00
    0.21082E-08        -0.68988E-09         0.00000E+00
    0.20988E-08        -0.73444E-09         0.00000E+00
    0.20888E-08        -0.77686E-09         0.00000E+00
    0.20782E-08        -0.81710E-09         0.00000E+00
    0.20669E-08        -0.85512E-09         0.00000E+00
    0.20551E-08        -0.89088E-09         0.00000E+00
    0.20428E-08        -0.92431E-09         0.00000E+00
    0.20300E-08        -0.95537E-09         0.00000E+00
    0.20167E-08        -0.98399E-09         0.00000E+00
    0.20030E-08        -0.10101E-08         0.00000E+00
    0.19889E-08        -0.10336E-08         0.00000E+00
    0.19746E-08        -0.10544E-08         0.00000E+00
    0.19599E-08        -0.10723E-08         0.00000E+00
    0.19450E-08        -0.10874E-08         0.00000E+00
    0.19300E-08        -0.10993E-08         0.00000E+00
    0.19148E-08        -0.11081E-08         0.00000E+00
    0.18996E-08        -0.11135E-08         0.00000E+00
    0.18843E-08        -0.11154E-08         0.00000E+00
    0.18691E-08        -0.11135E-08         0.00000E+00
    0.18540E-08        -0.11078E-08         0.00000E+00
    0.18391E-08        -0.10980E-08         0.00000E+00
    0.18243E-08        -0.10839E-08         0.00000E+00
    0.18099E-08        -0.10653E-08         0.00000E+00
    0.17958E-08        -0.10420E-08         0.00000E+00
    0.17821E-08        -0.10138E-08         0.00000E+00
    0.17689E-08        -0.98053E-09         0.00000E+00
    0.17563E-08        -0.94188E-09         0.00000E+00
    0.17443E-08        -0.89769E-09         0.00000E+00
    0.17329E-08        -0.84777E-09         0.00000E+00
    0.17224E-08        -0.79191E-09         0.00000E+00
    0.17126E-08        -0.72996E-09         0.00000E+00
    0.17037E-08        -0.66175E-09         0.00000E+00
    0.16958E-08        -0.58713E-09         0.00000E+00
    0.16890E-08        -0.50599E-09         0.00000E+00
    0.16832E-08        -0.41823E-09         0.00000E+00
    0.16786E-08        -0.32376E-09         0.00000E+00
    0.16753E-08        -0.22255E-09         0.00000E+00
    0.16732E-08        -0.11456E-09         0.00000E+00
    0.16725E-08        -0.58877E-10         0.00000E+00
    0.20012E-08        -0.32243E-10         0.00000E+00
    0.20008E-08        -0.63874E-10         0.00000E+00
    0.19998E-08        -0.12627E-09         0.00000E+00
    0.19981E-08        -0.18690E-09         0.00000E+00
    0.19958E-08        -0.24572E-09         0.00000E+00
    0.19927E-08        -0.30269E-09         0.00000E+00
    0.19889E-08        -0.35779E-09         0.00000E+00
    0.19844E-08        -0.41098E-09         0.00000E+00
    0.19792E-08        -0.46225E-09         0.00000E+00
    0.19734E-08        -0.51157E-09         0.00000E+00
    0.19668E-08        -0.55892E-09         0.00000E+00
    0.19597E-08        -0.60430E-09         0.00000E+00
    0.19518E-08        -0.64769E-09         0.00000E+00
    0.19433E-08        -0.68906E-09         0.00000E+00
    0.19343E-08        -0.72840E-09         0.00000E+00
    0.19246E-08        -0.76569E-09         0.00000E+00
    0.19144E-08        -0.80089E-09         0.00000E+00
    0.19036E-08        -0.83398E-09         0.00000E+00
    0.18924E-08        -0.86491E-09         0.00000E+00
    0.18806E-08        -0.89364E-09         0.00000E+00
    0.18684E-08        -0.92010E-09         0.00000E+00
    0.18558E-08        -0.94424E-09         0.00000E+00
    0.18428E-08        -0.96596E-09         0.00000E+00
    0.18295E-08        -0.98519E-09         0.00000E+00
    0.18159E-08        -0.10018E-08         0.00000E+00
    0.18021E-08        -0.10158E-08         0.00000E+00
    0.17880E-08        -0.10269E-08         0.00000E+00
    0.17738E-08        -0.10350E-08         0.00000E+00
    0.17594E-08        -0.10400E-08         0.00000E+00
    0.17450E-08        -0.10418E-08         0.00000E+00
    0.17306E-08        -0.10402E-08         0.00000E+00
    0.17162E-08        -0.10349E-08         0.00000E+00
    0.17019E-08        -0.10259E-08         0.00000E+00
    0.16878E-08        -0.10129E-08         0.00000E+00
    0.16739E-08        -0.99566E-09         0.00000E+00
    0.16603E-08        -0.97409E-09         0.00000E+00
    0.16471E-08        -0.94794E-09         0.00000E+00
    0.16342E-08        -0.91700E-09         0.00000E+00
    0.16219E-08        -0.88107E-09         0.00000E+00
    0.16101E-08        -0.83996E-09         0.00000E+00
    0.15989E-08        -0.79347E-09         0.00000E+00
    0.15884E-08        -0.74141E-09         0.00000E+00
    0.15787E-08        -0.68362E-09         0.00000E+00
    0.15699E-08        -0.61994E-09         0.00000E+00
    0.15620E-08        -0.55022E-09         0.00000E+00
    0.15551E-08        -0.47435E-09         0.00000E+00
    0.15493E-08        -0.39221E-09         0.00000E+00
    0.15446E-08        -0.30373E-09         0.00000E+00
    0.15412E-08        -0.20886E-09         0.00000E+00
    0.15391E-08        -0.10756E-09         0.00000E+00
    0.15383E-08        -0.55295E-10         0.00000E+00
    0.18623E-08        -0.30625E-10         0.00000E+00
    0.18619E-08        -0.60619E-10         0.00000E+00
    0.18610E-08        -0.11971E-09         0.00000E+00
    0.18593E-08        -0.17701E-09         0.00000E+00
    0.18570E-08        -0.23248E-09         0.00000E+00
    0.18540E-08        -0.28609E-09         0.00000E+00
    0.18504E-08        -0.33782E-09         0.00000E+00
    0.18461E-08        -0.38767E-09         0.00000E+00
    0.18412E-08        -0.43563E-09         0.00000E+00
    0.18356E-08        -0.48168E-09         0.00000E+00
    0.18293E-08        -0.52581E-09         0.00000E+00
    0.18225E-08        -0.56804E-09         0.00000E+00
    0.18150E-08        -0.60834E-09         0.00000E+00
    0.18069E-08        -0.64672E-09         0.00000E+00
    0.17983E-08        -0.68317E-09         0.00000E+00
    0.17891E-08        -0.71766E-09         0.00000E+00
    0.17794E-08        -0.75019E-09         0.00000E+00
    0.17691E-08        -0.78072E-09         0.00000E+00
    0.17584E-08        -0.80924E-09         0.00000E+00
    0.17472E-08        -0.83569E-09         0.00000E+00
    0.17355E-08        -0.86003E-09         0.00000E+00
    0.17235E-08        -0.88220E-09         0.00000E+00
    0.17111E-08        -0.90214E-09         0.00000E+00
    0.16984E-08        -0.91977E-09         0.00000E+00
    0.16853E-08        -0.93500E-09         0.00000E+00
    0.16720E-08        -0.94772E-09         0.00000E+00
    0.16585E-08        -0.95784E-09         0.00000E+00
    0.16447E-08        -0.96521E-09         0.00000E+00
    0.16309E-08        -0.96972E-09         0.00000E+00
    0.16169E-08        -0.97122E-09         0.00000E+00
    0.16030E-08        -0.96955E-09         0.00000E+00
    0.15890E-08        -0.96455E-09         0.00000E+00
    0.15751E-08        -0.95604E-09         0.00000E+00
    0.15613E-08        -0.94386E-09         0.00000E+00
    0.15477E-08        -0.92780E-09         0.00000E+00
    0.15344E-08        -0.90769E-09         0.00000E+00
    0.15213E-08        -0.88333E-09         0.00000E+00
    0.15087E-08        -0.85452E-09         0.00000E+00
    0.14964E-08        -0.82108E-09         0.00000E+00
    0.14847E-08        -0.78282E-09         0.00000E+00
    0.14736E-08        -0.73955E-09         0.00000E+00
    0.14632E-08        -0.69110E-09         0.00000E+00
    0.14535E-08        -0.63731E-09         0.00000E+00
    0.14447E-08        -0.57801E-09         0.00000E+00
    0.14367E-08        -0.51308E-09         0.00000E+00
    0.14298E-08        -0.44240E-09         0.00000E+00
    0.14239E-08        -0.36585E-09         0.00000E+00
    0.14192E-08        -0.28337E-09         0.00000E+00
    0.14157E-08        -0.19489E-09         0.00000E+00
    0.14136E-08        -0.10038E-09         0.00000E+00
    0.14128E-08        -0.51619E-10         0.00000E+00
    0.17425E-08        -0.28993E-10         0.00000E+00
    0.17422E-08        -0.57347E-10         0.00000E+00
    0.17412E-08        -0.11315E-09         0.00000E+00
    0.17395E-08        -0.16715E-09         0.00000E+00
    0.17372E-08        -0.21932E-09         0.00000E+00
    0.17342E-08        -0.26965E-09         0.00000E+00
    0.17305E-08        -0.31813E-09         0.00000E+00
    0.17262E-08        -0.36475E-09         0.00000E+00
    0.17213E-08        -0.40951E-09         0.00000E+00
    0.17157E-08        -0.45241E-09         0.00000E+00
    0.17095E-08        -0.49347E-09         0.00000E+00
    0.17027E-08        -0.53267E-09         0.00000E+00
    0.16954E-08        -0.57003E-09         0.00000E+00
    0.16874E-08        -0.60555E-09         0.00000E+00
    0.16789E-08        -0.63922E-09         0.00000E+00
    0.16699E-08        -0.67103E-09         0.00000E+00
    0.16603E-08        -0.70099E-09         0.00000E+00
    0.16503E-08        -0.72906E-09         0.00000E+00
    0.16397E-08        -0.75524E-09         0.00000E+00
    0.16288E-08        -0.77948E-09         0.00000E+00
    0.16174E-08        -0.80175E-09         0.00000E+00
    0.16056E-08        -0.82201E-09         0.00000E+00
    0.15934E-08        -0.84018E-09         0.00000E+00
    0.15809E-08        -0.85621E-09         0.00000E+00
    0.15682E-08        -0.87002E-09         0.00000E+00
    0.15551E-08        -0.88151E-09         0.00000E+00
    0.15419E-08        -0.89059E-09         0.00000E+00
    0.15284E-08        -0.89715E-09         0.00000E+00
    0.15148E-08        -0.90105E-09         0.00000E+00
    0.15011E-08        -0.90219E-09         0.00000E+00
    0.14874E-08        -0.90040E-09         0.00000E+00
    0.14736E-08        -0.89554E-09         0.00000E+00
    0.14599E-08        -0.88745E-09         0.00000E+00
    0.14463E-08        -0.87597E-09         0.00000E+00
    0.14329E-08        -0.86092E-09         0.00000E+00
    0.14197E-08        -0.84213E-09         0.00000E+00
    0.14068E-08        -0.81942E-09         0.00000E+00
    0.13942E-08        -0.79261E-09         0.00000E+00
    0.13821E-08        -0.76153E-09         0.00000E+00
    0.13705E-08        -0.72599E-09         0.00000E+00
    0.13594E-08        -0.68582E-09         0.00000E+00
    0.13490E-08        -0.64086E-09         0.00000E+00
    0.13394E-08        -0.59096E-09         0.00000E+00
    0.13305E-08        -0.53598E-09         0.00000E+00
    0.13226E-08        -0.47577E-09         0.00000E+00
    0.13156E-08        -0.41023E-09         0.00000E+00
    0.13097E-08        -0.33926E-09         0.00000E+00
    0.13050E-08        -0.26279E-09         0.00000E+00
    0.13015E-08        -0.18075E-09         0.00000E+00
    0.12993E-08        -0.93103E-10         0.00000E+00
    0.12985E-08        -0.47878E-10         0.00000E+00
    0.16388E-08        -0.27291E-10         0.00000E+00
    0.16384E-08        -0.53945E-10         0.00000E+00
    0.16374E-08        -0.10636E-09         0.00000E+00
    0.16356E-08        -0.15700E-09         0.00000E+00
    0.16332E-08        -0.20583E-09         0.00000E+00
    0.16301E-08        -0.25286E-09         0.00000E+00
    0.16264E-08        -0.29808E-09         0.00000E+00
    0.16220E-08        -0.34149E-09         0.00000E+00
    0.16170E-08        -0.38310E-09         0.00000E+00
    0.16113E-08        -0.42292E-09         0.00000E+00
    0.16050E-08        -0.46096E-09         0.00000E+00
    0.15982E-08        -0.49722E-09         0.00000E+00
    0.15907E-08        -0.53172E-09         0.00000E+00
    0.15828E-08        -0.56445E-09         0.00000E+00
    0.15742E-08        -0.59543E-09         0.00000E+00
    0.15652E-08        -0.62466E-09         0.00000E+00
    0.15556E-08        -0.65213E-09         0.00000E+00
    0.15456E-08        -0.67783E-09         0.00000E+00
    0.15351E-08        -0.70175E-09         0.00000E+00
    0.15242E-08        -0.72386E-09         0.00000E+00
    0.15128E-08        -0.74413E-09         0.00000E+00
    0.15011E-08        -0.76252E-09         0.00000E+00
    0.14891E-08        -0.77898E-09         0.00000E+00
    0.14767E-08        -0.79346E-09         0.00000E+00
    0.14641E-08        -0.80588E-09         0.00000E+00
    0.14511E-08        -0.81616E-09         0.00000E+00
    0.14380E-08        -0.82422E-09         0.00000E+00
    0.14247E-08        -0.82996E-09         0.00000E+00
    0.14112E-08        -0.83326E-09         0.00000E+00
    0.13977E-08        -0.83401E-09         0.00000E+00
    0.13841E-08        -0.83207E-09         0.00000E+00
    0.13705E-08        -0.82732E-09         0.00000E+00
    0.13569E-08        -0.81961E-09         0.00000E+00
    0.13434E-08        -0.80878E-09         0.00000E+00
    0.13301E-08        -0.79469E-09         0.00000E+00
    0.13171E-08        -0.77716E-09         0.00000E+00
    0.13043E-08        -0.75604E-09         0.00000E+00
    0.12918E-08        -0.73115E-09         0.00000E+00
    0.12798E-08        -0.70235E-09         0.00000E+00
    0.12682E-08        -0.66946E-09         0.00000E+00
    0.12573E-08        -0.63232E-09         0.00000E+00
    0.12469E-08        -0.59079E-09         0.00000E+00
    0.12373E-08        -0.54472E-09         0.00000E+00
    0.12285E-08        -0.49399E-09         0.00000E+00
    0.12206E-08        -0.43846E-09         0.00000E+00
    0.12136E-08        -0.37803E-09         0.00000E+00
    0.12077E-08        -0.31261E-09         0.00000E+00
    0.12030E-08        -0.24213E-09         0.00000E+00
    0.11995E-08        -0.16653E-09         0.00000E+00
    0.11973E-08        -0.85778E-10         0.00000E+00
    0.11965E-08        -0.44110E-10         0.00000E+00
    0.15485E-08        -0.25495E-10         0.00000E+00
    0.15482E-08        -0.50370E-10         0.00000E+00
    0.15471E-08        -0.99255E-10         0.00000E+00
    0.15453E-08        -0.14641E-09         0.00000E+00
    0.15428E-08        -0.19181E-09         0.00000E+00
    0.15396E-08        -0.23548E-09         0.00000E+00
    0.15357E-08        -0.27740E-09         0.00000E+00
    0.15311E-08        -0.31759E-09         0.00000E+00
    0.15260E-08        -0.35606E-09         0.00000E+00
    0.15202E-08        -0.39281E-09         0.00000E+00
    0.15138E-08        -0.42785E-09         0.00000E+00
    0.15068E-08        -0.46121E-09         0.00000E+00
    0.14992E-08        -0.49290E-09         0.00000E+00
    0.14911E-08        -0.52292E-09         0.00000E+00
    0.14825E-08        -0.55128E-09         0.00000E+00
    0.14734E-08        -0.57799E-09         0.00000E+00
    0.14637E-08        -0.60306E-09         0.00000E+00
    0.14537E-08        -0.62646E-09         0.00000E+00
    0.14431E-08        -0.64820E-09         0.00000E+00
    0.14322E-08        -0.66826E-09         0.00000E+00
    0.14209E-08        -0.68660E-09         0.00000E+00
    0.14092E-08        -0.70321E-09         0.00000E+00
    0.13971E-08        -0.71803E-09         0.00000E+00
    0.13848E-08        -0.73101E-09         0.00000E+00
    0.13722E-08        -0.74210E-09         0.00000E+00
    0.13593E-08        -0.75123E-09         0.00000E+00
    0.13463E-08        -0.75832E-09         0.00000E+00
    0.13330E-08        -0.76327E-09         0.00000E+00
    0.13197E-08        -0.76600E-09         0.00000E+00
    0.13062E-08        -0.76639E-09         0.00000E+00
    0.12928E-08        -0.76434E-09         0.00000E+00
    0.12793E-08        -0.75970E-09         0.00000E+00
    0.12658E-08        -0.75237E-09         0.00000E+00
    0.12525E-08        -0.74219E-09         0.00000E+00
    0.12393E-08        -0.72904E-09         0.00000E+00
    0.12264E-08        -0.71276E-09         0.00000E+00
    0.12137E-08        -0.69320E-09         0.00000E+00
    0.12014E-08        -0.67021E-09         0.00000E+00
    0.11895E-08        -0.64365E-09         0.00000E+00
    0.11780E-08        -0.61337E-09         0.00000E+00
    0.11672E-08        -0.57923E-09         0.00000E+00
    0.11569E-08        -0.54108E-09         0.00000E+00
    0.11474E-08        -0.49880E-09         0.00000E+00
    0.11387E-08        -0.45226E-09         0.00000E+00
    0.11308E-08        -0.40136E-09         0.00000E+00
    0.11239E-08        -0.34600E-09         0.00000E+00
    0.11181E-08        -0.28609E-09         0.00000E+00
    0.11134E-08        -0.22156E-09         0.00000E+00
    0.11099E-08        -0.15237E-09         0.00000E+00
    0.11077E-08        -0.78475E-10         0.00000E+00
    0.11070E-08        -0.40351E-10         0.00000E+00
    0.14698E-08        -0.23606E-10         0.00000E+00
    0.14694E-08        -0.46619E-10         0.00000E+00
    0.14682E-08        -0.91818E-10         0.00000E+00
    0.14664E-08        -0.13536E-09         0.00000E+00
    0.14637E-08        -0.17725E-09         0.00000E+00
    0.14604E-08        -0.21748E-09         0.00000E+00
    0.14564E-08        -0.25605E-09         0.00000E+00
    0.14518E-08        -0.29298E-09         0.00000E+00
    0.14465E-08        -0.32828E-09         0.00000E+00
    0.14405E-08        -0.36196E-09         0.00000E+00
    0.14340E-08        -0.39403E-09         0.00000E+00
    0.14269E-08        -0.42452E-09         0.00000E+00
    0.14192E-08        -0.45343E-09         0.00000E+00
    0.14110E-08        -0.48079E-09         0.00000E+00
    0.14022E-08        -0.50659E-09         0.00000E+00
    0.13930E-08        -0.53085E-09         0.00000E+00
    0.13833E-08        -0.55358E-09         0.00000E+00
    0.13731E-08        -0.57476E-09         0.00000E+00
    0.13626E-08        -0.59440E-09         0.00000E+00
    0.13516E-08        -0.61249E-09         0.00000E+00
    0.13402E-08        -0.62899E-09         0.00000E+00
    0.13285E-08        -0.64389E-09         0.00000E+00
    0.13165E-08        -0.65715E-09         0.00000E+00
    0.13042E-08        -0.66872E-09         0.00000E+00
    0.12916E-08        -0.67856E-09         0.00000E+00
    0.12788E-08        -0.68661E-09         0.00000E+00
    0.12659E-08        -0.69279E-09         0.00000E+00
    0.12527E-08        -0.69703E-09         0.00000E+00
    0.12395E-08        -0.69924E-09         0.00000E+00
    0.12261E-08        -0.69932E-09         0.00000E+00
    0.12128E-08        -0.69718E-09         0.00000E+00
    0.11994E-08        -0.69271E-09         0.00000E+00
    0.11861E-08        -0.68578E-09         0.00000E+00
    0.11729E-08        -0.67628E-09         0.00000E+00
    0.11599E-08        -0.66408E-09         0.00000E+00
    0.11471E-08        -0.64905E-09         0.00000E+00
    0.11346E-08        -0.63106E-09         0.00000E+00
    0.11225E-08        -0.60996E-09         0.00000E+00
    0.11107E-08        -0.58564E-09         0.00000E+00
    0.10994E-08        -0.55795E-09         0.00000E+00
    0.10887E-08        -0.52676E-09         0.00000E+00
    0.10786E-08        -0.49196E-09         0.00000E+00
    0.10692E-08        -0.45342E-09         0.00000E+00
    0.10606E-08        -0.41103E-09         0.00000E+00
    0.10528E-08        -0.36470E-09         0.00000E+00
    0.10461E-08        -0.31434E-09         0.00000E+00
    0.10403E-08        -0.25986E-09         0.00000E+00
    0.10357E-08        -0.20122E-09         0.00000E+00
    0.10322E-08        -0.13836E-09         0.00000E+00
    0.10301E-08        -0.71250E-10         0.00000E+00
    0.10294E-08        -0.36632E-10         0.00000E+00
    0.14009E-08        -0.21636E-10         0.00000E+00
    0.14005E-08        -0.42715E-10         0.00000E+00
    0.13993E-08        -0.84096E-10         0.00000E+00
    0.13973E-08        -0.12392E-09         0.00000E+00
    0.13946E-08        -0.16220E-09         0.00000E+00
    0.13912E-08        -0.19892E-09         0.00000E+00
    0.13871E-08        -0.23409E-09         0.00000E+00
    0.13824E-08        -0.26773E-09         0.00000E+00
    0.13769E-08        -0.29985E-09         0.00000E+00
    0.13709E-08        -0.33046E-09         0.00000E+00
    0.13642E-08        -0.35957E-09         0.00000E+00
    0.13570E-08        -0.38721E-09         0.00000E+00
    0.13492E-08        -0.41339E-09         0.00000E+00
    0.13409E-08        -0.43812E-09         0.00000E+00
    0.13321E-08        -0.46142E-09         0.00000E+00
    0.13228E-08        -0.48330E-09         0.00000E+00
    0.13130E-08        -0.50375E-09         0.00000E+00
    0.13028E-08        -0.52279E-09         0.00000E+00
    0.12922E-08        -0.54041E-09         0.00000E+00
    0.12812E-08        -0.55660E-09         0.00000E+00
    0.12698E-08        -0.57134E-09         0.00000E+00
    0.12582E-08        -0.58462E-09         0.00000E+00
    0.12462E-08        -0.59640E-09         0.00000E+00
    0.12339E-08        -0.60664E-09         0.00000E+00
    0.12214E-08        -0.61531E-09         0.00000E+00
    0.12087E-08        -0.62235E-09         0.00000E+00
    0.11958E-08        -0.62770E-09         0.00000E+00
    0.11828E-08        -0.63130E-09         0.00000E+00
    0.11697E-08        -0.63306E-09         0.00000E+00
    0.11565E-08        -0.63290E-09         0.00000E+00
    0.11433E-08        -0.63074E-09         0.00000E+00
    0.11301E-08        -0.62647E-09         0.00000E+00
    0.11169E-08        -0.62000E-09         0.00000E+00
    0.11039E-08        -0.61121E-09         0.00000E+00
    0.10911E-08        -0.59999E-09         0.00000E+00
    0.10785E-08        -0.58623E-09         0.00000E+00
    0.10662E-08        -0.56981E-09         0.00000E+00
    0.10542E-08        -0.55060E-09         0.00000E+00
    0.10427E-08        -0.52850E-09         0.00000E+00
    0.10316E-08        -0.50338E-09         0.00000E+00
    0.10210E-08        -0.47512E-09         0.00000E+00
    0.10111E-08        -0.44363E-09         0.00000E+00
    0.10019E-08        -0.40878E-09         0.00000E+00
    0.99345E-09        -0.37048E-09         0.00000E+00
    0.98585E-09        -0.32866E-09         0.00000E+00
    0.97918E-09        -0.28321E-09         0.00000E+00
    0.97353E-09        -0.23409E-09         0.00000E+00
    0.96898E-09        -0.18123E-09         0.00000E+00
    0.96562E-09        -0.12459E-09         0.00000E+00
    0.96354E-09        -0.64150E-10         0.00000E+00
    0.96281E-09        -0.32976E-10         0.00000E+00
    0.13406E-08        -0.19603E-10         0.00000E+00
    0.13402E-08        -0.38691E-10         0.00000E+00
    0.13389E-08        -0.76151E-10         0.00000E+00
    0.13370E-08        -0.11218E-09         0.00000E+00
    0.13342E-08        -0.14677E-09         0.00000E+00
    0.13307E-08        -0.17993E-09         0.00000E+00
    0.13266E-08        -0.21167E-09         0.00000E+00
    0.13217E-08        -0.24200E-09         0.00000E+00
    0.13162E-08        -0.27093E-09         0.00000E+00
    0.13101E-08        -0.29847E-09         0.00000E+00
    0.13034E-08        -0.32464E-09         0.00000E+00
    0.12961E-08        -0.34946E-09         0.00000E+00
    0.12882E-08        -0.37294E-09         0.00000E+00
    0.12798E-08        -0.39509E-09         0.00000E+00
    0.12710E-08        -0.41594E-09         0.00000E+00
    0.12616E-08        -0.43548E-09         0.00000E+00
    0.12518E-08        -0.45374E-09         0.00000E+00
    0.12416E-08        -0.47070E-09         0.00000E+00
    0.12310E-08        -0.48637E-09         0.00000E+00
    0.12200E-08        -0.50074E-09         0.00000E+00
    0.12087E-08        -0.51380E-09         0.00000E+00
    0.11971E-08        -0.52554E-09         0.00000E+00
    0.11852E-08        -0.53592E-09         0.00000E+00
    0.11730E-08        -0.54492E-09         0.00000E+00
    0.11606E-08        -0.55250E-09         0.00000E+00
    0.11480E-08        -0.55862E-09         0.00000E+00
    0.11352E-08        -0.56322E-09         0.00000E+00
    0.11223E-08        -0.56624E-09         0.00000E+00
    0.11094E-08        -0.56762E-09         0.00000E+00
    0.10963E-08        -0.56728E-09         0.00000E+00
    0.10833E-08        -0.56515E-09         0.00000E+00
    0.10703E-08        -0.56114E-09         0.00000E+00
    0.10574E-08        -0.55517E-09         0.00000E+00
    0.10446E-08        -0.54713E-09         0.00000E+00
    0.10320E-08        -0.53692E-09         0.00000E+00
    0.10196E-08        -0.52446E-09         0.00000E+00
    0.10075E-08        -0.50962E-09         0.00000E+00
    0.99576E-09        -0.49231E-09         0.00000E+00
    0.98443E-09        -0.47242E-09         0.00000E+00
    0.97356E-09        -0.44985E-09         0.00000E+00
    0.96324E-09        -0.42449E-09         0.00000E+00
    0.95354E-09        -0.39626E-09         0.00000E+00
    0.94451E-09        -0.36504E-09         0.00000E+00
    0.93624E-09        -0.33077E-09         0.00000E+00
    0.92881E-09        -0.29337E-09         0.00000E+00
    0.92230E-09        -0.25275E-09         0.00000E+00
    0.91678E-09        -0.20887E-09         0.00000E+00
    0.91233E-09        -0.16167E-09         0.00000E+00
    0.90905E-09        -0.11113E-09         0.00000E+00
    0.90702E-09        -0.57208E-10         0.00000E+00
    0.90631E-09        -0.29403E-10         0.00000E+00
    0.12880E-08        -0.17527E-10         0.00000E+00
    0.12876E-08        -0.34586E-10         0.00000E+00
    0.12863E-08        -0.68055E-10         0.00000E+00
    0.12843E-08        -0.10022E-09         0.00000E+00
    0.12815E-08        -0.13109E-09         0.00000E+00
    0.12780E-08        -0.16067E-09         0.00000E+00
    0.12738E-08        -0.18895E-09         0.00000E+00
    0.12689E-08        -0.21596E-09         0.00000E+00
    0.12634E-08        -0.24170E-09         0.00000E+00
    0.12572E-08        -0.26619E-09         0.00000E+00
    0.12504E-08        -0.28944E-09         0.00000E+00
    0.12431E-08        -0.31147E-09         0.00000E+00
    0.12352E-08        -0.33228E-09         0.00000E+00
    0.12268E-08        -0.35191E-09         0.00000E+00
    0.12180E-08        -0.37035E-09         0.00000E+00
    0.12086E-08        -0.38763E-09         0.00000E+00
    0.11988E-08        -0.40374E-09         0.00000E+00
    0.11887E-08        -0.41869E-09         0.00000E+00
    0.11781E-08        -0.43248E-09         0.00000E+00
    0.11672E-08        -0.44511E-09         0.00000E+00
    0.11559E-08        -0.45657E-09         0.00000E+00
    0.11444E-08        -0.46684E-09         0.00000E+00
    0.11326E-08        -0.47591E-09         0.00000E+00
    0.11205E-08        -0.48374E-09         0.00000E+00
    0.11082E-08        -0.49030E-09         0.00000E+00
    0.10958E-08        -0.49557E-09         0.00000E+00
    0.10832E-08        -0.49948E-09         0.00000E+00
    0.10705E-08        -0.50200E-09         0.00000E+00
    0.10577E-08        -0.50307E-09         0.00000E+00
    0.10448E-08        -0.50261E-09         0.00000E+00
    0.10320E-08        -0.50057E-09         0.00000E+00
    0.10192E-08        -0.49688E-09         0.00000E+00
    0.10065E-08        -0.49144E-09         0.00000E+00
    0.99398E-09        -0.48418E-09         0.00000E+00
    0.98160E-09        -0.47502E-09         0.00000E+00
    0.96947E-09        -0.46386E-09         0.00000E+00
    0.95762E-09        -0.45062E-09         0.00000E+00
    0.94612E-09        -0.43520E-09         0.00000E+00
    0.93503E-09        -0.41752E-09         0.00000E+00
    0.92441E-09        -0.39747E-09         0.00000E+00
    0.91432E-09        -0.37498E-09         0.00000E+00
    0.90484E-09        -0.34996E-09         0.00000E+00
    0.89603E-09        -0.32232E-09         0.00000E+00
    0.88796E-09        -0.29200E-09         0.00000E+00
    0.88072E-09        -0.25892E-09         0.00000E+00
    0.87436E-09        -0.22303E-09         0.00000E+00
    0.86898E-09        -0.18427E-09         0.00000E+00
    0.86466E-09        -0.14261E-09         0.00000E+00
    0.86146E-09        -0.98006E-10         0.00000E+00
    0.85948E-09        -0.50444E-10         0.00000E+00
    0.85879E-09        -0.25923E-10         0.00000E+00
    0.12424E-08        -0.15425E-10         0.00000E+00
    0.12420E-08        -0.30434E-10         0.00000E+00
    0.12408E-08        -0.59874E-10         0.00000E+00
    0.12387E-08        -0.88158E-10         0.00000E+00
    0.12359E-08        -0.11529E-09         0.00000E+00
    0.12324E-08        -0.14126E-09         0.00000E+00
    0.12282E-08        -0.16609E-09         0.00000E+00
    0.12232E-08        -0.18979E-09         0.00000E+00
    0.12177E-08        -0.21235E-09         0.00000E+00
    0.12115E-08        -0.23381E-09         0.00000E+00
    0.12047E-08        -0.25417E-09         0.00000E+00
    0.11974E-08        -0.27344E-09         0.00000E+00
    0.11896E-08        -0.29164E-09         0.00000E+00
    0.11812E-08        -0.30878E-09         0.00000E+00
    0.11723E-08        -0.32487E-09         0.00000E+00
    0.11630E-08        -0.33993E-09         0.00000E+00
    0.11533E-08        -0.35396E-09         0.00000E+00
    0.11432E-08        -0.36696E-09         0.00000E+00
    0.11327E-08        -0.37894E-09         0.00000E+00
    0.11219E-08        -0.38990E-09         0.00000E+00
    0.11107E-08        -0.39982E-09         0.00000E+00
    0.10993E-08        -0.40869E-09         0.00000E+00
    0.10876E-08        -0.41651E-09         0.00000E+00
    0.10757E-08        -0.42324E-09         0.00000E+00
    0.10636E-08        -0.42886E-09         0.00000E+00
    0.10513E-08        -0.43334E-09         0.00000E+00
    0.10389E-08        -0.43664E-09         0.00000E+00
    0.10264E-08        -0.43872E-09         0.00000E+00
    0.10138E-08        -0.43953E-09         0.00000E+00
    0.10012E-08        -0.43901E-09         0.00000E+00
    0.98855E-09        -0.43711E-09         0.00000E+00
    0.97600E-09        -0.43377E-09         0.00000E+00
    0.96355E-09        -0.42891E-09         0.00000E+00
    0.95123E-09        -0.42247E-09         0.00000E+00
    0.93911E-09        -0.41437E-09         0.00000E+00
    0.92723E-09        -0.40454E-09         0.00000E+00
    0.91564E-09        -0.39289E-09         0.00000E+00
    0.90439E-09        -0.37936E-09         0.00000E+00
    0.89355E-09        -0.36386E-09         0.00000E+00
    0.88318E-09        -0.34631E-09         0.00000E+00
    0.87333E-09        -0.32665E-09         0.00000E+00
    0.86408E-09        -0.30478E-09         0.00000E+00
    0.85549E-09        -0.28066E-09         0.00000E+00
    0.84763E-09        -0.25420E-09         0.00000E+00
    0.84057E-09        -0.22536E-09         0.00000E+00
    0.83438E-09        -0.19409E-09         0.00000E+00
    0.82914E-09        -0.16033E-09         0.00000E+00
    0.82493E-09        -0.12406E-09         0.00000E+00
    0.82182E-09        -0.85241E-10         0.00000E+00
    0.81990E-09        -0.43867E-10         0.00000E+00
    0.81923E-09        -0.22539E-10         0.00000E+00
    0.12034E-08        -0.13313E-10         0.00000E+00
    0.12030E-08        -0.26264E-10         0.00000E+00
    0.12017E-08        -0.51663E-10         0.00000E+00
    0.11997E-08        -0.76055E-10         0.00000E+00
    0.11969E-08        -0.99442E-10         0.00000E+00
    0.11933E-08        -0.12183E-09         0.00000E+00
    0.11891E-08        -0.14321E-09         0.00000E+00
    0.11842E-08        -0.16361E-09         0.00000E+00
    0.11787E-08        -0.18303E-09         0.00000E+00
    0.11725E-08        -0.20148E-09         0.00000E+00
    0.11658E-08        -0.21898E-09         0.00000E+00
    0.11585E-08        -0.23553E-09         0.00000E+00
    0.11507E-08        -0.25115E-09         0.00000E+00
    0.11423E-08        -0.26586E-09         0.00000E+00
    0.11336E-08        -0.27965E-09         0.00000E+00
    0.11243E-08        -0.29255E-09         0.00000E+00
    0.11147E-08        -0.30455E-09         0.00000E+00
    0.11047E-08        -0.31566E-09         0.00000E+00
    0.10943E-08        -0.32589E-09         0.00000E+00
    0.10836E-08        -0.33523E-09         0.00000E+00
    0.10725E-08        -0.34367E-09         0.00000E+00
    0.10612E-08        -0.35122E-09         0.00000E+00
    0.10497E-08        -0.35784E-09         0.00000E+00
    0.10379E-08        -0.36354E-09         0.00000E+00
    0.10260E-08        -0.36828E-09         0.00000E+00
    0.10139E-08        -0.37203E-09         0.00000E+00
    0.10016E-08        -0.37477E-09         0.00000E+00
    0.98932E-09        -0.37647E-09         0.00000E+00
    0.97694E-09        -0.37707E-09         0.00000E+00
    0.96455E-09        -0.37654E-09         0.00000E+00
    0.95218E-09        -0.37482E-09         0.00000E+00
    0.93986E-09        -0.37186E-09         0.00000E+00
    0.92765E-09        -0.36761E-09         0.00000E+00
    0.91558E-09        -0.36201E-09         0.00000E+00
    0.90371E-09        -0.35499E-09         0.00000E+00
    0.89208E-09        -0.34649E-09         0.00000E+00
    0.88074E-09        -0.33645E-09         0.00000E+00
    0.86975E-09        -0.32479E-09         0.00000E+00
    0.85916E-09        -0.31146E-09         0.00000E+00
    0.84903E-09        -0.29638E-09         0.00000E+00
    0.83941E-09        -0.27949E-09         0.00000E+00
    0.83039E-09        -0.26073E-09         0.00000E+00
    0.82201E-09        -0.24005E-09         0.00000E+00
    0.81434E-09        -0.21738E-09         0.00000E+00
    0.80747E-09        -0.19269E-09         0.00000E+00
    0.80144E-09        -0.16592E-09         0.00000E+00
    0.79634E-09        -0.13704E-09         0.00000E+00
    0.79224E-09        -0.10601E-09         0.00000E+00
    0.78922E-09        -0.72832E-10         0.00000E+00
    0.78735E-09        -0.37475E-10         0.00000E+00
    0.78670E-09        -0.19252E-10         0.00000E+00
    0.11705E-08        -0.11202E-10         0.00000E+00
    0.11701E-08        -0.22098E-10         0.00000E+00
    0.11689E-08        -0.43463E-10         0.00000E+00
    0.11668E-08        -0.63976E-10         0.00000E+00
    0.11640E-08        -0.83638E-10         0.00000E+00
    0.11605E-08        -0.10245E-09         0.00000E+00
    0.11563E-08        -0.12042E-09         0.00000E+00
    0.11514E-08        -0.13755E-09         0.00000E+00
    0.11459E-08        -0.15385E-09         0.00000E+00
    0.11398E-08        -0.16933E-09         0.00000E+00
    0.11331E-08        -0.18400E-09         0.00000E+00
    0.11259E-08        -0.19787E-09         0.00000E+00
    0.11181E-08        -0.21096E-09         0.00000E+00
    0.11099E-08        -0.22327E-09         0.00000E+00
    0.11011E-08        -0.23481E-09         0.00000E+00
    0.10920E-08        -0.24559E-09         0.00000E+00
    0.10825E-08        -0.25561E-09         0.00000E+00
    0.10725E-08        -0.26488E-09         0.00000E+00
    0.10623E-08        -0.27341E-09         0.00000E+00
    0.10517E-08        -0.28119E-09         0.00000E+00
    0.10408E-08        -0.28821E-09         0.00000E+00
    0.10296E-08        -0.29448E-09         0.00000E+00
    0.10182E-08        -0.29997E-09         0.00000E+00
    0.10066E-08        -0.30468E-09         0.00000E+00
    0.99484E-09        -0.30858E-09         0.00000E+00
    0.98292E-09        -0.31167E-09         0.00000E+00
    0.97088E-09        -0.31390E-09         0.00000E+00
    0.95876E-09        -0.31525E-09         0.00000E+00
    0.94659E-09        -0.31569E-09         0.00000E+00
    0.93441E-09        -0.31518E-09         0.00000E+00
    0.92226E-09        -0.31367E-09         0.00000E+00
    0.91017E-09        -0.31114E-09         0.00000E+00
    0.89819E-09        -0.30752E-09         0.00000E+00
    0.88636E-09        -0.30278E-09         0.00000E+00
    0.87472E-09        -0.29685E-09         0.00000E+00
    0.86333E-09        -0.28969E-09         0.00000E+00
    0.85223E-09        -0.28123E-09         0.00000E+00
    0.84147E-09        -0.27144E-09         0.00000E+00
    0.83111E-09        -0.26025E-09         0.00000E+00
    0.82121E-09        -0.24761E-09         0.00000E+00
    0.81182E-09        -0.23346E-09         0.00000E+00
    0.80300E-09        -0.21775E-09         0.00000E+00
    0.79482E-09        -0.20044E-09         0.00000E+00
    0.78734E-09        -0.18149E-09         0.00000E+00
    0.78063E-09        -0.16084E-09         0.00000E+00
    0.77475E-09        -0.13848E-09         0.00000E+00
    0.76978E-09        -0.11435E-09         0.00000E+00
    0.76579E-09        -0.88453E-10         0.00000E+00
    0.76285E-09        -0.60758E-10         0.00000E+00
    0.76102E-09        -0.31258E-10         0.00000E+00
    0.76039E-09        -0.16056E-10         0.00000E+00
    0.11436E-08        -0.91003E-11         0.00000E+00
    0.11432E-08        -0.17950E-10         0.00000E+00
    0.11420E-08        -0.35302E-10         0.00000E+00
    0.11399E-08        -0.51958E-10         0.00000E+00
    0.11372E-08        -0.67917E-10         0.00000E+00
    0.11337E-08        -0.83183E-10         0.00000E+00
    0.11295E-08        -0.97759E-10         0.00000E+00
    0.11246E-08        -0.11165E-09         0.00000E+00
    0.11192E-08        -0.12486E-09         0.00000E+00
    0.11131E-08        -0.13741E-09         0.00000E+00
    0.11064E-08        -0.14929E-09         0.00000E+00
    0.10993E-08        -0.16052E-09         0.00000E+00
    0.10916E-08        -0.17111E-09         0.00000E+00
    0.10834E-08        -0.18106E-09         0.00000E+00
    0.10748E-08        -0.19039E-09         0.00000E+00
    0.10657E-08        -0.19910E-09         0.00000E+00
    0.10563E-08        -0.20719E-09         0.00000E+00
    0.10464E-08        -0.21467E-09         0.00000E+00
    0.10363E-08        -0.22154E-09         0.00000E+00
    0.10258E-08        -0.22780E-09         0.00000E+00
    0.10151E-08        -0.23345E-09         0.00000E+00
    0.10040E-08        -0.23848E-09         0.00000E+00
    0.99279E-09        -0.24288E-09         0.00000E+00
    0.98134E-09        -0.24665E-09         0.00000E+00
    0.96973E-09        -0.24977E-09         0.00000E+00
    0.95798E-09        -0.25222E-09         0.00000E+00
    0.94611E-09        -0.25397E-09         0.00000E+00
    0.93418E-09        -0.25502E-09         0.00000E+00
    0.92220E-09        -0.25533E-09         0.00000E+00
    0.91022E-09        -0.25487E-09         0.00000E+00
    0.89826E-09        -0.25361E-09         0.00000E+00
    0.88638E-09        -0.25152E-09         0.00000E+00
    0.87461E-09        -0.24855E-09         0.00000E+00
    0.86299E-09        -0.24467E-09         0.00000E+00
    0.85157E-09        -0.23984E-09         0.00000E+00
    0.84039E-09        -0.23402E-09         0.00000E+00
    0.82950E-09        -0.22716E-09         0.00000E+00
    0.81896E-09        -0.21921E-09         0.00000E+00
    0.80880E-09        -0.21014E-09         0.00000E+00
    0.79910E-09        -0.19990E-09         0.00000E+00
    0.78991E-09        -0.18845E-09         0.00000E+00
    0.78128E-09        -0.17575E-09         0.00000E+00
    0.77327E-09        -0.16175E-09         0.00000E+00
    0.76596E-09        -0.14643E-09         0.00000E+00
    0.75940E-09        -0.12976E-09         0.00000E+00
    0.75365E-09        -0.11170E-09         0.00000E+00
    0.74880E-09        -0.92227E-10         0.00000E+00
    0.74490E-09        -0.71328E-10         0.00000E+00
    0.74202E-09        -0.48988E-10         0.00000E+00
    0.74024E-09        -0.25199E-10         0.00000E+00
    0.73963E-09        -0.12942E-10         0.00000E+00
    0.11225E-08        -0.70109E-11         0.00000E+00
    0.11221E-08        -0.13828E-10         0.00000E+00
    0.11209E-08        -0.27192E-10         0.00000E+00
    0.11188E-08        -0.40017E-10         0.00000E+00
    0.11161E-08        -0.52302E-10         0.00000E+00
    0.11126E-08        -0.64049E-10         0.00000E+00
    0.11085E-08        -0.75262E-10         0.00000E+00
    0.11037E-08        -0.85945E-10         0.00000E+00
    0.10982E-08        -0.96103E-10         0.00000E+00
    0.10922E-08        -0.10574E-09         0.00000E+00
    0.10856E-08        -0.11487E-09         0.00000E+00
    0.10785E-08        -0.12349E-09         0.00000E+00
    0.10708E-08        -0.13162E-09         0.00000E+00
    0.10627E-08        -0.13925E-09         0.00000E+00
    0.10542E-08        -0.14640E-09         0.00000E+00
    0.10452E-08        -0.15307E-09         0.00000E+00
    0.10359E-08        -0.15926E-09         0.00000E+00
    0.10261E-08        -0.16499E-09         0.00000E+00
    0.10161E-08        -0.17024E-09         0.00000E+00
    0.10057E-08        -0.17502E-09         0.00000E+00
    0.99507E-09        -0.17933E-09         0.00000E+00
    0.98417E-09        -0.18316E-09         0.00000E+00
    0.97305E-09        -0.18652E-09         0.00000E+00
    0.96174E-09        -0.18938E-09         0.00000E+00
    0.95027E-09        -0.19174E-09         0.00000E+00
    0.93866E-09        -0.19359E-09         0.00000E+00
    0.92696E-09        -0.19491E-09         0.00000E+00
    0.91518E-09        -0.19568E-09         0.00000E+00
    0.90336E-09        -0.19588E-09         0.00000E+00
    0.89155E-09        -0.19550E-09         0.00000E+00
    0.87977E-09        -0.19451E-09         0.00000E+00
    0.86806E-09        -0.19287E-09         0.00000E+00
    0.85647E-09        -0.19057E-09         0.00000E+00
    0.84503E-09        -0.18757E-09         0.00000E+00
    0.83379E-09        -0.18384E-09         0.00000E+00
    0.82279E-09        -0.17935E-09         0.00000E+00
    0.81208E-09        -0.17406E-09         0.00000E+00
    0.80171E-09        -0.16795E-09         0.00000E+00
    0.79174E-09        -0.16098E-09         0.00000E+00
    0.78220E-09        -0.15312E-09         0.00000E+00
    0.77317E-09        -0.14433E-09         0.00000E+00
    0.76470E-09        -0.13458E-09         0.00000E+00
    0.75684E-09        -0.12385E-09         0.00000E+00
    0.74967E-09        -0.11211E-09         0.00000E+00
    0.74323E-09        -0.99328E-10         0.00000E+00
    0.73760E-09        -0.85491E-10         0.00000E+00
    0.73284E-09        -0.70580E-10         0.00000E+00
    0.72902E-09        -0.54580E-10         0.00000E+00
    0.72620E-09        -0.37481E-10         0.00000E+00
    0.72446E-09        -0.19277E-10         0.00000E+00
    0.72385E-09        -0.98994E-11         0.00000E+00
    0.11071E-08        -0.49339E-11         0.00000E+00
    0.11067E-08        -0.97303E-11         0.00000E+00
    0.11055E-08        -0.19132E-10         0.00000E+00
    0.11035E-08        -0.28150E-10         0.00000E+00
    0.11007E-08        -0.36787E-10         0.00000E+00
    0.10973E-08        -0.45041E-10         0.00000E+00
    0.10931E-08        -0.52917E-10         0.00000E+00
    0.10884E-08        -0.60417E-10         0.00000E+00
    0.10830E-08        -0.67546E-10         0.00000E+00
    0.10770E-08        -0.74307E-10         0.00000E+00
    0.10704E-08        -0.80706E-10         0.00000E+00
    0.10633E-08        -0.86747E-10         0.00000E+00
    0.10558E-08        -0.92437E-10         0.00000E+00
    0.10477E-08        -0.97780E-10         0.00000E+00
    0.10392E-08        -0.10278E-09         0.00000E+00
    0.10303E-08        -0.10744E-09         0.00000E+00
    0.10210E-08        -0.11177E-09         0.00000E+00
    0.10114E-08        -0.11576E-09         0.00000E+00
    0.10014E-08        -0.11942E-09         0.00000E+00
    0.99112E-09        -0.12276E-09         0.00000E+00
    0.98057E-09        -0.12576E-09         0.00000E+00
    0.96977E-09        -0.12842E-09         0.00000E+00
    0.95876E-09        -0.13075E-09         0.00000E+00
    0.94755E-09        -0.13273E-09         0.00000E+00
    0.93619E-09        -0.13437E-09         0.00000E+00
    0.92470E-09        -0.13564E-09         0.00000E+00
    0.91311E-09        -0.13654E-09         0.00000E+00
    0.90145E-09        -0.13706E-09         0.00000E+00
    0.88977E-09        -0.13718E-09         0.00000E+00
    0.87808E-09        -0.13690E-09         0.00000E+00
    0.86643E-09        -0.13618E-09         0.00000E+00
    0.85486E-09        -0.13502E-09         0.00000E+00
    0.84341E-09        -0.13339E-09         0.00000E+00
    0.83211E-09        -0.13127E-09         0.00000E+00
    0.82101E-09        -0.12864E-09         0.00000E+00
    0.81015E-09        -0.12549E-09         0.00000E+00
    0.79958E-09        -0.12177E-09         0.00000E+00
    0.78935E-09        -0.11749E-09         0.00000E+00
    0.77951E-09        -0.11260E-09         0.00000E+00
    0.77011E-09        -0.10708E-09         0.00000E+00
    0.76120E-09        -0.10092E-09         0.00000E+00
    0.75285E-09        -0.94098E-10         0.00000E+00
    0.74511E-09        -0.86585E-10         0.00000E+00
    0.73804E-09        -0.78367E-10         0.00000E+00
    0.73170E-09        -0.69426E-10         0.00000E+00
    0.72616E-09        -0.59748E-10         0.00000E+00
    0.72147E-09        -0.49321E-10         0.00000E+00
    0.71771E-09        -0.38135E-10         0.00000E+00
    0.71494E-09        -0.26185E-10         0.00000E+00
    0.71322E-09        -0.13466E-10         0.00000E+00
    0.71263E-09        -0.69141E-11         0.00000E+00
    0.10973E-08        -0.28666E-11         0.00000E+00
    0.10969E-08        -0.56519E-11         0.00000E+00
    0.10957E-08        -0.11109E-10         0.00000E+00
    0.10937E-08        -0.16341E-10         0.00000E+00
    0.10910E-08        -0.21347E-10         0.00000E+00
    0.10876E-08        -0.26128E-10         0.00000E+00
    0.10834E-08        -0.30685E-10         0.00000E+00
    0.10787E-08        -0.35021E-10         0.00000E+00
    0.10733E-08        -0.39139E-10         0.00000E+00
    0.10673E-08        -0.43041E-10         0.00000E+00
    0.10608E-08        -0.46730E-10         0.00000E+00
    0.10538E-08        -0.50211E-10         0.00000E+00
    0.10462E-08        -0.53485E-10         0.00000E+00
    0.10382E-08        -0.56556E-10         0.00000E+00
    0.10297E-08        -0.59428E-10         0.00000E+00
    0.10209E-08        -0.62102E-10         0.00000E+00
    0.10116E-08        -0.64582E-10         0.00000E+00
    0.10020E-08        -0.66868E-10         0.00000E+00
    0.99211E-09        -0.68963E-10         0.00000E+00
    0.98189E-09        -0.70865E-10         0.00000E+00
    0.97139E-09        -0.72577E-10         0.00000E+00
    0.96066E-09        -0.74095E-10         0.00000E+00
    0.94970E-09        -0.75418E-10         0.00000E+00
    0.93857E-09        -0.76542E-10         0.00000E+00
    0.92728E-09        -0.77465E-10         0.00000E+00
    0.91586E-09        -0.78182E-10         0.00000E+00
    0.90435E-09        -0.78685E-10         0.00000E+00
    0.89277E-09        -0.78969E-10         0.00000E+00
    0.88117E-09        -0.79025E-10         0.00000E+00
    0.86957E-09        -0.78846E-10         0.00000E+00
    0.85801E-09        -0.78420E-10         0.00000E+00
    0.84653E-09        -0.77738E-10         0.00000E+00
    0.83516E-09        -0.76788E-10         0.00000E+00
    0.82396E-09        -0.75559E-10         0.00000E+00
    0.81295E-09        -0.74038E-10         0.00000E+00
    0.80218E-09        -0.72212E-10         0.00000E+00
    0.79171E-09        -0.70069E-10         0.00000E+00
    0.78157E-09        -0.67593E-10         0.00000E+00
    0.77182E-09        -0.64773E-10         0.00000E+00
    0.76251E-09        -0.61596E-10         0.00000E+00
    0.75369E-09        -0.58047E-10         0.00000E+00
    0.74542E-09        -0.54116E-10         0.00000E+00
    0.73775E-09        -0.49790E-10         0.00000E+00
    0.73076E-09        -0.45059E-10         0.00000E+00
    0.72448E-09        -0.39913E-10         0.00000E+00
    0.71900E-09        -0.34345E-10         0.00000E+00
    0.71436E-09        -0.28347E-10         0.00000E+00
    0.71064E-09        -0.21915E-10         0.00000E+00
    0.70790E-09        -0.15045E-10         0.00000E+00
    0.70621E-09        -0.77357E-11         0.00000E+00
    0.70562E-09        -0.39712E-11         0.00000E+00
    0.10932E-08        -0.80356E-12         0.00000E+00
    0.10928E-08        -0.15820E-11         0.00000E+00
    0.10916E-08        -0.31042E-11         0.00000E+00
    0.10896E-08        -0.45570E-11         0.00000E+00
    0.10869E-08        -0.59408E-11         0.00000E+00
    0.10835E-08        -0.72562E-11         0.00000E+00
    0.10793E-08        -0.85040E-11         0.00000E+00
    0.10746E-08        -0.96853E-11         0.00000E+00
    0.10692E-08        -0.10801E-10         0.00000E+00
    0.10632E-08        -0.11853E-10         0.00000E+00
    0.10567E-08        -0.12843E-10         0.00000E+00
    0.10497E-08        -0.13772E-10         0.00000E+00
    0.10421E-08        -0.14640E-10         0.00000E+00
    0.10341E-08        -0.15451E-10         0.00000E+00
    0.10257E-08        -0.16205E-10         0.00000E+00
    0.10168E-08        -0.16904E-10         0.00000E+00
    0.10076E-08        -0.17548E-10         0.00000E+00
    0.99802E-09        -0.18139E-10         0.00000E+00
    0.98811E-09        -0.18678E-10         0.00000E+00
    0.97790E-09        -0.19164E-10         0.00000E+00
    0.96742E-09        -0.19599E-10         0.00000E+00
    0.95670E-09        -0.19982E-10         0.00000E+00
    0.94577E-09        -0.20313E-10         0.00000E+00
    0.93466E-09        -0.20593E-10         0.00000E+00
    0.92339E-09        -0.20819E-10         0.00000E+00
    0.91200E-09        -0.20991E-10         0.00000E+00
    0.90052E-09        -0.21107E-10         0.00000E+00
    0.88897E-09        -0.21166E-10         0.00000E+00
    0.87740E-09        -0.21166E-10         0.00000E+00
    0.86584E-09        -0.21105E-10         0.00000E+00
    0.85431E-09        -0.20979E-10         0.00000E+00
    0.84287E-09        -0.20786E-10         0.00000E+00
    0.83154E-09        -0.20524E-10         0.00000E+00
    0.82038E-09        -0.20188E-10         0.00000E+00
    0.80941E-09        -0.19775E-10         0.00000E+00
    0.79868E-09        -0.19282E-10         0.00000E+00
    0.78825E-09        -0.18705E-10         0.00000E+00
    0.77816E-09        -0.18041E-10         0.00000E+00
    0.76845E-09        -0.17285E-10         0.00000E+00
    0.75918E-09        -0.16434E-10         0.00000E+00
    0.75040E-09        -0.15485E-10         0.00000E+00
    0.74217E-09        -0.14433E-10         0.00000E+00
    0.73455E-09        -0.13277E-10         0.00000E+00
    0.72758E-09        -0.12012E-10         0.00000E+00
    0.72134E-09        -0.10637E-10         0.00000E+00
    0.71589E-09        -0.91499E-11         0.00000E+00
    0.71128E-09        -0.75487E-11         0.00000E+00
    0.70758E-09        -0.58328E-11         0.00000E+00
    0.70485E-09        -0.40018E-11         0.00000E+00
    0.70317E-09        -0.20561E-11         0.00000E+00
    0.70259E-09        -0.10547E-11         0.00000E+00
    0.10948E-08         0.12625E-11         0.00000E+00
    0.10944E-08         0.24937E-11         0.00000E+00
    0.10932E-08         0.49126E-11         0.00000E+00
    0.10912E-08         0.72438E-11         0.00000E+00
    0.10884E-08         0.94868E-11         0.00000E+00
    0.10850E-08         0.11641E-10         0.00000E+00
    0.10809E-08         0.13707E-10         0.00000E+00
    0.10761E-08         0.15684E-10         0.00000E+00
    0.10707E-08         0.17572E-10         0.00000E+00
    0.10647E-08         0.19372E-10         0.00000E+00
    0.10582E-08         0.21084E-10         0.00000E+00
    0.10511E-08         0.22708E-10         0.00000E+00
    0.10435E-08         0.24244E-10         0.00000E+00
    0.10355E-08         0.25693E-10         0.00000E+00
    0.10270E-08         0.27056E-10         0.00000E+00
    0.10181E-08         0.28331E-10         0.00000E+00
    0.10089E-08         0.29520E-10         0.00000E+00
    0.99927E-09         0.30621E-10         0.00000E+00
    0.98933E-09         0.31635E-10         0.00000E+00
    0.97909E-09         0.32561E-10         0.00000E+00
    0.96859E-09         0.33398E-10         0.00000E+00
    0.95784E-09         0.34144E-10         0.00000E+00
    0.94688E-09         0.34799E-10         0.00000E+00
    0.93574E-09         0.35359E-10         0.00000E+00
    0.92445E-09         0.35823E-10         0.00000E+00
    0.91303E-09         0.36189E-10         0.00000E+00
    0.90153E-09         0.36452E-10         0.00000E+00
    0.88996E-09         0.36611E-10         0.00000E+00
    0.87836E-09         0.36660E-10         0.00000E+00
    0.86678E-09         0.36596E-10         0.00000E+00
    0.85523E-09         0.36415E-10         0.00000E+00
    0.84377E-09         0.36112E-10         0.00000E+00
    0.83243E-09         0.35681E-10         0.00000E+00
    0.82124E-09         0.35117E-10         0.00000E+00
    0.81026E-09         0.34416E-10         0.00000E+00
    0.79952E-09         0.33571E-10         0.00000E+00
    0.78908E-09         0.32576E-10         0.00000E+00
    0.77897E-09         0.31426E-10         0.00000E+00
    0.76925E-09         0.30116E-10         0.00000E+00
    0.75998E-09         0.28638E-10         0.00000E+00
    0.75119E-09         0.26989E-10         0.00000E+00
    0.74296E-09         0.25161E-10         0.00000E+00
    0.73533E-09         0.23151E-10         0.00000E+00
    0.72836E-09         0.20954E-10         0.00000E+00
    0.72212E-09         0.18564E-10         0.00000E+00
    0.71666E-09         0.15978E-10         0.00000E+00
    0.71205E-09         0.13192E-10         0.00000E+00
    0.70835E-09         0.10203E-10         0.00000E+00
    0.70563E-09         0.70081E-11         0.00000E+00
    0.70394E-09         0.36058E-11         0.00000E+00
    0.70336E-09         0.18524E-11         0.00000E+00
    0.11021E-08         0.33402E-11         0.00000E+00
    0.11016E-08         0.65925E-11         0.00000E+00
    0.11004E-08         0.12975E-10         0.00000E+00
    0.10984E-08         0.19111E-10         0.00000E+00
    0.10956E-08         0.25001E-10         0.00000E+00
    0.10922E-08         0.30644E-10         0.00000E+00
    0.10880E-08         0.36042E-10         0.00000E+00
    0.10832E-08         0.41194E-10         0.00000E+00
    0.10777E-08         0.46102E-10         0.00000E+00
    0.10717E-08         0.50769E-10         0.00000E+00
    0.10651E-08         0.55196E-10         0.00000E+00
    0.10580E-08         0.59385E-10         0.00000E+00
    0.10504E-08         0.63338E-10         0.00000E+00
    0.10423E-08         0.67058E-10         0.00000E+00
    0.10337E-08         0.70546E-10         0.00000E+00
    0.10248E-08         0.73803E-10         0.00000E+00
    0.10155E-08         0.76832E-10         0.00000E+00
    0.10058E-08         0.79632E-10         0.00000E+00
    0.99577E-09         0.82204E-10         0.00000E+00
    0.98546E-09         0.84546E-10         0.00000E+00
    0.97487E-09         0.86657E-10         0.00000E+00
    0.96405E-09         0.88535E-10         0.00000E+00
    0.95301E-09         0.90177E-10         0.00000E+00
    0.94179E-09         0.91577E-10         0.00000E+00
    0.93041E-09         0.92731E-10         0.00000E+00
    0.91891E-09         0.93633E-10         0.00000E+00
    0.90732E-09         0.94274E-10         0.00000E+00
    0.89567E-09         0.94646E-10         0.00000E+00
    0.88400E-09         0.94741E-10         0.00000E+00
    0.87233E-09         0.94547E-10         0.00000E+00
    0.86071E-09         0.94053E-10         0.00000E+00
    0.84917E-09         0.93247E-10         0.00000E+00
    0.83775E-09         0.92115E-10         0.00000E+00
    0.82649E-09         0.90644E-10         0.00000E+00
    0.81543E-09         0.88820E-10         0.00000E+00
    0.80462E-09         0.86627E-10         0.00000E+00
    0.79411E-09         0.84051E-10         0.00000E+00
    0.78394E-09         0.81077E-10         0.00000E+00
    0.77416E-09         0.77688E-10         0.00000E+00
    0.76482E-09         0.73871E-10         0.00000E+00
    0.75598E-09         0.69609E-10         0.00000E+00
    0.74769E-09         0.64890E-10         0.00000E+00
    0.74002E-09         0.59700E-10         0.00000E+00
    0.73301E-09         0.54026E-10         0.00000E+00
    0.72673E-09         0.47857E-10         0.00000E+00
    0.72124E-09         0.41183E-10         0.00000E+00
    0.71660E-09         0.33995E-10         0.00000E+00
    0.71288E-09         0.26286E-10         0.00000E+00
    0.71014E-09         0.18050E-10         0.00000E+00
    0.70844E-09         0.92836E-11         0.00000E+00
    0.70786E-09         0.47676E-11         0.00000E+00
    0.11150E-08         0.54392E-11         0.00000E+00
    0.11146E-08         0.10733E-10         0.00000E+00
    0.11134E-08         0.21119E-10         0.00000E+00
    0.11113E-08         0.31099E-10         0.00000E+00
    0.11085E-08         0.40673E-10         0.00000E+00
    0.11050E-08         0.49840E-10         0.00000E+00
    0.11008E-08         0.58603E-10         0.00000E+00
    0.10959E-08         0.66962E-10         0.00000E+00
    0.10904E-08         0.74920E-10         0.00000E+00
    0.10843E-08         0.82482E-10         0.00000E+00
    0.10777E-08         0.89651E-10         0.00000E+00
    0.10704E-08         0.96429E-10         0.00000E+00
    0.10627E-08         0.10282E-09         0.00000E+00
    0.10545E-08         0.10884E-09         0.00000E+00
    0.10459E-08         0.11447E-09         0.00000E+00
    0.10368E-08         0.11973E-09         0.00000E+00
    0.10274E-08         0.12461E-09         0.00000E+00
    0.10176E-08         0.12913E-09         0.00000E+00
    0.10074E-08         0.13327E-09         0.00000E+00
    0.99700E-09         0.13704E-09         0.00000E+00
    0.98629E-09         0.14044E-09         0.00000E+00
    0.97533E-09         0.14346E-09         0.00000E+00
    0.96416E-09         0.14609E-09         0.00000E+00
    0.95280E-09         0.14834E-09         0.00000E+00
    0.94129E-09         0.15019E-09         0.00000E+00
    0.92965E-09         0.15163E-09         0.00000E+00
    0.91792E-09         0.15265E-09         0.00000E+00
    0.90613E-09         0.15324E-09         0.00000E+00
    0.89431E-09         0.15338E-09         0.00000E+00
    0.88250E-09         0.15305E-09         0.00000E+00
    0.87074E-09         0.15224E-09         0.00000E+00
    0.85906E-09         0.15092E-09         0.00000E+00
    0.84750E-09         0.14908E-09         0.00000E+00
    0.83610E-09         0.14669E-09         0.00000E+00
    0.82491E-09         0.14373E-09         0.00000E+00
    0.81397E-09         0.14018E-09         0.00000E+00
    0.80333E-09         0.13601E-09         0.00000E+00
    0.79304E-09         0.13119E-09         0.00000E+00
    0.78314E-09         0.12570E-09         0.00000E+00
    0.77369E-09         0.11952E-09         0.00000E+00
    0.76474E-09         0.11262E-09         0.00000E+00
    0.75636E-09         0.10498E-09         0.00000E+00
    0.74859E-09         0.96582E-10         0.00000E+00
    0.74150E-09         0.87400E-10         0.00000E+00
    0.73514E-09         0.77416E-10         0.00000E+00
    0.72958E-09         0.66616E-10         0.00000E+00
    0.72489E-09         0.54986E-10         0.00000E+00
    0.72112E-09         0.42513E-10         0.00000E+00
    0.71835E-09         0.29190E-10         0.00000E+00
    0.71663E-09         0.15012E-10         0.00000E+00
    0.71604E-09         0.77087E-11         0.00000E+00
    0.11338E-08         0.75693E-11         0.00000E+00
    0.11334E-08         0.14935E-10         0.00000E+00
    0.11321E-08         0.29383E-10         0.00000E+00
    0.11301E-08         0.43264E-10         0.00000E+00
    0.11272E-08         0.56576E-10         0.00000E+00
    0.11236E-08         0.69319E-10         0.00000E+00
    0.11194E-08         0.81496E-10         0.00000E+00
    0.11144E-08         0.93109E-10         0.00000E+00
    0.11088E-08         0.10416E-09         0.00000E+00
    0.11026E-08         0.11466E-09         0.00000E+00
    0.10958E-08         0.12461E-09         0.00000E+00
    0.10885E-08         0.13402E-09         0.00000E+00
    0.10806E-08         0.14289E-09         0.00000E+00
    0.10723E-08         0.15123E-09         0.00000E+00
    0.10635E-08         0.15904E-09         0.00000E+00
    0.10543E-08         0.16633E-09         0.00000E+00
    0.10447E-08         0.17310E-09         0.00000E+00
    0.10347E-08         0.17935E-09         0.00000E+00
    0.10244E-08         0.18509E-09         0.00000E+00
    0.10138E-08         0.19031E-09         0.00000E+00
    0.10029E-08         0.19501E-09         0.00000E+00
    0.99176E-09         0.19919E-09         0.00000E+00
    0.98039E-09         0.20283E-09         0.00000E+00
    0.96884E-09         0.20594E-09         0.00000E+00
    0.95713E-09         0.20849E-09         0.00000E+00
    0.94529E-09         0.21048E-09         0.00000E+00
    0.93336E-09         0.21189E-09         0.00000E+00
    0.92137E-09         0.21269E-09         0.00000E+00
    0.90935E-09         0.21287E-09         0.00000E+00
    0.89733E-09         0.21241E-09         0.00000E+00
    0.88537E-09         0.21128E-09         0.00000E+00
    0.87348E-09         0.20945E-09         0.00000E+00
    0.86172E-09         0.20689E-09         0.00000E+00
    0.85013E-09         0.20357E-09         0.00000E+00
    0.83875E-09         0.19946E-09         0.00000E+00
    0.82762E-09         0.19452E-09         0.00000E+00
    0.81679E-09         0.18873E-09         0.00000E+00
    0.80632E-09         0.18204E-09         0.00000E+00
    0.79624E-09         0.17442E-09         0.00000E+00
    0.78663E-09         0.16585E-09         0.00000E+00
    0.77752E-09         0.15627E-09         0.00000E+00
    0.76899E-09         0.14567E-09         0.00000E+00
    0.76108E-09         0.13401E-09         0.00000E+00
    0.75386E-09         0.12127E-09         0.00000E+00
    0.74739E-09         0.10742E-09         0.00000E+00
    0.74174E-09         0.92430E-10         0.00000E+00
    0.73696E-09         0.76290E-10         0.00000E+00
    0.73313E-09         0.58984E-10         0.00000E+00
    0.73030E-09         0.40498E-10         0.00000E+00
    0.72856E-09         0.20827E-10         0.00000E+00
    0.72795E-09         0.10694E-10         0.00000E+00
    0.11585E-08         0.97404E-11         0.00000E+00
    0.11581E-08         0.19218E-10         0.00000E+00
    0.11568E-08         0.37807E-10         0.00000E+00
    0.11547E-08         0.55663E-10         0.00000E+00
    0.11518E-08         0.72784E-10         0.00000E+00
    0.11481E-08         0.89171E-10         0.00000E+00
    0.11437E-08         0.10483E-09         0.00000E+00
    0.11387E-08         0.11976E-09         0.00000E+00
    0.11329E-08         0.13396E-09         0.00000E+00
    0.11266E-08         0.14746E-09         0.00000E+00
    0.11197E-08         0.16024E-09         0.00000E+00
    0.11122E-08         0.17233E-09         0.00000E+00
    0.11042E-08         0.18372E-09         0.00000E+00
    0.10957E-08         0.19443E-09         0.00000E+00
    0.10867E-08         0.20446E-09         0.00000E+00
    0.10773E-08         0.21382E-09         0.00000E+00
    0.10675E-08         0.22251E-09         0.00000E+00
    0.10573E-08         0.23054E-09         0.00000E+00
    0.10468E-08         0.23790E-09         0.00000E+00
    0.10359E-08         0.24460E-09         0.00000E+00
    0.10248E-08         0.25063E-09         0.00000E+00
    0.10134E-08         0.25599E-09         0.00000E+00
    0.10018E-08         0.26067E-09         0.00000E+00
    0.99000E-09         0.26466E-09         0.00000E+00
    0.97804E-09         0.26793E-09         0.00000E+00
    0.96594E-09         0.27048E-09         0.00000E+00
    0.95375E-09         0.27228E-09         0.00000E+00
    0.94149E-09         0.27331E-09         0.00000E+00
    0.92921E-09         0.27354E-09         0.00000E+00
    0.91693E-09         0.27295E-09         0.00000E+00
    0.90470E-09         0.27149E-09         0.00000E+00
    0.89255E-09         0.26914E-09         0.00000E+00
    0.88053E-09         0.26585E-09         0.00000E+00
    0.86868E-09         0.26158E-09         0.00000E+00
    0.85704E-09         0.25630E-09         0.00000E+00
    0.84566E-09         0.24996E-09         0.00000E+00
    0.83458E-09         0.24251E-09         0.00000E+00
    0.82387E-09         0.23392E-09         0.00000E+00
    0.81357E-09         0.22414E-09         0.00000E+00
    0.80373E-09         0.21311E-09         0.00000E+00
    0.79442E-09         0.20081E-09         0.00000E+00
    0.78569E-09         0.18719E-09         0.00000E+00
    0.77760E-09         0.17221E-09         0.00000E+00
    0.77021E-09         0.15584E-09         0.00000E+00
    0.76359E-09         0.13804E-09         0.00000E+00
    0.75780E-09         0.11878E-09         0.00000E+00
    0.75291E-09         0.98038E-10         0.00000E+00
    0.74899E-09         0.75798E-10         0.00000E+00
    0.74610E-09         0.52042E-10         0.00000E+00
    0.74431E-09         0.26763E-10         0.00000E+00
    0.74369E-09         0.13742E-10         0.00000E+00
    0.11891E-08         0.11962E-10         0.00000E+00
    0.11887E-08         0.23599E-10         0.00000E+00
    0.11874E-08         0.46424E-10         0.00000E+00
    0.11852E-08         0.68346E-10         0.00000E+00
    0.11822E-08         0.89364E-10         0.00000E+00
    0.11785E-08         0.10948E-09         0.00000E+00
    0.11740E-08         0.12869E-09         0.00000E+00
    0.11688E-08         0.14702E-09         0.00000E+00
    0.11629E-08         0.16445E-09         0.00000E+00
    0.11565E-08         0.18100E-09         0.00000E+00
    0.11494E-08         0.19669E-09         0.00000E+00
    0.11417E-08         0.21152E-09         0.00000E+00
    0.11335E-08         0.22549E-09         0.00000E+00
    0.11248E-08         0.23863E-09         0.00000E+00
    0.11156E-08         0.25093E-09         0.00000E+00
    0.11059E-08         0.26241E-09         0.00000E+00
    0.10959E-08         0.27307E-09         0.00000E+00
    0.10854E-08         0.28292E-09         0.00000E+00
    0.10746E-08         0.29195E-09         0.00000E+00
    0.10635E-08         0.30017E-09         0.00000E+00
    0.10521E-08         0.30757E-09         0.00000E+00
    0.10404E-08         0.31414E-09         0.00000E+00
    0.10285E-08         0.31988E-09         0.00000E+00
    0.10164E-08         0.32477E-09         0.00000E+00
    0.10041E-08         0.32879E-09         0.00000E+00
    0.99174E-09         0.33192E-09         0.00000E+00
    0.97923E-09         0.33413E-09         0.00000E+00
    0.96665E-09         0.33540E-09         0.00000E+00
    0.95404E-09         0.33569E-09         0.00000E+00
    0.94144E-09         0.33496E-09         0.00000E+00
    0.92889E-09         0.33318E-09         0.00000E+00
    0.91641E-09         0.33029E-09         0.00000E+00
    0.90407E-09         0.32626E-09         0.00000E+00
    0.89190E-09         0.32103E-09         0.00000E+00
    0.87994E-09         0.31456E-09         0.00000E+00
    0.86825E-09         0.30678E-09         0.00000E+00
    0.85688E-09         0.29765E-09         0.00000E+00
    0.84587E-09         0.28711E-09         0.00000E+00
    0.83528E-09         0.27511E-09         0.00000E+00
    0.82517E-09         0.26159E-09         0.00000E+00
    0.81560E-09         0.24650E-09         0.00000E+00
    0.80662E-09         0.22978E-09         0.00000E+00
    0.79830E-09         0.21140E-09         0.00000E+00
    0.79071E-09         0.19130E-09         0.00000E+00
    0.78390E-09         0.16945E-09         0.00000E+00
    0.77795E-09         0.14582E-09         0.00000E+00
    0.77292E-09         0.12036E-09         0.00000E+00
    0.76888E-09         0.93055E-10         0.00000E+00
    0.76590E-09         0.63892E-10         0.00000E+00
    0.76406E-09         0.32858E-10         0.00000E+00
    0.76343E-09         0.16872E-10         0.00000E+00
    0.12258E-08         0.14240E-10         0.00000E+00
    0.12254E-08         0.28095E-10         0.00000E+00
    0.12240E-08         0.55265E-10         0.00000E+00
    0.12218E-08         0.81360E-10         0.00000E+00
    0.12187E-08         0.10638E-09         0.00000E+00
    0.12149E-08         0.13032E-09         0.00000E+00
    0.12103E-08         0.15318E-09         0.00000E+00
    0.12050E-08         0.17499E-09         0.00000E+00
    0.11989E-08         0.19573E-09         0.00000E+00
    0.11923E-08         0.21543E-09         0.00000E+00
    0.11850E-08         0.23410E-09         0.00000E+00
    0.11771E-08         0.25174E-09         0.00000E+00
    0.11687E-08         0.26837E-09         0.00000E+00
    0.11597E-08         0.28400E-09         0.00000E+00
    0.11503E-08         0.29864E-09         0.00000E+00
    0.11403E-08         0.31230E-09         0.00000E+00
    0.11300E-08         0.32498E-09         0.00000E+00
    0.11193E-08         0.33670E-09         0.00000E+00
    0.11082E-08         0.34745E-09         0.00000E+00
    0.10967E-08         0.35724E-09         0.00000E+00
    0.10850E-08         0.36605E-09         0.00000E+00
    0.10730E-08         0.37388E-09         0.00000E+00
    0.10608E-08         0.38072E-09         0.00000E+00
    0.10483E-08         0.38654E-09         0.00000E+00
    0.10357E-08         0.39133E-09         0.00000E+00
    0.10229E-08         0.39507E-09         0.00000E+00
    0.10100E-08         0.39771E-09         0.00000E+00
    0.99706E-09         0.39924E-09         0.00000E+00
    0.98407E-09         0.39959E-09         0.00000E+00
    0.97109E-09         0.39874E-09         0.00000E+00
    0.95815E-09         0.39663E-09         0.00000E+00
    0.94530E-09         0.39321E-09         0.00000E+00
    0.93258E-09         0.38843E-09         0.00000E+00
    0.92003E-09         0.38222E-09         0.00000E+00
    0.90770E-09         0.37453E-09         0.00000E+00
    0.89564E-09         0.36529E-09         0.00000E+00
    0.88391E-09         0.35443E-09         0.00000E+00
    0.87255E-09         0.34189E-09         0.00000E+00
    0.86163E-09         0.32762E-09         0.00000E+00
    0.85119E-09         0.31153E-09         0.00000E+00
    0.84131E-09         0.29357E-09         0.00000E+00
    0.83204E-09         0.27367E-09         0.00000E+00
    0.82345E-09         0.25179E-09         0.00000E+00
    0.81560E-09         0.22786E-09         0.00000E+00
    0.80857E-09         0.20185E-09         0.00000E+00
    0.80242E-09         0.17370E-09         0.00000E+00
    0.79722E-09         0.14337E-09         0.00000E+00
    0.79304E-09         0.11086E-09         0.00000E+00
    0.78997E-09         0.76117E-10         0.00000E+00
    0.78806E-09         0.39146E-10         0.00000E+00
    0.78741E-09         0.20101E-10         0.00000E+00
    0.12688E-08         0.16583E-10         0.00000E+00
    0.12683E-08         0.32716E-10         0.00000E+00
    0.12669E-08         0.64354E-10         0.00000E+00
    0.12646E-08         0.94738E-10         0.00000E+00
    0.12615E-08         0.12387E-09         0.00000E+00
    0.12575E-08         0.15174E-09         0.00000E+00
    0.12528E-08         0.17836E-09         0.00000E+00
    0.12473E-08         0.20375E-09         0.00000E+00
    0.12411E-08         0.22790E-09         0.00000E+00
    0.12342E-08         0.25084E-09         0.00000E+00
    0.12267E-08         0.27257E-09         0.00000E+00
    0.12186E-08         0.29311E-09         0.00000E+00
    0.12099E-08         0.31247E-09         0.00000E+00
    0.12007E-08         0.33068E-09         0.00000E+00
    0.11910E-08         0.34773E-09         0.00000E+00
    0.11808E-08         0.36364E-09         0.00000E+00
    0.11701E-08         0.37842E-09         0.00000E+00
    0.11591E-08         0.39207E-09         0.00000E+00
    0.11476E-08         0.40460E-09         0.00000E+00
    0.11358E-08         0.41601E-09         0.00000E+00
    0.11237E-08         0.42629E-09         0.00000E+00
    0.11114E-08         0.43542E-09         0.00000E+00
    0.10987E-08         0.44340E-09         0.00000E+00
    0.10859E-08         0.45020E-09         0.00000E+00
    0.10728E-08         0.45581E-09         0.00000E+00
    0.10597E-08         0.46018E-09         0.00000E+00
    0.10464E-08         0.46329E-09         0.00000E+00
    0.10330E-08         0.46508E-09         0.00000E+00
    0.10196E-08         0.46552E-09         0.00000E+00
    0.10062E-08         0.46456E-09         0.00000E+00
    0.99280E-09         0.46213E-09         0.00000E+00
    0.97951E-09         0.45817E-09         0.00000E+00
    0.96636E-09         0.45263E-09         0.00000E+00
    0.95338E-09         0.44542E-09         0.00000E+00
    0.94062E-09         0.43648E-09         0.00000E+00
    0.92815E-09         0.42574E-09         0.00000E+00
    0.91600E-09         0.41311E-09         0.00000E+00
    0.90424E-09         0.39853E-09         0.00000E+00
    0.89293E-09         0.38191E-09         0.00000E+00
    0.88212E-09         0.36318E-09         0.00000E+00
    0.87188E-09         0.34226E-09         0.00000E+00
    0.86227E-09         0.31909E-09         0.00000E+00
    0.85336E-09         0.29359E-09         0.00000E+00
    0.84523E-09         0.26571E-09         0.00000E+00
    0.83793E-09         0.23539E-09         0.00000E+00
    0.83155E-09         0.20257E-09         0.00000E+00
    0.82616E-09         0.16722E-09         0.00000E+00
    0.82182E-09         0.12930E-09         0.00000E+00
    0.81863E-09         0.88785E-10         0.00000E+00
    0.81666E-09         0.45663E-10         0.00000E+00
    0.81597E-09         0.23449E-10         0.00000E+00
    0.13180E-08         0.18993E-10         0.00000E+00
    0.13176E-08         0.37469E-10         0.00000E+00
    0.13161E-08         0.73704E-10         0.00000E+00
    0.13138E-08         0.10850E-09         0.00000E+00
    0.13105E-08         0.14186E-09         0.00000E+00
    0.13065E-08         0.17378E-09         0.00000E+00
    0.13016E-08         0.20428E-09         0.00000E+00
    0.12960E-08         0.23335E-09         0.00000E+00
    0.12896E-08         0.26101E-09         0.00000E+00
    0.12825E-08         0.28729E-09         0.00000E+00
    0.12748E-08         0.31218E-09         0.00000E+00
    0.12664E-08         0.33572E-09         0.00000E+00
    0.12575E-08         0.35791E-09         0.00000E+00
    0.12480E-08         0.37877E-09         0.00000E+00
    0.12380E-08         0.39831E-09         0.00000E+00
    0.12274E-08         0.41656E-09         0.00000E+00
    0.12165E-08         0.43351E-09         0.00000E+00
    0.12051E-08         0.44917E-09         0.00000E+00
    0.11933E-08         0.46355E-09         0.00000E+00
    0.11811E-08         0.47664E-09         0.00000E+00
    0.11686E-08         0.48845E-09         0.00000E+00
    0.11558E-08         0.49895E-09         0.00000E+00
    0.11428E-08         0.50812E-09         0.00000E+00
    0.11295E-08         0.51596E-09         0.00000E+00
    0.11160E-08         0.52242E-09         0.00000E+00
    0.11024E-08         0.52747E-09         0.00000E+00
    0.10886E-08         0.53107E-09         0.00000E+00
    0.10748E-08         0.53317E-09         0.00000E+00
    0.10609E-08         0.53372E-09         0.00000E+00
    0.10470E-08         0.53266E-09         0.00000E+00
    0.10332E-08         0.52991E-09         0.00000E+00
    0.10194E-08         0.52542E-09         0.00000E+00
    0.10058E-08         0.51911E-09         0.00000E+00
    0.99234E-09         0.51089E-09         0.00000E+00
    0.97911E-09         0.50068E-09         0.00000E+00
    0.96617E-09         0.48840E-09         0.00000E+00
    0.95357E-09         0.47396E-09         0.00000E+00
    0.94136E-09         0.45726E-09         0.00000E+00
    0.92961E-09         0.43823E-09         0.00000E+00
    0.91838E-09         0.41677E-09         0.00000E+00
    0.90774E-09         0.39280E-09         0.00000E+00
    0.89775E-09         0.36624E-09         0.00000E+00
    0.88849E-09         0.33700E-09         0.00000E+00
    0.88003E-09         0.30502E-09         0.00000E+00
    0.87244E-09         0.27023E-09         0.00000E+00
    0.86580E-09         0.23258E-09         0.00000E+00
    0.86018E-09         0.19200E-09         0.00000E+00
    0.85567E-09         0.14848E-09         0.00000E+00
    0.85235E-09         0.10196E-09         0.00000E+00
    0.85029E-09         0.52443E-10         0.00000E+00
    0.84958E-09         0.26932E-10         0.00000E+00
    0.13739E-08         0.21469E-10         0.00000E+00
    0.13734E-08         0.42355E-10         0.00000E+00
    0.13719E-08         0.83316E-10         0.00000E+00
    0.13695E-08         0.12265E-09         0.00000E+00
    0.13662E-08         0.16036E-09         0.00000E+00
    0.13620E-08         0.19645E-09         0.00000E+00
    0.13570E-08         0.23093E-09         0.00000E+00
    0.13512E-08         0.26381E-09         0.00000E+00
    0.13447E-08         0.29509E-09         0.00000E+00
    0.13374E-08         0.32481E-09         0.00000E+00
    0.13294E-08         0.35297E-09         0.00000E+00
    0.13208E-08         0.37960E-09         0.00000E+00
    0.13116E-08         0.40471E-09         0.00000E+00
    0.13018E-08         0.42832E-09         0.00000E+00
    0.12915E-08         0.45046E-09         0.00000E+00
    0.12807E-08         0.47112E-09         0.00000E+00
    0.12694E-08         0.49032E-09         0.00000E+00
    0.12576E-08         0.50808E-09         0.00000E+00
    0.12454E-08         0.52439E-09         0.00000E+00
    0.12329E-08         0.53925E-09         0.00000E+00
    0.12200E-08         0.55265E-09         0.00000E+00
    0.12068E-08         0.56458E-09         0.00000E+00
    0.11933E-08         0.57502E-09         0.00000E+00
    0.11796E-08         0.58394E-09         0.00000E+00
    0.11656E-08         0.59131E-09         0.00000E+00
    0.11515E-08         0.59709E-09         0.00000E+00
    0.11373E-08         0.60123E-09         0.00000E+00
    0.11230E-08         0.60368E-09         0.00000E+00
    0.11086E-08         0.60437E-09         0.00000E+00
    0.10942E-08         0.60323E-09         0.00000E+00
    0.10798E-08         0.60019E-09         0.00000E+00
    0.10656E-08         0.59517E-09         0.00000E+00
    0.10514E-08         0.58808E-09         0.00000E+00
    0.10374E-08         0.57884E-09         0.00000E+00
    0.10237E-08         0.56734E-09         0.00000E+00
    0.10102E-08         0.55348E-09         0.00000E+00
    0.99713E-09         0.53718E-09         0.00000E+00
    0.98444E-09         0.51832E-09         0.00000E+00
    0.97221E-09         0.49680E-09         0.00000E+00
    0.96053E-09         0.47252E-09         0.00000E+00
    0.94945E-09         0.44540E-09         0.00000E+00
    0.93905E-09         0.41532E-09         0.00000E+00
    0.92940E-09         0.38221E-09         0.00000E+00
    0.92057E-09         0.34597E-09         0.00000E+00
    0.91266E-09         0.30655E-09         0.00000E+00
    0.90573E-09         0.26386E-09         0.00000E+00
    0.89987E-09         0.21785E-09         0.00000E+00
    0.89516E-09         0.16848E-09         0.00000E+00
    0.89169E-09         0.11571E-09         0.00000E+00
    0.88954E-09         0.59519E-10         0.00000E+00
    0.88880E-09         0.30568E-10         0.00000E+00
    0.14366E-08         0.24008E-10         0.00000E+00
    0.14361E-08         0.47365E-10         0.00000E+00
    0.14346E-08         0.93173E-10         0.00000E+00
    0.14321E-08         0.13717E-09         0.00000E+00
    0.14287E-08         0.17935E-09         0.00000E+00
    0.14244E-08         0.21973E-09         0.00000E+00
    0.14193E-08         0.25830E-09         0.00000E+00
    0.14133E-08         0.29509E-09         0.00000E+00
    0.14066E-08         0.33011E-09         0.00000E+00
    0.13992E-08         0.36337E-09         0.00000E+00
    0.13910E-08         0.39491E-09         0.00000E+00
    0.13822E-08         0.42474E-09         0.00000E+00
    0.13727E-08         0.45287E-09         0.00000E+00
    0.13627E-08         0.47934E-09         0.00000E+00
    0.13520E-08         0.50415E-09         0.00000E+00
    0.13409E-08         0.52733E-09         0.00000E+00
    0.13292E-08         0.54889E-09         0.00000E+00
    0.13171E-08         0.56883E-09         0.00000E+00
    0.13046E-08         0.58715E-09         0.00000E+00
    0.12916E-08         0.60386E-09         0.00000E+00
    0.12783E-08         0.61895E-09         0.00000E+00
    0.12647E-08         0.63239E-09         0.00000E+00
    0.12508E-08         0.64417E-09         0.00000E+00
    0.12366E-08         0.65425E-09         0.00000E+00
    0.12222E-08         0.66260E-09         0.00000E+00
    0.12076E-08         0.66916E-09         0.00000E+00
    0.11929E-08         0.67390E-09         0.00000E+00
    0.11780E-08         0.67673E-09         0.00000E+00
    0.11631E-08         0.67760E-09         0.00000E+00
    0.11482E-08         0.67642E-09         0.00000E+00
    0.11333E-08         0.67311E-09         0.00000E+00
    0.11185E-08         0.66758E-09         0.00000E+00
    0.11038E-08         0.65972E-09         0.00000E+00
    0.10893E-08         0.64944E-09         0.00000E+00
    0.10750E-08         0.63663E-09         0.00000E+00
    0.10610E-08         0.62117E-09         0.00000E+00
    0.10474E-08         0.60296E-09         0.00000E+00
    0.10342E-08         0.58187E-09         0.00000E+00
    0.10214E-08         0.55779E-09         0.00000E+00
    0.10092E-08         0.53061E-09         0.00000E+00
    0.99770E-09         0.50021E-09         0.00000E+00
    0.98685E-09         0.46650E-09         0.00000E+00
    0.97678E-09         0.42936E-09         0.00000E+00
    0.96757E-09         0.38870E-09         0.00000E+00
    0.95931E-09         0.34445E-09         0.00000E+00
    0.95207E-09         0.29652E-09         0.00000E+00
    0.94595E-09         0.24484E-09         0.00000E+00
    0.94103E-09         0.18937E-09         0.00000E+00
    0.93740E-09         0.13007E-09         0.00000E+00
    0.93515E-09         0.66917E-10         0.00000E+00
    0.93437E-09         0.34372E-10         0.00000E+00
    0.15065E-08         0.26601E-10         0.00000E+00
    0.15059E-08         0.52482E-10         0.00000E+00
    0.15044E-08         0.10324E-09         0.00000E+00
    0.15019E-08         0.15200E-09         0.00000E+00
    0.14984E-08         0.19876E-09         0.00000E+00
    0.14941E-08         0.24353E-09         0.00000E+00
    0.14888E-08         0.28631E-09         0.00000E+00
    0.14828E-08         0.32712E-09         0.00000E+00
    0.14759E-08         0.36597E-09         0.00000E+00
    0.14683E-08         0.40290E-09         0.00000E+00
    0.14599E-08         0.43791E-09         0.00000E+00
    0.14509E-08         0.47104E-09         0.00000E+00
    0.14412E-08         0.50231E-09         0.00000E+00
    0.14309E-08         0.53173E-09         0.00000E+00
    0.14200E-08         0.55934E-09         0.00000E+00
    0.14085E-08         0.58513E-09         0.00000E+00
    0.13966E-08         0.60914E-09         0.00000E+00
    0.13841E-08         0.63136E-09         0.00000E+00
    0.13712E-08         0.65180E-09         0.00000E+00
    0.13579E-08         0.67046E-09         0.00000E+00
    0.13442E-08         0.68732E-09         0.00000E+00
    0.13302E-08         0.70236E-09         0.00000E+00
    0.13158E-08         0.71556E-09         0.00000E+00
    0.13012E-08         0.72688E-09         0.00000E+00
    0.12863E-08         0.73628E-09         0.00000E+00
    0.12712E-08         0.74371E-09         0.00000E+00
    0.12560E-08         0.74910E-09         0.00000E+00
    0.12407E-08         0.75239E-09         0.00000E+00
    0.12252E-08         0.75349E-09         0.00000E+00
    0.12098E-08         0.75231E-09         0.00000E+00
    0.11943E-08         0.74876E-09         0.00000E+00
    0.11790E-08         0.74274E-09         0.00000E+00
    0.11637E-08         0.73413E-09         0.00000E+00
    0.11486E-08         0.72282E-09         0.00000E+00
    0.11338E-08         0.70868E-09         0.00000E+00
    0.11193E-08         0.69159E-09         0.00000E+00
    0.11051E-08         0.67143E-09         0.00000E+00
    0.10913E-08         0.64805E-09         0.00000E+00
    0.10781E-08         0.62134E-09         0.00000E+00
    0.10654E-08         0.59116E-09         0.00000E+00
    0.10533E-08         0.55738E-09         0.00000E+00
    0.10420E-08         0.51989E-09         0.00000E+00
    0.10315E-08         0.47858E-09         0.00000E+00
    0.10219E-08         0.43333E-09         0.00000E+00
    0.10133E-08         0.38405E-09         0.00000E+00
    0.10057E-08         0.33065E-09         0.00000E+00
    0.99931E-09         0.27307E-09         0.00000E+00
    0.99416E-09         0.21124E-09         0.00000E+00
    0.99036E-09         0.14511E-09         0.00000E+00
    0.98801E-09         0.74661E-10         0.00000E+00
    0.98719E-09         0.38354E-10         0.00000E+00
    0.15840E-08         0.29231E-10         0.00000E+00
    0.15835E-08         0.57676E-10         0.00000E+00
    0.15819E-08         0.11347E-09         0.00000E+00
    0.15794E-08         0.16708E-09         0.00000E+00
    0.15759E-08         0.21851E-09         0.00000E+00
    0.15714E-08         0.26775E-09         0.00000E+00
    0.15661E-08         0.31483E-09         0.00000E+00
    0.15600E-08         0.35975E-09         0.00000E+00
    0.15530E-08         0.40255E-09         0.00000E+00
    0.15452E-08         0.44323E-09         0.00000E+00
    0.15367E-08         0.48182E-09         0.00000E+00
    0.15275E-08         0.51836E-09         0.00000E+00
    0.15176E-08         0.55286E-09         0.00000E+00
    0.15071E-08         0.58535E-09         0.00000E+00
    0.14960E-08         0.61585E-09         0.00000E+00
    0.14843E-08         0.64437E-09         0.00000E+00
    0.14721E-08         0.67094E-09         0.00000E+00
    0.14593E-08         0.69555E-09         0.00000E+00
    0.14461E-08         0.71821E-09         0.00000E+00
    0.14324E-08         0.73892E-09         0.00000E+00
    0.14184E-08         0.75765E-09         0.00000E+00
    0.14040E-08         0.77440E-09         0.00000E+00
    0.13892E-08         0.78912E-09         0.00000E+00
    0.13741E-08         0.80178E-09         0.00000E+00
    0.13588E-08         0.81232E-09         0.00000E+00
    0.13433E-08         0.82069E-09         0.00000E+00
    0.13276E-08         0.82682E-09         0.00000E+00
    0.13117E-08         0.83063E-09         0.00000E+00
    0.12958E-08         0.83202E-09         0.00000E+00
    0.12798E-08         0.83090E-09         0.00000E+00
    0.12638E-08         0.82716E-09         0.00000E+00
    0.12479E-08         0.82068E-09         0.00000E+00
    0.12321E-08         0.81134E-09         0.00000E+00
    0.12165E-08         0.79901E-09         0.00000E+00
    0.12011E-08         0.78354E-09         0.00000E+00
    0.11860E-08         0.76481E-09         0.00000E+00
    0.11712E-08         0.74266E-09         0.00000E+00
    0.11569E-08         0.71694E-09         0.00000E+00
    0.11431E-08         0.68752E-09         0.00000E+00
    0.11299E-08         0.65425E-09         0.00000E+00
    0.11174E-08         0.61698E-09         0.00000E+00
    0.11056E-08         0.57559E-09         0.00000E+00
    0.10946E-08         0.52995E-09         0.00000E+00
    0.10846E-08         0.47992E-09         0.00000E+00
    0.10756E-08         0.42542E-09         0.00000E+00
    0.10677E-08         0.36633E-09         0.00000E+00
    0.10610E-08         0.30258E-09         0.00000E+00
    0.10556E-08         0.23410E-09         0.00000E+00
    0.10517E-08         0.16084E-09         0.00000E+00
    0.10492E-08         0.82768E-10         0.00000E+00
    0.10483E-08         0.42525E-10         0.00000E+00
    0.16698E-08         0.31880E-10         0.00000E+00
    0.16693E-08         0.62909E-10         0.00000E+00
    0.16677E-08         0.12379E-09         0.00000E+00
    0.16652E-08         0.18230E-09         0.00000E+00
    0.16616E-08         0.23845E-09         0.00000E+00
    0.16572E-08         0.29224E-09         0.00000E+00
    0.16518E-08         0.34369E-09         0.00000E+00
    0.16456E-08         0.39281E-09         0.00000E+00
    0.16386E-08         0.43962E-09         0.00000E+00
    0.16307E-08         0.48415E-09         0.00000E+00
    0.16222E-08         0.52642E-09         0.00000E+00
    0.16128E-08         0.56646E-09         0.00000E+00
    0.16028E-08         0.60430E-09         0.00000E+00
    0.15921E-08         0.63996E-09         0.00000E+00
    0.15808E-08         0.67346E-09         0.00000E+00
    0.15689E-08         0.70482E-09         0.00000E+00
    0.15565E-08         0.73406E-09         0.00000E+00
    0.15435E-08         0.76117E-09         0.00000E+00
    0.15300E-08         0.78617E-09         0.00000E+00
    0.15160E-08         0.80904E-09         0.00000E+00
    0.15017E-08         0.82977E-09         0.00000E+00
    0.14869E-08         0.84832E-09         0.00000E+00
    0.14718E-08         0.86467E-09         0.00000E+00
    0.14563E-08         0.87877E-09         0.00000E+00
    0.14406E-08         0.89056E-09         0.00000E+00
    0.14246E-08         0.89998E-09         0.00000E+00
    0.14085E-08         0.90694E-09         0.00000E+00
    0.13922E-08         0.91135E-09         0.00000E+00
    0.13757E-08         0.91311E-09         0.00000E+00
    0.13592E-08         0.91212E-09         0.00000E+00
    0.13428E-08         0.90824E-09         0.00000E+00
    0.13263E-08         0.90135E-09         0.00000E+00
    0.13100E-08         0.89131E-09         0.00000E+00
    0.12938E-08         0.87798E-09         0.00000E+00
    0.12779E-08         0.86119E-09         0.00000E+00
    0.12622E-08         0.84080E-09         0.00000E+00
    0.12469E-08         0.81663E-09         0.00000E+00
    0.12321E-08         0.78854E-09         0.00000E+00
    0.12178E-08         0.75634E-09         0.00000E+00
    0.12040E-08         0.71990E-09         0.00000E+00
    0.11910E-08         0.67904E-09         0.00000E+00
    0.11787E-08         0.63361E-09         0.00000E+00
    0.11673E-08         0.58348E-09         0.00000E+00
    0.11569E-08         0.52851E-09         0.00000E+00
    0.11475E-08         0.46857E-09         0.00000E+00
    0.11393E-08         0.40357E-09         0.00000E+00
    0.11323E-08         0.33340E-09         0.00000E+00
    0.11267E-08         0.25799E-09         0.00000E+00
    0.11226E-08         0.17728E-09         0.00000E+00
    0.11200E-08         0.91243E-10         0.00000E+00
    0.11191E-08         0.46886E-10         0.00000E+00
    0.17648E-08         0.34521E-10         0.00000E+00
    0.17642E-08         0.68132E-10         0.00000E+00
    0.17627E-08         0.13409E-09         0.00000E+00
    0.17601E-08         0.19752E-09         0.00000E+00
    0.17566E-08         0.25842E-09         0.00000E+00
    0.17522E-08         0.31679E-09         0.00000E+00
    0.17468E-08         0.37266E-09         0.00000E+00
    0.17406E-08         0.42603E-09         0.00000E+00
    0.17336E-08         0.47692E-09         0.00000E+00
    0.17257E-08         0.52537E-09         0.00000E+00
    0.17171E-08         0.57141E-09         0.00000E+00
    0.17077E-08         0.61504E-09         0.00000E+00
    0.16976E-08         0.65632E-09         0.00000E+00
    0.16869E-08         0.69525E-09         0.00000E+00
    0.16754E-08         0.73186E-09         0.00000E+00
    0.16634E-08         0.76617E-09         0.00000E+00
    0.16508E-08         0.79820E-09         0.00000E+00
    0.16376E-08         0.82794E-09         0.00000E+00
    0.16239E-08         0.85539E-09         0.00000E+00
    0.16097E-08         0.88055E-09         0.00000E+00
    0.15951E-08         0.90338E-09         0.00000E+00
    0.15801E-08         0.92388E-09         0.00000E+00
    0.15646E-08         0.94198E-09         0.00000E+00
    0.15488E-08         0.95763E-09         0.00000E+00
    0.15328E-08         0.97078E-09         0.00000E+00
    0.15164E-08         0.98135E-09         0.00000E+00
    0.14999E-08         0.98924E-09         0.00000E+00
    0.14831E-08         0.99435E-09         0.00000E+00
    0.14663E-08         0.99658E-09         0.00000E+00
    0.14493E-08         0.99578E-09         0.00000E+00
    0.14323E-08         0.99184E-09         0.00000E+00
    0.14154E-08         0.98460E-09         0.00000E+00
    0.13986E-08         0.97391E-09         0.00000E+00
    0.13819E-08         0.95961E-09         0.00000E+00
    0.13654E-08         0.94151E-09         0.00000E+00
    0.13493E-08         0.91946E-09         0.00000E+00
    0.13335E-08         0.89327E-09         0.00000E+00
    0.13181E-08         0.86275E-09         0.00000E+00
    0.13033E-08         0.82773E-09         0.00000E+00
    0.12891E-08         0.78804E-09         0.00000E+00
    0.12756E-08         0.74348E-09         0.00000E+00
    0.12628E-08         0.69390E-09         0.00000E+00
    0.12510E-08         0.63914E-09         0.00000E+00
    0.12402E-08         0.57905E-09         0.00000E+00
    0.12304E-08         0.51349E-09         0.00000E+00
    0.12219E-08         0.44234E-09         0.00000E+00
    0.12146E-08         0.36550E-09         0.00000E+00
    0.12088E-08         0.28288E-09         0.00000E+00
    0.12045E-08         0.19442E-09         0.00000E+00
    0.12018E-08         0.10008E-09         0.00000E+00
    0.12009E-08         0.51436E-10         0.00000E+00
    0.18699E-08         0.37124E-10         0.00000E+00
    0.18694E-08         0.73287E-10         0.00000E+00
    0.18679E-08         0.14428E-09         0.00000E+00
    0.18654E-08         0.21259E-09         0.00000E+00
    0.18619E-08         0.27822E-09         0.00000E+00
    0.18575E-08         0.34118E-09         0.00000E+00
    0.18523E-08         0.40148E-09         0.00000E+00
    0.18461E-08         0.45913E-09         0.00000E+00
    0.18391E-08         0.51416E-09         0.00000E+00
    0.18313E-08         0.56659E-09         0.00000E+00
    0.18227E-08         0.61645E-09         0.00000E+00
    0.18133E-08         0.66377E-09         0.00000E+00
    0.18032E-08         0.70857E-09         0.00000E+00
    0.17924E-08         0.75087E-09         0.00000E+00
    0.17810E-08         0.79071E-09         0.00000E+00
    0.17689E-08         0.82808E-09         0.00000E+00
    0.17562E-08         0.86301E-09         0.00000E+00
    0.17429E-08         0.89550E-09         0.00000E+00
    0.17291E-08         0.92553E-09         0.00000E+00
    0.17147E-08         0.95310E-09         0.00000E+00
    0.16999E-08         0.97818E-09         0.00000E+00
    0.16846E-08         0.10007E-08         0.00000E+00
    0.16690E-08         0.10207E-08         0.00000E+00
    0.16529E-08         0.10381E-08         0.00000E+00
    0.16365E-08         0.10527E-08         0.00000E+00
    0.16199E-08         0.10645E-08         0.00000E+00
    0.16030E-08         0.10735E-08         0.00000E+00
    0.15859E-08         0.10794E-08         0.00000E+00
    0.15686E-08         0.10822E-08         0.00000E+00
    0.15513E-08         0.10817E-08         0.00000E+00
    0.15339E-08         0.10777E-08         0.00000E+00
    0.15165E-08         0.10702E-08         0.00000E+00
    0.14992E-08         0.10589E-08         0.00000E+00
    0.14821E-08         0.10437E-08         0.00000E+00
    0.14651E-08         0.10243E-08         0.00000E+00
    0.14485E-08         0.10006E-08         0.00000E+00
    0.14322E-08         0.97238E-09         0.00000E+00
    0.14164E-08         0.93942E-09         0.00000E+00
    0.14011E-08         0.90153E-09         0.00000E+00
    0.13865E-08         0.85851E-09         0.00000E+00
    0.13725E-08         0.81018E-09         0.00000E+00
    0.13594E-08         0.75633E-09         0.00000E+00
    0.13472E-08         0.69680E-09         0.00000E+00
    0.13360E-08         0.63143E-09         0.00000E+00
    0.13259E-08         0.56006E-09         0.00000E+00
    0.13170E-08         0.48255E-09         0.00000E+00
    0.13095E-08         0.39881E-09         0.00000E+00
    0.13035E-08         0.30872E-09         0.00000E+00
    0.12990E-08         0.21222E-09         0.00000E+00
    0.12963E-08         0.10926E-09         0.00000E+00
    0.12953E-08         0.56163E-10         0.00000E+00
    0.19868E-08         0.39659E-10         0.00000E+00
    0.19863E-08         0.78314E-10         0.00000E+00
    0.19849E-08         0.15423E-09         0.00000E+00
    0.19824E-08         0.22734E-09         0.00000E+00
    0.19791E-08         0.29766E-09         0.00000E+00
    0.19748E-08         0.36517E-09         0.00000E+00
    0.19696E-08         0.42989E-09         0.00000E+00
    0.19635E-08         0.49183E-09         0.00000E+00
    0.19566E-08         0.55102E-09         0.00000E+00
    0.19489E-08         0.60748E-09         0.00000E+00
    0.19404E-08         0.66122E-09         0.00000E+00
    0.19311E-08         0.71229E-09         0.00000E+00
    0.19211E-08         0.76070E-09         0.00000E+00
    0.19103E-08         0.80647E-09         0.00000E+00
    0.18989E-08         0.84963E-09         0.00000E+00
    0.18868E-08         0.89018E-09         0.00000E+00
    0.18741E-08         0.92814E-09         0.00000E+00
    0.18608E-08         0.96350E-09         0.00000E+00
    0.18469E-08         0.99625E-09         0.00000E+00
    0.18324E-08         0.10264E-08         0.00000E+00
    0.18175E-08         0.10538E-08         0.00000E+00
    0.18020E-08         0.10786E-08         0.00000E+00
    0.17862E-08         0.11006E-08         0.00000E+00
    0.17699E-08         0.11197E-08         0.00000E+00
    0.17533E-08         0.11360E-08         0.00000E+00
    0.17364E-08         0.11492E-08         0.00000E+00
    0.17192E-08         0.11593E-08         0.00000E+00
    0.17018E-08         0.11661E-08         0.00000E+00
    0.16842E-08         0.11696E-08         0.00000E+00
    0.16665E-08         0.11695E-08         0.00000E+00
    0.16488E-08         0.11656E-08         0.00000E+00
    0.16310E-08         0.11579E-08         0.00000E+00
    0.16133E-08         0.11461E-08         0.00000E+00
    0.15958E-08         0.11300E-08         0.00000E+00
    0.15784E-08         0.11093E-08         0.00000E+00
    0.15614E-08         0.10840E-08         0.00000E+00
    0.15447E-08         0.10537E-08         0.00000E+00
    0.15285E-08         0.10183E-08         0.00000E+00
    0.15128E-08         0.97749E-09         0.00000E+00
    0.14977E-08         0.93110E-09         0.00000E+00
    0.14834E-08         0.87890E-09         0.00000E+00
    0.14699E-08         0.82068E-09         0.00000E+00
    0.14573E-08         0.75627E-09         0.00000E+00
    0.14458E-08         0.68547E-09         0.00000E+00
    0.14354E-08         0.60812E-09         0.00000E+00
    0.14263E-08         0.52407E-09         0.00000E+00
    0.14186E-08         0.43320E-09         0.00000E+00
    0.14124E-08         0.33541E-09         0.00000E+00
    0.14078E-08         0.23061E-09         0.00000E+00
    0.14049E-08         0.11875E-09         0.00000E+00
    0.14039E-08         0.61048E-10         0.00000E+00
    0.21174E-08         0.42096E-10         0.00000E+00
    0.21169E-08         0.83159E-10         0.00000E+00
    0.21155E-08         0.16385E-09         0.00000E+00
    0.21131E-08         0.24164E-09         0.00000E+00
    0.21099E-08         0.31654E-09         0.00000E+00
    0.21057E-08         0.38855E-09         0.00000E+00
    0.21007E-08         0.45765E-09         0.00000E+00
    0.20948E-08         0.52388E-09         0.00000E+00
    0.20880E-08         0.58724E-09         0.00000E+00
    0.20804E-08         0.64775E-09         0.00000E+00
    0.20721E-08         0.70544E-09         0.00000E+00
    0.20629E-08         0.76032E-09         0.00000E+00
    0.20530E-08         0.81242E-09         0.00000E+00
    0.20423E-08         0.86176E-09         0.00000E+00
    0.20309E-08         0.90834E-09         0.00000E+00
    0.20189E-08         0.95219E-09         0.00000E+00
    0.20062E-08         0.99330E-09         0.00000E+00
    0.19928E-08         0.10317E-08         0.00000E+00
    0.19789E-08         0.10673E-08         0.00000E+00
    0.19644E-08         0.11001E-08         0.00000E+00
    0.19494E-08         0.11300E-08         0.00000E+00
    0.19338E-08         0.11571E-08         0.00000E+00
    0.19178E-08         0.11813E-08         0.00000E+00
    0.19014E-08         0.12024E-08         0.00000E+00
    0.18846E-08         0.12204E-08         0.00000E+00
    0.18674E-08         0.12351E-08         0.00000E+00
    0.18500E-08         0.12465E-08         0.00000E+00
    0.18323E-08         0.12544E-08         0.00000E+00
    0.18145E-08         0.12586E-08         0.00000E+00
    0.17965E-08         0.12589E-08         0.00000E+00
    0.17784E-08         0.12553E-08         0.00000E+00
    0.17603E-08         0.12474E-08         0.00000E+00
    0.17423E-08         0.12351E-08         0.00000E+00
    0.17244E-08         0.12181E-08         0.00000E+00
    0.17067E-08         0.11963E-08         0.00000E+00
    0.16893E-08         0.11693E-08         0.00000E+00
    0.16723E-08         0.11370E-08         0.00000E+00
    0.16557E-08         0.10991E-08         0.00000E+00
    0.16397E-08         0.10553E-08         0.00000E+00
    0.16243E-08         0.10055E-08         0.00000E+00
    0.16096E-08         0.94934E-09         0.00000E+00
    0.15958E-08         0.88667E-09         0.00000E+00
    0.15830E-08         0.81726E-09         0.00000E+00
    0.15712E-08         0.74090E-09         0.00000E+00
    0.15606E-08         0.65743E-09         0.00000E+00
    0.15513E-08         0.56667E-09         0.00000E+00
    0.15434E-08         0.46850E-09         0.00000E+00
    0.15370E-08         0.36280E-09         0.00000E+00
    0.15323E-08         0.24948E-09         0.00000E+00
    0.15294E-08         0.12848E-09         0.00000E+00
    0.15284E-08         0.66061E-10         0.00000E+00
    0.22641E-08         0.44417E-10         0.00000E+00
    0.22636E-08         0.87786E-10         0.00000E+00
    0.22623E-08         0.17306E-09         0.00000E+00
    0.22600E-08         0.25540E-09         0.00000E+00
    0.22569E-08         0.33478E-09         0.00000E+00
    0.22528E-08         0.41120E-09         0.00000E+00
    0.22479E-08         0.48465E-09         0.00000E+00
    0.22422E-08         0.55514E-09         0.00000E+00
    0.22356E-08         0.62268E-09         0.00000E+00
    0.22281E-08         0.68728E-09         0.00000E+00
    0.22199E-08         0.74896E-09         0.00000E+00
    0.22108E-08         0.80773E-09         0.00000E+00
    0.22010E-08         0.86361E-09         0.00000E+00
    0.21904E-08         0.91661E-09         0.00000E+00
    0.21791E-08         0.96674E-09         0.00000E+00
    0.21671E-08         0.10140E-08         0.00000E+00
    0.21544E-08         0.10584E-08         0.00000E+00
    0.21410E-08         0.10999E-08         0.00000E+00
    0.21270E-08         0.11385E-08         0.00000E+00
    0.21124E-08         0.11741E-08         0.00000E+00
    0.20973E-08         0.12067E-08         0.00000E+00
    0.20816E-08         0.12363E-08         0.00000E+00
    0.20655E-08         0.12627E-08         0.00000E+00
    0.20489E-08         0.12859E-08         0.00000E+00
    0.20319E-08         0.13057E-08         0.00000E+00
    0.20145E-08         0.13221E-08         0.00000E+00
    0.19968E-08         0.13348E-08         0.00000E+00
    0.19789E-08         0.13438E-08         0.00000E+00
    0.19608E-08         0.13489E-08         0.00000E+00
    0.19425E-08         0.13498E-08         0.00000E+00
    0.19241E-08         0.13464E-08         0.00000E+00
    0.19057E-08         0.13384E-08         0.00000E+00
    0.18874E-08         0.13256E-08         0.00000E+00
    0.18692E-08         0.13079E-08         0.00000E+00
    0.18512E-08         0.12848E-08         0.00000E+00
    0.18335E-08         0.12562E-08         0.00000E+00
    0.18162E-08         0.12218E-08         0.00000E+00
    0.17993E-08         0.11814E-08         0.00000E+00
    0.17830E-08         0.11346E-08         0.00000E+00
    0.17673E-08         0.10813E-08         0.00000E+00
    0.17525E-08         0.10212E-08         0.00000E+00
    0.17384E-08         0.95394E-09         0.00000E+00
    0.17254E-08         0.87943E-09         0.00000E+00
    0.17134E-08         0.79740E-09         0.00000E+00
    0.17026E-08         0.70768E-09         0.00000E+00
    0.16932E-08         0.61008E-09         0.00000E+00
    0.16852E-08         0.50446E-09         0.00000E+00
    0.16787E-08         0.39069E-09         0.00000E+00
    0.16739E-08         0.26869E-09         0.00000E+00
    0.16710E-08         0.13839E-09         0.00000E+00
    0.16700E-08         0.71164E-10         0.00000E+00
    0.24300E-08         0.46621E-10         0.00000E+00
    0.24296E-08         0.92197E-10         0.00000E+00
    0.24283E-08         0.18189E-09         0.00000E+00
    0.24261E-08         0.26863E-09         0.00000E+00
    0.24230E-08         0.35240E-09         0.00000E+00
    0.24191E-08         0.43318E-09         0.00000E+00
    0.24143E-08         0.51095E-09         0.00000E+00
    0.24087E-08         0.58571E-09         0.00000E+00
    0.24021E-08         0.65747E-09         0.00000E+00
    0.23948E-08         0.72621E-09         0.00000E+00
    0.23866E-08         0.79196E-09         0.00000E+00
    0.23775E-08         0.85471E-09         0.00000E+00
    0.23677E-08         0.91447E-09         0.00000E+00
    0.23571E-08         0.97126E-09         0.00000E+00
    0.23457E-08         0.10251E-08         0.00000E+00
    0.23336E-08         0.10759E-08         0.00000E+00
    0.23208E-08         0.11236E-08         0.00000E+00
    0.23073E-08         0.11684E-08         0.00000E+00
    0.22932E-08         0.12101E-08         0.00000E+00
    0.22784E-08         0.12487E-08         0.00000E+00
    0.22630E-08         0.12841E-08         0.00000E+00
    0.22471E-08         0.13162E-08         0.00000E+00
    0.22307E-08         0.13451E-08         0.00000E+00
    0.22139E-08         0.13704E-08         0.00000E+00
    0.21966E-08         0.13922E-08         0.00000E+00
    0.21789E-08         0.14103E-08         0.00000E+00
    0.21609E-08         0.14245E-08         0.00000E+00
    0.21426E-08         0.14347E-08         0.00000E+00
    0.21242E-08         0.14406E-08         0.00000E+00
    0.21056E-08         0.14421E-08         0.00000E+00
    0.20869E-08         0.14390E-08         0.00000E+00
    0.20682E-08         0.14309E-08         0.00000E+00
    0.20495E-08         0.14177E-08         0.00000E+00
    0.20310E-08         0.13991E-08         0.00000E+00
    0.20127E-08         0.13747E-08         0.00000E+00
    0.19948E-08         0.13445E-08         0.00000E+00
    0.19772E-08         0.13080E-08         0.00000E+00
    0.19600E-08         0.12650E-08         0.00000E+00
    0.19435E-08         0.12151E-08         0.00000E+00
    0.19276E-08         0.11582E-08         0.00000E+00
    0.19126E-08         0.10940E-08         0.00000E+00
    0.18984E-08         0.10221E-08         0.00000E+00
    0.18852E-08         0.94241E-09         0.00000E+00
    0.18731E-08         0.85462E-09         0.00000E+00
    0.18622E-08         0.75853E-09         0.00000E+00
    0.18527E-08         0.65398E-09         0.00000E+00
    0.18446E-08         0.54080E-09         0.00000E+00
    0.18381E-08         0.41887E-09         0.00000E+00
    0.18333E-08         0.28808E-09         0.00000E+00
    0.18304E-08         0.14839E-09         0.00000E+00
    0.18294E-08         0.76305E-10         0.00000E+00
    0.26191E-08         0.48742E-10         0.00000E+00
    0.26187E-08         0.96460E-10         0.00000E+00
    0.26174E-08         0.19046E-09         0.00000E+00
    0.26152E-08         0.28155E-09         0.00000E+00
    0.26122E-08         0.36968E-09         0.00000E+00
    0.26083E-08         0.45484E-09         0.00000E+00
    0.26034E-08         0.53697E-09         0.00000E+00
    0.25977E-08         0.61608E-09         0.00000E+00
    0.25911E-08         0.69214E-09         0.00000E+00
    0.25836E-08         0.76514E-09         0.00000E+00
    0.25753E-08         0.83508E-09         0.00000E+00
    0.25661E-08         0.90196E-09         0.00000E+00
    0.25560E-08         0.96576E-09         0.00000E+00
    0.25452E-08         0.10265E-08         0.00000E+00
    0.25335E-08         0.10841E-08         0.00000E+00
    0.25211E-08         0.11386E-08         0.00000E+00
    0.25079E-08         0.11899E-08         0.00000E+00
    0.24940E-08         0.12381E-08         0.00000E+00
    0.24794E-08         0.12831E-08         0.00000E+00
    0.24642E-08         0.13247E-08         0.00000E+00
    0.24484E-08         0.13630E-08         0.00000E+00
    0.24320E-08         0.13978E-08         0.00000E+00
    0.24151E-08         0.14291E-08         0.00000E+00
    0.23977E-08         0.14567E-08         0.00000E+00
    0.23799E-08         0.14805E-08         0.00000E+00
    0.23617E-08         0.15004E-08         0.00000E+00
    0.23432E-08         0.15161E-08         0.00000E+00
    0.23244E-08         0.15274E-08         0.00000E+00
    0.23054E-08         0.15342E-08         0.00000E+00
    0.22864E-08         0.15363E-08         0.00000E+00
    0.22672E-08         0.15333E-08         0.00000E+00
    0.22481E-08         0.15251E-08         0.00000E+00
    0.22290E-08         0.15114E-08         0.00000E+00
    0.22101E-08         0.14918E-08         0.00000E+00
    0.21915E-08         0.14662E-08         0.00000E+00
    0.21731E-08         0.14341E-08         0.00000E+00
    0.21552E-08         0.13954E-08         0.00000E+00
    0.21379E-08         0.13497E-08         0.00000E+00
    0.21211E-08         0.12966E-08         0.00000E+00
    0.21051E-08         0.12360E-08         0.00000E+00
    0.20898E-08         0.11675E-08         0.00000E+00
    0.20755E-08         0.10909E-08         0.00000E+00
    0.20622E-08         0.10059E-08         0.00000E+00
    0.20501E-08         0.91219E-09         0.00000E+00
    0.20392E-08         0.80964E-09         0.00000E+00
    0.20296E-08         0.69804E-09         0.00000E+00
    0.20216E-08         0.57723E-09         0.00000E+00
    0.20151E-08         0.44707E-09         0.00000E+00
    0.20103E-08         0.30747E-09         0.00000E+00
    0.20074E-08         0.15836E-09         0.00000E+00
    0.20064E-08         0.81431E-10         0.00000E+00
    0.28361E-08         0.50863E-10         0.00000E+00
    0.28356E-08         0.10074E-09         0.00000E+00
    0.28343E-08         0.19910E-09         0.00000E+00
    0.28320E-08         0.29464E-09         0.00000E+00
    0.28288E-08         0.38728E-09         0.00000E+00
    0.28247E-08         0.47697E-09         0.00000E+00
    0.28196E-08         0.56365E-09         0.00000E+00
    0.28135E-08         0.64731E-09         0.00000E+00
    0.28065E-08         0.72789E-09         0.00000E+00
    0.27986E-08         0.80538E-09         0.00000E+00
    0.27897E-08         0.87974E-09         0.00000E+00
    0.27799E-08         0.95096E-09         0.00000E+00
    0.27692E-08         0.10190E-08         0.00000E+00
    0.27577E-08         0.10839E-08         0.00000E+00
    0.27453E-08         0.11455E-08         0.00000E+00
    0.27320E-08         0.12039E-08         0.00000E+00
    0.27180E-08         0.12590E-08         0.00000E+00
    0.27032E-08         0.13107E-08         0.00000E+00
    0.26877E-08         0.13591E-08         0.00000E+00
    0.26716E-08         0.14039E-08         0.00000E+00
    0.26548E-08         0.14452E-08         0.00000E+00
    0.26375E-08         0.14828E-08         0.00000E+00
    0.26196E-08         0.15166E-08         0.00000E+00
    0.26012E-08         0.15464E-08         0.00000E+00
    0.25825E-08         0.15722E-08         0.00000E+00
    0.25633E-08         0.15938E-08         0.00000E+00
    0.25439E-08         0.16109E-08         0.00000E+00
    0.25243E-08         0.16233E-08         0.00000E+00
    0.25045E-08         0.16309E-08         0.00000E+00
    0.24846E-08         0.16334E-08         0.00000E+00
    0.24646E-08         0.16305E-08         0.00000E+00
    0.24448E-08         0.16219E-08         0.00000E+00
    0.24251E-08         0.16075E-08         0.00000E+00
    0.24056E-08         0.15868E-08         0.00000E+00
    0.23864E-08         0.15596E-08         0.00000E+00
    0.23676E-08         0.15255E-08         0.00000E+00
    0.23492E-08         0.14843E-08         0.00000E+00
    0.23315E-08         0.14356E-08         0.00000E+00
    0.23144E-08         0.13792E-08         0.00000E+00
    0.22982E-08         0.13147E-08         0.00000E+00
    0.22827E-08         0.12417E-08         0.00000E+00
    0.22683E-08         0.11601E-08         0.00000E+00
    0.22549E-08         0.10696E-08         0.00000E+00
    0.22427E-08         0.96987E-09         0.00000E+00
    0.22318E-08         0.86073E-09         0.00000E+00
    0.22223E-08         0.74198E-09         0.00000E+00
    0.22143E-08         0.61347E-09         0.00000E+00
    0.22079E-08         0.47506E-09         0.00000E+00
    0.22032E-08         0.32666E-09         0.00000E+00
    0.22003E-08         0.16822E-09         0.00000E+00
    0.21993E-08         0.86484E-10         0.00000E+00
    0.30864E-08         0.53147E-10         0.00000E+00
    0.30859E-08         0.10536E-09         0.00000E+00
    0.30844E-08         0.20845E-09         0.00000E+00
    0.30818E-08         0.30882E-09         0.00000E+00
    0.30782E-08         0.40637E-09         0.00000E+00
    0.30735E-08         0.50102E-09         0.00000E+00
    0.30677E-08         0.59269E-09         0.00000E+00
    0.30609E-08         0.68132E-09         0.00000E+00
    0.30529E-08         0.76685E-09         0.00000E+00
    0.30440E-08         0.84923E-09         0.00000E+00
    0.30339E-08         0.92842E-09         0.00000E+00
    0.30229E-08         0.10044E-08         0.00000E+00
    0.30109E-08         0.10770E-08         0.00000E+00
    0.29979E-08         0.11464E-08         0.00000E+00
    0.29839E-08         0.12123E-08         0.00000E+00
    0.29691E-08         0.12749E-08         0.00000E+00
    0.29535E-08         0.13339E-08         0.00000E+00
    0.29370E-08         0.13894E-08         0.00000E+00
    0.29198E-08         0.14412E-08         0.00000E+00
    0.29019E-08         0.14894E-08         0.00000E+00
    0.28834E-08         0.15337E-08         0.00000E+00
    0.28643E-08         0.15740E-08         0.00000E+00
    0.28447E-08         0.16103E-08         0.00000E+00
    0.28246E-08         0.16424E-08         0.00000E+00
    0.28042E-08         0.16700E-08         0.00000E+00
    0.27834E-08         0.16931E-08         0.00000E+00
    0.27624E-08         0.17114E-08         0.00000E+00
    0.27412E-08         0.17247E-08         0.00000E+00
    0.27199E-08         0.17328E-08         0.00000E+00
    0.26986E-08         0.17354E-08         0.00000E+00
    0.26774E-08         0.17322E-08         0.00000E+00
    0.26563E-08         0.17230E-08         0.00000E+00
    0.26355E-08         0.17075E-08         0.00000E+00
    0.26150E-08         0.16853E-08         0.00000E+00
    0.25949E-08         0.16561E-08         0.00000E+00
    0.25753E-08         0.16197E-08         0.00000E+00
    0.25562E-08         0.15756E-08         0.00000E+00
    0.25379E-08         0.15236E-08         0.00000E+00
    0.25203E-08         0.14634E-08         0.00000E+00
    0.25036E-08         0.13946E-08         0.00000E+00
    0.24879E-08         0.13169E-08         0.00000E+00
    0.24732E-08         0.12300E-08         0.00000E+00
    0.24597E-08         0.11336E-08         0.00000E+00
    0.24474E-08         0.10276E-08         0.00000E+00
    0.24365E-08         0.91170E-09         0.00000E+00
    0.24270E-08         0.78566E-09         0.00000E+00
    0.24190E-08         0.64936E-09         0.00000E+00
    0.24127E-08         0.50268E-09         0.00000E+00
    0.24081E-08         0.34553E-09         0.00000E+00
    0.24052E-08         0.17787E-09         0.00000E+00
    0.24042E-08         0.91415E-10         0.00000E+00
    0.33766E-08         0.55859E-10         0.00000E+00
    0.33759E-08         0.11084E-09         0.00000E+00
    0.33740E-08         0.21953E-09         0.00000E+00
    0.33708E-08         0.32560E-09         0.00000E+00
    0.33664E-08         0.42892E-09         0.00000E+00
    0.33605E-08         0.52937E-09         0.00000E+00
    0.33534E-08         0.62683E-09         0.00000E+00
    0.33450E-08         0.72122E-09         0.00000E+00
    0.33354E-08         0.81245E-09         0.00000E+00
    0.33244E-08         0.90043E-09         0.00000E+00
    0.33123E-08         0.98509E-09         0.00000E+00
    0.32990E-08         0.10664E-08         0.00000E+00
    0.32845E-08         0.11442E-08         0.00000E+00
    0.32689E-08         0.12185E-08         0.00000E+00
    0.32523E-08         0.12892E-08         0.00000E+00
    0.32348E-08         0.13562E-08         0.00000E+00
    0.32163E-08         0.14195E-08         0.00000E+00
    0.31969E-08         0.14790E-08         0.00000E+00
    0.31768E-08         0.15345E-08         0.00000E+00
    0.31559E-08         0.15860E-08         0.00000E+00
    0.31344E-08         0.16333E-08         0.00000E+00
    0.31124E-08         0.16764E-08         0.00000E+00
    0.30898E-08         0.17150E-08         0.00000E+00
    0.30668E-08         0.17491E-08         0.00000E+00
    0.30435E-08         0.17784E-08         0.00000E+00
    0.30200E-08         0.18027E-08         0.00000E+00
    0.29963E-08         0.18218E-08         0.00000E+00
    0.29726E-08         0.18356E-08         0.00000E+00
    0.29489E-08         0.18437E-08         0.00000E+00
    0.29253E-08         0.18459E-08         0.00000E+00
    0.29019E-08         0.18419E-08         0.00000E+00
    0.28788E-08         0.18315E-08         0.00000E+00
    0.28560E-08         0.18143E-08         0.00000E+00
    0.28338E-08         0.17899E-08         0.00000E+00
    0.28121E-08         0.17582E-08         0.00000E+00
    0.27911E-08         0.17187E-08         0.00000E+00
    0.27708E-08         0.16712E-08         0.00000E+00
    0.27514E-08         0.16152E-08         0.00000E+00
    0.27329E-08         0.15506E-08         0.00000E+00
    0.27154E-08         0.14769E-08         0.00000E+00
    0.26991E-08         0.13938E-08         0.00000E+00
    0.26839E-08         0.13011E-08         0.00000E+00
    0.26700E-08         0.11986E-08         0.00000E+00
    0.26575E-08         0.10859E-08         0.00000E+00
    0.26464E-08         0.96280E-09         0.00000E+00
    0.26369E-08         0.82922E-09         0.00000E+00
    0.26289E-08         0.68496E-09         0.00000E+00
    0.26226E-08         0.52992E-09         0.00000E+00
    0.26180E-08         0.36404E-09         0.00000E+00
    0.26153E-08         0.18729E-09         0.00000E+00
    0.26143E-08         0.96199E-10         0.00000E+00
    0.37135E-08         0.59409E-10         0.00000E+00
    0.37126E-08         0.11799E-09         0.00000E+00
    0.37101E-08         0.23391E-09         0.00000E+00
    0.37058E-08         0.34726E-09         0.00000E+00
    0.36998E-08         0.45788E-09         0.00000E+00
    0.36921E-08         0.56559E-09         0.00000E+00
    0.36827E-08         0.67025E-09         0.00000E+00
    0.36716E-08         0.77172E-09         0.00000E+00
    0.36590E-08         0.86987E-09         0.00000E+00
    0.36448E-08         0.96459E-09         0.00000E+00
    0.36291E-08         0.10558E-08         0.00000E+00
    0.36120E-08         0.11433E-08         0.00000E+00
    0.35935E-08         0.12271E-08         0.00000E+00
    0.35738E-08         0.13071E-08         0.00000E+00
    0.35528E-08         0.13832E-08         0.00000E+00
    0.35307E-08         0.14552E-08         0.00000E+00
    0.35076E-08         0.15231E-08         0.00000E+00
    0.34836E-08         0.15869E-08         0.00000E+00
    0.34587E-08         0.16462E-08         0.00000E+00
    0.34330E-08         0.17012E-08         0.00000E+00
    0.34068E-08         0.17515E-08         0.00000E+00
    0.33800E-08         0.17971E-08         0.00000E+00
    0.33527E-08         0.18379E-08         0.00000E+00
    0.33251E-08         0.18736E-08         0.00000E+00
    0.32973E-08         0.19041E-08         0.00000E+00
    0.32694E-08         0.19291E-08         0.00000E+00
    0.32414E-08         0.19485E-08         0.00000E+00
    0.32136E-08         0.19620E-08         0.00000E+00
    0.31859E-08         0.19694E-08         0.00000E+00
    0.31586E-08         0.19705E-08         0.00000E+00
    0.31317E-08         0.19648E-08         0.00000E+00
    0.31053E-08         0.19522E-08         0.00000E+00
    0.30795E-08         0.19323E-08         0.00000E+00
    0.30544E-08         0.19049E-08         0.00000E+00
    0.30301E-08         0.18696E-08         0.00000E+00
    0.30067E-08         0.18261E-08         0.00000E+00
    0.29843E-08         0.17741E-08         0.00000E+00
    0.29630E-08         0.17132E-08         0.00000E+00
    0.29429E-08         0.16432E-08         0.00000E+00
    0.29240E-08         0.15637E-08         0.00000E+00
    0.29065E-08         0.14745E-08         0.00000E+00
    0.28904E-08         0.13752E-08         0.00000E+00
    0.28757E-08         0.12656E-08         0.00000E+00
    0.28626E-08         0.11456E-08         0.00000E+00
    0.28511E-08         0.10148E-08         0.00000E+00
    0.28413E-08         0.87323E-09         0.00000E+00
    0.28332E-08         0.72066E-09         0.00000E+00
    0.28268E-08         0.55703E-09         0.00000E+00
    0.28222E-08         0.38231E-09         0.00000E+00
    0.28195E-08         0.19651E-09         0.00000E+00
    0.28185E-08         0.10085E-09         0.00000E+00
    0.41046E-08         0.64393E-10         0.00000E+00
    0.41033E-08         0.12796E-09         0.00000E+00
    0.40997E-08         0.25385E-09         0.00000E+00
    0.40936E-08         0.37712E-09         0.00000E+00
    0.40852E-08         0.49754E-09         0.00000E+00
    0.40744E-08         0.61488E-09         0.00000E+00
    0.40614E-08         0.72895E-09         0.00000E+00
    0.40462E-08         0.83956E-09         0.00000E+00
    0.40289E-08         0.94655E-09         0.00000E+00
    0.40096E-08         0.10498E-08         0.00000E+00
    0.39884E-08         0.11491E-08         0.00000E+00
    0.39654E-08         0.12443E-08         0.00000E+00
    0.39407E-08         0.13353E-08         0.00000E+00
    0.39145E-08         0.14221E-08         0.00000E+00
    0.38868E-08         0.15044E-08         0.00000E+00
    0.38577E-08         0.15822E-08         0.00000E+00
    0.38275E-08         0.16553E-08         0.00000E+00
    0.37963E-08         0.17237E-08         0.00000E+00
    0.37641E-08         0.17871E-08         0.00000E+00
    0.37311E-08         0.18456E-08         0.00000E+00
    0.36975E-08         0.18988E-08         0.00000E+00
    0.36635E-08         0.19468E-08         0.00000E+00
    0.36290E-08         0.19892E-08         0.00000E+00
    0.35944E-08         0.20260E-08         0.00000E+00
    0.35596E-08         0.20570E-08         0.00000E+00
    0.35249E-08         0.20820E-08         0.00000E+00
    0.34905E-08         0.21008E-08         0.00000E+00
    0.34563E-08         0.21130E-08         0.00000E+00
    0.34226E-08         0.21186E-08         0.00000E+00
    0.33895E-08         0.21172E-08         0.00000E+00
    0.33571E-08         0.21087E-08         0.00000E+00
    0.33255E-08         0.20926E-08         0.00000E+00
    0.32949E-08         0.20687E-08         0.00000E+00
    0.32653E-08         0.20368E-08         0.00000E+00
    0.32368E-08         0.19965E-08         0.00000E+00
    0.32097E-08         0.19475E-08         0.00000E+00
    0.31838E-08         0.18896E-08         0.00000E+00
    0.31594E-08         0.18223E-08         0.00000E+00
    0.31366E-08         0.17455E-08         0.00000E+00
    0.31153E-08         0.16589E-08         0.00000E+00
    0.30957E-08         0.15621E-08         0.00000E+00
    0.30778E-08         0.14550E-08         0.00000E+00
    0.30617E-08         0.13373E-08         0.00000E+00
    0.30474E-08         0.12088E-08         0.00000E+00
    0.30350E-08         0.10695E-08         0.00000E+00
    0.30244E-08         0.91902E-09         0.00000E+00
    0.30158E-08         0.75744E-09         0.00000E+00
    0.30092E-08         0.58469E-09         0.00000E+00
    0.30044E-08         0.40078E-09         0.00000E+00
    0.30016E-08         0.20574E-09         0.00000E+00
    0.30006E-08         0.10546E-09         0.00000E+00
    0.45568E-08         0.71639E-10         0.00000E+00
    0.45551E-08         0.14239E-09         0.00000E+00
    0.45497E-08         0.28253E-09         0.00000E+00
    0.45410E-08         0.41977E-09         0.00000E+00
    0.45289E-08         0.55382E-09         0.00000E+00
    0.45136E-08         0.68440E-09         0.00000E+00
    0.44951E-08         0.81123E-09         0.00000E+00
    0.44737E-08         0.93410E-09         0.00000E+00
    0.44495E-08         0.10528E-08         0.00000E+00
    0.44226E-08         0.11671E-08         0.00000E+00
    0.43931E-08         0.12768E-08         0.00000E+00
    0.43614E-08         0.13818E-08         0.00000E+00
    0.43275E-08         0.14819E-08         0.00000E+00
    0.42916E-08         0.15770E-08         0.00000E+00
    0.42539E-08         0.16668E-08         0.00000E+00
    0.42147E-08         0.17514E-08         0.00000E+00
    0.41740E-08         0.18305E-08         0.00000E+00
    0.41321E-08         0.19041E-08         0.00000E+00
    0.40892E-08         0.19719E-08         0.00000E+00
    0.40455E-08         0.20339E-08         0.00000E+00
    0.40012E-08         0.20899E-08         0.00000E+00
    0.39564E-08         0.21398E-08         0.00000E+00
    0.39114E-08         0.21834E-08         0.00000E+00
    0.38663E-08         0.22206E-08         0.00000E+00
    0.38214E-08         0.22511E-08         0.00000E+00
    0.37767E-08         0.22749E-08         0.00000E+00
    0.37326E-08         0.22917E-08         0.00000E+00
    0.36890E-08         0.23013E-08         0.00000E+00
    0.36463E-08         0.23035E-08         0.00000E+00
    0.36046E-08         0.22981E-08         0.00000E+00
    0.35640E-08         0.22847E-08         0.00000E+00
    0.35246E-08         0.22633E-08         0.00000E+00
    0.34866E-08         0.22335E-08         0.00000E+00
    0.34502E-08         0.21951E-08         0.00000E+00
    0.34153E-08         0.21477E-08         0.00000E+00
    0.33823E-08         0.20912E-08         0.00000E+00
    0.33510E-08         0.20252E-08         0.00000E+00
    0.33217E-08         0.19496E-08         0.00000E+00
    0.32944E-08         0.18640E-08         0.00000E+00
    0.32692E-08         0.17682E-08         0.00000E+00
    0.32461E-08         0.16620E-08         0.00000E+00
    0.32252E-08         0.15452E-08         0.00000E+00
    0.32066E-08         0.14176E-08         0.00000E+00
    0.31901E-08         0.12791E-08         0.00000E+00
    0.31760E-08         0.11296E-08         0.00000E+00
    0.31641E-08         0.96891E-09         0.00000E+00
    0.31544E-08         0.79713E-09         0.00000E+00
    0.31470E-08         0.61424E-09         0.00000E+00
    0.31418E-08         0.42029E-09         0.00000E+00
    0.31387E-08         0.21539E-09         0.00000E+00
    0.31377E-08         0.11022E-09         0.00000E+00
    0.50764E-08         0.82263E-10         0.00000E+00
    0.50738E-08         0.16345E-09         0.00000E+00
    0.50661E-08         0.32417E-09         0.00000E+00
    0.50534E-08         0.48137E-09         0.00000E+00
    0.50361E-08         0.63468E-09         0.00000E+00
    0.50141E-08         0.78373E-09         0.00000E+00
    0.49879E-08         0.92820E-09         0.00000E+00
    0.49575E-08         0.10678E-08         0.00000E+00
    0.49233E-08         0.12023E-08         0.00000E+00
    0.48855E-08         0.13314E-08         0.00000E+00
    0.48444E-08         0.14549E-08         0.00000E+00
    0.48002E-08         0.15726E-08         0.00000E+00
    0.47531E-08         0.16843E-08         0.00000E+00
    0.47035E-08         0.17898E-08         0.00000E+00
    0.46517E-08         0.18891E-08         0.00000E+00
    0.45979E-08         0.19819E-08         0.00000E+00
    0.45424E-08         0.20681E-08         0.00000E+00
    0.44854E-08         0.21475E-08         0.00000E+00
    0.44273E-08         0.22202E-08         0.00000E+00
    0.43683E-08         0.22858E-08         0.00000E+00
    0.43087E-08         0.23444E-08         0.00000E+00
    0.42487E-08         0.23957E-08         0.00000E+00
    0.41886E-08         0.24397E-08         0.00000E+00
    0.41287E-08         0.24762E-08         0.00000E+00
    0.40692E-08         0.25050E-08         0.00000E+00
    0.40103E-08         0.25261E-08         0.00000E+00
    0.39522E-08         0.25392E-08         0.00000E+00
    0.38953E-08         0.25442E-08         0.00000E+00
    0.38396E-08         0.25409E-08         0.00000E+00
    0.37853E-08         0.25291E-08         0.00000E+00
    0.37328E-08         0.25086E-08         0.00000E+00
    0.36821E-08         0.24793E-08         0.00000E+00
    0.36333E-08         0.24409E-08         0.00000E+00
    0.35867E-08         0.23932E-08         0.00000E+00
    0.35424E-08         0.23360E-08         0.00000E+00
    0.35005E-08         0.22691E-08         0.00000E+00
    0.34611E-08         0.21923E-08         0.00000E+00
    0.34243E-08         0.21053E-08         0.00000E+00
    0.33902E-08         0.20081E-08         0.00000E+00
    0.33589E-08         0.19003E-08         0.00000E+00
    0.33303E-08         0.17819E-08         0.00000E+00
    0.33046E-08         0.16528E-08         0.00000E+00
    0.32818E-08         0.15127E-08         0.00000E+00
    0.32618E-08         0.13617E-08         0.00000E+00
    0.32446E-08         0.11997E-08         0.00000E+00
    0.32303E-08         0.10267E-08         0.00000E+00
    0.32188E-08         0.84275E-09         0.00000E+00
    0.32099E-08         0.64790E-09         0.00000E+00
    0.32038E-08         0.44232E-09         0.00000E+00
    0.32002E-08         0.22618E-09         0.00000E+00
    0.31990E-08         0.11550E-09         0.00000E+00
    0.56670E-08         0.97714E-10         0.00000E+00
    0.56633E-08         0.19398E-09         0.00000E+00
    0.56522E-08         0.38429E-09         0.00000E+00
    0.56342E-08         0.56992E-09         0.00000E+00
    0.56094E-08         0.75040E-09         0.00000E+00
    0.55783E-08         0.92530E-09         0.00000E+00
    0.55412E-08         0.10942E-08         0.00000E+00
    0.54985E-08         0.12568E-08         0.00000E+00
    0.54505E-08         0.14128E-08         0.00000E+00
    0.53976E-08         0.15618E-08         0.00000E+00
    0.53403E-08         0.17037E-08         0.00000E+00
    0.52788E-08         0.18381E-08         0.00000E+00
    0.52137E-08         0.19650E-08         0.00000E+00
    0.51452E-08         0.20840E-08         0.00000E+00
    0.50739E-08         0.21951E-08         0.00000E+00
    0.50000E-08         0.22982E-08         0.00000E+00
    0.49240E-08         0.23930E-08         0.00000E+00
    0.48463E-08         0.24794E-08         0.00000E+00
    0.47672E-08         0.25575E-08         0.00000E+00
    0.46871E-08         0.26270E-08         0.00000E+00
    0.46065E-08         0.26879E-08         0.00000E+00
    0.45255E-08         0.27400E-08         0.00000E+00
    0.44446E-08         0.27834E-08         0.00000E+00
    0.43642E-08         0.28178E-08         0.00000E+00
    0.42845E-08         0.28433E-08         0.00000E+00
    0.42058E-08         0.28596E-08         0.00000E+00
    0.41284E-08         0.28668E-08         0.00000E+00
    0.40527E-08         0.28646E-08         0.00000E+00
    0.39788E-08         0.28530E-08         0.00000E+00
    0.39071E-08         0.28319E-08         0.00000E+00
    0.38377E-08         0.28012E-08         0.00000E+00
    0.37709E-08         0.27606E-08         0.00000E+00
    0.37069E-08         0.27101E-08         0.00000E+00
    0.36459E-08         0.26495E-08         0.00000E+00
    0.35879E-08         0.25788E-08         0.00000E+00
    0.35332E-08         0.24977E-08         0.00000E+00
    0.34820E-08         0.24062E-08         0.00000E+00
    0.34342E-08         0.23041E-08         0.00000E+00
    0.33900E-08         0.21913E-08         0.00000E+00
    0.33494E-08         0.20677E-08         0.00000E+00
    0.33126E-08         0.19333E-08         0.00000E+00
    0.32794E-08         0.17881E-08         0.00000E+00
    0.32501E-08         0.16319E-08         0.00000E+00
    0.32244E-08         0.14648E-08         0.00000E+00
    0.32025E-08         0.12869E-08         0.00000E+00
    0.31842E-08         0.10982E-08         0.00000E+00
    0.31695E-08         0.89892E-09         0.00000E+00
    0.31582E-08         0.68917E-09         0.00000E+00
    0.31504E-08         0.46920E-09         0.00000E+00
    0.31458E-08         0.23929E-09         0.00000E+00
    0.31443E-08         0.12188E-09         0.00000E+00
    0.63287E-08         0.11982E-09         0.00000E+00
    0.63234E-08         0.23753E-09         0.00000E+00
    0.63078E-08         0.46980E-09         0.00000E+00
    0.62824E-08         0.69545E-09         0.00000E+00
    0.62477E-08         0.91392E-09         0.00000E+00
    0.62043E-08         0.11247E-08         0.00000E+00
    0.61526E-08         0.13273E-08         0.00000E+00
    0.60932E-08         0.15214E-08         0.00000E+00
    0.60267E-08         0.17066E-08         0.00000E+00
    0.59537E-08         0.18825E-08         0.00000E+00
    0.58746E-08         0.20489E-08         0.00000E+00
    0.57901E-08         0.22056E-08         0.00000E+00
    0.57007E-08         0.23523E-08         0.00000E+00
    0.56069E-08         0.24889E-08         0.00000E+00
    0.55095E-08         0.26152E-08         0.00000E+00
    0.54088E-08         0.27312E-08         0.00000E+00
    0.53054E-08         0.28367E-08         0.00000E+00
    0.51999E-08         0.29316E-08         0.00000E+00
    0.50927E-08         0.30159E-08         0.00000E+00
    0.49844E-08         0.30896E-08         0.00000E+00
    0.48755E-08         0.31526E-08         0.00000E+00
    0.47664E-08         0.32048E-08         0.00000E+00
    0.46576E-08         0.32463E-08         0.00000E+00
    0.45495E-08         0.32771E-08         0.00000E+00
    0.44426E-08         0.32971E-08         0.00000E+00
    0.43372E-08         0.33062E-08         0.00000E+00
    0.42337E-08         0.33046E-08         0.00000E+00
    0.41325E-08         0.32921E-08         0.00000E+00
    0.40339E-08         0.32688E-08         0.00000E+00
    0.39383E-08         0.32346E-08         0.00000E+00
    0.38459E-08         0.31894E-08         0.00000E+00
    0.37570E-08         0.31333E-08         0.00000E+00
    0.36719E-08         0.30663E-08         0.00000E+00
    0.35907E-08         0.29882E-08         0.00000E+00
    0.35138E-08         0.28991E-08         0.00000E+00
    0.34411E-08         0.27989E-08         0.00000E+00
    0.33730E-08         0.26877E-08         0.00000E+00
    0.33096E-08         0.25653E-08         0.00000E+00
    0.32509E-08         0.24319E-08         0.00000E+00
    0.31971E-08         0.22874E-08         0.00000E+00
    0.31481E-08         0.21318E-08         0.00000E+00
    0.31041E-08         0.19653E-08         0.00000E+00
    0.30650E-08         0.17879E-08         0.00000E+00
    0.30308E-08         0.15997E-08         0.00000E+00
    0.30015E-08         0.14009E-08         0.00000E+00
    0.29771E-08         0.11918E-08         0.00000E+00
    0.29574E-08         0.97241E-09         0.00000E+00
    0.29423E-08         0.74319E-09         0.00000E+00
    0.29318E-08         0.50441E-09         0.00000E+00
    0.29256E-08         0.25646E-09         0.00000E+00
    0.29236E-08         0.13025E-09         0.00000E+00
    0.70553E-08         0.15080E-09         0.00000E+00
    0.70480E-08         0.29847E-09         0.00000E+00
    0.70265E-08         0.58916E-09         0.00000E+00
    0.69915E-08         0.87022E-09         0.00000E+00
    0.69438E-08         0.11410E-08         0.00000E+00
    0.68842E-08         0.14009E-08         0.00000E+00
    0.68135E-08         0.16495E-08         0.00000E+00
    0.67324E-08         0.18862E-08         0.00000E+00
    0.66417E-08         0.21107E-08         0.00000E+00
    0.65423E-08         0.23226E-08         0.00000E+00
    0.64349E-08         0.25217E-08         0.00000E+00
    0.63203E-08         0.27077E-08         0.00000E+00
    0.61993E-08         0.28806E-08         0.00000E+00
    0.60727E-08         0.30400E-08         0.00000E+00
    0.59412E-08         0.31860E-08         0.00000E+00
    0.58056E-08         0.33185E-08         0.00000E+00
    0.56665E-08         0.34375E-08         0.00000E+00
    0.55248E-08         0.35428E-08         0.00000E+00
    0.53810E-08         0.36347E-08         0.00000E+00
    0.52360E-08         0.37131E-08         0.00000E+00
    0.50902E-08         0.37780E-08         0.00000E+00
    0.49443E-08         0.38296E-08         0.00000E+00
    0.47989E-08         0.38679E-08         0.00000E+00
    0.46546E-08         0.38930E-08         0.00000E+00
    0.45120E-08         0.39050E-08         0.00000E+00
    0.43714E-08         0.39040E-08         0.00000E+00
    0.42335E-08         0.38901E-08         0.00000E+00
    0.40987E-08         0.38634E-08         0.00000E+00
    0.39674E-08         0.38240E-08         0.00000E+00
    0.38400E-08         0.37721E-08         0.00000E+00
    0.37169E-08         0.37076E-08         0.00000E+00
    0.35984E-08         0.36307E-08         0.00000E+00
    0.34849E-08         0.35415E-08         0.00000E+00
    0.33766E-08         0.34402E-08         0.00000E+00
    0.32738E-08         0.33267E-08         0.00000E+00
    0.31767E-08         0.32012E-08         0.00000E+00
    0.30856E-08         0.30639E-08         0.00000E+00
    0.30005E-08         0.29148E-08         0.00000E+00
    0.29216E-08         0.27540E-08         0.00000E+00
    0.28492E-08         0.25818E-08         0.00000E+00
    0.27831E-08         0.23983E-08         0.00000E+00
    0.27235E-08         0.22037E-08         0.00000E+00
    0.26705E-08         0.19982E-08         0.00000E+00
    0.26240E-08         0.17820E-08         0.00000E+00
    0.25840E-08         0.15555E-08         0.00000E+00
    0.25504E-08         0.13189E-08         0.00000E+00
    0.25232E-08         0.10727E-08         0.00000E+00
    0.25024E-08         0.81721E-09         0.00000E+00
    0.24877E-08         0.55289E-09         0.00000E+00
    0.24790E-08         0.28024E-09         0.00000E+00
    0.24761E-08         0.14189E-09         0.00000E+00
    0.78325E-08         0.19330E-09         0.00000E+00
    0.78225E-08         0.38192E-09         0.00000E+00
    0.77934E-08         0.75233E-09         0.00000E+00
    0.77462E-08         0.11087E-08         0.00000E+00
    0.76820E-08         0.14503E-08         0.00000E+00
    0.76019E-08         0.17764E-08         0.00000E+00
    0.75069E-08         0.20865E-08         0.00000E+00
    0.73982E-08         0.23802E-08         0.00000E+00
    0.72768E-08         0.26570E-08         0.00000E+00
    0.71439E-08         0.29166E-08         0.00000E+00
    0.70006E-08         0.31588E-08         0.00000E+00
    0.68479E-08         0.33834E-08         0.00000E+00
    0.66868E-08         0.35903E-08         0.00000E+00
    0.65185E-08         0.37795E-08         0.00000E+00
    0.63438E-08         0.39509E-08         0.00000E+00
    0.61639E-08         0.41045E-08         0.00000E+00
    0.59796E-08         0.42405E-08         0.00000E+00
    0.57919E-08         0.43590E-08         0.00000E+00
    0.56017E-08         0.44601E-08         0.00000E+00
    0.54099E-08         0.45440E-08         0.00000E+00
    0.52172E-08         0.46109E-08         0.00000E+00
    0.50245E-08         0.46610E-08         0.00000E+00
    0.48326E-08         0.46946E-08         0.00000E+00
    0.46421E-08         0.47118E-08         0.00000E+00
    0.44538E-08         0.47130E-08         0.00000E+00
    0.42683E-08         0.46984E-08         0.00000E+00
    0.40862E-08         0.46682E-08         0.00000E+00
    0.39081E-08         0.46228E-08         0.00000E+00
    0.37346E-08         0.45623E-08         0.00000E+00
    0.35661E-08         0.44871E-08         0.00000E+00
    0.34031E-08         0.43973E-08         0.00000E+00
    0.32461E-08         0.42933E-08         0.00000E+00
    0.30954E-08         0.41754E-08         0.00000E+00
    0.29514E-08         0.40437E-08         0.00000E+00
    0.28146E-08         0.38985E-08         0.00000E+00
    0.26850E-08         0.37401E-08         0.00000E+00
    0.25631E-08         0.35688E-08         0.00000E+00
    0.24490E-08         0.33849E-08         0.00000E+00
    0.23430E-08         0.31885E-08         0.00000E+00
    0.22451E-08         0.29801E-08         0.00000E+00
    0.21557E-08         0.27599E-08         0.00000E+00
    0.20747E-08         0.25283E-08         0.00000E+00
    0.20023E-08         0.22857E-08         0.00000E+00
    0.19385E-08         0.20323E-08         0.00000E+00
    0.18833E-08         0.17687E-08         0.00000E+00
    0.18368E-08         0.14953E-08         0.00000E+00
    0.17989E-08         0.12126E-08         0.00000E+00
    0.17696E-08         0.92110E-09         0.00000E+00
    0.17488E-08         0.62139E-09         0.00000E+00
    0.17364E-08         0.31407E-09         0.00000E+00
    0.17323E-08         0.15860E-09         0.00000E+00
    0.86341E-08         0.25032E-09         0.00000E+00
    0.86210E-08         0.49375E-09         0.00000E+00
    0.85824E-08         0.97068E-09         0.00000E+00
    0.85201E-08         0.14273E-08         0.00000E+00
    0.84353E-08         0.18629E-08         0.00000E+00
    0.83297E-08         0.22766E-08         0.00000E+00
    0.82047E-08         0.26680E-08         0.00000E+00
    0.80618E-08         0.30365E-08         0.00000E+00
    0.79025E-08         0.33818E-08         0.00000E+00
    0.77283E-08         0.37037E-08         0.00000E+00
    0.75405E-08         0.40020E-08         0.00000E+00
    0.73407E-08         0.42767E-08         0.00000E+00
    0.71301E-08         0.45276E-08         0.00000E+00
    0.69102E-08         0.47550E-08         0.00000E+00
    0.66824E-08         0.49589E-08         0.00000E+00
    0.64477E-08         0.51395E-08         0.00000E+00
    0.62076E-08         0.52972E-08         0.00000E+00
    0.59632E-08         0.54322E-08         0.00000E+00
    0.57156E-08         0.55449E-08         0.00000E+00
    0.54660E-08         0.56356E-08         0.00000E+00
    0.52153E-08         0.57047E-08         0.00000E+00
    0.49647E-08         0.57527E-08         0.00000E+00
    0.47150E-08         0.57799E-08         0.00000E+00
    0.44672E-08         0.57869E-08         0.00000E+00
    0.42221E-08         0.57741E-08         0.00000E+00
    0.39806E-08         0.57420E-08         0.00000E+00
    0.37433E-08         0.56910E-08         0.00000E+00
    0.35111E-08         0.56216E-08         0.00000E+00
    0.32846E-08         0.55343E-08         0.00000E+00
    0.30644E-08         0.54294E-08         0.00000E+00
    0.28511E-08         0.53076E-08         0.00000E+00
    0.26452E-08         0.51692E-08         0.00000E+00
    0.24473E-08         0.50146E-08         0.00000E+00
    0.22578E-08         0.48444E-08         0.00000E+00
    0.20772E-08         0.46589E-08         0.00000E+00
    0.19058E-08         0.44586E-08         0.00000E+00
    0.17440E-08         0.42440E-08         0.00000E+00
    0.15922E-08         0.40154E-08         0.00000E+00
    0.14505E-08         0.37733E-08         0.00000E+00
    0.13193E-08         0.35181E-08         0.00000E+00
    0.11988E-08         0.32505E-08         0.00000E+00
    0.10893E-08         0.29707E-08         0.00000E+00
    0.99079E-09         0.26793E-08         0.00000E+00
    0.90357E-09         0.23768E-08         0.00000E+00
    0.82774E-09         0.20639E-08         0.00000E+00
    0.76341E-09         0.17410E-08         0.00000E+00
    0.71067E-09         0.14087E-08         0.00000E+00
    0.66959E-09         0.10678E-08         0.00000E+00
    0.64022E-09         0.71880E-09         0.00000E+00
    0.62259E-09         0.36257E-09         0.00000E+00
    0.61671E-09         0.18273E-09         0.00000E+00
    0.94194E-08         0.32517E-09         0.00000E+00
    0.94023E-08         0.64041E-09         0.00000E+00
    0.93524E-08         0.12567E-08         0.00000E+00
    0.92717E-08         0.18442E-08         0.00000E+00
    0.91622E-08         0.24020E-08         0.00000E+00
    0.90259E-08         0.29295E-08         0.00000E+00
    0.88647E-08         0.34260E-08         0.00000E+00
    0.86806E-08         0.38912E-08         0.00000E+00
    0.84755E-08         0.43248E-08         0.00000E+00
    0.82515E-08         0.47267E-08         0.00000E+00
    0.80103E-08         0.50968E-08         0.00000E+00
    0.77538E-08         0.54353E-08         0.00000E+00
    0.74838E-08         0.57424E-08         0.00000E+00
    0.72021E-08         0.60183E-08         0.00000E+00
    0.69102E-08         0.62634E-08         0.00000E+00
    0.66100E-08         0.64783E-08         0.00000E+00
    0.63028E-08         0.66633E-08         0.00000E+00
    0.59903E-08         0.68191E-08         0.00000E+00
    0.56739E-08         0.69462E-08         0.00000E+00
    0.53548E-08         0.70454E-08         0.00000E+00
    0.50346E-08         0.71173E-08         0.00000E+00
    0.47143E-08         0.71626E-08         0.00000E+00
    0.43952E-08         0.71820E-08         0.00000E+00
    0.40783E-08         0.71763E-08         0.00000E+00
    0.37648E-08         0.71461E-08         0.00000E+00
    0.34556E-08         0.70923E-08         0.00000E+00
    0.31516E-08         0.70156E-08         0.00000E+00
    0.28537E-08         0.69165E-08         0.00000E+00
    0.25628E-08         0.67960E-08         0.00000E+00
    0.22795E-08         0.66546E-08         0.00000E+00
    0.20046E-08         0.64931E-08         0.00000E+00
    0.17389E-08         0.63121E-08         0.00000E+00
    0.14828E-08         0.61123E-08         0.00000E+00
    0.12370E-08         0.58942E-08         0.00000E+00
    0.10020E-08         0.56586E-08         0.00000E+00
    0.77839E-09         0.54061E-08         0.00000E+00
    0.56658E-09         0.51372E-08         0.00000E+00
    0.36703E-09         0.48526E-08         0.00000E+00
    0.18018E-09         0.45528E-08         0.00000E+00
    0.64146E-11         0.42385E-08         0.00000E+00
   -0.15389E-09         0.39102E-08         0.00000E+00
   -0.30038E-09         0.35685E-08         0.00000E+00
   -0.43270E-09         0.32141E-08         0.00000E+00
   -0.55055E-09         0.28475E-08         0.00000E+00
   -0.65360E-09         0.24695E-08         0.00000E+00
   -0.74157E-09         0.20807E-08         0.00000E+00
   -0.81415E-09         0.16817E-08         0.00000E+00
   -0.87107E-09         0.12734E-08         0.00000E+00
   -0.91206E-09         0.85640E-09         0.00000E+00
   -0.93685E-09         0.43160E-09         0.00000E+00
   -0.94520E-09         0.21735E-09         0.00000E+00
    0.10129E-07         0.42133E-09         0.00000E+00
    0.10107E-07         0.82869E-09         0.00000E+00
    0.10044E-07         0.16236E-08         0.00000E+00
    0.99416E-08         0.23784E-08         0.00000E+00
    0.98029E-08         0.30922E-08         0.00000E+00
    0.96304E-08         0.37644E-08         0.00000E+00
    0.94267E-08         0.43945E-08         0.00000E+00
    0.91943E-08         0.49821E-08         0.00000E+00
    0.89356E-08         0.55272E-08         0.00000E+00
    0.86533E-08         0.60299E-08         0.00000E+00
    0.83496E-08         0.64904E-08         0.00000E+00
    0.80270E-08         0.69090E-08         0.00000E+00
    0.76876E-08         0.72863E-08         0.00000E+00
    0.73338E-08         0.76228E-08         0.00000E+00
    0.69675E-08         0.79193E-08         0.00000E+00
    0.65909E-08         0.81766E-08         0.00000E+00
    0.62058E-08         0.83955E-08         0.00000E+00
    0.58142E-08         0.85771E-08         0.00000E+00
    0.54178E-08         0.87222E-08         0.00000E+00
    0.50182E-08         0.88320E-08         0.00000E+00
    0.46171E-08         0.89075E-08         0.00000E+00
    0.42159E-08         0.89497E-08         0.00000E+00
    0.38162E-08         0.89598E-08         0.00000E+00
    0.34191E-08         0.89388E-08         0.00000E+00
    0.30259E-08         0.88879E-08         0.00000E+00
    0.26379E-08         0.88080E-08         0.00000E+00
    0.22560E-08         0.87003E-08         0.00000E+00
    0.18814E-08         0.85657E-08         0.00000E+00
    0.15150E-08         0.84053E-08         0.00000E+00
    0.11577E-08         0.82200E-08         0.00000E+00
    0.81030E-09         0.80108E-08         0.00000E+00
    0.47369E-09         0.77785E-08         0.00000E+00
    0.14858E-09         0.75240E-08         0.00000E+00
   -0.16430E-09         0.72482E-08         0.00000E+00
   -0.46427E-09         0.69519E-08         0.00000E+00
   -0.75068E-09         0.66358E-08         0.00000E+00
   -0.10229E-08         0.63007E-08         0.00000E+00
   -0.12803E-08         0.59473E-08         0.00000E+00
   -0.15224E-08         0.55764E-08         0.00000E+00
   -0.17484E-08         0.51885E-08         0.00000E+00
   -0.19579E-08         0.47844E-08         0.00000E+00
   -0.21503E-08         0.43647E-08         0.00000E+00
   -0.23250E-08         0.39302E-08         0.00000E+00
   -0.24815E-08         0.34814E-08         0.00000E+00
   -0.26190E-08         0.30190E-08         0.00000E+00
   -0.27372E-08         0.25437E-08         0.00000E+00
   -0.28352E-08         0.20562E-08         0.00000E+00
   -0.29127E-08         0.15573E-08         0.00000E+00
   -0.29688E-08         0.10477E-08         0.00000E+00
   -0.30030E-08         0.52825E-09         0.00000E+00
   -0.30146E-08         0.26615E-09         0.00000E+00
    0.10680E-07         0.54236E-09         0.00000E+00
    0.10653E-07         0.10655E-08         0.00000E+00
    0.10575E-07         0.20846E-08         0.00000E+00
    0.10448E-07         0.30490E-08         0.00000E+00
    0.10275E-07         0.39579E-08         0.00000E+00
    0.10062E-07         0.48106E-08         0.00000E+00
    0.98092E-08         0.56068E-08         0.00000E+00
    0.95217E-08         0.63464E-08         0.00000E+00
    0.92021E-08         0.70296E-08         0.00000E+00
    0.88536E-08         0.76567E-08         0.00000E+00
    0.84791E-08         0.82284E-08         0.00000E+00
    0.80816E-08         0.87453E-08         0.00000E+00
    0.76640E-08         0.92085E-08         0.00000E+00
    0.72289E-08         0.96190E-08         0.00000E+00
    0.67790E-08         0.99780E-08         0.00000E+00
    0.63167E-08         0.10287E-07         0.00000E+00
    0.58444E-08         0.10547E-07         0.00000E+00
    0.53644E-08         0.10759E-07         0.00000E+00
    0.48788E-08         0.10926E-07         0.00000E+00
    0.43895E-08         0.11049E-07         0.00000E+00
    0.38984E-08         0.11129E-07         0.00000E+00
    0.34074E-08         0.11167E-07         0.00000E+00
    0.29180E-08         0.11166E-07         0.00000E+00
    0.24317E-08         0.11128E-07         0.00000E+00
    0.19501E-08         0.11052E-07         0.00000E+00
    0.14744E-08         0.10942E-07         0.00000E+00
    0.10060E-08         0.10798E-07         0.00000E+00
    0.54586E-09         0.10622E-07         0.00000E+00
    0.95218E-10         0.10415E-07         0.00000E+00
   -0.34494E-09         0.10178E-07         0.00000E+00
   -0.77363E-09         0.99130E-08         0.00000E+00
   -0.11899E-08         0.96207E-08         0.00000E+00
   -0.15930E-08         0.93022E-08         0.00000E+00
   -0.19819E-08         0.89585E-08         0.00000E+00
   -0.23559E-08         0.85906E-08         0.00000E+00
   -0.27142E-08         0.81993E-08         0.00000E+00
   -0.30559E-08         0.77854E-08         0.00000E+00
   -0.33802E-08         0.73499E-08         0.00000E+00
   -0.36865E-08         0.68933E-08         0.00000E+00
   -0.39737E-08         0.64163E-08         0.00000E+00
   -0.42412E-08         0.59197E-08         0.00000E+00
   -0.44880E-08         0.54039E-08         0.00000E+00
   -0.47133E-08         0.48697E-08         0.00000E+00
   -0.49161E-08         0.43176E-08         0.00000E+00
   -0.50954E-08         0.37480E-08         0.00000E+00
   -0.52503E-08         0.31617E-08         0.00000E+00
   -0.53797E-08         0.25592E-08         0.00000E+00
   -0.54825E-08         0.19411E-08         0.00000E+00
   -0.55574E-08         0.13080E-08         0.00000E+00
   -0.56034E-08         0.66058E-09         0.00000E+00
   -0.56191E-08         0.33340E-09         0.00000E+00
    0.10965E-07         0.69171E-09         0.00000E+00
    0.10932E-07         0.13575E-08         0.00000E+00
    0.10836E-07         0.26526E-08         0.00000E+00
    0.10681E-07         0.38745E-08         0.00000E+00
    0.10471E-07         0.50222E-08         0.00000E+00
    0.10211E-07         0.60954E-08         0.00000E+00
    0.99050E-08         0.70938E-08         0.00000E+00
    0.95565E-08         0.80179E-08         0.00000E+00
    0.91697E-08         0.88680E-08         0.00000E+00
    0.87485E-08         0.96450E-08         0.00000E+00
    0.82966E-08         0.10350E-07         0.00000E+00
    0.78178E-08         0.10985E-07         0.00000E+00
    0.73154E-08         0.11550E-07         0.00000E+00
    0.67927E-08         0.12048E-07         0.00000E+00
    0.62530E-08         0.12480E-07         0.00000E+00
    0.56991E-08         0.12849E-07         0.00000E+00
    0.51340E-08         0.13157E-07         0.00000E+00
    0.45603E-08         0.13405E-07         0.00000E+00
    0.39804E-08         0.13597E-07         0.00000E+00
    0.33967E-08         0.13734E-07         0.00000E+00
    0.28113E-08         0.13818E-07         0.00000E+00
    0.22261E-08         0.13852E-07         0.00000E+00
    0.16432E-08         0.13838E-07         0.00000E+00
    0.10641E-08         0.13778E-07         0.00000E+00
    0.49044E-09         0.13674E-07         0.00000E+00
   -0.76312E-10         0.13529E-07         0.00000E+00
   -0.63480E-09         0.13343E-07         0.00000E+00
   -0.11838E-08         0.13120E-07         0.00000E+00
   -0.17221E-08         0.12859E-07         0.00000E+00
   -0.22485E-08         0.12564E-07         0.00000E+00
   -0.27622E-08         0.12236E-07         0.00000E+00
   -0.32619E-08         0.11875E-07         0.00000E+00
   -0.37469E-08         0.11484E-07         0.00000E+00
   -0.42161E-08         0.11063E-07         0.00000E+00
   -0.46686E-08         0.10613E-07         0.00000E+00
   -0.51034E-08         0.10136E-07         0.00000E+00
   -0.55197E-08         0.96311E-08         0.00000E+00
   -0.59162E-08         0.91003E-08         0.00000E+00
   -0.62922E-08         0.85438E-08         0.00000E+00
   -0.66464E-08         0.79622E-08         0.00000E+00
   -0.69777E-08         0.73559E-08         0.00000E+00
   -0.72849E-08         0.67252E-08         0.00000E+00
   -0.75668E-08         0.60705E-08         0.00000E+00
   -0.78218E-08         0.53921E-08         0.00000E+00
   -0.80486E-08         0.46902E-08         0.00000E+00
   -0.82456E-08         0.39650E-08         0.00000E+00
   -0.84111E-08         0.32168E-08         0.00000E+00
   -0.85433E-08         0.24459E-08         0.00000E+00
   -0.86404E-08         0.16524E-08         0.00000E+00
   -0.87003E-08         0.83679E-09         0.00000E+00
   -0.87209E-08         0.42348E-09         0.00000E+00
    0.10841E-07         0.87275E-09         0.00000E+00
    0.10802E-07         0.17111E-08         0.00000E+00
    0.10686E-07         0.33396E-08         0.00000E+00
    0.10501E-07         0.48714E-08         0.00000E+00
    0.10251E-07         0.63056E-08         0.00000E+00
    0.99407E-08         0.76420E-08         0.00000E+00
    0.95764E-08         0.88810E-08         0.00000E+00
    0.91629E-08         0.10023E-07         0.00000E+00
    0.87050E-08         0.11070E-07         0.00000E+00
    0.82076E-08         0.12022E-07         0.00000E+00
    0.76753E-08         0.12882E-07         0.00000E+00
    0.71125E-08         0.13652E-07         0.00000E+00
    0.65235E-08         0.14334E-07         0.00000E+00
    0.59121E-08         0.14931E-07         0.00000E+00
    0.52823E-08         0.15446E-07         0.00000E+00
    0.46374E-08         0.15881E-07         0.00000E+00
    0.39807E-08         0.16241E-07         0.00000E+00
    0.33153E-08         0.16527E-07         0.00000E+00
    0.26440E-08         0.16744E-07         0.00000E+00
    0.19694E-08         0.16894E-07         0.00000E+00
    0.12939E-08         0.16981E-07         0.00000E+00
    0.61957E-09         0.17008E-07         0.00000E+00
   -0.51549E-10         0.16977E-07         0.00000E+00
   -0.71767E-09         0.16891E-07         0.00000E+00
   -0.13772E-08         0.16754E-07         0.00000E+00
   -0.20285E-08         0.16568E-07         0.00000E+00
   -0.26704E-08         0.16335E-07         0.00000E+00
   -0.33015E-08         0.16058E-07         0.00000E+00
   -0.39208E-08         0.15738E-07         0.00000E+00
   -0.45271E-08         0.15379E-07         0.00000E+00
   -0.51193E-08         0.14980E-07         0.00000E+00
   -0.56966E-08         0.14544E-07         0.00000E+00
   -0.62579E-08         0.14073E-07         0.00000E+00
   -0.68022E-08         0.13567E-07         0.00000E+00
   -0.73286E-08         0.13027E-07         0.00000E+00
   -0.78360E-08         0.12454E-07         0.00000E+00
   -0.83233E-08         0.11849E-07         0.00000E+00
   -0.87894E-08         0.11213E-07         0.00000E+00
   -0.92330E-08         0.10544E-07         0.00000E+00
   -0.96527E-08         0.98439E-08         0.00000E+00
   -0.10047E-07         0.91124E-08         0.00000E+00
   -0.10415E-07         0.83492E-08         0.00000E+00
   -0.10754E-07         0.75541E-08         0.00000E+00
   -0.11062E-07         0.67268E-08         0.00000E+00
   -0.11338E-07         0.58670E-08         0.00000E+00
   -0.11578E-07         0.49741E-08         0.00000E+00
   -0.11782E-07         0.40478E-08         0.00000E+00
   -0.11945E-07         0.30875E-08         0.00000E+00
   -0.12066E-07         0.20928E-08         0.00000E+00
   -0.12141E-07         0.10634E-08         0.00000E+00
   -0.12167E-07         0.54002E-09         0.00000E+00
    0.10133E-07         0.10887E-08         0.00000E+00
    0.10086E-07         0.21323E-08         0.00000E+00
    0.99499E-08         0.41562E-08         0.00000E+00
    0.97319E-08         0.60534E-08         0.00000E+00
    0.94387E-08         0.78233E-08         0.00000E+00
    0.90770E-08         0.94663E-08         0.00000E+00
    0.86535E-08         0.10983E-07         0.00000E+00
    0.81745E-08         0.12375E-07         0.00000E+00
    0.76463E-08         0.13644E-07         0.00000E+00
    0.70747E-08         0.14793E-07         0.00000E+00
    0.64654E-08         0.15825E-07         0.00000E+00
    0.58237E-08         0.16744E-07         0.00000E+00
    0.51547E-08         0.17552E-07         0.00000E+00
    0.44631E-08         0.18254E-07         0.00000E+00
    0.37531E-08         0.18854E-07         0.00000E+00
    0.30288E-08         0.19357E-07         0.00000E+00
    0.22940E-08         0.19767E-07         0.00000E+00
    0.15519E-08         0.20089E-07         0.00000E+00
    0.80560E-09         0.20326E-07         0.00000E+00
    0.57892E-10         0.20484E-07         0.00000E+00
   -0.68877E-09         0.20567E-07         0.00000E+00
   -0.14322E-08         0.20579E-07         0.00000E+00
   -0.21704E-08         0.20524E-07         0.00000E+00
   -0.29017E-08         0.20406E-07         0.00000E+00
   -0.36245E-08         0.20229E-07         0.00000E+00
   -0.43375E-08         0.19995E-07         0.00000E+00
   -0.50395E-08         0.19708E-07         0.00000E+00
   -0.57294E-08         0.19371E-07         0.00000E+00
   -0.64062E-08         0.18987E-07         0.00000E+00
   -0.70690E-08         0.18557E-07         0.00000E+00
   -0.77169E-08         0.18083E-07         0.00000E+00
   -0.83492E-08         0.17568E-07         0.00000E+00
   -0.89649E-08         0.17012E-07         0.00000E+00
   -0.95633E-08         0.16416E-07         0.00000E+00
   -0.10143E-07         0.15782E-07         0.00000E+00
   -0.10704E-07         0.15109E-07         0.00000E+00
   -0.11244E-07         0.14398E-07         0.00000E+00
   -0.11763E-07         0.13649E-07         0.00000E+00
   -0.12258E-07         0.12861E-07         0.00000E+00
   -0.12729E-07         0.12033E-07         0.00000E+00
   -0.13174E-07         0.11166E-07         0.00000E+00
   -0.13590E-07         0.10257E-07         0.00000E+00
   -0.13976E-07         0.93064E-08         0.00000E+00
   -0.14329E-07         0.83120E-08         0.00000E+00
   -0.14647E-07         0.72725E-08         0.00000E+00
   -0.14926E-07         0.61863E-08         0.00000E+00
   -0.15163E-07         0.50519E-08         0.00000E+00
   -0.15355E-07         0.38675E-08         0.00000E+00
   -0.15497E-07         0.26315E-08         0.00000E+00
   -0.15586E-07         0.13423E-08         0.00000E+00
   -0.15617E-07         0.68424E-09         0.00000E+00
    0.86315E-08         0.13426E-08         0.00000E+00
    0.85769E-08         0.26257E-08         0.00000E+00
    0.84196E-08         0.51094E-08         0.00000E+00
    0.81688E-08         0.74275E-08         0.00000E+00
    0.78336E-08         0.95800E-08         0.00000E+00
    0.74228E-08         0.11568E-07         0.00000E+00
    0.69446E-08         0.13393E-07         0.00000E+00
    0.64073E-08         0.15059E-07         0.00000E+00
    0.58185E-08         0.16569E-07         0.00000E+00
    0.51855E-08         0.17926E-07         0.00000E+00
    0.45150E-08         0.19137E-07         0.00000E+00
    0.38134E-08         0.20205E-07         0.00000E+00
    0.30865E-08         0.21137E-07         0.00000E+00
    0.23397E-08         0.21939E-07         0.00000E+00
    0.15777E-08         0.22617E-07         0.00000E+00
    0.80507E-09         0.23177E-07         0.00000E+00
    0.25707E-10         0.23626E-07         0.00000E+00
   -0.75689E-09         0.23969E-07         0.00000E+00
   -0.15396E-08         0.24214E-07         0.00000E+00
   -0.23198E-08         0.24366E-07         0.00000E+00
   -0.30951E-08         0.24432E-07         0.00000E+00
   -0.38634E-08         0.24416E-07         0.00000E+00
   -0.46232E-08         0.24324E-07         0.00000E+00
   -0.53729E-08         0.24162E-07         0.00000E+00
   -0.61115E-08         0.23933E-07         0.00000E+00
   -0.68378E-08         0.23643E-07         0.00000E+00
   -0.75512E-08         0.23294E-07         0.00000E+00
   -0.82508E-08         0.22891E-07         0.00000E+00
   -0.89362E-08         0.22436E-07         0.00000E+00
   -0.96069E-08         0.21932E-07         0.00000E+00
   -0.10262E-07         0.21381E-07         0.00000E+00
   -0.10902E-07         0.20784E-07         0.00000E+00
   -0.11526E-07         0.20143E-07         0.00000E+00
   -0.12132E-07         0.19459E-07         0.00000E+00
   -0.12722E-07         0.18731E-07         0.00000E+00
   -0.13293E-07         0.17959E-07         0.00000E+00
   -0.13845E-07         0.17144E-07         0.00000E+00
   -0.14377E-07         0.16283E-07         0.00000E+00
   -0.14887E-07         0.15377E-07         0.00000E+00
   -0.15375E-07         0.14422E-07         0.00000E+00
   -0.15837E-07         0.13417E-07         0.00000E+00
   -0.16272E-07         0.12361E-07         0.00000E+00
   -0.16677E-07         0.11249E-07         0.00000E+00
   -0.17050E-07         0.10079E-07         0.00000E+00
   -0.17388E-07         0.88487E-08         0.00000E+00
   -0.17687E-07         0.75541E-08         0.00000E+00
   -0.17942E-07         0.61920E-08         0.00000E+00
   -0.18150E-07         0.47588E-08         0.00000E+00
   -0.18306E-07         0.32511E-08         0.00000E+00
   -0.18404E-07         0.16652E-08         0.00000E+00
   -0.18439E-07         0.85223E-09         0.00000E+00
    0.61353E-08         0.16354E-08         0.00000E+00
    0.60733E-08         0.31921E-08         0.00000E+00
    0.58969E-08         0.61964E-08         0.00000E+00
    0.56184E-08         0.89831E-08         0.00000E+00
    0.52499E-08         0.11554E-07         0.00000E+00
    0.48029E-08         0.13911E-07         0.00000E+00
    0.42880E-08         0.16060E-07         0.00000E+00
    0.37155E-08         0.18005E-07         0.00000E+00
    0.30946E-08         0.19753E-07         0.00000E+00
    0.24339E-08         0.21311E-07         0.00000E+00
    0.17414E-08         0.22686E-07         0.00000E+00
    0.10242E-08         0.23886E-07         0.00000E+00
    0.28878E-09         0.24921E-07         0.00000E+00
   -0.45918E-09         0.25798E-07         0.00000E+00
   -0.12146E-08         0.26527E-07         0.00000E+00
   -0.19729E-08         0.27117E-07         0.00000E+00
   -0.27304E-08         0.27577E-07         0.00000E+00
   -0.34837E-08         0.27915E-07         0.00000E+00
   -0.42302E-08         0.28141E-07         0.00000E+00
   -0.49674E-08         0.28262E-07         0.00000E+00
   -0.56937E-08         0.28285E-07         0.00000E+00
   -0.64075E-08         0.28220E-07         0.00000E+00
   -0.71077E-08         0.28072E-07         0.00000E+00
   -0.77936E-08         0.27848E-07         0.00000E+00
   -0.84646E-08         0.27553E-07         0.00000E+00
   -0.91205E-08         0.27193E-07         0.00000E+00
   -0.97611E-08         0.26773E-07         0.00000E+00
   -0.10386E-07         0.26297E-07         0.00000E+00
   -0.10997E-07         0.25767E-07         0.00000E+00
   -0.11592E-07         0.25187E-07         0.00000E+00
   -0.12172E-07         0.24559E-07         0.00000E+00
   -0.12738E-07         0.23885E-07         0.00000E+00
   -0.13289E-07         0.23164E-07         0.00000E+00
   -0.13825E-07         0.22398E-07         0.00000E+00
   -0.14347E-07         0.21585E-07         0.00000E+00
   -0.14854E-07         0.20726E-07         0.00000E+00
   -0.15345E-07         0.19818E-07         0.00000E+00
   -0.15820E-07         0.18860E-07         0.00000E+00
   -0.16277E-07         0.17848E-07         0.00000E+00
   -0.16716E-07         0.16780E-07         0.00000E+00
   -0.17135E-07         0.15652E-07         0.00000E+00
   -0.17532E-07         0.14460E-07         0.00000E+00
   -0.17905E-07         0.13200E-07         0.00000E+00
   -0.18250E-07         0.11866E-07         0.00000E+00
   -0.18564E-07         0.10453E-07         0.00000E+00
   -0.18844E-07         0.89562E-08         0.00000E+00
   -0.19086E-07         0.73692E-08         0.00000E+00
   -0.19285E-07         0.56860E-08         0.00000E+00
   -0.19435E-07         0.39004E-08         0.00000E+00
   -0.19530E-07         0.20060E-08         0.00000E+00
   -0.19564E-07         0.10309E-08         0.00000E+00
    0.25769E-08         0.19619E-08         0.00000E+00
    0.25107E-08         0.38178E-08         0.00000E+00
    0.23252E-08         0.73842E-08         0.00000E+00
    0.20373E-08         0.10662E-07         0.00000E+00
    0.16628E-08         0.13657E-07         0.00000E+00
    0.12162E-08         0.16377E-07         0.00000E+00
    0.71081E-09         0.18830E-07         0.00000E+00
    0.15844E-09         0.21027E-07         0.00000E+00
   -0.43014E-09         0.22977E-07         0.00000E+00
   -0.10454E-08         0.24692E-07         0.00000E+00
   -0.16789E-08         0.26185E-07         0.00000E+00
   -0.23232E-08         0.27468E-07         0.00000E+00
   -0.29720E-08         0.28554E-07         0.00000E+00
   -0.36199E-08         0.29456E-07         0.00000E+00
   -0.42621E-08         0.30186E-07         0.00000E+00
   -0.48951E-08         0.30756E-07         0.00000E+00
   -0.55155E-08         0.31180E-07         0.00000E+00
   -0.61211E-08         0.31468E-07         0.00000E+00
   -0.67100E-08         0.31633E-07         0.00000E+00
   -0.72809E-08         0.31684E-07         0.00000E+00
   -0.78330E-08         0.31632E-07         0.00000E+00
   -0.83658E-08         0.31486E-07         0.00000E+00
   -0.88792E-08         0.31255E-07         0.00000E+00
   -0.93736E-08         0.30947E-07         0.00000E+00
   -0.98493E-08         0.30568E-07         0.00000E+00
   -0.10307E-07         0.30125E-07         0.00000E+00
   -0.10748E-07         0.29624E-07         0.00000E+00
   -0.11172E-07         0.29069E-07         0.00000E+00
   -0.11582E-07         0.28463E-07         0.00000E+00
   -0.11977E-07         0.27810E-07         0.00000E+00
   -0.12359E-07         0.27111E-07         0.00000E+00
   -0.12729E-07         0.26368E-07         0.00000E+00
   -0.13088E-07         0.25581E-07         0.00000E+00
   -0.13437E-07         0.24750E-07         0.00000E+00
   -0.13775E-07         0.23873E-07         0.00000E+00
   -0.14105E-07         0.22949E-07         0.00000E+00
   -0.14425E-07         0.21974E-07         0.00000E+00
   -0.14736E-07         0.20946E-07         0.00000E+00
   -0.15037E-07         0.19860E-07         0.00000E+00
   -0.15329E-07         0.18712E-07         0.00000E+00
   -0.15610E-07         0.17496E-07         0.00000E+00
   -0.15878E-07         0.16206E-07         0.00000E+00
   -0.16133E-07         0.14835E-07         0.00000E+00
   -0.16372E-07         0.13377E-07         0.00000E+00
   -0.16592E-07         0.11823E-07         0.00000E+00
   -0.16791E-07         0.10165E-07         0.00000E+00
   -0.16965E-07         0.83938E-08         0.00000E+00
   -0.17110E-07         0.65012E-08         0.00000E+00
   -0.17221E-07         0.44773E-08         0.00000E+00
   -0.17293E-07         0.23121E-08         0.00000E+00
   -0.17319E-07         0.11929E-08         0.00000E+00
   -0.16297E-08         0.22974E-08         0.00000E+00
   -0.16908E-08         0.44509E-08         0.00000E+00
   -0.18573E-08         0.85637E-08         0.00000E+00
   -0.21075E-08         0.12295E-07         0.00000E+00
   -0.24225E-08         0.15659E-07         0.00000E+00
   -0.27858E-08         0.18671E-07         0.00000E+00
   -0.31829E-08         0.21349E-07         0.00000E+00
   -0.36016E-08         0.23710E-07         0.00000E+00
   -0.40312E-08         0.25772E-07         0.00000E+00
   -0.44629E-08         0.27555E-07         0.00000E+00
   -0.48893E-08         0.29075E-07         0.00000E+00
   -0.53043E-08         0.30352E-07         0.00000E+00
   -0.57031E-08         0.31404E-07         0.00000E+00
   -0.60820E-08         0.32249E-07         0.00000E+00
   -0.64380E-08         0.32903E-07         0.00000E+00
   -0.67692E-08         0.33384E-07         0.00000E+00
   -0.70742E-08         0.33707E-07         0.00000E+00
   -0.73524E-08         0.33888E-07         0.00000E+00
   -0.76036E-08         0.33940E-07         0.00000E+00
   -0.78281E-08         0.33876E-07         0.00000E+00
   -0.80266E-08         0.33710E-07         0.00000E+00
   -0.82002E-08         0.33451E-07         0.00000E+00
   -0.83502E-08         0.33111E-07         0.00000E+00
   -0.84782E-08         0.32698E-07         0.00000E+00
   -0.85857E-08         0.32221E-07         0.00000E+00
   -0.86747E-08         0.31686E-07         0.00000E+00
   -0.87471E-08         0.31100E-07         0.00000E+00
   -0.88047E-08         0.30467E-07         0.00000E+00
   -0.88495E-08         0.29791E-07         0.00000E+00
   -0.88835E-08         0.29075E-07         0.00000E+00
   -0.89087E-08         0.28321E-07         0.00000E+00
   -0.89267E-08         0.27530E-07         0.00000E+00
   -0.89393E-08         0.26701E-07         0.00000E+00
   -0.89483E-08         0.25833E-07         0.00000E+00
   -0.89549E-08         0.24925E-07         0.00000E+00
   -0.89607E-08         0.23973E-07         0.00000E+00
   -0.89668E-08         0.22974E-07         0.00000E+00
   -0.89742E-08         0.21922E-07         0.00000E+00
   -0.89838E-08         0.20814E-07         0.00000E+00
   -0.89962E-08         0.19641E-07         0.00000E+00
   -0.90118E-08         0.18398E-07         0.00000E+00
   -0.90307E-08         0.17076E-07         0.00000E+00
   -0.90530E-08         0.15668E-07         0.00000E+00
   -0.90784E-08         0.14162E-07         0.00000E+00
   -0.91061E-08         0.12551E-07         0.00000E+00
   -0.91353E-08         0.10822E-07         0.00000E+00
   -0.91646E-08         0.89648E-08         0.00000E+00
   -0.91923E-08         0.69665E-08         0.00000E+00
   -0.92161E-08         0.48146E-08         0.00000E+00
   -0.92333E-08         0.24953E-08         0.00000E+00
   -0.92403E-08         0.12921E-08         0.00000E+00
   -0.48409E-08         0.25735E-08         0.00000E+00
   -0.48756E-08         0.49557E-08         0.00000E+00
   -0.49613E-08         0.94672E-08         0.00000E+00
   -0.50762E-08         0.13488E-07         0.00000E+00
   -0.52024E-08         0.17049E-07         0.00000E+00
   -0.53257E-08         0.20180E-07         0.00000E+00
   -0.54346E-08         0.22909E-07         0.00000E+00
   -0.55205E-08         0.25268E-07         0.00000E+00
   -0.55768E-08         0.27283E-07         0.00000E+00
   -0.55988E-08         0.28982E-07         0.00000E+00
   -0.55834E-08         0.30392E-07         0.00000E+00
   -0.55285E-08         0.31538E-07         0.00000E+00
   -0.54333E-08         0.32443E-07         0.00000E+00
   -0.52978E-08         0.33130E-07         0.00000E+00
   -0.51226E-08         0.33622E-07         0.00000E+00
   -0.49090E-08         0.33937E-07         0.00000E+00
   -0.46586E-08         0.34096E-07         0.00000E+00
   -0.43733E-08         0.34115E-07         0.00000E+00
   -0.40555E-08         0.34011E-07         0.00000E+00
   -0.37076E-08         0.33799E-07         0.00000E+00
   -0.33322E-08         0.33493E-07         0.00000E+00
   -0.29319E-08         0.33104E-07         0.00000E+00
   -0.25095E-08         0.32645E-07         0.00000E+00
   -0.20678E-08         0.32124E-07         0.00000E+00
   -0.16095E-08         0.31551E-07         0.00000E+00
   -0.11373E-08         0.30932E-07         0.00000E+00
   -0.65403E-09         0.30274E-07         0.00000E+00
   -0.16222E-09         0.29581E-07         0.00000E+00
    0.33551E-09         0.28857E-07         0.00000E+00
    0.83665E-09         0.28105E-07         0.00000E+00
    0.13388E-08         0.27327E-07         0.00000E+00
    0.18394E-08         0.26521E-07         0.00000E+00
    0.23364E-08         0.25689E-07         0.00000E+00
    0.28274E-08         0.24828E-07         0.00000E+00
    0.33103E-08         0.23935E-07         0.00000E+00
    0.37828E-08         0.23008E-07         0.00000E+00
    0.42428E-08         0.22042E-07         0.00000E+00
    0.46881E-08         0.21031E-07         0.00000E+00
    0.51166E-08         0.19970E-07         0.00000E+00
    0.55261E-08         0.18852E-07         0.00000E+00
    0.59142E-08         0.17669E-07         0.00000E+00
    0.62786E-08         0.16413E-07         0.00000E+00
    0.66167E-08         0.15074E-07         0.00000E+00
    0.69261E-08         0.13642E-07         0.00000E+00
    0.72039E-08         0.12107E-07         0.00000E+00
    0.74473E-08         0.10457E-07         0.00000E+00
    0.76533E-08         0.86788E-08         0.00000E+00
    0.78189E-08         0.67587E-08         0.00000E+00
    0.79410E-08         0.46821E-08         0.00000E+00
    0.80165E-08         0.24330E-08         0.00000E+00
    0.80425E-08         0.12633E-08         0.00000E+00
   -0.28855E-08         0.26443E-08         0.00000E+00
   -0.28551E-08         0.50530E-08         0.00000E+00
   -0.27538E-08         0.95669E-08         0.00000E+00
   -0.25713E-08         0.13501E-07         0.00000E+00
   -0.23021E-08         0.16906E-07         0.00000E+00
   -0.19441E-08         0.19832E-07         0.00000E+00
   -0.14979E-08         0.22323E-07         0.00000E+00
   -0.96603E-09         0.24421E-07         0.00000E+00
   -0.35248E-09         0.26164E-07         0.00000E+00
    0.33775E-09         0.27587E-07         0.00000E+00
    0.10991E-08         0.28723E-07         0.00000E+00
    0.19255E-08         0.29602E-07         0.00000E+00
    0.28110E-08         0.30251E-07         0.00000E+00
    0.37494E-08         0.30695E-07         0.00000E+00
    0.47350E-08         0.30959E-07         0.00000E+00
    0.57619E-08         0.31064E-07         0.00000E+00
    0.68248E-08         0.31029E-07         0.00000E+00
    0.79186E-08         0.30873E-07         0.00000E+00
    0.90383E-08         0.30611E-07         0.00000E+00
    0.10180E-07         0.30260E-07         0.00000E+00
    0.11338E-07         0.29831E-07         0.00000E+00
    0.12510E-07         0.29338E-07         0.00000E+00
    0.13692E-07         0.28790E-07         0.00000E+00
    0.14881E-07         0.28198E-07         0.00000E+00
    0.16072E-07         0.27568E-07         0.00000E+00
    0.17265E-07         0.26909E-07         0.00000E+00
    0.18454E-07         0.26224E-07         0.00000E+00
    0.19639E-07         0.25519E-07         0.00000E+00
    0.20817E-07         0.24797E-07         0.00000E+00
    0.21985E-07         0.24059E-07         0.00000E+00
    0.23141E-07         0.23307E-07         0.00000E+00
    0.24283E-07         0.22541E-07         0.00000E+00
    0.25409E-07         0.21761E-07         0.00000E+00
    0.26516E-07         0.20964E-07         0.00000E+00
    0.27602E-07         0.20148E-07         0.00000E+00
    0.28665E-07         0.19310E-07         0.00000E+00
    0.29701E-07         0.18447E-07         0.00000E+00
    0.30707E-07         0.17553E-07         0.00000E+00
    0.31681E-07         0.16624E-07         0.00000E+00
    0.32619E-07         0.15653E-07         0.00000E+00
    0.33515E-07         0.14636E-07         0.00000E+00
    0.34365E-07         0.13564E-07         0.00000E+00
    0.35163E-07         0.12430E-07         0.00000E+00
    0.35903E-07         0.11227E-07         0.00000E+00
    0.36578E-07         0.99450E-08         0.00000E+00
    0.37178E-07         0.85752E-08         0.00000E+00
    0.37696E-07         0.71067E-08         0.00000E+00
    0.38121E-07         0.55281E-08         0.00000E+00
    0.38440E-07         0.38265E-08         0.00000E+00
    0.38643E-07         0.19876E-08         0.00000E+00
    0.38715E-07         0.10319E-08         0.00000E+00
    0.12550E-07         0.22696E-08         0.00000E+00
    0.12697E-07         0.42968E-08         0.00000E+00
    0.13122E-07         0.80480E-08         0.00000E+00
    0.13800E-07         0.11230E-07         0.00000E+00
    0.14706E-07         0.13913E-07         0.00000E+00
    0.15815E-07         0.16159E-07         0.00000E+00
    0.17102E-07         0.18019E-07         0.00000E+00
    0.18544E-07         0.19541E-07         0.00000E+00
    0.20116E-07         0.20764E-07         0.00000E+00
    0.21800E-07         0.21725E-07         0.00000E+00
    0.23576E-07         0.22454E-07         0.00000E+00
    0.25428E-07         0.22978E-07         0.00000E+00
    0.27340E-07         0.23323E-07         0.00000E+00
    0.29298E-07         0.23510E-07         0.00000E+00
    0.31293E-07         0.23559E-07         0.00000E+00
    0.33312E-07         0.23488E-07         0.00000E+00
    0.35347E-07         0.23312E-07         0.00000E+00
    0.37391E-07         0.23047E-07         0.00000E+00
    0.39437E-07         0.22706E-07         0.00000E+00
    0.41480E-07         0.22299E-07         0.00000E+00
    0.43514E-07         0.21839E-07         0.00000E+00
    0.45537E-07         0.21334E-07         0.00000E+00
    0.47544E-07         0.20793E-07         0.00000E+00
    0.49534E-07         0.20223E-07         0.00000E+00
    0.51502E-07         0.19631E-07         0.00000E+00
    0.53449E-07         0.19022E-07         0.00000E+00
    0.55371E-07         0.18400E-07         0.00000E+00
    0.57267E-07         0.17768E-07         0.00000E+00
    0.59137E-07         0.17129E-07         0.00000E+00
    0.60979E-07         0.16484E-07         0.00000E+00
    0.62791E-07         0.15836E-07         0.00000E+00
    0.64574E-07         0.15183E-07         0.00000E+00
    0.66324E-07         0.14525E-07         0.00000E+00
    0.68041E-07         0.13862E-07         0.00000E+00
    0.69723E-07         0.13193E-07         0.00000E+00
    0.71368E-07         0.12515E-07         0.00000E+00
    0.72972E-07         0.11828E-07         0.00000E+00
    0.74534E-07         0.11128E-07         0.00000E+00
    0.76048E-07         0.10415E-07         0.00000E+00
    0.77509E-07         0.96854E-08         0.00000E+00
    0.78912E-07         0.89381E-08         0.00000E+00
    0.80249E-07         0.81709E-08         0.00000E+00
    0.81512E-07         0.73819E-08         0.00000E+00
    0.82691E-07         0.65692E-08         0.00000E+00
    0.83772E-07         0.57307E-08         0.00000E+00
    0.84743E-07         0.48644E-08         0.00000E+00
    0.85587E-07         0.39676E-08         0.00000E+00
    0.86285E-07         0.30373E-08         0.00000E+00
    0.86816E-07         0.20695E-08         0.00000E+00
    0.87157E-07         0.10588E-08         0.00000E+00
    0.87280E-07         0.54211E-09         0.00000E+00
    0.54705E-07         0.11744E-08         0.00000E+00
    0.55006E-07         0.21954E-08         0.00000E+00
    0.55844E-07         0.40537E-08         0.00000E+00
    0.57137E-07         0.55781E-08         0.00000E+00
    0.58809E-07         0.68282E-08         0.00000E+00
    0.60794E-07         0.78510E-08         0.00000E+00
    0.63031E-07         0.86828E-08         0.00000E+00
    0.65472E-07         0.93521E-08         0.00000E+00
    0.68069E-07         0.98810E-08         0.00000E+00
    0.70787E-07         0.10287E-07         0.00000E+00
    0.73592E-07         0.10585E-07         0.00000E+00
    0.76456E-07         0.10785E-07         0.00000E+00
    0.79358E-07         0.10897E-07         0.00000E+00
    0.82278E-07         0.10931E-07         0.00000E+00
    0.85200E-07         0.10894E-07         0.00000E+00
    0.88112E-07         0.10792E-07         0.00000E+00
    0.91005E-07         0.10633E-07         0.00000E+00
    0.93869E-07         0.10422E-07         0.00000E+00
    0.96698E-07         0.10167E-07         0.00000E+00
    0.99488E-07         0.98725E-08         0.00000E+00
    0.10224E-06         0.95444E-08         0.00000E+00
    0.10494E-06         0.91878E-08         0.00000E+00
    0.10759E-06         0.88076E-08         0.00000E+00
    0.11020E-06         0.84082E-08         0.00000E+00
    0.11275E-06         0.79932E-08         0.00000E+00
    0.11526E-06         0.75662E-08         0.00000E+00
    0.11772E-06         0.71300E-08         0.00000E+00
    0.12013E-06         0.66870E-08         0.00000E+00
    0.12249E-06         0.62389E-08         0.00000E+00
    0.12480E-06         0.57875E-08         0.00000E+00
    0.12707E-06         0.53338E-08         0.00000E+00
    0.12928E-06         0.48788E-08         0.00000E+00
    0.13145E-06         0.44234E-08         0.00000E+00
    0.13358E-06         0.39683E-08         0.00000E+00
    0.13565E-06         0.35145E-08         0.00000E+00
    0.13768E-06         0.30635E-08         0.00000E+00
    0.13965E-06         0.26168E-08         0.00000E+00
    0.14157E-06         0.21769E-08         0.00000E+00
    0.14343E-06         0.17469E-08         0.00000E+00
    0.14523E-06         0.13309E-08         0.00000E+00
    0.14696E-06         0.93400E-09         0.00000E+00
    0.14861E-06         0.56259E-09         0.00000E+00
    0.15017E-06         0.22420E-09         0.00000E+00
    0.15164E-06        -0.72338E-10         0.00000E+00
    0.15299E-06        -0.31689E-09         0.00000E+00
    0.15421E-06        -0.49809E-09         0.00000E+00
    0.15527E-06        -0.60351E-09         0.00000E+00
    0.15616E-06        -0.61984E-09         0.00000E+00
    0.15684E-06        -0.53329E-09         0.00000E+00
    0.15728E-06        -0.33000E-09         0.00000E+00
    0.15744E-06        -0.19745E-09         0.00000E+00
    0.13937E-06        -0.74126E-09         0.00000E+00
    0.13980E-06        -0.14013E-08         0.00000E+00
    0.14095E-06        -0.26085E-08         0.00000E+00
    0.14270E-06        -0.35934E-08         0.00000E+00
    0.14490E-06        -0.43684E-08         0.00000E+00
    0.14746E-06        -0.49531E-08         0.00000E+00
    0.15030E-06        -0.53716E-08         0.00000E+00
    0.15333E-06        -0.56494E-08         0.00000E+00
    0.15650E-06        -0.58125E-08         0.00000E+00
    0.15977E-06        -0.58859E-08         0.00000E+00
    0.16309E-06        -0.58925E-08         0.00000E+00
    0.16644E-06        -0.58526E-08         0.00000E+00
    0.16979E-06        -0.57838E-08         0.00000E+00
    0.17312E-06        -0.57006E-08         0.00000E+00
    0.17642E-06        -0.56148E-08         0.00000E+00
    0.17968E-06        -0.55355E-08         0.00000E+00
    0.18288E-06        -0.54693E-08         0.00000E+00
    0.18602E-06        -0.54209E-08         0.00000E+00
    0.18910E-06        -0.53934E-08         0.00000E+00
    0.19211E-06        -0.53881E-08         0.00000E+00
    0.19505E-06        -0.54057E-08         0.00000E+00
    0.19792E-06        -0.54456E-08         0.00000E+00
    0.20072E-06        -0.55069E-08         0.00000E+00
    0.20345E-06        -0.55883E-08         0.00000E+00
    0.20611E-06        -0.56881E-08         0.00000E+00
    0.20871E-06        -0.58046E-08         0.00000E+00
    0.21124E-06        -0.59360E-08         0.00000E+00
    0.21370E-06        -0.60807E-08         0.00000E+00
    0.21610E-06        -0.62369E-08         0.00000E+00
    0.21844E-06        -0.64028E-08         0.00000E+00
    0.22071E-06        -0.65765E-08         0.00000E+00
    0.22293E-06        -0.67561E-08         0.00000E+00
    0.22509E-06        -0.69391E-08         0.00000E+00
    0.22719E-06        -0.71227E-08         0.00000E+00
    0.22924E-06        -0.73032E-08         0.00000E+00
    0.23122E-06        -0.74760E-08         0.00000E+00
    0.23315E-06        -0.76354E-08         0.00000E+00
    0.23502E-06        -0.77741E-08         0.00000E+00
    0.23682E-06        -0.78832E-08         0.00000E+00
    0.23856E-06        -0.79515E-08         0.00000E+00
    0.24022E-06        -0.79656E-08         0.00000E+00
    0.24181E-06        -0.79092E-08         0.00000E+00
    0.24331E-06        -0.77634E-08         0.00000E+00
    0.24472E-06        -0.75058E-08         0.00000E+00
    0.24602E-06        -0.71110E-08         0.00000E+00
    0.24719E-06        -0.65499E-08         0.00000E+00
    0.24821E-06        -0.57900E-08         0.00000E+00
    0.24907E-06        -0.47951E-08         0.00000E+00
    0.24974E-06        -0.35254E-08         0.00000E+00
    0.25017E-06        -0.19380E-08         0.00000E+00
    0.25032E-06        -0.10592E-08         0.00000E+00
    0.27707E-06        -0.30893E-08         0.00000E+00
    0.27747E-06        -0.57253E-08         0.00000E+00
    0.27854E-06        -0.10449E-07         0.00000E+00
    0.28012E-06        -0.14156E-07         0.00000E+00
    0.28207E-06        -0.17001E-07         0.00000E+00
    0.28430E-06        -0.19123E-07         0.00000E+00
    0.28673E-06        -0.20646E-07         0.00000E+00
    0.28929E-06        -0.21683E-07         0.00000E+00
    0.29194E-06        -0.22330E-07         0.00000E+00
    0.29464E-06        -0.22672E-07         0.00000E+00
    0.29737E-06        -0.22779E-07         0.00000E+00
    0.30010E-06        -0.22708E-07         0.00000E+00
    0.30282E-06        -0.22508E-07         0.00000E+00
    0.30551E-06        -0.22218E-07         0.00000E+00
    0.30816E-06        -0.21867E-07         0.00000E+00
    0.31077E-06        -0.21480E-07         0.00000E+00
    0.31332E-06        -0.21076E-07         0.00000E+00
    0.31583E-06        -0.20668E-07         0.00000E+00
    0.31827E-06        -0.20268E-07         0.00000E+00
    0.32065E-06        -0.19882E-07         0.00000E+00
    0.32297E-06        -0.19516E-07         0.00000E+00
    0.32522E-06        -0.19173E-07         0.00000E+00
    0.32741E-06        -0.18854E-07         0.00000E+00
    0.32954E-06        -0.18561E-07         0.00000E+00
    0.33160E-06        -0.18293E-07         0.00000E+00
    0.33360E-06        -0.18049E-07         0.00000E+00
    0.33554E-06        -0.17828E-07         0.00000E+00
    0.33741E-06        -0.17629E-07         0.00000E+00
    0.33922E-06        -0.17450E-07         0.00000E+00
    0.34098E-06        -0.17289E-07         0.00000E+00
    0.34267E-06        -0.17142E-07         0.00000E+00
    0.34430E-06        -0.17007E-07         0.00000E+00
    0.34587E-06        -0.16881E-07         0.00000E+00
    0.34739E-06        -0.16758E-07         0.00000E+00
    0.34884E-06        -0.16633E-07         0.00000E+00
    0.35024E-06        -0.16500E-07         0.00000E+00
    0.35157E-06        -0.16350E-07         0.00000E+00
    0.35285E-06        -0.16173E-07         0.00000E+00
    0.35406E-06        -0.15955E-07         0.00000E+00
    0.35521E-06        -0.15682E-07         0.00000E+00
    0.35629E-06        -0.15334E-07         0.00000E+00
    0.35731E-06        -0.14889E-07         0.00000E+00
    0.35825E-06        -0.14318E-07         0.00000E+00
    0.35912E-06        -0.13589E-07         0.00000E+00
    0.35992E-06        -0.12664E-07         0.00000E+00
    0.36062E-06        -0.11496E-07         0.00000E+00
    0.36124E-06        -0.10035E-07         0.00000E+00
    0.36175E-06        -0.82227E-08         0.00000E+00
    0.36215E-06        -0.59941E-08         0.00000E+00
    0.36241E-06        -0.32762E-08         0.00000E+00
    0.36250E-06        -0.17852E-08         0.00000E+00
    0.46073E-06        -0.47473E-08         0.00000E+00
    0.46087E-06        -0.87493E-08         0.00000E+00
    0.46120E-06        -0.15834E-07         0.00000E+00
    0.46165E-06        -0.21242E-07         0.00000E+00
    0.46219E-06        -0.25283E-07         0.00000E+00
    0.46279E-06        -0.28230E-07         0.00000E+00
    0.46344E-06        -0.30310E-07         0.00000E+00
    0.46415E-06        -0.31710E-07         0.00000E+00
    0.46490E-06        -0.32580E-07         0.00000E+00
    0.46569E-06        -0.33040E-07         0.00000E+00
    0.46652E-06        -0.33185E-07         0.00000E+00
    0.46737E-06        -0.33091E-07         0.00000E+00
    0.46825E-06        -0.32818E-07         0.00000E+00
    0.46914E-06        -0.32415E-07         0.00000E+00
    0.47005E-06        -0.31919E-07         0.00000E+00
    0.47096E-06        -0.31360E-07         0.00000E+00
    0.47188E-06        -0.30762E-07         0.00000E+00
    0.47278E-06        -0.30141E-07         0.00000E+00
    0.47368E-06        -0.29513E-07         0.00000E+00
    0.47456E-06        -0.28887E-07         0.00000E+00
    0.47542E-06        -0.28272E-07         0.00000E+00
    0.47627E-06        -0.27672E-07         0.00000E+00
    0.47708E-06        -0.27091E-07         0.00000E+00
    0.47787E-06        -0.26531E-07         0.00000E+00
    0.47863E-06        -0.25994E-07         0.00000E+00
    0.47936E-06        -0.25480E-07         0.00000E+00
    0.48005E-06        -0.24987E-07         0.00000E+00
    0.48071E-06        -0.24515E-07         0.00000E+00
    0.48133E-06        -0.24061E-07         0.00000E+00
    0.48192E-06        -0.23624E-07         0.00000E+00
    0.48246E-06        -0.23200E-07         0.00000E+00
    0.48297E-06        -0.22786E-07         0.00000E+00
    0.48343E-06        -0.22377E-07         0.00000E+00
    0.48385E-06        -0.21969E-07         0.00000E+00
    0.48422E-06        -0.21556E-07         0.00000E+00
    0.48454E-06        -0.21130E-07         0.00000E+00
    0.48482E-06        -0.20683E-07         0.00000E+00
    0.48504E-06        -0.20206E-07         0.00000E+00
    0.48522E-06        -0.19685E-07         0.00000E+00
    0.48534E-06        -0.19108E-07         0.00000E+00
    0.48541E-06        -0.18457E-07         0.00000E+00
    0.48543E-06        -0.17711E-07         0.00000E+00
    0.48540E-06        -0.16844E-07         0.00000E+00
    0.48533E-06        -0.15826E-07         0.00000E+00
    0.48523E-06        -0.14619E-07         0.00000E+00
    0.48510E-06        -0.13175E-07         0.00000E+00
    0.48496E-06        -0.11436E-07         0.00000E+00
    0.48482E-06        -0.93325E-08         0.00000E+00
    0.48470E-06        -0.67809E-08         0.00000E+00
    0.48463E-06        -0.36911E-08         0.00000E+00
    0.48460E-06        -0.20002E-08         0.00000E+00
    0.65619E-06        -0.44707E-08         0.00000E+00
    0.65579E-06        -0.80662E-08         0.00000E+00
    0.65479E-06        -0.14354E-07         0.00000E+00
    0.65340E-06        -0.19086E-07         0.00000E+00
    0.65179E-06        -0.22677E-07         0.00000E+00
    0.65006E-06        -0.25401E-07         0.00000E+00
    0.64829E-06        -0.27449E-07         0.00000E+00
    0.64652E-06        -0.28958E-07         0.00000E+00
    0.64478E-06        -0.30031E-07         0.00000E+00
    0.64310E-06        -0.30750E-07         0.00000E+00
    0.64149E-06        -0.31180E-07         0.00000E+00
    0.63994E-06        -0.31375E-07         0.00000E+00
    0.63847E-06        -0.31380E-07         0.00000E+00
    0.63707E-06        -0.31233E-07         0.00000E+00
    0.63573E-06        -0.30966E-07         0.00000E+00
    0.63445E-06        -0.30604E-07         0.00000E+00
    0.63323E-06        -0.30170E-07         0.00000E+00
    0.63206E-06        -0.29683E-07         0.00000E+00
    0.63094E-06        -0.29158E-07         0.00000E+00
    0.62985E-06        -0.28606E-07         0.00000E+00
    0.62880E-06        -0.28038E-07         0.00000E+00
    0.62778E-06        -0.27461E-07         0.00000E+00
    0.62679E-06        -0.26881E-07         0.00000E+00
    0.62582E-06        -0.26303E-07         0.00000E+00
    0.62487E-06        -0.25728E-07         0.00000E+00
    0.62394E-06        -0.25159E-07         0.00000E+00
    0.62301E-06        -0.24597E-07         0.00000E+00
    0.62210E-06        -0.24040E-07         0.00000E+00
    0.62119E-06        -0.23488E-07         0.00000E+00
    0.62029E-06        -0.22939E-07         0.00000E+00
    0.61939E-06        -0.22390E-07         0.00000E+00
    0.61849E-06        -0.21837E-07         0.00000E+00
    0.61758E-06        -0.21277E-07         0.00000E+00
    0.61667E-06        -0.20704E-07         0.00000E+00
    0.61576E-06        -0.20113E-07         0.00000E+00
    0.61483E-06        -0.19498E-07         0.00000E+00
    0.61389E-06        -0.18852E-07         0.00000E+00
    0.61294E-06        -0.18166E-07         0.00000E+00
    0.61197E-06        -0.17433E-07         0.00000E+00
    0.61099E-06        -0.16643E-07         0.00000E+00
    0.61000E-06        -0.15787E-07         0.00000E+00
    0.60900E-06        -0.14856E-07         0.00000E+00
    0.60799E-06        -0.13837E-07         0.00000E+00
    0.60698E-06        -0.12720E-07         0.00000E+00
    0.60598E-06        -0.11492E-07         0.00000E+00
    0.60500E-06        -0.10138E-07         0.00000E+00
    0.60408E-06        -0.86349E-08         0.00000E+00
    0.60324E-06        -0.69501E-08         0.00000E+00
    0.60253E-06        -0.50266E-08         0.00000E+00
    0.60202E-06        -0.27638E-08         0.00000E+00
    0.60181E-06        -0.15313E-08         0.00000E+00
    0.80446E-06        -0.69411E-09         0.00000E+00
    0.80401E-06        -0.17029E-08         0.00000E+00
    0.80284E-06        -0.38897E-08         0.00000E+00
    0.80114E-06        -0.62624E-08         0.00000E+00
    0.79903E-06        -0.85810E-08         0.00000E+00
    0.79660E-06        -0.10712E-07         0.00000E+00
    0.79395E-06        -0.12590E-07         0.00000E+00
    0.79111E-06        -0.14189E-07         0.00000E+00
    0.78815E-06        -0.15512E-07         0.00000E+00
    0.78511E-06        -0.16574E-07         0.00000E+00
    0.78200E-06        -0.17397E-07         0.00000E+00
    0.77887E-06        -0.18008E-07         0.00000E+00
    0.77573E-06        -0.18436E-07         0.00000E+00
    0.77260E-06        -0.18706E-07         0.00000E+00
    0.76948E-06        -0.18842E-07         0.00000E+00
    0.76640E-06        -0.18867E-07         0.00000E+00
    0.76336E-06        -0.18802E-07         0.00000E+00
    0.76037E-06        -0.18661E-07         0.00000E+00
    0.75743E-06        -0.18462E-07         0.00000E+00
    0.75454E-06        -0.18215E-07         0.00000E+00
    0.75170E-06        -0.17931E-07         0.00000E+00
    0.74893E-06        -0.17618E-07         0.00000E+00
    0.74621E-06        -0.17284E-07         0.00000E+00
    0.74355E-06        -0.16932E-07         0.00000E+00
    0.74095E-06        -0.16568E-07         0.00000E+00
    0.73841E-06        -0.16193E-07         0.00000E+00
    0.73592E-06        -0.15809E-07         0.00000E+00
    0.73349E-06        -0.15417E-07         0.00000E+00
    0.73111E-06        -0.15017E-07         0.00000E+00
    0.72879E-06        -0.14608E-07         0.00000E+00
    0.72652E-06        -0.14187E-07         0.00000E+00
    0.72431E-06        -0.13752E-07         0.00000E+00
    0.72216E-06        -0.13300E-07         0.00000E+00
    0.72006E-06        -0.12827E-07         0.00000E+00
    0.71802E-06        -0.12329E-07         0.00000E+00
    0.71603E-06        -0.11799E-07         0.00000E+00
    0.71412E-06        -0.11234E-07         0.00000E+00
    0.71226E-06        -0.10625E-07         0.00000E+00
    0.71048E-06        -0.99683E-08         0.00000E+00
    0.70878E-06        -0.92562E-08         0.00000E+00
    0.70715E-06        -0.84834E-08         0.00000E+00
    0.70562E-06        -0.76458E-08         0.00000E+00
    0.70418E-06        -0.67410E-08         0.00000E+00
    0.70285E-06        -0.57709E-08         0.00000E+00
    0.70164E-06        -0.47434E-08         0.00000E+00
    0.70055E-06        -0.36762E-08         0.00000E+00
    0.69961E-06        -0.26018E-08         0.00000E+00
    0.69883E-06        -0.15762E-08         0.00000E+00
    0.69822E-06        -0.69180E-09         0.00000E+00
    0.69782E-06        -0.96433E-10         0.00000E+00
    0.69767E-06         0.10623E-09         0.00000E+00
    0.85817E-06         0.00000E+00         0.00000E+00
    0.85803E-06         0.00000E+00         0.00000E+00
    0.85749E-06         0.00000E+00         0.00000E+00
    0.85647E-06         0.00000E+00         0.00000E+00
    0.85498E-06         0.00000E+00         0.00000E+00
    0.85304E-06         0.00000E+00         0.00000E+00
    0.85070E-06         0.00000E+00         0.00000E+00
    0.84801E-06         0.00000E+00         0.00000E+00
    0.84502E-06         0.00000E+00         0.00000E+00
    0.84180E-06        -0.24214E-19         0.00000E+00
    0.83839E-06         0.00000E+00         0.00000E+00
    0.83484E-06         0.24214E-19         0.00000E+00
    0.83119E-06         0.00000E+00         0.00000E+00
    0.82747E-06         0.00000E+00         0.00000E+00
    0.82371E-06         0.00000E+00         0.00000E+00
    0.81993E-06         0.00000E+00         0.00000E+00
    0.81616E-06         0.00000E+00         0.00000E+00
    0.81241E-06         0.23283E-19         0.00000E+00
    0.80869E-06         0.00000E+00         0.00000E+00
    0.80502E-06        -0.23283E-19         0.00000E+00
    0.80141E-06         0.00000E+00         0.00000E+00
    0.79785E-06         0.00000E+00         0.00000E+00
    0.79436E-06         0.00000E+00         0.00000E+00
    0.79094E-06         0.00000E+00         0.00000E+00
    0.78759E-06         0.00000E+00         0.00000E+00
    0.78431E-06         0.00000E+00         0.00000E+00
    0.78111E-06         0.00000E+00         0.00000E+00
    0.77799E-06         0.00000E+00         0.00000E+00
    0.77494E-06         0.00000E+00         0.00000E+00
    0.77198E-06         0.00000E+00         0.00000E+00
    0.76910E-06         0.00000E+00         0.00000E+00
    0.76631E-06         0.00000E+00         0.00000E+00
    0.76360E-06         0.00000E+00         0.00000E+00
    0.76099E-06         0.00000E+00         0.00000E+00
    0.75847E-06         0.00000E+00         0.00000E+00
    0.75606E-06         0.00000E+00         0.00000E+00
    0.75375E-06         0.00000E+00         0.00000E+00
    0.75156E-06         0.00000E+00         0.00000E+00
    0.74950E-06         0.00000E+00         0.00000E+00
    0.74757E-06        -0.22352E-19         0.00000E+00
    0.74580E-06        -0.21420E-19         0.00000E+00
    0.74418E-06         0.21420E-19         0.00000E+00
    0.74274E-06         0.21420E-19         0.00000E+00
    0.74148E-06         0.00000E+00         0.00000E+00
    0.74043E-06         0.00000E+00         0.00000E+00
    0.73959E-06         0.00000E+00         0.00000E+00
    0.73896E-06         0.00000E+00         0.00000E+00
    0.73855E-06         0.21420E-19         0.00000E+00
    0.73833E-06         0.93132E-21         0.00000E+00
    0.73827E-06         0.00000E+00         0.00000E+00
    0.73829E-06         0.42841E-19         0.00000E+00
CELL_DATA       5000
TENSORS stressef double 
    0.22185E+08        -0.41437E+06         0.00000E+00
   -0.41437E+06         0.17412E+08         0.00000E+00
    0.00000E+00         0.00000E+00         0.11981E+08
 
    0.21376E+08        -0.61059E+06         0.00000E+00
   -0.61059E+06         0.17180E+08         0.00000E+00
    0.00000E+00         0.00000E+00         0.10937E+08
 
    0.20599E+08        -0.74629E+06         0.00000E+00
   -0.74629E+06         0.16928E+08         0.00000E+00
    0.00000E+00         0.00000E+00         0.99591E+07
 
    0.19890E+08        -0.83515E+06         0.00000E+00
   -0.83515E+06         0.16658E+08         0.00000E+00
    0.00000E+00         0.00000E+00         0.90665E+07
 
    0.19260E+08        -0.89175E+06         0.00000E+00
   -0.89175E+06         0.16373E+08         0.00000E+00
    0.00000E+00         0.00000E+00         0.82624E+07
 
    0.18713E+08        -0.92977E+06         0.00000E+00
   -0.92977E+06         0.16080E+08         0.00000E+00
    0.00000E+00         0.00000E+00         0.75449E+07
 
    0.18165E+08        -0.95837E+06         0.00000E+00
   -0.95837E+06         0.15760E+08         0.00000E+00
    0.00000E+00         0.00000E+00         0.69827E+07
 
    0.17589E+08        -0.96835E+06         0.00000E+00
   -0.96835E+06         0.15415E+08         0.00000E+00
    0.00000E+00         0.00000E+00         0.66095E+07
 
    0.17007E+08        -0.94061E+06         0.00000E+00
   -0.94061E+06         0.15085E+08         0.00000E+00
    0.00000E+00         0.00000E+00         0.64183E+07
 
    0.16521E+08        -0.90016E+06         0.00000E+00
   -0.90016E+06         0.14763E+08         0.00000E+00
    0.00000E+00         0.00000E+00         0.62570E+07
 
    0.16114E+08        -0.85504E+06         0.00000E+00
   -0.85504E+06         0.14454E+08         0.00000E+00
    0.00000E+00         0.00000E+00         0.61136E+07
 
    0.15767E+08        -0.80886E+06         0.00000E+00
   -0.80886E+06         0.14158E+08         0.00000E+00
    0.00000E+00         0.00000E+00         0.59850E+07
 
    0.15469E+08        -0.76343E+06         0.00000E+00
   -0.76343E+06         0.13876E+08         0.00000E+00
    0.00000E+00         0.00000E+00         0.58690E+07
 
    0.15209E+08        -0.71963E+06         0.00000E+00
   -0.71963E+06         0.13609E+08         0.00000E+00
    0.00000E+00         0.00000E+00         0.57635E+07
 
    0.14980E+08        -0.67785E+06         0.00000E+00
   -0.67785E+06         0.13355E+08         0.00000E+00
    0.00000E+00         0.00000E+00         0.56671E+07
 
    0.14777E+08        -0.63821E+06         0.00000E+00
   -0.63821E+06         0.13116E+08         0.00000E+00
    0.00000E+00         0.00000E+00         0.55785E+07
 
    0.14595E+08        -0.60067E+06         0.00000E+00
   -0.60067E+06         0.12889E+08         0.00000E+00
    0.00000E+00         0.00000E+00         0.54968E+07
 
    0.14429E+08        -0.56515E+06         0.00000E+00
   -0.56515E+06         0.12676E+08         0.00000E+00
    0.00000E+00         0.00000E+00         0.54211E+07
 
    0.14278E+08        -0.53149E+06         0.00000E+00
   -0.53149E+06         0.12475E+08         0.00000E+00
    0.00000E+00         0.00000E+00         0.53505E+07
 
    0.14137E+08        -0.49955E+06         0.00000E+00
   -0.49955E+06         0.12285E+08         0.00000E+00
    0.00000E+00         0.00000E+00         0.52845E+07
 
    0.14005E+08        -0.46916E+06         0.00000E+00
   -0.46916E+06         0.12107E+08         0.00000E+00
    0.00000E+00         0.00000E+00         0.52224E+07
 
    0.13879E+08        -0.44015E+06         0.00000E+00
   -0.44015E+06         0.11940E+08         0.00000E+00
    0.00000E+00         0.00000E+00         0.51638E+07
 
    0.13758E+08        -0.41236E+06         0.00000E+00
   -0.41236E+06         0.11784E+08         0.00000E+00
    0.00000E+00         0.00000E+00         0.51083E+07
 
    0.13640E+08        -0.38563E+06         0.00000E+00
   -0.38563E+06         0.11637E+08         0.00000E+00
    0.00000E+00         0.00000E+00         0.50554E+07
 
    0.13523E+08        -0.35978E+06         0.00000E+00
   -0.35978E+06         0.11500E+08         0.00000E+00
    0.00000E+00         0.00000E+00         0.50047E+07
 
    0.13407E+08        -0.33466E+06         0.00000E+00
   -0.33466E+06         0.11373E+08         0.00000E+00
    0.00000E+00         0.00000E+00         0.49560E+07
 
    0.13289E+08        -0.31011E+06         0.00000E+00
   -0.31011E+06         0.11255E+08         0.00000E+00
    0.00000E+00         0.00000E+00         0.49088E+07
 
    0.13168E+08        -0.28594E+06         0.00000E+00
   -0.28594E+06         0.11147E+08         0.00000E+00
    0.00000E+00         0.00000E+00         0.48629E+07
 
    0.13043E+08        -0.26198E+06         0.00000E+00
   -0.26198E+06         0.11047E+08         0.00000E+00
    0.00000E+00         0.00000E+00         0.48180E+07
 
    0.12912E+08        -0.23804E+06         0.00000E+00
   -0.23804E+06         0.10957E+08         0.00000E+00
    0.00000E+00         0.00000E+00         0.47738E+07
 
    0.12774E+08        -0.21389E+06         0.00000E+00
   -0.21389E+06         0.10876E+08         0.00000E+00
    0.00000E+00         0.00000E+00         0.47300E+07
 
    0.12627E+08        -0.18931E+06         0.00000E+00
   -0.18931E+06         0.10804E+08         0.00000E+00
    0.00000E+00         0.00000E+00         0.46863E+07
 
    0.12471E+08        -0.16403E+06         0.00000E+00
   -0.16403E+06         0.10742E+08         0.00000E+00
    0.00000E+00         0.00000E+00         0.46425E+07
 
    0.12301E+08        -0.13774E+06         0.00000E+00
   -0.13774E+06         0.10690E+08         0.00000E+00
    0.00000E+00         0.00000E+00         0.45982E+07
 
    0.12118E+08        -0.11008E+06         0.00000E+00
   -0.11008E+06         0.10648E+08         0.00000E+00
    0.00000E+00         0.00000E+00         0.45531E+07
 
    0.11918E+08        -0.80611E+05         0.00000E+00
   -0.80611E+05         0.10617E+08         0.00000E+00
    0.00000E+00         0.00000E+00         0.45069E+07
 
    0.11698E+08        -0.48815E+05         0.00000E+00
   -0.48815E+05         0.10597E+08         0.00000E+00
    0.00000E+00         0.00000E+00         0.44591E+07
 
    0.11456E+08        -0.14049E+05         0.00000E+00
   -0.14049E+05         0.10591E+08         0.00000E+00
    0.00000E+00         0.00000E+00         0.44094E+07
 
    0.11188E+08         0.24490E+05         0.00000E+00
    0.24490E+05         0.10599E+08         0.00000E+00
    0.00000E+00         0.00000E+00         0.43573E+07
 
    0.10889E+08         0.67821E+05         0.00000E+00
    0.67821E+05         0.10622E+08         0.00000E+00
    0.00000E+00         0.00000E+00         0.43022E+07
 
    0.10554E+08         0.11725E+06         0.00000E+00
    0.11725E+06         0.10663E+08         0.00000E+00
    0.00000E+00         0.00000E+00         0.42434E+07
 
    0.10177E+08         0.17451E+06         0.00000E+00
    0.17451E+06         0.10724E+08         0.00000E+00
    0.00000E+00         0.00000E+00         0.41802E+07
 
    0.97500E+07         0.24188E+06         0.00000E+00
    0.24188E+06         0.10809E+08         0.00000E+00
    0.00000E+00         0.00000E+00         0.41117E+07
 
    0.92631E+07         0.32253E+06         0.00000E+00
    0.32253E+06         0.10921E+08         0.00000E+00
    0.00000E+00         0.00000E+00         0.40368E+07
 
    0.87037E+07         0.42086E+06         0.00000E+00
    0.42086E+06         0.11066E+08         0.00000E+00
    0.00000E+00         0.00000E+00         0.39539E+07
 
    0.80555E+07         0.54328E+06         0.00000E+00
    0.54328E+06         0.11251E+08         0.00000E+00
    0.00000E+00         0.00000E+00         0.38612E+07
 
    0.72963E+07         0.69940E+06         0.00000E+00
    0.69940E+06         0.11484E+08         0.00000E+00
    0.00000E+00         0.00000E+00         0.37561E+07
 
    0.63956E+07         0.90427E+06         0.00000E+00
    0.90427E+06         0.11780E+08         0.00000E+00
    0.00000E+00         0.00000E+00         0.36351E+07
 
    0.53089E+07         0.11827E+07         0.00000E+00
    0.11827E+07         0.12153E+08         0.00000E+00
    0.00000E+00         0.00000E+00         0.34924E+07
 
    0.39680E+07         0.15780E+07         0.00000E+00
    0.15780E+07         0.12628E+08         0.00000E+00
    0.00000E+00         0.00000E+00         0.33192E+07
 
    0.14678E+08        -0.24759E+06         0.00000E+00
   -0.24759E+06         0.11516E+08         0.00000E+00
    0.00000E+00         0.00000E+00         0.52388E+07
 
    0.14442E+08        -0.77592E+06         0.00000E+00
   -0.77592E+06         0.11676E+08         0.00000E+00
    0.00000E+00         0.00000E+00         0.52236E+07
 
    0.14095E+08        -0.11689E+07         0.00000E+00
   -0.11689E+07         0.11757E+08         0.00000E+00
    0.00000E+00         0.00000E+00         0.51703E+07
 
    0.13708E+08        -0.14607E+07         0.00000E+00
   -0.14607E+07         0.11783E+08         0.00000E+00
    0.00000E+00         0.00000E+00         0.50981E+07
 
    0.13311E+08        -0.16765E+07         0.00000E+00
   -0.16765E+07         0.11767E+08         0.00000E+00
    0.00000E+00         0.00000E+00         0.50155E+07
 
    0.12916E+08        -0.18363E+07         0.00000E+00
   -0.18363E+07         0.11719E+08         0.00000E+00
    0.00000E+00         0.00000E+00         0.49269E+07
 
    0.12528E+08        -0.19537E+07         0.00000E+00
   -0.19537E+07         0.11671E+08         0.00000E+00
    0.00000E+00         0.00000E+00         0.48397E+07
 
    0.12149E+08        -0.20256E+07         0.00000E+00
   -0.20256E+07         0.11630E+08         0.00000E+00
    0.00000E+00         0.00000E+00         0.47558E+07
 
    0.11779E+08        -0.20524E+07         0.00000E+00
   -0.20524E+07         0.11556E+08         0.00000E+00
    0.00000E+00         0.00000E+00         0.46671E+07
 
    0.11433E+08        -0.20423E+07         0.00000E+00
   -0.20423E+07         0.11466E+08         0.00000E+00
    0.00000E+00         0.00000E+00         0.45797E+07
 
    0.11117E+08        -0.20070E+07         0.00000E+00
   -0.20070E+07         0.11363E+08         0.00000E+00
    0.00000E+00         0.00000E+00         0.44959E+07
 
    0.10832E+08        -0.19549E+07         0.00000E+00
   -0.19549E+07         0.11251E+08         0.00000E+00
    0.00000E+00         0.00000E+00         0.44165E+07
 
    0.10577E+08        -0.18919E+07         0.00000E+00
   -0.18919E+07         0.11132E+08         0.00000E+00
    0.00000E+00         0.00000E+00         0.43419E+07
 
    0.10349E+08        -0.18221E+07         0.00000E+00
   -0.18221E+07         0.11010E+08         0.00000E+00
    0.00000E+00         0.00000E+00         0.42718E+07
 
    0.10144E+08        -0.17483E+07         0.00000E+00
   -0.17483E+07         0.10887E+08         0.00000E+00
    0.00000E+00         0.00000E+00         0.42061E+07
 
    0.99594E+07        -0.16727E+07         0.00000E+00
   -0.16727E+07         0.10763E+08         0.00000E+00
    0.00000E+00         0.00000E+00         0.41445E+07
 
    0.97926E+07        -0.15963E+07         0.00000E+00
   -0.15963E+07         0.10640E+08         0.00000E+00
    0.00000E+00         0.00000E+00         0.40866E+07
 
    0.96406E+07        -0.15203E+07         0.00000E+00
   -0.15203E+07         0.10520E+08         0.00000E+00
    0.00000E+00         0.00000E+00         0.40321E+07
 
    0.95012E+07        -0.14450E+07         0.00000E+00
   -0.14450E+07         0.10403E+08         0.00000E+00
    0.00000E+00         0.00000E+00         0.39808E+07
 
    0.93720E+07        -0.13709E+07         0.00000E+00
   -0.13709E+07         0.10289E+08         0.00000E+00
    0.00000E+00         0.00000E+00         0.39322E+07
 
    0.92512E+07        -0.12982E+07         0.00000E+00
   -0.12982E+07         0.10180E+08         0.00000E+00
    0.00000E+00         0.00000E+00         0.38862E+07
 
    0.91369E+07        -0.12268E+07         0.00000E+00
   -0.12268E+07         0.10075E+08         0.00000E+00
    0.00000E+00         0.00000E+00         0.38425E+07
 
    0.90276E+07        -0.11567E+07         0.00000E+00
   -0.11567E+07         0.99759E+07         0.00000E+00
    0.00000E+00         0.00000E+00         0.38007E+07
 
    0.89217E+07        -0.10878E+07         0.00000E+00
   -0.10878E+07         0.98819E+07         0.00000E+00
    0.00000E+00         0.00000E+00         0.37607E+07
 
    0.88179E+07        -0.10199E+07         0.00000E+00
   -0.10199E+07         0.97935E+07         0.00000E+00
    0.00000E+00         0.00000E+00         0.37223E+07
 
    0.87148E+07        -0.95270E+06         0.00000E+00
   -0.95270E+06         0.97110E+07         0.00000E+00
    0.00000E+00         0.00000E+00         0.36851E+07
 
    0.86111E+07        -0.88596E+06         0.00000E+00
   -0.88596E+06         0.96346E+07         0.00000E+00
    0.00000E+00         0.00000E+00         0.36491E+07
 
    0.85057E+07        -0.81930E+06         0.00000E+00
   -0.81930E+06         0.95645E+07         0.00000E+00
    0.00000E+00         0.00000E+00         0.36140E+07
 
    0.83973E+07        -0.75234E+06         0.00000E+00
   -0.75234E+06         0.95011E+07         0.00000E+00
    0.00000E+00         0.00000E+00         0.35797E+07
 
    0.82847E+07        -0.68462E+06         0.00000E+00
   -0.68462E+06         0.94445E+07         0.00000E+00
    0.00000E+00         0.00000E+00         0.35459E+07
 
    0.81667E+07        -0.61561E+06         0.00000E+00
   -0.61561E+06         0.93951E+07         0.00000E+00
    0.00000E+00         0.00000E+00         0.35124E+07
 
    0.80420E+07        -0.54470E+06         0.00000E+00
   -0.54470E+06         0.93532E+07         0.00000E+00
    0.00000E+00         0.00000E+00         0.34790E+07
 
    0.79092E+07        -0.47120E+06         0.00000E+00
   -0.47120E+06         0.93192E+07         0.00000E+00
    0.00000E+00         0.00000E+00         0.34457E+07
 
    0.77670E+07        -0.39429E+06         0.00000E+00
   -0.39429E+06         0.92936E+07         0.00000E+00
    0.00000E+00         0.00000E+00         0.34121E+07
 
    0.76137E+07        -0.31301E+06         0.00000E+00
   -0.31301E+06         0.92768E+07         0.00000E+00
    0.00000E+00         0.00000E+00         0.33781E+07
 
    0.74479E+07        -0.22620E+06         0.00000E+00
   -0.22620E+06         0.92694E+07         0.00000E+00
    0.00000E+00         0.00000E+00         0.33435E+07
 
    0.72677E+07        -0.13251E+06         0.00000E+00
   -0.13251E+06         0.92723E+07         0.00000E+00
    0.00000E+00         0.00000E+00         0.33080E+07
 
    0.70711E+07        -0.30270E+05         0.00000E+00
   -0.30270E+05         0.92862E+07         0.00000E+00
    0.00000E+00         0.00000E+00         0.32715E+07
 
    0.68561E+07         0.82538E+05         0.00000E+00
    0.82538E+05         0.93121E+07         0.00000E+00
    0.00000E+00         0.00000E+00         0.32336E+07
 
    0.66204E+07         0.20840E+06         0.00000E+00
    0.20840E+06         0.93510E+07         0.00000E+00
    0.00000E+00         0.00000E+00         0.31943E+07
 
    0.63616E+07         0.35042E+06         0.00000E+00
    0.35042E+06         0.94043E+07         0.00000E+00
    0.00000E+00         0.00000E+00         0.31532E+07
 
    0.60772E+07         0.51248E+06         0.00000E+00
    0.51248E+06         0.94735E+07         0.00000E+00
    0.00000E+00         0.00000E+00         0.31101E+07
 
    0.57645E+07         0.69949E+06         0.00000E+00
    0.69949E+06         0.95602E+07         0.00000E+00
    0.00000E+00         0.00000E+00         0.30649E+07
 
    0.54212E+07         0.91777E+06         0.00000E+00
    0.91777E+06         0.96662E+07         0.00000E+00
    0.00000E+00         0.00000E+00         0.30175E+07
 
    0.50457E+07         0.11755E+07         0.00000E+00
    0.11755E+07         0.97935E+07         0.00000E+00
    0.00000E+00         0.00000E+00         0.29678E+07
 
    0.46378E+07         0.14832E+07         0.00000E+00
    0.14832E+07         0.99440E+07         0.00000E+00
    0.00000E+00         0.00000E+00         0.29163E+07
 
    0.42006E+07         0.18551E+07         0.00000E+00
    0.18551E+07         0.10119E+08         0.00000E+00
    0.00000E+00         0.00000E+00         0.28640E+07
 
    0.37444E+07         0.23094E+07         0.00000E+00
    0.23094E+07         0.10320E+08         0.00000E+00
    0.00000E+00         0.00000E+00         0.28130E+07
 
    0.32933E+07         0.28705E+07         0.00000E+00
    0.28705E+07         0.10547E+08         0.00000E+00
    0.00000E+00         0.00000E+00         0.27681E+07
 
    0.29024E+07         0.35692E+07         0.00000E+00
    0.35692E+07         0.10796E+08         0.00000E+00
    0.00000E+00         0.00000E+00         0.27397E+07
 
    0.80129E+07        -0.31380E+06         0.00000E+00
   -0.31380E+06         0.74556E+07         0.00000E+00
    0.00000E+00         0.00000E+00         0.30937E+07
 
    0.80473E+07        -0.70499E+06         0.00000E+00
   -0.70499E+06         0.74403E+07         0.00000E+00
    0.00000E+00         0.00000E+00         0.30975E+07
 
    0.80513E+07        -0.10639E+07         0.00000E+00
   -0.10639E+07         0.74775E+07         0.00000E+00
    0.00000E+00         0.00000E+00         0.31058E+07
 
    0.80052E+07        -0.13758E+07         0.00000E+00
   -0.13758E+07         0.75425E+07         0.00000E+00
    0.00000E+00         0.00000E+00         0.31095E+07
 
    0.79130E+07        -0.16368E+07         0.00000E+00
   -0.16368E+07         0.76211E+07         0.00000E+00
    0.00000E+00         0.00000E+00         0.31068E+07
 
    0.77850E+07        -0.18472E+07         0.00000E+00
   -0.18472E+07         0.77053E+07         0.00000E+00
    0.00000E+00         0.00000E+00         0.30981E+07
 
    0.76318E+07        -0.20102E+07         0.00000E+00
   -0.20102E+07         0.77843E+07         0.00000E+00
    0.00000E+00         0.00000E+00         0.30832E+07
 
    0.74621E+07        -0.21336E+07         0.00000E+00
   -0.21336E+07         0.78543E+07         0.00000E+00
    0.00000E+00         0.00000E+00         0.30633E+07
 
    0.72833E+07        -0.22222E+07         0.00000E+00
   -0.22222E+07         0.79226E+07         0.00000E+00
    0.00000E+00         0.00000E+00         0.30412E+07
 
    0.70988E+07        -0.22788E+07         0.00000E+00
   -0.22788E+07         0.79824E+07         0.00000E+00
    0.00000E+00         0.00000E+00         0.30162E+07
 
    0.69130E+07        -0.23066E+07         0.00000E+00
   -0.23066E+07         0.80315E+07         0.00000E+00
    0.00000E+00         0.00000E+00         0.29889E+07
 
    0.67305E+07        -0.23102E+07         0.00000E+00
   -0.23102E+07         0.80692E+07         0.00000E+00
    0.00000E+00         0.00000E+00         0.29599E+07
 
    0.65543E+07        -0.22936E+07         0.00000E+00
   -0.22936E+07         0.80958E+07         0.00000E+00
    0.00000E+00         0.00000E+00         0.29300E+07
 
    0.63862E+07        -0.22608E+07         0.00000E+00
   -0.22608E+07         0.81121E+07         0.00000E+00
    0.00000E+00         0.00000E+00         0.28997E+07
 
    0.62271E+07        -0.22151E+07         0.00000E+00
   -0.22151E+07         0.81194E+07         0.00000E+00
    0.00000E+00         0.00000E+00         0.28693E+07
 
    0.60773E+07        -0.21593E+07         0.00000E+00
   -0.21593E+07         0.81188E+07         0.00000E+00
    0.00000E+00         0.00000E+00         0.28392E+07
 
    0.59365E+07        -0.20955E+07         0.00000E+00
   -0.20955E+07         0.81115E+07         0.00000E+00
    0.00000E+00         0.00000E+00         0.28096E+07
 
    0.58043E+07        -0.20257E+07         0.00000E+00
   -0.20257E+07         0.80987E+07         0.00000E+00
    0.00000E+00         0.00000E+00         0.27806E+07
 
    0.56799E+07        -0.19513E+07         0.00000E+00
   -0.19513E+07         0.80817E+07         0.00000E+00
    0.00000E+00         0.00000E+00         0.27523E+07
 
    0.55624E+07        -0.18732E+07         0.00000E+00
   -0.18732E+07         0.80613E+07         0.00000E+00
    0.00000E+00         0.00000E+00         0.27247E+07
 
    0.54510E+07        -0.17923E+07         0.00000E+00
   -0.17923E+07         0.80387E+07         0.00000E+00
    0.00000E+00         0.00000E+00         0.26979E+07
 
    0.53447E+07        -0.17092E+07         0.00000E+00
   -0.17092E+07         0.80147E+07         0.00000E+00
    0.00000E+00         0.00000E+00         0.26719E+07
 
    0.52427E+07        -0.16243E+07         0.00000E+00
   -0.16243E+07         0.79901E+07         0.00000E+00
    0.00000E+00         0.00000E+00         0.26466E+07
 
    0.51440E+07        -0.15379E+07         0.00000E+00
   -0.15379E+07         0.79657E+07         0.00000E+00
    0.00000E+00         0.00000E+00         0.26219E+07
 
    0.50478E+07        -0.14499E+07         0.00000E+00
   -0.14499E+07         0.79421E+07         0.00000E+00
    0.00000E+00         0.00000E+00         0.25980E+07
 
    0.49531E+07        -0.13604E+07         0.00000E+00
   -0.13604E+07         0.79200E+07         0.00000E+00
    0.00000E+00         0.00000E+00         0.25746E+07
 
    0.48593E+07        -0.12692E+07         0.00000E+00
   -0.12692E+07         0.78998E+07         0.00000E+00
    0.00000E+00         0.00000E+00         0.25518E+07
 
    0.47654E+07        -0.11761E+07         0.00000E+00
   -0.11761E+07         0.78823E+07         0.00000E+00
    0.00000E+00         0.00000E+00         0.25295E+07
 
    0.46706E+07        -0.10806E+07         0.00000E+00
   -0.10806E+07         0.78678E+07         0.00000E+00
    0.00000E+00         0.00000E+00         0.25077E+07
 
    0.45743E+07        -0.98235E+06         0.00000E+00
   -0.98235E+06         0.78569E+07         0.00000E+00
    0.00000E+00         0.00000E+00         0.24862E+07
 
    0.44757E+07        -0.88071E+06         0.00000E+00
   -0.88071E+06         0.78500E+07         0.00000E+00
    0.00000E+00         0.00000E+00         0.24651E+07
 
    0.43741E+07        -0.77498E+06         0.00000E+00
   -0.77498E+06         0.78476E+07         0.00000E+00
    0.00000E+00         0.00000E+00         0.24443E+07
 
    0.42688E+07        -0.66431E+06         0.00000E+00
   -0.66431E+06         0.78502E+07         0.00000E+00
    0.00000E+00         0.00000E+00         0.24238E+07
 
    0.41591E+07        -0.54770E+06         0.00000E+00
   -0.54770E+06         0.78581E+07         0.00000E+00
    0.00000E+00         0.00000E+00         0.24034E+07
 
    0.40445E+07        -0.42398E+06         0.00000E+00
   -0.42398E+06         0.78718E+07         0.00000E+00
    0.00000E+00         0.00000E+00         0.23833E+07
 
    0.39245E+07        -0.29176E+06         0.00000E+00
   -0.29176E+06         0.78917E+07         0.00000E+00
    0.00000E+00         0.00000E+00         0.23632E+07
 
    0.37985E+07        -0.14943E+06         0.00000E+00
   -0.14943E+06         0.79183E+07         0.00000E+00
    0.00000E+00         0.00000E+00         0.23434E+07
 
    0.36664E+07         0.48964E+04         0.00000E+00
    0.48964E+04         0.79517E+07         0.00000E+00
    0.00000E+00         0.00000E+00         0.23236E+07
 
    0.35280E+07         0.17345E+06         0.00000E+00
    0.17345E+06         0.79924E+07         0.00000E+00
    0.00000E+00         0.00000E+00         0.23041E+07
 
    0.33834E+07         0.35882E+06         0.00000E+00
    0.35882E+06         0.80406E+07         0.00000E+00
    0.00000E+00         0.00000E+00         0.22848E+07
 
    0.32333E+07         0.56404E+06         0.00000E+00
    0.56404E+06         0.80962E+07         0.00000E+00
    0.00000E+00         0.00000E+00         0.22659E+07
 
    0.30786E+07         0.79262E+06         0.00000E+00
    0.79262E+06         0.81592E+07         0.00000E+00
    0.00000E+00         0.00000E+00         0.22476E+07
 
    0.29213E+07         0.10486E+07         0.00000E+00
    0.10486E+07         0.82291E+07         0.00000E+00
    0.00000E+00         0.00000E+00         0.22301E+07
 
    0.27642E+07         0.13366E+07         0.00000E+00
    0.13366E+07         0.83048E+07         0.00000E+00
    0.00000E+00         0.00000E+00         0.22138E+07
 
    0.26116E+07         0.16616E+07         0.00000E+00
    0.16616E+07         0.83848E+07         0.00000E+00
    0.00000E+00         0.00000E+00         0.21993E+07
 
    0.24695E+07         0.20291E+07         0.00000E+00
    0.20291E+07         0.84662E+07         0.00000E+00
    0.00000E+00         0.00000E+00         0.21871E+07
 
    0.23461E+07         0.24439E+07         0.00000E+00
    0.24439E+07         0.85449E+07         0.00000E+00
    0.00000E+00         0.00000E+00         0.21782E+07
 
    0.22511E+07         0.29098E+07         0.00000E+00
    0.29098E+07         0.86143E+07         0.00000E+00
    0.00000E+00         0.00000E+00         0.21731E+07
 
    0.21932E+07         0.34269E+07         0.00000E+00
    0.34269E+07         0.86643E+07         0.00000E+00
    0.00000E+00         0.00000E+00         0.21715E+07
 
    0.21717E+07         0.39875E+07         0.00000E+00
    0.39875E+07         0.86794E+07         0.00000E+00
    0.00000E+00         0.00000E+00         0.21702E+07
 
    0.29383E+07        -0.19611E+06         0.00000E+00
   -0.19611E+06         0.43384E+07         0.00000E+00
    0.00000E+00         0.00000E+00         0.14553E+07
 
    0.32394E+07        -0.53406E+06         0.00000E+00
   -0.53406E+06         0.43964E+07         0.00000E+00
    0.00000E+00         0.00000E+00         0.15272E+07
 
    0.34570E+07        -0.82918E+06         0.00000E+00
   -0.82918E+06         0.44672E+07         0.00000E+00
    0.00000E+00         0.00000E+00         0.15848E+07
 
    0.36126E+07        -0.10904E+07         0.00000E+00
   -0.10904E+07         0.45535E+07         0.00000E+00
    0.00000E+00         0.00000E+00         0.16332E+07
 
    0.37166E+07        -0.13205E+07         0.00000E+00
   -0.13205E+07         0.46530E+07         0.00000E+00
    0.00000E+00         0.00000E+00         0.16739E+07
 
    0.37760E+07        -0.15206E+07         0.00000E+00
   -0.15206E+07         0.47615E+07         0.00000E+00
    0.00000E+00         0.00000E+00         0.17075E+07
 
    0.37976E+07        -0.16915E+07         0.00000E+00
   -0.16915E+07         0.48762E+07         0.00000E+00
    0.00000E+00         0.00000E+00         0.17348E+07
 
    0.37878E+07        -0.18335E+07         0.00000E+00
   -0.18335E+07         0.49936E+07         0.00000E+00
    0.00000E+00         0.00000E+00         0.17563E+07
 
    0.37524E+07        -0.19481E+07         0.00000E+00
   -0.19481E+07         0.51088E+07         0.00000E+00
    0.00000E+00         0.00000E+00         0.17722E+07
 
    0.36972E+07        -0.20376E+07         0.00000E+00
   -0.20376E+07         0.52211E+07         0.00000E+00
    0.00000E+00         0.00000E+00         0.17837E+07
 
    0.36266E+07        -0.21041E+07         0.00000E+00
   -0.21041E+07         0.53291E+07         0.00000E+00
    0.00000E+00         0.00000E+00         0.17911E+07
 
    0.35442E+07        -0.21493E+07         0.00000E+00
   -0.21493E+07         0.54315E+07         0.00000E+00
    0.00000E+00         0.00000E+00         0.17951E+07
 
    0.34534E+07        -0.21752E+07         0.00000E+00
   -0.21752E+07         0.55271E+07         0.00000E+00
    0.00000E+00         0.00000E+00         0.17961E+07
 
    0.33571E+07        -0.21836E+07         0.00000E+00
   -0.21836E+07         0.56156E+07         0.00000E+00
    0.00000E+00         0.00000E+00         0.17945E+07
 
    0.32574E+07        -0.21766E+07         0.00000E+00
   -0.21766E+07         0.56966E+07         0.00000E+00
    0.00000E+00         0.00000E+00         0.17908E+07
 
    0.31562E+07        -0.21560E+07         0.00000E+00
   -0.21560E+07         0.57702E+07         0.00000E+00
    0.00000E+00         0.00000E+00         0.17853E+07
 
    0.30550E+07        -0.21235E+07         0.00000E+00
   -0.21235E+07         0.58367E+07         0.00000E+00
    0.00000E+00         0.00000E+00         0.17783E+07
 
    0.29546E+07        -0.20807E+07         0.00000E+00
   -0.20807E+07         0.58967E+07         0.00000E+00
    0.00000E+00         0.00000E+00         0.17703E+07
 
    0.28558E+07        -0.20290E+07         0.00000E+00
   -0.20290E+07         0.59505E+07         0.00000E+00
    0.00000E+00         0.00000E+00         0.17613E+07
 
    0.27589E+07        -0.19693E+07         0.00000E+00
   -0.19693E+07         0.59989E+07         0.00000E+00
    0.00000E+00         0.00000E+00         0.17516E+07
 
    0.26643E+07        -0.19028E+07         0.00000E+00
   -0.19028E+07         0.60426E+07         0.00000E+00
    0.00000E+00         0.00000E+00         0.17414E+07
 
    0.25720E+07        -0.18302E+07         0.00000E+00
   -0.18302E+07         0.60821E+07         0.00000E+00
    0.00000E+00         0.00000E+00         0.17308E+07
 
    0.24819E+07        -0.17521E+07         0.00000E+00
   -0.17521E+07         0.61181E+07         0.00000E+00
    0.00000E+00         0.00000E+00         0.17200E+07
 
    0.23940E+07        -0.16690E+07         0.00000E+00
   -0.16690E+07         0.61514E+07         0.00000E+00
    0.00000E+00         0.00000E+00         0.17091E+07
 
    0.23081E+07        -0.15812E+07         0.00000E+00
   -0.15812E+07         0.61824E+07         0.00000E+00
    0.00000E+00         0.00000E+00         0.16981E+07
 
    0.22239E+07        -0.14887E+07         0.00000E+00
   -0.14887E+07         0.62119E+07         0.00000E+00
    0.00000E+00         0.00000E+00         0.16872E+07
 
    0.21414E+07        -0.13918E+07         0.00000E+00
   -0.13918E+07         0.62403E+07         0.00000E+00
    0.00000E+00         0.00000E+00         0.16764E+07
 
    0.20602E+07        -0.12903E+07         0.00000E+00
   -0.12903E+07         0.62683E+07         0.00000E+00
    0.00000E+00         0.00000E+00         0.16657E+07
 
    0.19802E+07        -0.11840E+07         0.00000E+00
   -0.11840E+07         0.62963E+07         0.00000E+00
    0.00000E+00         0.00000E+00         0.16553E+07
 
    0.19013E+07        -0.10726E+07         0.00000E+00
   -0.10726E+07         0.63247E+07         0.00000E+00
    0.00000E+00         0.00000E+00         0.16452E+07
 
    0.18232E+07        -0.95567E+06         0.00000E+00
   -0.95567E+06         0.63539E+07         0.00000E+00
    0.00000E+00         0.00000E+00         0.16354E+07
 
    0.17459E+07        -0.83261E+06         0.00000E+00
   -0.83261E+06         0.63843E+07         0.00000E+00
    0.00000E+00         0.00000E+00         0.16260E+07
 
    0.16695E+07        -0.70277E+06         0.00000E+00
   -0.70277E+06         0.64163E+07         0.00000E+00
    0.00000E+00         0.00000E+00         0.16171E+07
 
    0.15940E+07        -0.56534E+06         0.00000E+00
   -0.56534E+06         0.64499E+07         0.00000E+00
    0.00000E+00         0.00000E+00         0.16088E+07
 
    0.15198E+07        -0.41938E+06         0.00000E+00
   -0.41938E+06         0.64855E+07         0.00000E+00
    0.00000E+00         0.00000E+00         0.16010E+07
 
    0.14471E+07        -0.26379E+06         0.00000E+00
   -0.26379E+06         0.65230E+07         0.00000E+00
    0.00000E+00         0.00000E+00         0.15940E+07
 
    0.13767E+07        -0.97369E+05         0.00000E+00
   -0.97369E+05         0.65624E+07         0.00000E+00
    0.00000E+00         0.00000E+00         0.15878E+07
 
    0.13093E+07         0.81274E+05         0.00000E+00
    0.81274E+05         0.66035E+07         0.00000E+00
    0.00000E+00         0.00000E+00         0.15825E+07
 
    0.12460E+07         0.27365E+06         0.00000E+00
    0.27365E+06         0.66459E+07         0.00000E+00
    0.00000E+00         0.00000E+00         0.15784E+07
 
    0.11882E+07         0.48142E+06         0.00000E+00
    0.48142E+06         0.66892E+07         0.00000E+00
    0.00000E+00         0.00000E+00         0.15755E+07
 
    0.11380E+07         0.70636E+06         0.00000E+00
    0.70636E+06         0.67324E+07         0.00000E+00
    0.00000E+00         0.00000E+00         0.15741E+07
 
    0.10975E+07         0.95030E+06         0.00000E+00
    0.95030E+06         0.67744E+07         0.00000E+00
    0.00000E+00         0.00000E+00         0.15744E+07
 
    0.10696E+07         0.12151E+07         0.00000E+00
    0.12151E+07         0.68135E+07         0.00000E+00
    0.00000E+00         0.00000E+00         0.15766E+07
 
    0.10580E+07         0.15026E+07         0.00000E+00
    0.15026E+07         0.68478E+07         0.00000E+00
    0.00000E+00         0.00000E+00         0.15812E+07
 
    0.10664E+07         0.18142E+07         0.00000E+00
    0.18142E+07         0.68746E+07         0.00000E+00
    0.00000E+00         0.00000E+00         0.15882E+07
 
    0.10995E+07         0.21513E+07         0.00000E+00
    0.21513E+07         0.68907E+07         0.00000E+00
    0.00000E+00         0.00000E+00         0.15980E+07
 
    0.11619E+07         0.25145E+07         0.00000E+00
    0.25145E+07         0.68924E+07         0.00000E+00
    0.00000E+00         0.00000E+00         0.16109E+07
 
    0.12585E+07         0.29041E+07         0.00000E+00
    0.29041E+07         0.68756E+07         0.00000E+00
    0.00000E+00         0.00000E+00         0.16268E+07
 
    0.13944E+07         0.33208E+07         0.00000E+00
    0.33208E+07         0.68368E+07         0.00000E+00
    0.00000E+00         0.00000E+00         0.16462E+07
 
    0.15787E+07         0.37677E+07         0.00000E+00
    0.37677E+07         0.67747E+07         0.00000E+00
    0.00000E+00         0.00000E+00         0.16707E+07
 
   -0.30477E+06        -0.11153E+06         0.00000E+00
   -0.11153E+06         0.25162E+07         0.00000E+00
    0.00000E+00         0.00000E+00         0.44228E+06
 
    0.77149E+05        -0.32761E+06         0.00000E+00
   -0.32761E+06         0.25451E+07         0.00000E+00
    0.00000E+00         0.00000E+00         0.52444E+06
 
    0.39484E+06        -0.53839E+06         0.00000E+00
   -0.53839E+06         0.26011E+07         0.00000E+00
    0.00000E+00         0.00000E+00         0.59919E+06
 
    0.65271E+06        -0.73712E+06         0.00000E+00
   -0.73712E+06         0.26758E+07         0.00000E+00
    0.00000E+00         0.00000E+00         0.66570E+06
 
    0.85806E+06        -0.92106E+06         0.00000E+00
   -0.92106E+06         0.27645E+07         0.00000E+00
    0.00000E+00         0.00000E+00         0.72451E+06
 
    0.10177E+07        -0.10887E+07         0.00000E+00
   -0.10887E+07         0.28638E+07         0.00000E+00
    0.00000E+00         0.00000E+00         0.77630E+06
 
    0.11377E+07        -0.12393E+07         0.00000E+00
   -0.12393E+07         0.29707E+07         0.00000E+00
    0.00000E+00         0.00000E+00         0.82169E+06
 
    0.12233E+07        -0.13726E+07         0.00000E+00
   -0.13726E+07         0.30827E+07         0.00000E+00
    0.00000E+00         0.00000E+00         0.86120E+06
 
    0.12791E+07        -0.14883E+07         0.00000E+00
   -0.14883E+07         0.31981E+07         0.00000E+00
    0.00000E+00         0.00000E+00         0.89544E+06
 
    0.13093E+07        -0.15864E+07         0.00000E+00
   -0.15864E+07         0.33147E+07         0.00000E+00
    0.00000E+00         0.00000E+00         0.92480E+06
 
    0.13179E+07        -0.16675E+07         0.00000E+00
   -0.16675E+07         0.34308E+07         0.00000E+00
    0.00000E+00         0.00000E+00         0.94974E+06
 
    0.13084E+07        -0.17321E+07         0.00000E+00
   -0.17321E+07         0.35453E+07         0.00000E+00
    0.00000E+00         0.00000E+00         0.97073E+06
 
    0.12838E+07        -0.17809E+07         0.00000E+00
   -0.17809E+07         0.36571E+07         0.00000E+00
    0.00000E+00         0.00000E+00         0.98819E+06
 
    0.12469E+07        -0.18149E+07         0.00000E+00
   -0.18149E+07         0.37656E+07         0.00000E+00
    0.00000E+00         0.00000E+00         0.10025E+07
 
    0.12001E+07        -0.18349E+07         0.00000E+00
   -0.18349E+07         0.38700E+07         0.00000E+00
    0.00000E+00         0.00000E+00         0.10140E+07
 
    0.11454E+07        -0.18418E+07         0.00000E+00
   -0.18418E+07         0.39701E+07         0.00000E+00
    0.00000E+00         0.00000E+00         0.10231E+07
 
    0.10846E+07        -0.18365E+07         0.00000E+00
   -0.18365E+07         0.40655E+07         0.00000E+00
    0.00000E+00         0.00000E+00         0.10300E+07
 
    0.10194E+07        -0.18199E+07         0.00000E+00
   -0.18199E+07         0.41563E+07         0.00000E+00
    0.00000E+00         0.00000E+00         0.10351E+07
 
    0.95087E+06        -0.17929E+07         0.00000E+00
   -0.17929E+07         0.42423E+07         0.00000E+00
    0.00000E+00         0.00000E+00         0.10386E+07
 
    0.88023E+06        -0.17563E+07         0.00000E+00
   -0.17563E+07         0.43238E+07         0.00000E+00
    0.00000E+00         0.00000E+00         0.10408E+07
 
    0.80834E+06        -0.17107E+07         0.00000E+00
   -0.17107E+07         0.44009E+07         0.00000E+00
    0.00000E+00         0.00000E+00         0.10419E+07
 
    0.73595E+06        -0.16569E+07         0.00000E+00
   -0.16569E+07         0.44740E+07         0.00000E+00
    0.00000E+00         0.00000E+00         0.10420E+07
 
    0.66366E+06        -0.15953E+07         0.00000E+00
   -0.15953E+07         0.45432E+07         0.00000E+00
    0.00000E+00         0.00000E+00         0.10414E+07
 
    0.59200E+06        -0.15264E+07         0.00000E+00
   -0.15264E+07         0.46089E+07         0.00000E+00
    0.00000E+00         0.00000E+00         0.10402E+07
 
    0.52139E+06        -0.14505E+07         0.00000E+00
   -0.14505E+07         0.46715E+07         0.00000E+00
    0.00000E+00         0.00000E+00         0.10386E+07
 
    0.45220E+06        -0.13679E+07         0.00000E+00
   -0.13679E+07         0.47312E+07         0.00000E+00
    0.00000E+00         0.00000E+00         0.10367E+07
 
    0.38477E+06        -0.12788E+07         0.00000E+00
   -0.12788E+07         0.47884E+07         0.00000E+00
    0.00000E+00         0.00000E+00         0.10346E+07
 
    0.31943E+06        -0.11831E+07         0.00000E+00
   -0.11831E+07         0.48434E+07         0.00000E+00
    0.00000E+00         0.00000E+00         0.10326E+07
 
    0.25649E+06        -0.10810E+07         0.00000E+00
   -0.10810E+07         0.48964E+07         0.00000E+00
    0.00000E+00         0.00000E+00         0.10306E+07
 
    0.19631E+06        -0.97215E+06         0.00000E+00
   -0.97215E+06         0.49477E+07         0.00000E+00
    0.00000E+00         0.00000E+00         0.10288E+07
 
    0.13927E+06        -0.85651E+06         0.00000E+00
   -0.85651E+06         0.49974E+07         0.00000E+00
    0.00000E+00         0.00000E+00         0.10273E+07
 
    0.85812E+05        -0.73376E+06         0.00000E+00
   -0.73376E+06         0.50456E+07         0.00000E+00
    0.00000E+00         0.00000E+00         0.10263E+07
 
    0.36455E+05        -0.60353E+06         0.00000E+00
   -0.60353E+06         0.50925E+07         0.00000E+00
    0.00000E+00         0.00000E+00         0.10258E+07
 
   -0.81830E+04        -0.46541E+06         0.00000E+00
   -0.46541E+06         0.51379E+07         0.00000E+00
    0.00000E+00         0.00000E+00         0.10260E+07
 
   -0.47368E+05        -0.31889E+06         0.00000E+00
   -0.31889E+06         0.51819E+07         0.00000E+00
    0.00000E+00         0.00000E+00         0.10269E+07
 
   -0.80223E+05        -0.16342E+06         0.00000E+00
   -0.16342E+06         0.52241E+07         0.00000E+00
    0.00000E+00         0.00000E+00         0.10288E+07
 
   -0.10571E+06         0.15961E+04         0.00000E+00
    0.15961E+04         0.52643E+07         0.00000E+00
    0.00000E+00         0.00000E+00         0.10317E+07
 
   -0.12260E+06         0.17679E+06         0.00000E+00
    0.17679E+06         0.53019E+07         0.00000E+00
    0.00000E+00         0.00000E+00         0.10359E+07
 
   -0.12947E+06         0.36280E+06         0.00000E+00
    0.36280E+06         0.53363E+07         0.00000E+00
    0.00000E+00         0.00000E+00         0.10414E+07
 
   -0.12463E+06         0.56025E+06         0.00000E+00
    0.56025E+06         0.53668E+07         0.00000E+00
    0.00000E+00         0.00000E+00         0.10484E+07
 
   -0.10620E+06         0.76974E+06         0.00000E+00
    0.76974E+06         0.53921E+07         0.00000E+00
    0.00000E+00         0.00000E+00         0.10572E+07
 
   -0.71986E+05         0.99176E+06         0.00000E+00
    0.99176E+06         0.54112E+07         0.00000E+00
    0.00000E+00         0.00000E+00         0.10678E+07
 
   -0.19577E+05         0.12267E+07         0.00000E+00
    0.12267E+07         0.54225E+07         0.00000E+00
    0.00000E+00         0.00000E+00         0.10806E+07
 
    0.53707E+05         0.14748E+07         0.00000E+00
    0.14748E+07         0.54241E+07         0.00000E+00
    0.00000E+00         0.00000E+00         0.10956E+07
 
    0.15078E+06         0.17360E+07         0.00000E+00
    0.17360E+07         0.54143E+07         0.00000E+00
    0.00000E+00         0.00000E+00         0.11130E+07
 
    0.27482E+06         0.20103E+07         0.00000E+00
    0.20103E+07         0.53906E+07         0.00000E+00
    0.00000E+00         0.00000E+00         0.11331E+07
 
    0.42929E+06         0.22973E+07         0.00000E+00
    0.22973E+07         0.53508E+07         0.00000E+00
    0.00000E+00         0.00000E+00         0.11560E+07
 
    0.61807E+06         0.25964E+07         0.00000E+00
    0.25964E+07         0.52921E+07         0.00000E+00
    0.00000E+00         0.00000E+00         0.11820E+07
 
    0.84547E+06         0.29067E+07         0.00000E+00
    0.29067E+07         0.52115E+07         0.00000E+00
    0.00000E+00         0.00000E+00         0.12114E+07
 
    0.11151E+07         0.32257E+07         0.00000E+00
    0.32257E+07         0.51043E+07         0.00000E+00
    0.00000E+00         0.00000E+00         0.12439E+07
 
   -0.20623E+07        -0.46293E+05         0.00000E+00
   -0.46293E+05         0.15868E+07         0.00000E+00
    0.00000E+00         0.00000E+00        -0.95101E+05
 
   -0.16933E+07        -0.16871E+06         0.00000E+00
   -0.16871E+06         0.16064E+07         0.00000E+00
    0.00000E+00         0.00000E+00        -0.17369E+05
 
   -0.13731E+07        -0.29583E+06         0.00000E+00
   -0.29583E+06         0.16400E+07         0.00000E+00
    0.00000E+00         0.00000E+00         0.53390E+05
 
   -0.10976E+07        -0.42459E+06         0.00000E+00
   -0.42459E+06         0.16872E+07         0.00000E+00
    0.00000E+00         0.00000E+00         0.11793E+06
 
   -0.86349E+06        -0.55160E+06         0.00000E+00
   -0.55160E+06         0.17462E+07         0.00000E+00
    0.00000E+00         0.00000E+00         0.17654E+06
 
   -0.66744E+06        -0.67407E+06         0.00000E+00
   -0.67407E+06         0.18151E+07         0.00000E+00
    0.00000E+00         0.00000E+00         0.22954E+06
 
   -0.50595E+06        -0.78989E+06         0.00000E+00
   -0.78989E+06         0.18922E+07         0.00000E+00
    0.00000E+00         0.00000E+00         0.27725E+06
 
   -0.37561E+06        -0.89738E+06         0.00000E+00
   -0.89738E+06         0.19758E+07         0.00000E+00
    0.00000E+00         0.00000E+00         0.32004E+06
 
   -0.27313E+06        -0.99542E+06         0.00000E+00
   -0.99542E+06         0.20644E+07         0.00000E+00
    0.00000E+00         0.00000E+00         0.35825E+06
 
   -0.19544E+06        -0.10832E+07         0.00000E+00
   -0.10832E+07         0.21567E+07         0.00000E+00
    0.00000E+00         0.00000E+00         0.39224E+06
 
   -0.13969E+06        -0.11602E+07         0.00000E+00
   -0.11602E+07         0.22515E+07         0.00000E+00
    0.00000E+00         0.00000E+00         0.42236E+06
 
   -0.10320E+06        -0.12260E+07         0.00000E+00
   -0.12260E+07         0.23478E+07         0.00000E+00
    0.00000E+00         0.00000E+00         0.44892E+06
 
   -0.83480E+05        -0.12806E+07         0.00000E+00
   -0.12806E+07         0.24446E+07         0.00000E+00
    0.00000E+00         0.00000E+00         0.47223E+06
 
   -0.78248E+05        -0.13240E+07         0.00000E+00
   -0.13240E+07         0.25412E+07         0.00000E+00
    0.00000E+00         0.00000E+00         0.49259E+06
 
   -0.85414E+05        -0.13564E+07         0.00000E+00
   -0.13564E+07         0.26369E+07         0.00000E+00
    0.00000E+00         0.00000E+00         0.51030E+06
 
   -0.10307E+06        -0.13779E+07         0.00000E+00
   -0.13779E+07         0.27312E+07         0.00000E+00
    0.00000E+00         0.00000E+00         0.52563E+06
 
   -0.12951E+06        -0.13889E+07         0.00000E+00
   -0.13889E+07         0.28236E+07         0.00000E+00
    0.00000E+00         0.00000E+00         0.53882E+06
 
   -0.16315E+06        -0.13899E+07         0.00000E+00
   -0.13899E+07         0.29138E+07         0.00000E+00
    0.00000E+00         0.00000E+00         0.55014E+06
 
   -0.20261E+06        -0.13811E+07         0.00000E+00
   -0.13811E+07         0.30016E+07         0.00000E+00
    0.00000E+00         0.00000E+00         0.55979E+06
 
   -0.24662E+06        -0.13629E+07         0.00000E+00
   -0.13629E+07         0.30867E+07         0.00000E+00
    0.00000E+00         0.00000E+00         0.56801E+06
 
   -0.29405E+06        -0.13358E+07         0.00000E+00
   -0.13358E+07         0.31690E+07         0.00000E+00
    0.00000E+00         0.00000E+00         0.57498E+06
 
   -0.34388E+06        -0.13000E+07         0.00000E+00
   -0.13000E+07         0.32484E+07         0.00000E+00
    0.00000E+00         0.00000E+00         0.58091E+06
 
   -0.39519E+06        -0.12561E+07         0.00000E+00
   -0.12561E+07         0.33250E+07         0.00000E+00
    0.00000E+00         0.00000E+00         0.58595E+06
 
   -0.44716E+06        -0.12041E+07         0.00000E+00
   -0.12041E+07         0.33986E+07         0.00000E+00
    0.00000E+00         0.00000E+00         0.59030E+06
 
   -0.49901E+06        -0.11445E+07         0.00000E+00
   -0.11445E+07         0.34694E+07         0.00000E+00
    0.00000E+00         0.00000E+00         0.59408E+06
 
   -0.55004E+06        -0.10775E+07         0.00000E+00
   -0.10775E+07         0.35374E+07         0.00000E+00
    0.00000E+00         0.00000E+00         0.59747E+06
 
   -0.59956E+06        -0.10032E+07         0.00000E+00
   -0.10032E+07         0.36025E+07         0.00000E+00
    0.00000E+00         0.00000E+00         0.60059E+06
 
   -0.64694E+06        -0.92178E+06         0.00000E+00
   -0.92178E+06         0.36648E+07         0.00000E+00
    0.00000E+00         0.00000E+00         0.60358E+06
 
   -0.69152E+06        -0.83333E+06         0.00000E+00
   -0.83333E+06         0.37244E+07         0.00000E+00
    0.00000E+00         0.00000E+00         0.60657E+06
 
   -0.73264E+06        -0.73790E+06         0.00000E+00
   -0.73790E+06         0.37811E+07         0.00000E+00
    0.00000E+00         0.00000E+00         0.60969E+06
 
   -0.76964E+06        -0.63550E+06         0.00000E+00
   -0.63550E+06         0.38349E+07         0.00000E+00
    0.00000E+00         0.00000E+00         0.61306E+06
 
   -0.80180E+06        -0.52611E+06         0.00000E+00
   -0.52611E+06         0.38858E+07         0.00000E+00
    0.00000E+00         0.00000E+00         0.61680E+06
 
   -0.82836E+06        -0.40969E+06         0.00000E+00
   -0.40969E+06         0.39336E+07         0.00000E+00
    0.00000E+00         0.00000E+00         0.62105E+06
 
   -0.84850E+06        -0.28615E+06         0.00000E+00
   -0.28615E+06         0.39781E+07         0.00000E+00
    0.00000E+00         0.00000E+00         0.62592E+06
 
   -0.86132E+06        -0.15541E+06         0.00000E+00
   -0.15541E+06         0.40190E+07         0.00000E+00
    0.00000E+00         0.00000E+00         0.63153E+06
 
   -0.86583E+06        -0.17395E+05         0.00000E+00
   -0.17395E+05         0.40559E+07         0.00000E+00
    0.00000E+00         0.00000E+00         0.63802E+06
 
   -0.86095E+06         0.12798E+06         0.00000E+00
    0.12798E+06         0.40885E+07         0.00000E+00
    0.00000E+00         0.00000E+00         0.64552E+06
 
   -0.84549E+06         0.28076E+06         0.00000E+00
    0.28076E+06         0.41162E+07         0.00000E+00
    0.00000E+00         0.00000E+00         0.65415E+06
 
   -0.81812E+06         0.44094E+06         0.00000E+00
    0.44094E+06         0.41384E+07         0.00000E+00
    0.00000E+00         0.00000E+00         0.66406E+06
 
   -0.77744E+06         0.60848E+06         0.00000E+00
    0.60848E+06         0.41543E+07         0.00000E+00
    0.00000E+00         0.00000E+00         0.67537E+06
 
   -0.72188E+06         0.78322E+06         0.00000E+00
    0.78322E+06         0.41631E+07         0.00000E+00
    0.00000E+00         0.00000E+00         0.68824E+06
 
   -0.64977E+06         0.96492E+06         0.00000E+00
    0.96492E+06         0.41637E+07         0.00000E+00
    0.00000E+00         0.00000E+00         0.70278E+06
 
   -0.55931E+06         0.11532E+07         0.00000E+00
    0.11532E+07         0.41551E+07         0.00000E+00
    0.00000E+00         0.00000E+00         0.71915E+06
 
   -0.44855E+06         0.13476E+07         0.00000E+00
    0.13476E+07         0.41360E+07         0.00000E+00
    0.00000E+00         0.00000E+00         0.73749E+06
 
   -0.31545E+06         0.15473E+07         0.00000E+00
    0.15473E+07         0.41051E+07         0.00000E+00
    0.00000E+00         0.00000E+00         0.75793E+06
 
   -0.15781E+06         0.17516E+07         0.00000E+00
    0.17516E+07         0.40609E+07         0.00000E+00
    0.00000E+00         0.00000E+00         0.78061E+06
 
    0.26659E+05         0.19591E+07         0.00000E+00
    0.19591E+07         0.40017E+07         0.00000E+00
    0.00000E+00         0.00000E+00         0.80567E+06
 
    0.24031E+06         0.21685E+07         0.00000E+00
    0.21685E+07         0.39258E+07         0.00000E+00
    0.00000E+00         0.00000E+00         0.83321E+06
 
    0.48548E+06         0.23780E+07         0.00000E+00
    0.23780E+07         0.38311E+07         0.00000E+00
    0.00000E+00         0.00000E+00         0.86333E+06
 
    0.76483E+06         0.25858E+07         0.00000E+00
    0.25858E+07         0.37163E+07         0.00000E+00
    0.00000E+00         0.00000E+00         0.89622E+06
 
   -0.28201E+07        -0.71220E+04         0.00000E+00
   -0.71220E+04         0.12217E+07         0.00000E+00
    0.00000E+00         0.00000E+00        -0.31969E+06
 
   -0.25084E+07        -0.57890E+05         0.00000E+00
   -0.57890E+05         0.12288E+07         0.00000E+00
    0.00000E+00         0.00000E+00        -0.25594E+06
 
   -0.22281E+07        -0.11957E+06         0.00000E+00
   -0.11957E+06         0.12439E+07         0.00000E+00
    0.00000E+00         0.00000E+00        -0.19685E+06
 
   -0.19785E+07        -0.18860E+06         0.00000E+00
   -0.18860E+06         0.12666E+07         0.00000E+00
    0.00000E+00         0.00000E+00        -0.14237E+06
 
   -0.17582E+07        -0.26218E+06         0.00000E+00
   -0.26218E+06         0.12968E+07         0.00000E+00
    0.00000E+00         0.00000E+00        -0.92284E+05
 
   -0.15658E+07        -0.33786E+06         0.00000E+00
   -0.33786E+06         0.13339E+07         0.00000E+00
    0.00000E+00         0.00000E+00        -0.46372E+05
 
   -0.13997E+07        -0.41352E+06         0.00000E+00
   -0.41352E+06         0.13776E+07         0.00000E+00
    0.00000E+00         0.00000E+00        -0.44201E+04
 
   -0.12581E+07        -0.48738E+06         0.00000E+00
   -0.48738E+06         0.14271E+07         0.00000E+00
    0.00000E+00         0.00000E+00         0.33790E+05
 
   -0.11392E+07        -0.55794E+06         0.00000E+00
   -0.55794E+06         0.14817E+07         0.00000E+00
    0.00000E+00         0.00000E+00         0.68485E+05
 
   -0.10412E+07        -0.62396E+06         0.00000E+00
   -0.62396E+06         0.15406E+07         0.00000E+00
    0.00000E+00         0.00000E+00         0.99885E+05
 
   -0.96224E+06        -0.68447E+06         0.00000E+00
   -0.68447E+06         0.16033E+07         0.00000E+00
    0.00000E+00         0.00000E+00         0.12822E+06
 
   -0.90048E+06        -0.73870E+06         0.00000E+00
   -0.73870E+06         0.16690E+07         0.00000E+00
    0.00000E+00         0.00000E+00         0.15371E+06
 
   -0.85422E+06        -0.78606E+06         0.00000E+00
   -0.78606E+06         0.17371E+07         0.00000E+00
    0.00000E+00         0.00000E+00         0.17658E+06
 
   -0.82176E+06        -0.82611E+06         0.00000E+00
   -0.82611E+06         0.18069E+07         0.00000E+00
    0.00000E+00         0.00000E+00         0.19703E+06
 
   -0.80152E+06        -0.85856E+06         0.00000E+00
   -0.85856E+06         0.18780E+07         0.00000E+00
    0.00000E+00         0.00000E+00         0.21529E+06
 
   -0.79198E+06        -0.88321E+06         0.00000E+00
   -0.88321E+06         0.19497E+07         0.00000E+00
    0.00000E+00         0.00000E+00         0.23154E+06
 
   -0.79170E+06        -0.89997E+06         0.00000E+00
   -0.89997E+06         0.20217E+07         0.00000E+00
    0.00000E+00         0.00000E+00         0.24599E+06
 
   -0.79935E+06        -0.90880E+06         0.00000E+00
   -0.90880E+06         0.20935E+07         0.00000E+00
    0.00000E+00         0.00000E+00         0.25882E+06
 
   -0.81366E+06        -0.90974E+06         0.00000E+00
   -0.90974E+06         0.21647E+07         0.00000E+00
    0.00000E+00         0.00000E+00         0.27021E+06
 
   -0.83346E+06        -0.90287E+06         0.00000E+00
   -0.90287E+06         0.22350E+07         0.00000E+00
    0.00000E+00         0.00000E+00         0.28032E+06
 
   -0.85764E+06        -0.88831E+06         0.00000E+00
   -0.88831E+06         0.23042E+07         0.00000E+00
    0.00000E+00         0.00000E+00         0.28932E+06
 
   -0.88518E+06        -0.86618E+06         0.00000E+00
   -0.86618E+06         0.23720E+07         0.00000E+00
    0.00000E+00         0.00000E+00         0.29736E+06
 
   -0.91511E+06        -0.83665E+06         0.00000E+00
   -0.83665E+06         0.24381E+07         0.00000E+00
    0.00000E+00         0.00000E+00         0.30460E+06
 
   -0.94652E+06        -0.79988E+06         0.00000E+00
   -0.79988E+06         0.25023E+07         0.00000E+00
    0.00000E+00         0.00000E+00         0.31116E+06
 
   -0.97854E+06        -0.75603E+06         0.00000E+00
   -0.75603E+06         0.25645E+07         0.00000E+00
    0.00000E+00         0.00000E+00         0.31720E+06
 
   -0.10104E+07        -0.70526E+06         0.00000E+00
   -0.70526E+06         0.26245E+07         0.00000E+00
    0.00000E+00         0.00000E+00         0.32282E+06
 
   -0.10412E+07        -0.64773E+06         0.00000E+00
   -0.64773E+06         0.26820E+07         0.00000E+00
    0.00000E+00         0.00000E+00         0.32816E+06
 
   -0.10702E+07        -0.58360E+06         0.00000E+00
   -0.58360E+06         0.27369E+07         0.00000E+00
    0.00000E+00         0.00000E+00         0.33334E+06
 
   -0.10967E+07        -0.51301E+06         0.00000E+00
   -0.51301E+06         0.27890E+07         0.00000E+00
    0.00000E+00         0.00000E+00         0.33847E+06
 
   -0.11199E+07        -0.43612E+06         0.00000E+00
   -0.43612E+06         0.28382E+07         0.00000E+00
    0.00000E+00         0.00000E+00         0.34366E+06
 
   -0.11390E+07        -0.35306E+06         0.00000E+00
   -0.35306E+06         0.28842E+07         0.00000E+00
    0.00000E+00         0.00000E+00         0.34904E+06
 
   -0.11533E+07        -0.26398E+06         0.00000E+00
   -0.26398E+06         0.29267E+07         0.00000E+00
    0.00000E+00         0.00000E+00         0.35469E+06
 
   -0.11619E+07        -0.16903E+06         0.00000E+00
   -0.16903E+06         0.29656E+07         0.00000E+00
    0.00000E+00         0.00000E+00         0.36073E+06
 
   -0.11641E+07        -0.68370E+05         0.00000E+00
   -0.68370E+05         0.30005E+07         0.00000E+00
    0.00000E+00         0.00000E+00         0.36728E+06
 
   -0.11590E+07         0.37810E+05         0.00000E+00
    0.37810E+05         0.30311E+07         0.00000E+00
    0.00000E+00         0.00000E+00         0.37442E+06
 
   -0.11456E+07         0.14930E+06         0.00000E+00
    0.14930E+06         0.30570E+07         0.00000E+00
    0.00000E+00         0.00000E+00         0.38228E+06
 
   -0.11231E+07         0.26586E+06         0.00000E+00
    0.26586E+06         0.30779E+07         0.00000E+00
    0.00000E+00         0.00000E+00         0.39095E+06
 
   -0.10905E+07         0.38718E+06         0.00000E+00
    0.38718E+06         0.30932E+07         0.00000E+00
    0.00000E+00         0.00000E+00         0.40053E+06
 
   -0.10467E+07         0.51292E+06         0.00000E+00
    0.51292E+06         0.31024E+07         0.00000E+00
    0.00000E+00         0.00000E+00         0.41115E+06
 
   -0.99058E+06         0.64264E+06         0.00000E+00
    0.64264E+06         0.31050E+07         0.00000E+00
    0.00000E+00         0.00000E+00         0.42289E+06
 
   -0.92109E+06         0.77582E+06         0.00000E+00
    0.77582E+06         0.31004E+07         0.00000E+00
    0.00000E+00         0.00000E+00         0.43586E+06
 
   -0.83703E+06         0.91186E+06         0.00000E+00
    0.91186E+06         0.30879E+07         0.00000E+00
    0.00000E+00         0.00000E+00         0.45017E+06
 
   -0.73718E+06         0.10500E+07         0.00000E+00
    0.10500E+07         0.30667E+07         0.00000E+00
    0.00000E+00         0.00000E+00         0.46591E+06
 
   -0.62029E+06         0.11894E+07         0.00000E+00
    0.11894E+07         0.30362E+07         0.00000E+00
    0.00000E+00         0.00000E+00         0.48319E+06
 
   -0.48511E+06         0.13291E+07         0.00000E+00
    0.13291E+07         0.29956E+07         0.00000E+00
    0.00000E+00         0.00000E+00         0.50209E+06
 
   -0.33034E+06         0.14677E+07         0.00000E+00
    0.14677E+07         0.29439E+07         0.00000E+00
    0.00000E+00         0.00000E+00         0.52271E+06
 
   -0.15472E+06         0.16040E+07         0.00000E+00
    0.16040E+07         0.28804E+07         0.00000E+00
    0.00000E+00         0.00000E+00         0.54513E+06
 
    0.43000E+05         0.17363E+07         0.00000E+00
    0.17363E+07         0.28041E+07         0.00000E+00
    0.00000E+00         0.00000E+00         0.56942E+06
 
    0.26406E+06         0.18629E+07         0.00000E+00
    0.18629E+07         0.27144E+07         0.00000E+00
    0.00000E+00         0.00000E+00         0.59568E+06
 
    0.50957E+06         0.19815E+07         0.00000E+00
    0.19815E+07         0.26101E+07         0.00000E+00
    0.00000E+00         0.00000E+00         0.62394E+06
 
   -0.30016E+07         0.14801E+05         0.00000E+00
    0.14801E+05         0.11345E+07         0.00000E+00
    0.00000E+00         0.00000E+00        -0.37343E+06
 
   -0.27544E+07         0.11475E+05         0.00000E+00
    0.11475E+05         0.11349E+07         0.00000E+00
    0.00000E+00         0.00000E+00        -0.32391E+06
 
   -0.25263E+07        -0.28600E+04         0.00000E+00
   -0.28600E+04         0.11373E+07         0.00000E+00
    0.00000E+00         0.00000E+00        -0.27779E+06
 
   -0.23174E+07        -0.26136E+05         0.00000E+00
   -0.26136E+05         0.11427E+07         0.00000E+00
    0.00000E+00         0.00000E+00        -0.23493E+06
 
   -0.21277E+07        -0.56320E+05         0.00000E+00
   -0.56320E+05         0.11517E+07         0.00000E+00
    0.00000E+00         0.00000E+00        -0.19521E+06
 
   -0.19570E+07        -0.91557E+05         0.00000E+00
   -0.91557E+05         0.11645E+07         0.00000E+00
    0.00000E+00         0.00000E+00        -0.15851E+06
 
   -0.18047E+07        -0.13017E+06         0.00000E+00
   -0.13017E+06         0.11814E+07         0.00000E+00
    0.00000E+00         0.00000E+00        -0.12468E+06
 
   -0.16702E+07        -0.17066E+06         0.00000E+00
   -0.17066E+06         0.12022E+07         0.00000E+00
    0.00000E+00         0.00000E+00        -0.93586E+05
 
   -0.15525E+07        -0.21168E+06         0.00000E+00
   -0.21168E+06         0.12271E+07         0.00000E+00
    0.00000E+00         0.00000E+00        -0.65082E+05
 
   -0.14507E+07        -0.25207E+06         0.00000E+00
   -0.25207E+06         0.12556E+07         0.00000E+00
    0.00000E+00         0.00000E+00        -0.39018E+05
 
   -0.13639E+07        -0.29078E+06         0.00000E+00
   -0.29078E+06         0.12877E+07         0.00000E+00
    0.00000E+00         0.00000E+00        -0.15246E+05
 
   -0.12909E+07        -0.32696E+06         0.00000E+00
   -0.32696E+06         0.13229E+07         0.00000E+00
    0.00000E+00         0.00000E+00         0.63863E+04
 
   -0.12308E+07        -0.35984E+06         0.00000E+00
   -0.35984E+06         0.13609E+07         0.00000E+00
    0.00000E+00         0.00000E+00         0.26027E+05
 
   -0.11823E+07        -0.38882E+06         0.00000E+00
   -0.38882E+06         0.14014E+07         0.00000E+00
    0.00000E+00         0.00000E+00         0.43825E+05
 
   -0.11444E+07        -0.41337E+06         0.00000E+00
   -0.41337E+06         0.14440E+07         0.00000E+00
    0.00000E+00         0.00000E+00         0.59925E+05
 
   -0.11160E+07        -0.43310E+06         0.00000E+00
   -0.43310E+06         0.14884E+07         0.00000E+00
    0.00000E+00         0.00000E+00         0.74471E+05
 
   -0.10961E+07        -0.44765E+06         0.00000E+00
   -0.44765E+06         0.15341E+07         0.00000E+00
    0.00000E+00         0.00000E+00         0.87600E+05
 
   -0.10836E+07        -0.45681E+06         0.00000E+00
   -0.45681E+06         0.15808E+07         0.00000E+00
    0.00000E+00         0.00000E+00         0.99448E+05
 
   -0.10775E+07        -0.46037E+06         0.00000E+00
   -0.46037E+06         0.16282E+07         0.00000E+00
    0.00000E+00         0.00000E+00         0.11014E+06
 
   -0.10768E+07        -0.45822E+06         0.00000E+00
   -0.45822E+06         0.16759E+07         0.00000E+00
    0.00000E+00         0.00000E+00         0.11982E+06
 
   -0.10806E+07        -0.45028E+06         0.00000E+00
   -0.45028E+06         0.17236E+07         0.00000E+00
    0.00000E+00         0.00000E+00         0.12859E+06
 
   -0.10881E+07        -0.43654E+06         0.00000E+00
   -0.43654E+06         0.17709E+07         0.00000E+00
    0.00000E+00         0.00000E+00         0.13657E+06
 
   -0.10982E+07        -0.41699E+06         0.00000E+00
   -0.41699E+06         0.18176E+07         0.00000E+00
    0.00000E+00         0.00000E+00         0.14388E+06
 
   -0.11103E+07        -0.39167E+06         0.00000E+00
   -0.39167E+06         0.18634E+07         0.00000E+00
    0.00000E+00         0.00000E+00         0.15062E+06
 
   -0.11235E+07        -0.36067E+06         0.00000E+00
   -0.36067E+06         0.19080E+07         0.00000E+00
    0.00000E+00         0.00000E+00         0.15691E+06
 
   -0.11370E+07        -0.32406E+06         0.00000E+00
   -0.32406E+06         0.19512E+07         0.00000E+00
    0.00000E+00         0.00000E+00         0.16283E+06
 
   -0.11500E+07        -0.28196E+06         0.00000E+00
   -0.28196E+06         0.19925E+07         0.00000E+00
    0.00000E+00         0.00000E+00         0.16850E+06
 
   -0.11619E+07        -0.23451E+06         0.00000E+00
   -0.23451E+06         0.20319E+07         0.00000E+00
    0.00000E+00         0.00000E+00         0.17399E+06
 
   -0.11719E+07        -0.18186E+06         0.00000E+00
   -0.18186E+06         0.20689E+07         0.00000E+00
    0.00000E+00         0.00000E+00         0.17941E+06
 
   -0.11792E+07        -0.12419E+06         0.00000E+00
   -0.12419E+06         0.21034E+07         0.00000E+00
    0.00000E+00         0.00000E+00         0.18484E+06
 
   -0.11831E+07        -0.61692E+05         0.00000E+00
   -0.61692E+05         0.21350E+07         0.00000E+00
    0.00000E+00         0.00000E+00         0.19037E+06
 
   -0.11830E+07         0.54151E+04         0.00000E+00
    0.54151E+04         0.21634E+07         0.00000E+00
    0.00000E+00         0.00000E+00         0.19608E+06
 
   -0.11782E+07         0.76886E+05         0.00000E+00
    0.76886E+05         0.21885E+07         0.00000E+00
    0.00000E+00         0.00000E+00         0.20206E+06
 
   -0.11678E+07         0.15244E+06         0.00000E+00
    0.15244E+06         0.22098E+07         0.00000E+00
    0.00000E+00         0.00000E+00         0.20839E+06
 
   -0.11512E+07         0.23178E+06         0.00000E+00
    0.23178E+06         0.22270E+07         0.00000E+00
    0.00000E+00         0.00000E+00         0.21515E+06
 
   -0.11278E+07         0.31455E+06         0.00000E+00
    0.31455E+06         0.22399E+07         0.00000E+00
    0.00000E+00         0.00000E+00         0.22242E+06
 
   -0.10966E+07         0.40035E+06         0.00000E+00
    0.40035E+06         0.22480E+07         0.00000E+00
    0.00000E+00         0.00000E+00         0.23028E+06
 
   -0.10571E+07         0.48874E+06         0.00000E+00
    0.48874E+06         0.22511E+07         0.00000E+00
    0.00000E+00         0.00000E+00         0.23881E+06
 
   -0.10084E+07         0.57921E+06         0.00000E+00
    0.57921E+06         0.22488E+07         0.00000E+00
    0.00000E+00         0.00000E+00         0.24808E+06
 
   -0.94987E+06         0.67118E+06         0.00000E+00
    0.67118E+06         0.22407E+07         0.00000E+00
    0.00000E+00         0.00000E+00         0.25816E+06
 
   -0.88070E+06         0.76402E+06         0.00000E+00
    0.76402E+06         0.22264E+07         0.00000E+00
    0.00000E+00         0.00000E+00         0.26914E+06
 
   -0.80019E+06         0.85698E+06         0.00000E+00
    0.85698E+06         0.22056E+07         0.00000E+00
    0.00000E+00         0.00000E+00         0.28107E+06
 
   -0.70763E+06         0.94924E+06         0.00000E+00
    0.94924E+06         0.21778E+07         0.00000E+00
    0.00000E+00         0.00000E+00         0.29404E+06
 
   -0.60231E+06         0.10399E+07         0.00000E+00
    0.10399E+07         0.21428E+07         0.00000E+00
    0.00000E+00         0.00000E+00         0.30810E+06
 
   -0.48361E+06         0.11278E+07         0.00000E+00
    0.11278E+07         0.21002E+07         0.00000E+00
    0.00000E+00         0.00000E+00         0.32332E+06
 
   -0.35090E+06         0.12119E+07         0.00000E+00
    0.12119E+07         0.20497E+07         0.00000E+00
    0.00000E+00         0.00000E+00         0.33975E+06
 
   -0.20365E+06         0.12909E+07         0.00000E+00
    0.12909E+07         0.19909E+07         0.00000E+00
    0.00000E+00         0.00000E+00         0.35746E+06
 
   -0.41410E+05         0.13632E+07         0.00000E+00
    0.13632E+07         0.19238E+07         0.00000E+00
    0.00000E+00         0.00000E+00         0.37647E+06
 
    0.13618E+06         0.14274E+07         0.00000E+00
    0.14274E+07         0.18481E+07         0.00000E+00
    0.00000E+00         0.00000E+00         0.39685E+06
 
    0.32935E+06         0.14816E+07         0.00000E+00
    0.14816E+07         0.17637E+07         0.00000E+00
    0.00000E+00         0.00000E+00         0.41861E+06
 
   -0.28943E+07         0.26167E+05         0.00000E+00
    0.26167E+05         0.11496E+07         0.00000E+00
    0.00000E+00         0.00000E+00        -0.34893E+06
 
   -0.27034E+07         0.52696E+05         0.00000E+00
    0.52696E+05         0.11465E+07         0.00000E+00
    0.00000E+00         0.00000E+00        -0.31138E+06
 
   -0.25235E+07         0.69735E+05         0.00000E+00
    0.69735E+05         0.11421E+07         0.00000E+00
    0.00000E+00         0.00000E+00        -0.27627E+06
 
   -0.23551E+07         0.78542E+05         0.00000E+00
    0.78542E+05         0.11375E+07         0.00000E+00
    0.00000E+00         0.00000E+00        -0.24352E+06
 
   -0.21988E+07         0.80341E+05         0.00000E+00
    0.80341E+05         0.11335E+07         0.00000E+00
    0.00000E+00         0.00000E+00        -0.21305E+06
 
   -0.20546E+07         0.76330E+05         0.00000E+00
    0.76330E+05         0.11308E+07         0.00000E+00
    0.00000E+00         0.00000E+00        -0.18477E+06
 
   -0.19226E+07         0.67664E+05         0.00000E+00
    0.67664E+05         0.11298E+07         0.00000E+00
    0.00000E+00         0.00000E+00        -0.15857E+06
 
   -0.18027E+07         0.55433E+05         0.00000E+00
    0.55433E+05         0.11309E+07         0.00000E+00
    0.00000E+00         0.00000E+00        -0.13436E+06
 
   -0.16945E+07         0.40658E+05         0.00000E+00
    0.40658E+05         0.11342E+07         0.00000E+00
    0.00000E+00         0.00000E+00        -0.11205E+06
 
   -0.15977E+07         0.24280E+05         0.00000E+00
    0.24280E+05         0.11401E+07         0.00000E+00
    0.00000E+00         0.00000E+00        -0.91527E+05
 
   -0.15118E+07         0.71596E+04         0.00000E+00
    0.71596E+04         0.11484E+07         0.00000E+00
    0.00000E+00         0.00000E+00        -0.72688E+05
 
   -0.14363E+07        -0.99252E+04         0.00000E+00
   -0.99252E+04         0.11592E+07         0.00000E+00
    0.00000E+00         0.00000E+00        -0.55430E+05
 
   -0.13706E+07        -0.26277E+05         0.00000E+00
   -0.26277E+05         0.11724E+07         0.00000E+00
    0.00000E+00         0.00000E+00        -0.39649E+05
 
   -0.13140E+07        -0.41277E+05         0.00000E+00
   -0.41277E+05         0.11878E+07         0.00000E+00
    0.00000E+00         0.00000E+00        -0.25241E+05
 
   -0.12658E+07        -0.54385E+05         0.00000E+00
   -0.54385E+05         0.12053E+07         0.00000E+00
    0.00000E+00         0.00000E+00        -0.12106E+05
 
   -0.12254E+07        -0.65134E+05         0.00000E+00
   -0.65134E+05         0.12247E+07         0.00000E+00
    0.00000E+00         0.00000E+00        -0.14110E+03
 
   -0.11919E+07        -0.73122E+05         0.00000E+00
   -0.73122E+05         0.12457E+07         0.00000E+00
    0.00000E+00         0.00000E+00         0.10751E+05
 
   -0.11648E+07        -0.78016E+05         0.00000E+00
   -0.78016E+05         0.12681E+07         0.00000E+00
    0.00000E+00         0.00000E+00         0.20667E+05
 
   -0.11432E+07        -0.79538E+05         0.00000E+00
   -0.79538E+05         0.12917E+07         0.00000E+00
    0.00000E+00         0.00000E+00         0.29701E+05
 
   -0.11264E+07        -0.77469E+05         0.00000E+00
   -0.77469E+05         0.13161E+07         0.00000E+00
    0.00000E+00         0.00000E+00         0.37943E+05
 
   -0.11137E+07        -0.71639E+05         0.00000E+00
   -0.71639E+05         0.13411E+07         0.00000E+00
    0.00000E+00         0.00000E+00         0.45482E+05
 
   -0.11045E+07        -0.61926E+05         0.00000E+00
   -0.61926E+05         0.13665E+07         0.00000E+00
    0.00000E+00         0.00000E+00         0.52403E+05
 
   -0.10979E+07        -0.48249E+05         0.00000E+00
   -0.48249E+05         0.13919E+07         0.00000E+00
    0.00000E+00         0.00000E+00         0.58789E+05
 
   -0.10934E+07        -0.30570E+05         0.00000E+00
   -0.30570E+05         0.14170E+07         0.00000E+00
    0.00000E+00         0.00000E+00         0.64718E+05
 
   -0.10902E+07        -0.88874E+04         0.00000E+00
   -0.88874E+04         0.14416E+07         0.00000E+00
    0.00000E+00         0.00000E+00         0.70269E+05
 
   -0.10878E+07         0.16765E+05         0.00000E+00
    0.16765E+05         0.14653E+07         0.00000E+00
    0.00000E+00         0.00000E+00         0.75515E+05
 
   -0.10854E+07         0.46321E+05         0.00000E+00
    0.46321E+05         0.14880E+07         0.00000E+00
    0.00000E+00         0.00000E+00         0.80527E+05
 
   -0.10824E+07         0.79681E+05         0.00000E+00
    0.79681E+05         0.15093E+07         0.00000E+00
    0.00000E+00         0.00000E+00         0.85377E+05
 
   -0.10783E+07         0.11671E+06         0.00000E+00
    0.11671E+06         0.15289E+07         0.00000E+00
    0.00000E+00         0.00000E+00         0.90130E+05
 
   -0.10724E+07         0.15726E+06         0.00000E+00
    0.15726E+06         0.15467E+07         0.00000E+00
    0.00000E+00         0.00000E+00         0.94853E+05
 
   -0.10641E+07         0.20112E+06         0.00000E+00
    0.20112E+06         0.15622E+07         0.00000E+00
    0.00000E+00         0.00000E+00         0.99608E+05
 
   -0.10529E+07         0.24808E+06         0.00000E+00
    0.24808E+06         0.15752E+07         0.00000E+00
    0.00000E+00         0.00000E+00         0.10446E+06
 
   -0.10382E+07         0.29786E+06         0.00000E+00
    0.29786E+06         0.15855E+07         0.00000E+00
    0.00000E+00         0.00000E+00         0.10946E+06
 
   -0.10194E+07         0.35018E+06         0.00000E+00
    0.35018E+06         0.15928E+07         0.00000E+00
    0.00000E+00         0.00000E+00         0.11468E+06
 
   -0.99596E+06         0.40471E+06         0.00000E+00
    0.40471E+06         0.15968E+07         0.00000E+00
    0.00000E+00         0.00000E+00         0.12017E+06
 
   -0.96740E+06         0.46106E+06         0.00000E+00
    0.46106E+06         0.15973E+07         0.00000E+00
    0.00000E+00         0.00000E+00         0.12599E+06
 
   -0.93318E+06         0.51882E+06         0.00000E+00
    0.51882E+06         0.15941E+07         0.00000E+00
    0.00000E+00         0.00000E+00         0.13219E+06
 
   -0.89281E+06         0.57753E+06         0.00000E+00
    0.57753E+06         0.15869E+07         0.00000E+00
    0.00000E+00         0.00000E+00         0.13882E+06
 
   -0.84580E+06         0.63667E+06         0.00000E+00
    0.63667E+06         0.15755E+07         0.00000E+00
    0.00000E+00         0.00000E+00         0.14594E+06
 
   -0.79172E+06         0.69568E+06         0.00000E+00
    0.69568E+06         0.15597E+07         0.00000E+00
    0.00000E+00         0.00000E+00         0.15360E+06
 
   -0.73013E+06         0.75392E+06         0.00000E+00
    0.75392E+06         0.15394E+07         0.00000E+00
    0.00000E+00         0.00000E+00         0.16185E+06
 
   -0.66066E+06         0.81071E+06         0.00000E+00
    0.81071E+06         0.15143E+07         0.00000E+00
    0.00000E+00         0.00000E+00         0.17072E+06
 
   -0.58297E+06         0.86530E+06         0.00000E+00
    0.86530E+06         0.14844E+07         0.00000E+00
    0.00000E+00         0.00000E+00         0.18028E+06
 
   -0.49678E+06         0.91685E+06         0.00000E+00
    0.91685E+06         0.14495E+07         0.00000E+00
    0.00000E+00         0.00000E+00         0.19055E+06
 
   -0.40186E+06         0.96448E+06         0.00000E+00
    0.96448E+06         0.14098E+07         0.00000E+00
    0.00000E+00         0.00000E+00         0.20158E+06
 
   -0.29806E+06         0.10072E+07         0.00000E+00
    0.10072E+07         0.13651E+07         0.00000E+00
    0.00000E+00         0.00000E+00         0.21340E+06
 
   -0.18531E+06         0.10440E+07         0.00000E+00
    0.10440E+07         0.13156E+07         0.00000E+00
    0.00000E+00         0.00000E+00         0.22605E+06
 
   -0.63673E+05         0.10737E+07         0.00000E+00
    0.10737E+07         0.12614E+07         0.00000E+00
    0.00000E+00         0.00000E+00         0.23955E+06
 
    0.66720E+05         0.10951E+07         0.00000E+00
    0.10951E+07         0.12030E+07         0.00000E+00
    0.00000E+00         0.00000E+00         0.25393E+06
 
    0.20557E+06         0.11069E+07         0.00000E+00
    0.11069E+07         0.11405E+07         0.00000E+00
    0.00000E+00         0.00000E+00         0.26921E+06
 
   -0.26632E+07         0.31801E+05         0.00000E+00
    0.31801E+05         0.11779E+07         0.00000E+00
    0.00000E+00         0.00000E+00        -0.29707E+06
 
   -0.25166E+07         0.75994E+05         0.00000E+00
    0.75994E+05         0.11734E+07         0.00000E+00
    0.00000E+00         0.00000E+00        -0.26865E+06
 
   -0.23762E+07         0.11263E+06         0.00000E+00
    0.11263E+06         0.11660E+07         0.00000E+00
    0.00000E+00         0.00000E+00        -0.24205E+06
 
   -0.22425E+07         0.14235E+06         0.00000E+00
    0.14235E+06         0.11565E+07         0.00000E+00
    0.00000E+00         0.00000E+00        -0.21720E+06
 
   -0.21160E+07         0.16585E+06         0.00000E+00
    0.16585E+06         0.11458E+07         0.00000E+00
    0.00000E+00         0.00000E+00        -0.19404E+06
 
   -0.19970E+07         0.18386E+06         0.00000E+00
    0.18386E+06         0.11345E+07         0.00000E+00
    0.00000E+00         0.00000E+00        -0.17251E+06
 
   -0.18857E+07         0.19708E+06         0.00000E+00
    0.19708E+06         0.11231E+07         0.00000E+00
    0.00000E+00         0.00000E+00        -0.15252E+06
 
   -0.17822E+07         0.20625E+06         0.00000E+00
    0.20625E+06         0.11122E+07         0.00000E+00
    0.00000E+00         0.00000E+00        -0.13400E+06
 
   -0.16865E+07         0.21205E+06         0.00000E+00
    0.21205E+06         0.11021E+07         0.00000E+00
    0.00000E+00         0.00000E+00        -0.11689E+06
 
   -0.15986E+07         0.21517E+06         0.00000E+00
    0.21517E+06         0.10931E+07         0.00000E+00
    0.00000E+00         0.00000E+00        -0.10109E+06
 
   -0.15182E+07         0.21624E+06         0.00000E+00
    0.21624E+06         0.10854E+07         0.00000E+00
    0.00000E+00         0.00000E+00        -0.86550E+05
 
   -0.14451E+07         0.21587E+06         0.00000E+00
    0.21587E+06         0.10792E+07         0.00000E+00
    0.00000E+00         0.00000E+00        -0.73180E+05
 
   -0.13791E+07         0.21462E+06         0.00000E+00
    0.21462E+06         0.10745E+07         0.00000E+00
    0.00000E+00         0.00000E+00        -0.60907E+05
 
   -0.13197E+07         0.21301E+06         0.00000E+00
    0.21301E+06         0.10714E+07         0.00000E+00
    0.00000E+00         0.00000E+00        -0.49659E+05
 
   -0.12666E+07         0.21151E+06         0.00000E+00
    0.21151E+06         0.10698E+07         0.00000E+00
    0.00000E+00         0.00000E+00        -0.39360E+05
 
   -0.12194E+07         0.21054E+06         0.00000E+00
    0.21054E+06         0.10698E+07         0.00000E+00
    0.00000E+00         0.00000E+00        -0.29938E+05
 
   -0.11777E+07         0.21048E+06         0.00000E+00
    0.21048E+06         0.10711E+07         0.00000E+00
    0.00000E+00         0.00000E+00        -0.21323E+05
 
   -0.11409E+07         0.21166E+06         0.00000E+00
    0.21166E+06         0.10737E+07         0.00000E+00
    0.00000E+00         0.00000E+00        -0.13445E+05
 
   -0.11086E+07         0.21437E+06         0.00000E+00
    0.21437E+06         0.10774E+07         0.00000E+00
    0.00000E+00         0.00000E+00        -0.62381E+04
 
   -0.10802E+07         0.21885E+06         0.00000E+00
    0.21885E+06         0.10820E+07         0.00000E+00
    0.00000E+00         0.00000E+00         0.36443E+03
 
   -0.10553E+07         0.22530E+06         0.00000E+00
    0.22530E+06         0.10874E+07         0.00000E+00
    0.00000E+00         0.00000E+00         0.64254E+04
 
   -0.10334E+07         0.23387E+06         0.00000E+00
    0.23387E+06         0.10934E+07         0.00000E+00
    0.00000E+00         0.00000E+00         0.12006E+05
 
   -0.10139E+07         0.24470E+06         0.00000E+00
    0.24470E+06         0.10997E+07         0.00000E+00
    0.00000E+00         0.00000E+00         0.17165E+05
 
   -0.99639E+06         0.25784E+06         0.00000E+00
    0.25784E+06         0.11062E+07         0.00000E+00
    0.00000E+00         0.00000E+00         0.21961E+05
 
   -0.98030E+06         0.27336E+06         0.00000E+00
    0.27336E+06         0.11125E+07         0.00000E+00
    0.00000E+00         0.00000E+00         0.26446E+05
 
   -0.96517E+06         0.29125E+06         0.00000E+00
    0.29125E+06         0.11185E+07         0.00000E+00
    0.00000E+00         0.00000E+00         0.30676E+05
 
   -0.95049E+06         0.31149E+06         0.00000E+00
    0.31149E+06         0.11240E+07         0.00000E+00
    0.00000E+00         0.00000E+00         0.34700E+05
 
   -0.93580E+06         0.33402E+06         0.00000E+00
    0.33402E+06         0.11286E+07         0.00000E+00
    0.00000E+00         0.00000E+00         0.38568E+05
 
   -0.92062E+06         0.35873E+06         0.00000E+00
    0.35873E+06         0.11323E+07         0.00000E+00
    0.00000E+00         0.00000E+00         0.42327E+05
 
   -0.90449E+06         0.38551E+06         0.00000E+00
    0.38551E+06         0.11346E+07         0.00000E+00
    0.00000E+00         0.00000E+00         0.46024E+05
 
   -0.88699E+06         0.41420E+06         0.00000E+00
    0.41420E+06         0.11355E+07         0.00000E+00
    0.00000E+00         0.00000E+00         0.49701E+05
 
   -0.86767E+06         0.44458E+06         0.00000E+00
    0.44458E+06         0.11347E+07         0.00000E+00
    0.00000E+00         0.00000E+00         0.53402E+05
 
   -0.84613E+06         0.47645E+06         0.00000E+00
    0.47645E+06         0.11320E+07         0.00000E+00
    0.00000E+00         0.00000E+00         0.57168E+05
 
   -0.82197E+06         0.50954E+06         0.00000E+00
    0.50954E+06         0.11272E+07         0.00000E+00
    0.00000E+00         0.00000E+00         0.61039E+05
 
   -0.79483E+06         0.54355E+06         0.00000E+00
    0.54355E+06         0.11201E+07         0.00000E+00
    0.00000E+00         0.00000E+00         0.65053E+05
 
   -0.76434E+06         0.57816E+06         0.00000E+00
    0.57816E+06         0.11106E+07         0.00000E+00
    0.00000E+00         0.00000E+00         0.69248E+05
 
   -0.73019E+06         0.61299E+06         0.00000E+00
    0.61299E+06         0.10985E+07         0.00000E+00
    0.00000E+00         0.00000E+00         0.73660E+05
 
   -0.69208E+06         0.64764E+06         0.00000E+00
    0.64764E+06         0.10837E+07         0.00000E+00
    0.00000E+00         0.00000E+00         0.78322E+05
 
   -0.64974E+06         0.68168E+06         0.00000E+00
    0.68168E+06         0.10661E+07         0.00000E+00
    0.00000E+00         0.00000E+00         0.83269E+05
 
   -0.60295E+06         0.71461E+06         0.00000E+00
    0.71461E+06         0.10456E+07         0.00000E+00
    0.00000E+00         0.00000E+00         0.88532E+05
 
   -0.55152E+06         0.74593E+06         0.00000E+00
    0.74593E+06         0.10222E+07         0.00000E+00
    0.00000E+00         0.00000E+00         0.94141E+05
 
   -0.49530E+06         0.77507E+06         0.00000E+00
    0.77507E+06         0.99593E+06         0.00000E+00
    0.00000E+00         0.00000E+00         0.10013E+06
 
   -0.43421E+06         0.80144E+06         0.00000E+00
    0.80144E+06         0.96677E+06         0.00000E+00
    0.00000E+00         0.00000E+00         0.10651E+06
 
   -0.36822E+06         0.82439E+06         0.00000E+00
    0.82439E+06         0.93486E+06         0.00000E+00
    0.00000E+00         0.00000E+00         0.11333E+06
 
   -0.29737E+06         0.84325E+06         0.00000E+00
    0.84325E+06         0.90033E+06         0.00000E+00
    0.00000E+00         0.00000E+00         0.12059E+06
 
   -0.22177E+06         0.85731E+06         0.00000E+00
    0.85731E+06         0.86340E+06         0.00000E+00
    0.00000E+00         0.00000E+00         0.12833E+06
 
   -0.14161E+06         0.86581E+06         0.00000E+00
    0.86581E+06         0.82438E+06         0.00000E+00
    0.00000E+00         0.00000E+00         0.13655E+06
 
   -0.57195E+05         0.86797E+06         0.00000E+00
    0.86797E+06         0.78362E+06         0.00000E+00
    0.00000E+00         0.00000E+00         0.14528E+06
 
    0.31091E+05         0.86298E+06         0.00000E+00
    0.86298E+06         0.74157E+06         0.00000E+00
    0.00000E+00         0.00000E+00         0.15453E+06
 
    0.12274E+06         0.84999E+06         0.00000E+00
    0.84999E+06         0.69881E+06         0.00000E+00
    0.00000E+00         0.00000E+00         0.16431E+06
 
   -0.23914E+07         0.34249E+05         0.00000E+00
    0.34249E+05         0.11852E+07         0.00000E+00
    0.00000E+00         0.00000E+00        -0.24124E+06
 
   -0.22786E+07         0.88100E+05         0.00000E+00
    0.88100E+05         0.11804E+07         0.00000E+00
    0.00000E+00         0.00000E+00        -0.21965E+06
 
   -0.21692E+07         0.13602E+06         0.00000E+00
    0.13602E+06         0.11719E+07         0.00000E+00
    0.00000E+00         0.00000E+00        -0.19945E+06
 
   -0.20635E+07         0.17833E+06         0.00000E+00
    0.17833E+06         0.11606E+07         0.00000E+00
    0.00000E+00         0.00000E+00        -0.18058E+06
 
   -0.19618E+07         0.21540E+06         0.00000E+00
    0.21540E+06         0.11469E+07         0.00000E+00
    0.00000E+00         0.00000E+00        -0.16298E+06
 
   -0.18646E+07         0.24764E+06         0.00000E+00
    0.24764E+06         0.11316E+07         0.00000E+00
    0.00000E+00         0.00000E+00        -0.14661E+06
 
   -0.17721E+07         0.27547E+06         0.00000E+00
    0.27547E+06         0.11150E+07         0.00000E+00
    0.00000E+00         0.00000E+00        -0.13141E+06
 
   -0.16843E+07         0.29935E+06         0.00000E+00
    0.29935E+06         0.10978E+07         0.00000E+00
    0.00000E+00         0.00000E+00        -0.11732E+06
 
   -0.16015E+07         0.31971E+06         0.00000E+00
    0.31971E+06         0.10802E+07         0.00000E+00
    0.00000E+00         0.00000E+00        -0.10428E+06
 
   -0.15237E+07         0.33701E+06         0.00000E+00
    0.33701E+06         0.10626E+07         0.00000E+00
    0.00000E+00         0.00000E+00        -0.92231E+05
 
   -0.14508E+07         0.35170E+06         0.00000E+00
    0.35170E+06         0.10452E+07         0.00000E+00
    0.00000E+00         0.00000E+00        -0.81124E+05
 
   -0.13829E+07         0.36419E+06         0.00000E+00
    0.36419E+06         0.10284E+07         0.00000E+00
    0.00000E+00         0.00000E+00        -0.70899E+05
 
   -0.13197E+07         0.37490E+06         0.00000E+00
    0.37490E+06         0.10122E+07         0.00000E+00
    0.00000E+00         0.00000E+00        -0.61498E+05
 
   -0.12612E+07         0.38423E+06         0.00000E+00
    0.38423E+06         0.99688E+06         0.00000E+00
    0.00000E+00         0.00000E+00        -0.52867E+05
 
   -0.12071E+07         0.39253E+06         0.00000E+00
    0.39253E+06         0.98238E+06         0.00000E+00
    0.00000E+00         0.00000E+00        -0.44952E+05
 
   -0.11573E+07         0.40015E+06         0.00000E+00
    0.40015E+06         0.96881E+06         0.00000E+00
    0.00000E+00         0.00000E+00        -0.37698E+05
 
   -0.11114E+07         0.40740E+06         0.00000E+00
    0.40740E+06         0.95615E+06         0.00000E+00
    0.00000E+00         0.00000E+00        -0.31055E+05
 
   -0.10693E+07         0.41455E+06         0.00000E+00
    0.41455E+06         0.94440E+06         0.00000E+00
    0.00000E+00         0.00000E+00        -0.24972E+05
 
   -0.10305E+07         0.42187E+06         0.00000E+00
    0.42187E+06         0.93348E+06         0.00000E+00
    0.00000E+00         0.00000E+00        -0.19400E+05
 
   -0.99479E+06         0.42956E+06         0.00000E+00
    0.42956E+06         0.92334E+06         0.00000E+00
    0.00000E+00         0.00000E+00        -0.14291E+05
 
   -0.96187E+06         0.43782E+06         0.00000E+00
    0.43782E+06         0.91386E+06         0.00000E+00
    0.00000E+00         0.00000E+00        -0.96013E+04
 
   -0.93137E+06         0.44679E+06         0.00000E+00
    0.44679E+06         0.90494E+06         0.00000E+00
    0.00000E+00         0.00000E+00        -0.52860E+04
 
   -0.90296E+06         0.45662E+06         0.00000E+00
    0.45662E+06         0.89644E+06         0.00000E+00
    0.00000E+00         0.00000E+00        -0.13031E+04
 
   -0.87629E+06         0.46737E+06         0.00000E+00
    0.46737E+06         0.88823E+06         0.00000E+00
    0.00000E+00         0.00000E+00         0.23877E+04
 
   -0.85102E+06         0.47913E+06         0.00000E+00
    0.47913E+06         0.88014E+06         0.00000E+00
    0.00000E+00         0.00000E+00         0.58251E+04
 
   -0.82681E+06         0.49191E+06         0.00000E+00
    0.49191E+06         0.87204E+06         0.00000E+00
    0.00000E+00         0.00000E+00         0.90462E+04
 
   -0.80331E+06         0.50572E+06         0.00000E+00
    0.50572E+06         0.86374E+06         0.00000E+00
    0.00000E+00         0.00000E+00         0.12086E+05
 
   -0.78020E+06         0.52053E+06         0.00000E+00
    0.52053E+06         0.85510E+06         0.00000E+00
    0.00000E+00         0.00000E+00         0.14980E+05
 
   -0.75716E+06         0.53628E+06         0.00000E+00
    0.53628E+06         0.84595E+06         0.00000E+00
    0.00000E+00         0.00000E+00         0.17758E+05
 
   -0.73387E+06         0.55288E+06         0.00000E+00
    0.55288E+06         0.83613E+06         0.00000E+00
    0.00000E+00         0.00000E+00         0.20453E+05
 
   -0.71003E+06         0.57022E+06         0.00000E+00
    0.57022E+06         0.82550E+06         0.00000E+00
    0.00000E+00         0.00000E+00         0.23094E+05
 
   -0.68535E+06         0.58814E+06         0.00000E+00
    0.58814E+06         0.81390E+06         0.00000E+00
    0.00000E+00         0.00000E+00         0.25710E+05
 
   -0.65957E+06         0.60648E+06         0.00000E+00
    0.60648E+06         0.80120E+06         0.00000E+00
    0.00000E+00         0.00000E+00         0.28326E+05
 
   -0.63244E+06         0.62503E+06         0.00000E+00
    0.62503E+06         0.78729E+06         0.00000E+00
    0.00000E+00         0.00000E+00         0.30970E+05
 
   -0.60373E+06         0.64356E+06         0.00000E+00
    0.64356E+06         0.77205E+06         0.00000E+00
    0.00000E+00         0.00000E+00         0.33665E+05
 
   -0.57323E+06         0.66183E+06         0.00000E+00
    0.66183E+06         0.75541E+06         0.00000E+00
    0.00000E+00         0.00000E+00         0.36435E+05
 
   -0.54078E+06         0.67954E+06         0.00000E+00
    0.67954E+06         0.73730E+06         0.00000E+00
    0.00000E+00         0.00000E+00         0.39303E+05
 
   -0.50622E+06         0.69639E+06         0.00000E+00
    0.69639E+06         0.71767E+06         0.00000E+00
    0.00000E+00         0.00000E+00         0.42289E+05
 
   -0.46944E+06         0.71204E+06         0.00000E+00
    0.71204E+06         0.69651E+06         0.00000E+00
    0.00000E+00         0.00000E+00         0.45414E+05
 
   -0.43037E+06         0.72614E+06         0.00000E+00
    0.72614E+06         0.67385E+06         0.00000E+00
    0.00000E+00         0.00000E+00         0.48696E+05
 
   -0.38896E+06         0.73831E+06         0.00000E+00
    0.73831E+06         0.64973E+06         0.00000E+00
    0.00000E+00         0.00000E+00         0.52153E+05
 
   -0.34523E+06         0.74815E+06         0.00000E+00
    0.74815E+06         0.62424E+06         0.00000E+00
    0.00000E+00         0.00000E+00         0.55802E+05
 
   -0.29924E+06         0.75522E+06         0.00000E+00
    0.75522E+06         0.59752E+06         0.00000E+00
    0.00000E+00         0.00000E+00         0.59658E+05
 
   -0.25108E+06         0.75910E+06         0.00000E+00
    0.75910E+06         0.56976E+06         0.00000E+00
    0.00000E+00         0.00000E+00         0.63735E+05
 
   -0.20095E+06         0.75933E+06         0.00000E+00
    0.75933E+06         0.54118E+06         0.00000E+00
    0.00000E+00         0.00000E+00         0.68045E+05
 
   -0.14906E+06         0.75543E+06         0.00000E+00
    0.75543E+06         0.51206E+06         0.00000E+00
    0.00000E+00         0.00000E+00         0.72601E+05
 
   -0.95722E+05         0.74694E+06         0.00000E+00
    0.74694E+06         0.48278E+06         0.00000E+00
    0.00000E+00         0.00000E+00         0.77411E+05
 
   -0.41310E+05         0.73338E+06         0.00000E+00
    0.73338E+06         0.45373E+06         0.00000E+00
    0.00000E+00         0.00000E+00         0.82485E+05
 
    0.13720E+05         0.71427E+06         0.00000E+00
    0.71427E+06         0.42542E+06         0.00000E+00
    0.00000E+00         0.00000E+00         0.87827E+05
 
    0.68825E+05         0.68916E+06         0.00000E+00
    0.68916E+06         0.39840E+06         0.00000E+00
    0.00000E+00         0.00000E+00         0.93445E+05
 
   -0.21168E+07         0.34736E+05         0.00000E+00
    0.34736E+05         0.11649E+07         0.00000E+00
    0.00000E+00         0.00000E+00        -0.19037E+06
 
   -0.20301E+07         0.92907E+05         0.00000E+00
    0.92907E+05         0.11603E+07         0.00000E+00
    0.00000E+00         0.00000E+00        -0.17397E+06
 
   -0.19449E+07         0.14639E+06         0.00000E+00
    0.14639E+06         0.11518E+07         0.00000E+00
    0.00000E+00         0.00000E+00        -0.15862E+06
 
   -0.18615E+07         0.19533E+06         0.00000E+00
    0.19533E+06         0.11401E+07         0.00000E+00
    0.00000E+00         0.00000E+00        -0.14429E+06
 
   -0.17802E+07         0.23994E+06         0.00000E+00
    0.23994E+06         0.11256E+07         0.00000E+00
    0.00000E+00         0.00000E+00        -0.13093E+06
 
   -0.17013E+07         0.28042E+06         0.00000E+00
    0.28042E+06         0.11088E+07         0.00000E+00
    0.00000E+00         0.00000E+00        -0.11851E+06
 
   -0.16250E+07         0.31702E+06         0.00000E+00
    0.31702E+06         0.10902E+07         0.00000E+00
    0.00000E+00         0.00000E+00        -0.10697E+06
 
   -0.15514E+07         0.35001E+06         0.00000E+00
    0.35001E+06         0.10701E+07         0.00000E+00
    0.00000E+00         0.00000E+00        -0.96270E+05
 
   -0.14808E+07         0.37966E+06         0.00000E+00
    0.37966E+06         0.10489E+07         0.00000E+00
    0.00000E+00         0.00000E+00        -0.86372E+05
 
   -0.14131E+07         0.40625E+06         0.00000E+00
    0.40625E+06         0.10270E+07         0.00000E+00
    0.00000E+00         0.00000E+00        -0.77229E+05
 
   -0.13485E+07         0.43008E+06         0.00000E+00
    0.43008E+06         0.10046E+07         0.00000E+00
    0.00000E+00         0.00000E+00        -0.68796E+05
 
   -0.12871E+07         0.45143E+06         0.00000E+00
    0.45143E+06         0.98190E+06         0.00000E+00
    0.00000E+00         0.00000E+00        -0.61030E+05
 
   -0.12286E+07         0.47057E+06         0.00000E+00
    0.47057E+06         0.95920E+06         0.00000E+00
    0.00000E+00         0.00000E+00        -0.53890E+05
 
   -0.11733E+07         0.48780E+06         0.00000E+00
    0.48780E+06         0.93662E+06         0.00000E+00
    0.00000E+00         0.00000E+00        -0.47332E+05
 
   -0.11209E+07         0.50336E+06         0.00000E+00
    0.50336E+06         0.91432E+06         0.00000E+00
    0.00000E+00         0.00000E+00        -0.41317E+05
 
   -0.10714E+07         0.51751E+06         0.00000E+00
    0.51751E+06         0.89237E+06         0.00000E+00
    0.00000E+00         0.00000E+00        -0.35805E+05
 
   -0.10247E+07         0.53049E+06         0.00000E+00
    0.53049E+06         0.87086E+06         0.00000E+00
    0.00000E+00         0.00000E+00        -0.30758E+05
 
   -0.98053E+06         0.54251E+06         0.00000E+00
    0.54251E+06         0.84984E+06         0.00000E+00
    0.00000E+00         0.00000E+00        -0.26138E+05
 
   -0.93886E+06         0.55376E+06         0.00000E+00
    0.55376E+06         0.82931E+06         0.00000E+00
    0.00000E+00         0.00000E+00        -0.21910E+05
 
   -0.89948E+06         0.56444E+06         0.00000E+00
    0.56444E+06         0.80928E+06         0.00000E+00
    0.00000E+00         0.00000E+00        -0.18040E+05
 
   -0.86220E+06         0.57468E+06         0.00000E+00
    0.57468E+06         0.78972E+06         0.00000E+00
    0.00000E+00         0.00000E+00        -0.14495E+05
 
   -0.82681E+06         0.58463E+06         0.00000E+00
    0.58463E+06         0.77060E+06         0.00000E+00
    0.00000E+00         0.00000E+00        -0.11242E+05
 
   -0.79313E+06         0.59440E+06         0.00000E+00
    0.59440E+06         0.75186E+06         0.00000E+00
    0.00000E+00         0.00000E+00        -0.82538E+04
 
   -0.76093E+06         0.60407E+06         0.00000E+00
    0.60407E+06         0.73343E+06         0.00000E+00
    0.00000E+00         0.00000E+00        -0.55001E+04
 
   -0.73001E+06         0.61371E+06         0.00000E+00
    0.61371E+06         0.71524E+06         0.00000E+00
    0.00000E+00         0.00000E+00        -0.29542E+04
 
   -0.70015E+06         0.62337E+06         0.00000E+00
    0.62337E+06         0.69720E+06         0.00000E+00
    0.00000E+00         0.00000E+00        -0.59045E+03
 
   -0.67115E+06         0.63305E+06         0.00000E+00
    0.63305E+06         0.67922E+06         0.00000E+00
    0.00000E+00         0.00000E+00         0.16155E+04
 
   -0.64279E+06         0.64276E+06         0.00000E+00
    0.64276E+06         0.66122E+06         0.00000E+00
    0.00000E+00         0.00000E+00         0.36866E+04
 
   -0.61488E+06         0.65246E+06         0.00000E+00
    0.65246E+06         0.64311E+06         0.00000E+00
    0.00000E+00         0.00000E+00         0.56446E+04
 
   -0.58723E+06         0.66211E+06         0.00000E+00
    0.66211E+06         0.62478E+06         0.00000E+00
    0.00000E+00         0.00000E+00         0.75100E+04
 
   -0.55966E+06         0.67162E+06         0.00000E+00
    0.67162E+06         0.60617E+06         0.00000E+00
    0.00000E+00         0.00000E+00         0.93021E+04
 
   -0.53199E+06         0.68092E+06         0.00000E+00
    0.68092E+06         0.58719E+06         0.00000E+00
    0.00000E+00         0.00000E+00         0.11039E+05
 
   -0.50409E+06         0.68988E+06         0.00000E+00
    0.68988E+06         0.56778E+06         0.00000E+00
    0.00000E+00         0.00000E+00         0.12738E+05
 
   -0.47581E+06         0.69836E+06         0.00000E+00
    0.69836E+06         0.54788E+06         0.00000E+00
    0.00000E+00         0.00000E+00         0.14415E+05
 
   -0.44703E+06         0.70621E+06         0.00000E+00
    0.70621E+06         0.52745E+06         0.00000E+00
    0.00000E+00         0.00000E+00         0.16085E+05
 
   -0.41767E+06         0.71325E+06         0.00000E+00
    0.71325E+06         0.50647E+06         0.00000E+00
    0.00000E+00         0.00000E+00         0.17761E+05
 
   -0.38765E+06         0.71930E+06         0.00000E+00
    0.71930E+06         0.48494E+06         0.00000E+00
    0.00000E+00         0.00000E+00         0.19458E+05
 
   -0.35692E+06         0.72414E+06         0.00000E+00
    0.72414E+06         0.46286E+06         0.00000E+00
    0.00000E+00         0.00000E+00         0.21187E+05
 
   -0.32549E+06         0.72756E+06         0.00000E+00
    0.72756E+06         0.44028E+06         0.00000E+00
    0.00000E+00         0.00000E+00         0.22960E+05
 
   -0.29335E+06         0.72931E+06         0.00000E+00
    0.72931E+06         0.41728E+06         0.00000E+00
    0.00000E+00         0.00000E+00         0.24786E+05
 
   -0.26056E+06         0.72916E+06         0.00000E+00
    0.72916E+06         0.39394E+06         0.00000E+00
    0.00000E+00         0.00000E+00         0.26676E+05
 
   -0.22721E+06         0.72684E+06         0.00000E+00
    0.72684E+06         0.37040E+06         0.00000E+00
    0.00000E+00         0.00000E+00         0.28637E+05
 
   -0.19343E+06         0.72209E+06         0.00000E+00
    0.72209E+06         0.34683E+06         0.00000E+00
    0.00000E+00         0.00000E+00         0.30679E+05
 
   -0.15939E+06         0.71465E+06         0.00000E+00
    0.71465E+06         0.32343E+06         0.00000E+00
    0.00000E+00         0.00000E+00         0.32808E+05
 
   -0.12529E+06         0.70425E+06         0.00000E+00
    0.70425E+06         0.30044E+06         0.00000E+00
    0.00000E+00         0.00000E+00         0.35030E+05
 
   -0.91407E+05         0.69063E+06         0.00000E+00
    0.69063E+06         0.27816E+06         0.00000E+00
    0.00000E+00         0.00000E+00         0.37351E+05
 
   -0.58049E+05         0.67354E+06         0.00000E+00
    0.67354E+06         0.25693E+06         0.00000E+00
    0.00000E+00         0.00000E+00         0.39775E+05
 
   -0.25582E+05         0.65273E+06         0.00000E+00
    0.65273E+06         0.23712E+06         0.00000E+00
    0.00000E+00         0.00000E+00         0.42307E+05
 
    0.55720E+04         0.62798E+06         0.00000E+00
    0.62798E+06         0.21917E+06         0.00000E+00
    0.00000E+00         0.00000E+00         0.44948E+05
 
    0.34936E+05         0.59910E+06         0.00000E+00
    0.59910E+06         0.20357E+06         0.00000E+00
    0.00000E+00         0.00000E+00         0.47702E+05
 
   -0.18562E+07         0.33868E+05         0.00000E+00
    0.33868E+05         0.11214E+07         0.00000E+00
    0.00000E+00         0.00000E+00        -0.14696E+06
 
   -0.17900E+07         0.92719E+05         0.00000E+00
    0.92719E+05         0.11171E+07         0.00000E+00
    0.00000E+00         0.00000E+00        -0.13457E+06
 
   -0.17240E+07         0.14782E+06         0.00000E+00
    0.14782E+06         0.11090E+07         0.00000E+00
    0.00000E+00         0.00000E+00        -0.12299E+06
 
   -0.16586E+07         0.19924E+06         0.00000E+00
    0.19924E+06         0.10977E+07         0.00000E+00
    0.00000E+00         0.00000E+00        -0.11218E+06
 
   -0.15939E+07         0.24707E+06         0.00000E+00
    0.24707E+06         0.10834E+07         0.00000E+00
    0.00000E+00         0.00000E+00        -0.10210E+06
 
   -0.15303E+07         0.29142E+06         0.00000E+00
    0.29142E+06         0.10666E+07         0.00000E+00
    0.00000E+00         0.00000E+00        -0.92723E+05
 
   -0.14678E+07         0.33242E+06         0.00000E+00
    0.33242E+06         0.10477E+07         0.00000E+00
    0.00000E+00         0.00000E+00        -0.84019E+05
 
   -0.14067E+07         0.37023E+06         0.00000E+00
    0.37023E+06         0.10269E+07         0.00000E+00
    0.00000E+00         0.00000E+00        -0.75952E+05
 
   -0.13471E+07         0.40501E+06         0.00000E+00
    0.40501E+06         0.10046E+07         0.00000E+00
    0.00000E+00         0.00000E+00        -0.68489E+05
 
   -0.12891E+07         0.43692E+06         0.00000E+00
    0.43692E+06         0.98109E+06         0.00000E+00
    0.00000E+00         0.00000E+00        -0.61595E+05
 
   -0.12328E+07         0.46615E+06         0.00000E+00
    0.46615E+06         0.95660E+06         0.00000E+00
    0.00000E+00         0.00000E+00        -0.55239E+05
 
   -0.11783E+07         0.49287E+06         0.00000E+00
    0.49287E+06         0.93137E+06         0.00000E+00
    0.00000E+00         0.00000E+00        -0.49388E+05
 
   -0.11256E+07         0.51727E+06         0.00000E+00
    0.51727E+06         0.90560E+06         0.00000E+00
    0.00000E+00         0.00000E+00        -0.44009E+05
 
   -0.10748E+07         0.53954E+06         0.00000E+00
    0.53954E+06         0.87948E+06         0.00000E+00
    0.00000E+00         0.00000E+00        -0.39072E+05
 
   -0.10259E+07         0.55985E+06         0.00000E+00
    0.55985E+06         0.85317E+06         0.00000E+00
    0.00000E+00         0.00000E+00        -0.34546E+05
 
   -0.97880E+06         0.57838E+06         0.00000E+00
    0.57838E+06         0.82679E+06         0.00000E+00
    0.00000E+00         0.00000E+00        -0.30402E+05
 
   -0.93351E+06         0.59529E+06         0.00000E+00
    0.59529E+06         0.80045E+06         0.00000E+00
    0.00000E+00         0.00000E+00        -0.26611E+05
 
   -0.88998E+06         0.61074E+06         0.00000E+00
    0.61074E+06         0.77425E+06         0.00000E+00
    0.00000E+00         0.00000E+00        -0.23147E+05
 
   -0.84815E+06         0.62487E+06         0.00000E+00
    0.62487E+06         0.74823E+06         0.00000E+00
    0.00000E+00         0.00000E+00        -0.19984E+05
 
   -0.80793E+06         0.63783E+06         0.00000E+00
    0.63783E+06         0.72245E+06         0.00000E+00
    0.00000E+00         0.00000E+00        -0.17095E+05
 
   -0.76924E+06         0.64973E+06         0.00000E+00
    0.64973E+06         0.69695E+06         0.00000E+00
    0.00000E+00         0.00000E+00        -0.14459E+05
 
   -0.73199E+06         0.66068E+06         0.00000E+00
    0.66068E+06         0.67173E+06         0.00000E+00
    0.00000E+00         0.00000E+00        -0.12052E+05
 
   -0.69607E+06         0.67076E+06         0.00000E+00
    0.67076E+06         0.64681E+06         0.00000E+00
    0.00000E+00         0.00000E+00        -0.98522E+04
 
   -0.66137E+06         0.68007E+06         0.00000E+00
    0.68007E+06         0.62217E+06         0.00000E+00
    0.00000E+00         0.00000E+00        -0.78409E+04
 
   -0.62779E+06         0.68865E+06         0.00000E+00
    0.68865E+06         0.59779E+06         0.00000E+00
    0.00000E+00         0.00000E+00        -0.59986E+04
 
   -0.59520E+06         0.69656E+06         0.00000E+00
    0.69656E+06         0.57367E+06         0.00000E+00
    0.00000E+00         0.00000E+00        -0.43078E+04
 
   -0.56351E+06         0.70382E+06         0.00000E+00
    0.70382E+06         0.54975E+06         0.00000E+00
    0.00000E+00         0.00000E+00        -0.27517E+04
 
   -0.53260E+06         0.71044E+06         0.00000E+00
    0.71044E+06         0.52603E+06         0.00000E+00
    0.00000E+00         0.00000E+00        -0.13150E+04
 
   -0.50237E+06         0.71642E+06         0.00000E+00
    0.71642E+06         0.50245E+06         0.00000E+00
    0.00000E+00         0.00000E+00         0.16720E+02
 
   -0.47272E+06         0.72173E+06         0.00000E+00
    0.72173E+06         0.47901E+06         0.00000E+00
    0.00000E+00         0.00000E+00         0.12568E+04
 
   -0.44357E+06         0.72636E+06         0.00000E+00
    0.72636E+06         0.45566E+06         0.00000E+00
    0.00000E+00         0.00000E+00         0.24176E+04
 
   -0.41483E+06         0.73024E+06         0.00000E+00
    0.73024E+06         0.43238E+06         0.00000E+00
    0.00000E+00         0.00000E+00         0.35105E+04
 
   -0.38644E+06         0.73331E+06         0.00000E+00
    0.73331E+06         0.40917E+06         0.00000E+00
    0.00000E+00         0.00000E+00         0.45459E+04
 
   -0.35834E+06         0.73549E+06         0.00000E+00
    0.73549E+06         0.38601E+06         0.00000E+00
    0.00000E+00         0.00000E+00         0.55336E+04
 
   -0.33050E+06         0.73670E+06         0.00000E+00
    0.73670E+06         0.36292E+06         0.00000E+00
    0.00000E+00         0.00000E+00         0.64822E+04
 
   -0.30290E+06         0.73683E+06         0.00000E+00
    0.73683E+06         0.33990E+06         0.00000E+00
    0.00000E+00         0.00000E+00         0.73997E+04
 
   -0.27554E+06         0.73577E+06         0.00000E+00
    0.73577E+06         0.31701E+06         0.00000E+00
    0.00000E+00         0.00000E+00         0.82934E+04
 
   -0.24843E+06         0.73340E+06         0.00000E+00
    0.73340E+06         0.29428E+06         0.00000E+00
    0.00000E+00         0.00000E+00         0.91698E+04
 
   -0.22162E+06         0.72960E+06         0.00000E+00
    0.72960E+06         0.27180E+06         0.00000E+00
    0.00000E+00         0.00000E+00         0.10035E+05
 
   -0.19517E+06         0.72423E+06         0.00000E+00
    0.72423E+06         0.24964E+06         0.00000E+00
    0.00000E+00         0.00000E+00         0.10893E+05
 
   -0.16918E+06         0.71715E+06         0.00000E+00
    0.71715E+06         0.22793E+06         0.00000E+00
    0.00000E+00         0.00000E+00         0.11750E+05
 
   -0.14376E+06         0.70825E+06         0.00000E+00
    0.70825E+06         0.20681E+06         0.00000E+00
    0.00000E+00         0.00000E+00         0.12609E+05
 
   -0.11906E+06         0.69737E+06         0.00000E+00
    0.69737E+06         0.18643E+06         0.00000E+00
    0.00000E+00         0.00000E+00         0.13474E+05
 
   -0.95261E+05         0.68438E+06         0.00000E+00
    0.68438E+06         0.16700E+06         0.00000E+00
    0.00000E+00         0.00000E+00         0.14348E+05
 
   -0.72567E+05         0.66918E+06         0.00000E+00
    0.66918E+06         0.14873E+06         0.00000E+00
    0.00000E+00         0.00000E+00         0.15234E+05
 
   -0.51222E+05         0.65164E+06         0.00000E+00
    0.65164E+06         0.13188E+06         0.00000E+00
    0.00000E+00         0.00000E+00         0.16132E+05
 
   -0.31500E+05         0.63167E+06         0.00000E+00
    0.63167E+06         0.11673E+06         0.00000E+00
    0.00000E+00         0.00000E+00         0.17047E+05
 
   -0.13711E+05         0.60920E+06         0.00000E+00
    0.60920E+06         0.10360E+06         0.00000E+00
    0.00000E+00         0.00000E+00         0.17977E+05
 
    0.18028E+04         0.58415E+06         0.00000E+00
    0.58415E+06         0.92827E+05         0.00000E+00
    0.00000E+00         0.00000E+00         0.18926E+05
 
    0.14664E+05         0.55651E+06         0.00000E+00
    0.55651E+06         0.84803E+05         0.00000E+00
    0.00000E+00         0.00000E+00         0.19893E+05
 
   -0.16172E+07         0.32031E+05         0.00000E+00
    0.32031E+05         0.10617E+07         0.00000E+00
    0.00000E+00         0.00000E+00        -0.11110E+06
 
   -0.15671E+07         0.89061E+05         0.00000E+00
    0.89061E+05         0.10578E+07         0.00000E+00
    0.00000E+00         0.00000E+00        -0.10188E+06
 
   -0.15166E+07         0.14308E+06         0.00000E+00
    0.14308E+06         0.10503E+07         0.00000E+00
    0.00000E+00         0.00000E+00        -0.93252E+05
 
   -0.14657E+07         0.19411E+06         0.00000E+00
    0.19411E+06         0.10397E+07         0.00000E+00
    0.00000E+00         0.00000E+00        -0.85196E+05
 
   -0.14146E+07         0.24217E+06         0.00000E+00
    0.24217E+06         0.10262E+07         0.00000E+00
    0.00000E+00         0.00000E+00        -0.77687E+05
 
   -0.13637E+07         0.28732E+06         0.00000E+00
    0.28732E+06         0.10102E+07         0.00000E+00
    0.00000E+00         0.00000E+00        -0.70701E+05
 
   -0.13130E+07         0.32963E+06         0.00000E+00
    0.32963E+06         0.99195E+06         0.00000E+00
    0.00000E+00         0.00000E+00        -0.64214E+05
 
   -0.12627E+07         0.36916E+06         0.00000E+00
    0.36916E+06         0.97172E+06         0.00000E+00
    0.00000E+00         0.00000E+00        -0.58201E+05
 
   -0.12130E+07         0.40600E+06         0.00000E+00
    0.40600E+06         0.94977E+06         0.00000E+00
    0.00000E+00         0.00000E+00        -0.52639E+05
 
   -0.11639E+07         0.44025E+06         0.00000E+00
    0.44025E+06         0.92637E+06         0.00000E+00
    0.00000E+00         0.00000E+00        -0.47502E+05
 
   -0.11156E+07         0.47202E+06         0.00000E+00
    0.47202E+06         0.90173E+06         0.00000E+00
    0.00000E+00         0.00000E+00        -0.42766E+05
 
   -0.10681E+07         0.50142E+06         0.00000E+00
    0.50142E+06         0.87607E+06         0.00000E+00
    0.00000E+00         0.00000E+00        -0.38408E+05
 
   -0.10216E+07         0.52855E+06         0.00000E+00
    0.52855E+06         0.84957E+06         0.00000E+00
    0.00000E+00         0.00000E+00        -0.34403E+05
 
   -0.97608E+06         0.55353E+06         0.00000E+00
    0.55353E+06         0.82243E+06         0.00000E+00
    0.00000E+00         0.00000E+00        -0.30730E+05
 
   -0.93161E+06         0.57648E+06         0.00000E+00
    0.57648E+06         0.79478E+06         0.00000E+00
    0.00000E+00         0.00000E+00        -0.27365E+05
 
   -0.88821E+06         0.59752E+06         0.00000E+00
    0.59752E+06         0.76678E+06         0.00000E+00
    0.00000E+00         0.00000E+00        -0.24288E+05
 
   -0.84592E+06         0.61675E+06         0.00000E+00
    0.61675E+06         0.73854E+06         0.00000E+00
    0.00000E+00         0.00000E+00        -0.21477E+05
 
   -0.80473E+06         0.63429E+06         0.00000E+00
    0.63429E+06         0.71017E+06         0.00000E+00
    0.00000E+00         0.00000E+00        -0.18913E+05
 
   -0.76465E+06         0.65024E+06         0.00000E+00
    0.65024E+06         0.68177E+06         0.00000E+00
    0.00000E+00         0.00000E+00        -0.16577E+05
 
   -0.72565E+06         0.66469E+06         0.00000E+00
    0.66469E+06         0.65340E+06         0.00000E+00
    0.00000E+00         0.00000E+00        -0.14451E+05
 
   -0.68773E+06         0.67774E+06         0.00000E+00
    0.67774E+06         0.62514E+06         0.00000E+00
    0.00000E+00         0.00000E+00        -0.12518E+05
 
   -0.65085E+06         0.68947E+06         0.00000E+00
    0.68947E+06         0.59704E+06         0.00000E+00
    0.00000E+00         0.00000E+00        -0.10762E+05
 
   -0.61499E+06         0.69995E+06         0.00000E+00
    0.69995E+06         0.56915E+06         0.00000E+00
    0.00000E+00         0.00000E+00        -0.91685E+04
 
   -0.58010E+06         0.70925E+06         0.00000E+00
    0.70925E+06         0.54148E+06         0.00000E+00
    0.00000E+00         0.00000E+00        -0.77231E+04
 
   -0.54615E+06         0.71742E+06         0.00000E+00
    0.71742E+06         0.51408E+06         0.00000E+00
    0.00000E+00         0.00000E+00        -0.64127E+04
 
   -0.51309E+06         0.72450E+06         0.00000E+00
    0.72450E+06         0.48696E+06         0.00000E+00
    0.00000E+00         0.00000E+00        -0.52251E+04
 
   -0.48089E+06         0.73053E+06         0.00000E+00
    0.73053E+06         0.46014E+06         0.00000E+00
    0.00000E+00         0.00000E+00        -0.41493E+04
 
   -0.44951E+06         0.73553E+06         0.00000E+00
    0.73553E+06         0.43364E+06         0.00000E+00
    0.00000E+00         0.00000E+00        -0.31748E+04
 
   -0.41892E+06         0.73952E+06         0.00000E+00
    0.73952E+06         0.40745E+06         0.00000E+00
    0.00000E+00         0.00000E+00        -0.22922E+04
 
   -0.38907E+06         0.74250E+06         0.00000E+00
    0.74250E+06         0.38161E+06         0.00000E+00
    0.00000E+00         0.00000E+00        -0.14929E+04
 
   -0.35996E+06         0.74447E+06         0.00000E+00
    0.74447E+06         0.35611E+06         0.00000E+00
    0.00000E+00         0.00000E+00        -0.76901E+03
 
   -0.33155E+06         0.74540E+06         0.00000E+00
    0.74540E+06         0.33099E+06         0.00000E+00
    0.00000E+00         0.00000E+00        -0.11357E+03
 
   -0.30385E+06         0.74529E+06         0.00000E+00
    0.74529E+06         0.30625E+06         0.00000E+00
    0.00000E+00         0.00000E+00         0.47976E+03
 
   -0.27685E+06         0.74409E+06         0.00000E+00
    0.74409E+06         0.28194E+06         0.00000E+00
    0.00000E+00         0.00000E+00         0.10166E+04
 
   -0.25057E+06         0.74177E+06         0.00000E+00
    0.74177E+06         0.25808E+06         0.00000E+00
    0.00000E+00         0.00000E+00         0.15019E+04
 
   -0.22502E+06         0.73829E+06         0.00000E+00
    0.73829E+06         0.23472E+06         0.00000E+00
    0.00000E+00         0.00000E+00         0.19400E+04
 
   -0.20025E+06         0.73359E+06         0.00000E+00
    0.73359E+06         0.21193E+06         0.00000E+00
    0.00000E+00         0.00000E+00         0.23348E+04
 
   -0.17631E+06         0.72764E+06         0.00000E+00
    0.72764E+06         0.18976E+06         0.00000E+00
    0.00000E+00         0.00000E+00         0.26893E+04
 
   -0.15327E+06         0.72037E+06         0.00000E+00
    0.72037E+06         0.16830E+06         0.00000E+00
    0.00000E+00         0.00000E+00         0.30065E+04
 
   -0.13121E+06         0.71174E+06         0.00000E+00
    0.71174E+06         0.14765E+06         0.00000E+00
    0.00000E+00         0.00000E+00         0.32884E+04
 
   -0.11023E+06         0.70169E+06         0.00000E+00
    0.70169E+06         0.12792E+06         0.00000E+00
    0.00000E+00         0.00000E+00         0.35372E+04
 
   -0.90463E+05         0.69018E+06         0.00000E+00
    0.69018E+06         0.10923E+06         0.00000E+00
    0.00000E+00         0.00000E+00         0.37542E+04
 
   -0.72037E+05         0.67716E+06         0.00000E+00
    0.67716E+06         0.91740E+05         0.00000E+00
    0.00000E+00         0.00000E+00         0.39406E+04
 
   -0.55116E+05         0.66259E+06         0.00000E+00
    0.66259E+06         0.75603E+05         0.00000E+00
    0.00000E+00         0.00000E+00         0.40975E+04
 
   -0.39877E+05         0.64647E+06         0.00000E+00
    0.64647E+06         0.61004E+05         0.00000E+00
    0.00000E+00         0.00000E+00         0.42255E+04
 
   -0.26519E+05         0.62877E+06         0.00000E+00
    0.62877E+06         0.48145E+05         0.00000E+00
    0.00000E+00         0.00000E+00         0.43252E+04
 
   -0.15259E+05         0.60949E+06         0.00000E+00
    0.60949E+06         0.37245E+05         0.00000E+00
    0.00000E+00         0.00000E+00         0.43970E+04
 
   -0.63366E+04         0.58867E+06         0.00000E+00
    0.58867E+06         0.28543E+05         0.00000E+00
    0.00000E+00         0.00000E+00         0.44413E+04
 
   -0.64399E+01         0.56635E+06         0.00000E+00
    0.56635E+06         0.22298E+05         0.00000E+00
    0.00000E+00         0.00000E+00         0.44584E+04
 
    0.34572E+04         0.54259E+06         0.00000E+00
    0.54259E+06         0.18786E+05         0.00000E+00
    0.00000E+00         0.00000E+00         0.44486E+04
 
   -0.14030E+07         0.29538E+05         0.00000E+00
    0.29538E+05         0.99234E+06         0.00000E+00
    0.00000E+00         0.00000E+00        -0.82141E+05
 
   -0.13658E+07         0.83091E+05         0.00000E+00
    0.83091E+05         0.98877E+06         0.00000E+00
    0.00000E+00         0.00000E+00        -0.75414E+05
 
   -0.13276E+07         0.13424E+06         0.00000E+00
    0.13424E+06         0.98201E+06         0.00000E+00
    0.00000E+00         0.00000E+00        -0.69113E+05
 
   -0.12884E+07         0.18297E+06         0.00000E+00
    0.18297E+06         0.97232E+06         0.00000E+00
    0.00000E+00         0.00000E+00        -0.63224E+05
 
   -0.12486E+07         0.22927E+06         0.00000E+00
    0.22927E+06         0.95995E+06         0.00000E+00
    0.00000E+00         0.00000E+00        -0.57731E+05
 
   -0.12082E+07         0.27316E+06         0.00000E+00
    0.27316E+06         0.94515E+06         0.00000E+00
    0.00000E+00         0.00000E+00        -0.52618E+05
 
   -0.11675E+07         0.31465E+06         0.00000E+00
    0.31465E+06         0.92816E+06         0.00000E+00
    0.00000E+00         0.00000E+00        -0.47868E+05
 
   -0.11265E+07         0.35377E+06         0.00000E+00
    0.35377E+06         0.90920E+06         0.00000E+00
    0.00000E+00         0.00000E+00        -0.43464E+05
 
   -0.10854E+07         0.39055E+06         0.00000E+00
    0.39055E+06         0.88849E+06         0.00000E+00
    0.00000E+00         0.00000E+00        -0.39388E+05
 
   -0.10444E+07         0.42506E+06         0.00000E+00
    0.42506E+06         0.86625E+06         0.00000E+00
    0.00000E+00         0.00000E+00        -0.35624E+05
 
   -0.10034E+07         0.45733E+06         0.00000E+00
    0.45733E+06         0.84267E+06         0.00000E+00
    0.00000E+00         0.00000E+00        -0.32153E+05
 
   -0.96273E+06         0.48744E+06         0.00000E+00
    0.48744E+06         0.81794E+06         0.00000E+00
    0.00000E+00         0.00000E+00        -0.28959E+05
 
   -0.92235E+06         0.51544E+06         0.00000E+00
    0.51544E+06         0.79223E+06         0.00000E+00
    0.00000E+00         0.00000E+00        -0.26024E+05
 
   -0.88236E+06         0.54140E+06         0.00000E+00
    0.54140E+06         0.76570E+06         0.00000E+00
    0.00000E+00         0.00000E+00        -0.23334E+05
 
   -0.84285E+06         0.56540E+06         0.00000E+00
    0.56540E+06         0.73850E+06         0.00000E+00
    0.00000E+00         0.00000E+00        -0.20871E+05
 
   -0.80387E+06         0.58751E+06         0.00000E+00
    0.58751E+06         0.71077E+06         0.00000E+00
    0.00000E+00         0.00000E+00        -0.18620E+05
 
   -0.76547E+06         0.60781E+06         0.00000E+00
    0.60781E+06         0.68263E+06         0.00000E+00
    0.00000E+00         0.00000E+00        -0.16567E+05
 
   -0.72769E+06         0.62635E+06         0.00000E+00
    0.62635E+06         0.65420E+06         0.00000E+00
    0.00000E+00         0.00000E+00        -0.14698E+05
 
   -0.69058E+06         0.64322E+06         0.00000E+00
    0.64322E+06         0.62559E+06         0.00000E+00
    0.00000E+00         0.00000E+00        -0.12998E+05
 
   -0.65415E+06         0.65848E+06         0.00000E+00
    0.65848E+06         0.59687E+06         0.00000E+00
    0.00000E+00         0.00000E+00        -0.11457E+05
 
   -0.61844E+06         0.67221E+06         0.00000E+00
    0.67221E+06         0.56814E+06         0.00000E+00
    0.00000E+00         0.00000E+00        -0.10060E+05
 
   -0.58346E+06         0.68445E+06         0.00000E+00
    0.68445E+06         0.53947E+06         0.00000E+00
    0.00000E+00         0.00000E+00        -0.87975E+04
 
   -0.54922E+06         0.69527E+06         0.00000E+00
    0.69527E+06         0.51093E+06         0.00000E+00
    0.00000E+00         0.00000E+00        -0.76588E+04
 
   -0.51574E+06         0.70472E+06         0.00000E+00
    0.70472E+06         0.48257E+06         0.00000E+00
    0.00000E+00         0.00000E+00        -0.66340E+04
 
   -0.48302E+06         0.71286E+06         0.00000E+00
    0.71286E+06         0.45445E+06         0.00000E+00
    0.00000E+00         0.00000E+00        -0.57141E+04
 
   -0.45107E+06         0.71971E+06         0.00000E+00
    0.71971E+06         0.42662E+06         0.00000E+00
    0.00000E+00         0.00000E+00        -0.48908E+04
 
   -0.41990E+06         0.72532E+06         0.00000E+00
    0.72532E+06         0.39912E+06         0.00000E+00
    0.00000E+00         0.00000E+00        -0.41565E+04
 
   -0.38952E+06         0.72972E+06         0.00000E+00
    0.72972E+06         0.37199E+06         0.00000E+00
    0.00000E+00         0.00000E+00        -0.35043E+04
 
   -0.35992E+06         0.73293E+06         0.00000E+00
    0.73293E+06         0.34528E+06         0.00000E+00
    0.00000E+00         0.00000E+00        -0.29281E+04
 
   -0.33113E+06         0.73498E+06         0.00000E+00
    0.73498E+06         0.31902E+06         0.00000E+00
    0.00000E+00         0.00000E+00        -0.24222E+04
 
   -0.30317E+06         0.73588E+06         0.00000E+00
    0.73588E+06         0.29326E+06         0.00000E+00
    0.00000E+00         0.00000E+00        -0.19816E+04
 
   -0.27604E+06         0.73564E+06         0.00000E+00
    0.73564E+06         0.26803E+06         0.00000E+00
    0.00000E+00         0.00000E+00        -0.16021E+04
 
   -0.24978E+06         0.73427E+06         0.00000E+00
    0.73427E+06         0.24338E+06         0.00000E+00
    0.00000E+00         0.00000E+00        -0.12797E+04
 
   -0.22442E+06         0.73178E+06         0.00000E+00
    0.73178E+06         0.21937E+06         0.00000E+00
    0.00000E+00         0.00000E+00        -0.10112E+04
 
   -0.20000E+06         0.72816E+06         0.00000E+00
    0.72816E+06         0.19603E+06         0.00000E+00
    0.00000E+00         0.00000E+00        -0.79382E+03
 
   -0.17657E+06         0.72341E+06         0.00000E+00
    0.72341E+06         0.17344E+06         0.00000E+00
    0.00000E+00         0.00000E+00        -0.62515E+03
 
   -0.15418E+06         0.71753E+06         0.00000E+00
    0.71753E+06         0.15166E+06         0.00000E+00
    0.00000E+00         0.00000E+00        -0.50328E+03
 
   -0.13289E+06         0.71052E+06         0.00000E+00
    0.71052E+06         0.13076E+06         0.00000E+00
    0.00000E+00         0.00000E+00        -0.42666E+03
 
   -0.11279E+06         0.70238E+06         0.00000E+00
    0.70238E+06         0.11082E+06         0.00000E+00
    0.00000E+00         0.00000E+00        -0.39408E+03
 
   -0.93959E+05         0.69311E+06         0.00000E+00
    0.69311E+06         0.91936E+05         0.00000E+00
    0.00000E+00         0.00000E+00        -0.40464E+03
 
   -0.76491E+05         0.68271E+06         0.00000E+00
    0.68271E+06         0.74202E+05         0.00000E+00
    0.00000E+00         0.00000E+00        -0.45767E+03
 
   -0.60494E+05         0.67120E+06         0.00000E+00
    0.67120E+06         0.57730E+05         0.00000E+00
    0.00000E+00         0.00000E+00        -0.55275E+03
 
   -0.46086E+05         0.65860E+06         0.00000E+00
    0.65860E+06         0.42638E+05         0.00000E+00
    0.00000E+00         0.00000E+00        -0.68960E+03
 
   -0.33398E+05         0.64493E+06         0.00000E+00
    0.64493E+06         0.29057E+05         0.00000E+00
    0.00000E+00         0.00000E+00        -0.86807E+03
 
   -0.22568E+05         0.63022E+06         0.00000E+00
    0.63022E+06         0.17127E+05         0.00000E+00
    0.00000E+00         0.00000E+00        -0.10881E+04
 
   -0.13747E+05         0.61454E+06         0.00000E+00
    0.61454E+06         0.69985E+04         0.00000E+00
    0.00000E+00         0.00000E+00        -0.13496E+04
 
   -0.70943E+04         0.59793E+06         0.00000E+00
    0.59793E+06        -0.11685E+04         0.00000E+00
    0.00000E+00         0.00000E+00        -0.16526E+04
 
   -0.27801E+04         0.58049E+06         0.00000E+00
    0.58049E+06        -0.72039E+04         0.00000E+00
    0.00000E+00         0.00000E+00        -0.19968E+04
 
   -0.98139E+03         0.56230E+06         0.00000E+00
    0.56230E+06        -0.10929E+05         0.00000E+00
    0.00000E+00         0.00000E+00        -0.23821E+04
 
   -0.18822E+04         0.54349E+06         0.00000E+00
    0.54349E+06        -0.12158E+05         0.00000E+00
    0.00000E+00         0.00000E+00        -0.28080E+04
 
   -0.12148E+07         0.26672E+05         0.00000E+00
    0.26672E+05         0.91851E+06         0.00000E+00
    0.00000E+00         0.00000E+00        -0.59268E+05
 
   -0.11877E+07         0.75748E+05         0.00000E+00
    0.75748E+05         0.91534E+06         0.00000E+00
    0.00000E+00         0.00000E+00        -0.54476E+05
 
   -0.11592E+07         0.12293E+06         0.00000E+00
    0.12293E+06         0.90932E+06         0.00000E+00
    0.00000E+00         0.00000E+00        -0.49983E+05
 
   -0.11296E+07         0.16819E+06         0.00000E+00
    0.16819E+06         0.90066E+06         0.00000E+00
    0.00000E+00         0.00000E+00        -0.45779E+05
 
   -0.10988E+07         0.21148E+06         0.00000E+00
    0.21148E+06         0.88955E+06         0.00000E+00
    0.00000E+00         0.00000E+00        -0.41853E+05
 
   -0.10672E+07         0.25279E+06         0.00000E+00
    0.25279E+06         0.87619E+06         0.00000E+00
    0.00000E+00         0.00000E+00        -0.38196E+05
 
   -0.10347E+07         0.29210E+06         0.00000E+00
    0.29210E+06         0.86078E+06         0.00000E+00
    0.00000E+00         0.00000E+00        -0.34794E+05
 
   -0.10017E+07         0.32943E+06         0.00000E+00
    0.32943E+06         0.84350E+06         0.00000E+00
    0.00000E+00         0.00000E+00        -0.31638E+05
 
   -0.96812E+06         0.36477E+06         0.00000E+00
    0.36477E+06         0.82454E+06         0.00000E+00
    0.00000E+00         0.00000E+00        -0.28715E+05
 
   -0.93415E+06         0.39813E+06         0.00000E+00
    0.39813E+06         0.80408E+06         0.00000E+00
    0.00000E+00         0.00000E+00        -0.26014E+05
 
   -0.89988E+06         0.42955E+06         0.00000E+00
    0.42955E+06         0.78227E+06         0.00000E+00
    0.00000E+00         0.00000E+00        -0.23522E+05
 
   -0.86543E+06         0.45905E+06         0.00000E+00
    0.45905E+06         0.75929E+06         0.00000E+00
    0.00000E+00         0.00000E+00        -0.21229E+05
 
   -0.83089E+06         0.48665E+06         0.00000E+00
    0.48665E+06         0.73529E+06         0.00000E+00
    0.00000E+00         0.00000E+00        -0.19121E+05
 
   -0.79634E+06         0.51240E+06         0.00000E+00
    0.51240E+06         0.71040E+06         0.00000E+00
    0.00000E+00         0.00000E+00        -0.17189E+05
 
   -0.76187E+06         0.53633E+06         0.00000E+00
    0.53633E+06         0.68477E+06         0.00000E+00
    0.00000E+00         0.00000E+00        -0.15420E+05
 
   -0.72755E+06         0.55850E+06         0.00000E+00
    0.55850E+06         0.65853E+06         0.00000E+00
    0.00000E+00         0.00000E+00        -0.13805E+05
 
   -0.69345E+06         0.57893E+06         0.00000E+00
    0.57893E+06         0.63178E+06         0.00000E+00
    0.00000E+00         0.00000E+00        -0.12333E+05
 
   -0.65963E+06         0.59769E+06         0.00000E+00
    0.59769E+06         0.60466E+06         0.00000E+00
    0.00000E+00         0.00000E+00        -0.10993E+05
 
   -0.62614E+06         0.61482E+06         0.00000E+00
    0.61482E+06         0.57725E+06         0.00000E+00
    0.00000E+00         0.00000E+00        -0.97780E+04
 
   -0.59305E+06         0.63036E+06         0.00000E+00
    0.63036E+06         0.54966E+06         0.00000E+00
    0.00000E+00         0.00000E+00        -0.86776E+04
 
   -0.56040E+06         0.64437E+06         0.00000E+00
    0.64437E+06         0.52198E+06         0.00000E+00
    0.00000E+00         0.00000E+00        -0.76837E+04
 
   -0.52823E+06         0.65688E+06         0.00000E+00
    0.65688E+06         0.49428E+06         0.00000E+00
    0.00000E+00         0.00000E+00        -0.67887E+04
 
   -0.49658E+06         0.66795E+06         0.00000E+00
    0.66795E+06         0.46666E+06         0.00000E+00
    0.00000E+00         0.00000E+00        -0.59853E+04
 
   -0.46550E+06         0.67762E+06         0.00000E+00
    0.67762E+06         0.43917E+06         0.00000E+00
    0.00000E+00         0.00000E+00        -0.52666E+04
 
   -0.43502E+06         0.68593E+06         0.00000E+00
    0.68593E+06         0.41188E+06         0.00000E+00
    0.00000E+00         0.00000E+00        -0.46266E+04
 
   -0.40517E+06         0.69291E+06         0.00000E+00
    0.69291E+06         0.38487E+06         0.00000E+00
    0.00000E+00         0.00000E+00        -0.40595E+04
 
   -0.37599E+06         0.69861E+06         0.00000E+00
    0.69861E+06         0.35818E+06         0.00000E+00
    0.00000E+00         0.00000E+00        -0.35602E+04
 
   -0.34751E+06         0.70306E+06         0.00000E+00
    0.70306E+06         0.33189E+06         0.00000E+00
    0.00000E+00         0.00000E+00        -0.31241E+04
 
   -0.31977E+06         0.70629E+06         0.00000E+00
    0.70629E+06         0.30603E+06         0.00000E+00
    0.00000E+00         0.00000E+00        -0.27470E+04
 
   -0.29280E+06         0.70834E+06         0.00000E+00
    0.70834E+06         0.28068E+06         0.00000E+00
    0.00000E+00         0.00000E+00        -0.24252E+04
 
   -0.26665E+06         0.70923E+06         0.00000E+00
    0.70923E+06         0.25588E+06         0.00000E+00
    0.00000E+00         0.00000E+00        -0.21554E+04
 
   -0.24136E+06         0.70900E+06         0.00000E+00
    0.70900E+06         0.23168E+06         0.00000E+00
    0.00000E+00         0.00000E+00        -0.19349E+04
 
   -0.21696E+06         0.70766E+06         0.00000E+00
    0.70766E+06         0.20815E+06         0.00000E+00
    0.00000E+00         0.00000E+00        -0.17612E+04
 
   -0.19350E+06         0.70524E+06         0.00000E+00
    0.70524E+06         0.18534E+06         0.00000E+00
    0.00000E+00         0.00000E+00        -0.16321E+04
 
   -0.17104E+06         0.70178E+06         0.00000E+00
    0.70178E+06         0.16331E+06         0.00000E+00
    0.00000E+00         0.00000E+00        -0.15461E+04
 
   -0.14963E+06         0.69729E+06         0.00000E+00
    0.69729E+06         0.14212E+06         0.00000E+00
    0.00000E+00         0.00000E+00        -0.15018E+04
 
   -0.12933E+06         0.69180E+06         0.00000E+00
    0.69180E+06         0.12185E+06         0.00000E+00
    0.00000E+00         0.00000E+00        -0.14978E+04
 
   -0.11022E+06         0.68535E+06         0.00000E+00
    0.68535E+06         0.10255E+06         0.00000E+00
    0.00000E+00         0.00000E+00        -0.15335E+04
 
   -0.92344E+05         0.67796E+06         0.00000E+00
    0.67796E+06         0.84303E+05         0.00000E+00
    0.00000E+00         0.00000E+00        -0.16081E+04
 
   -0.75797E+05         0.66966E+06         0.00000E+00
    0.66966E+06         0.67191E+05         0.00000E+00
    0.00000E+00         0.00000E+00        -0.17212E+04
 
   -0.60656E+05         0.66051E+06         0.00000E+00
    0.66051E+06         0.51294E+05         0.00000E+00
    0.00000E+00         0.00000E+00        -0.18724E+04
 
   -0.47009E+05         0.65055E+06         0.00000E+00
    0.65055E+06         0.36701E+05         0.00000E+00
    0.00000E+00         0.00000E+00        -0.20615E+04
 
   -0.34947E+05         0.63982E+06         0.00000E+00
    0.63982E+06         0.23506E+05         0.00000E+00
    0.00000E+00         0.00000E+00        -0.22883E+04
 
   -0.24568E+05         0.62839E+06         0.00000E+00
    0.62839E+06         0.11805E+05         0.00000E+00
    0.00000E+00         0.00000E+00        -0.25526E+04
 
   -0.15974E+05         0.61633E+06         0.00000E+00
    0.61633E+06         0.17024E+04         0.00000E+00
    0.00000E+00         0.00000E+00        -0.28544E+04
 
   -0.92711E+04         0.60372E+06         0.00000E+00
    0.60372E+06        -0.66956E+04         0.00000E+00
    0.00000E+00         0.00000E+00        -0.31934E+04
 
   -0.45677E+04         0.59065E+06         0.00000E+00
    0.59065E+06        -0.13278E+05         0.00000E+00
    0.00000E+00         0.00000E+00        -0.35692E+04
 
   -0.19757E+04         0.57722E+06         0.00000E+00
    0.57722E+06        -0.17932E+05         0.00000E+00
    0.00000E+00         0.00000E+00        -0.39815E+04
 
   -0.16083E+04         0.56355E+06         0.00000E+00
    0.56355E+06        -0.20539E+05         0.00000E+00
    0.00000E+00         0.00000E+00        -0.44296E+04
 
   -0.35788E+04         0.54978E+06         0.00000E+00
    0.54978E+06        -0.20984E+05         0.00000E+00
    0.00000E+00         0.00000E+00        -0.49126E+04
 
   -0.10522E+07         0.23669E+05         0.00000E+00
    0.23669E+05         0.84406E+06         0.00000E+00
    0.00000E+00         0.00000E+00        -0.41624E+05
 
   -0.10328E+07         0.67790E+05         0.00000E+00
    0.67790E+05         0.84130E+06         0.00000E+00
    0.00000E+00         0.00000E+00        -0.38307E+05
 
   -0.10120E+07         0.11045E+06         0.00000E+00
    0.11045E+06         0.83603E+06         0.00000E+00
    0.00000E+00         0.00000E+00        -0.35192E+05
 
   -0.98978E+06         0.15160E+06         0.00000E+00
    0.15160E+06         0.82842E+06         0.00000E+00
    0.00000E+00         0.00000E+00        -0.32272E+05
 
   -0.96634E+06         0.19118E+06         0.00000E+00
    0.19118E+06         0.81863E+06         0.00000E+00
    0.00000E+00         0.00000E+00        -0.29541E+05
 
   -0.94178E+06         0.22917E+06         0.00000E+00
    0.22917E+06         0.80681E+06         0.00000E+00
    0.00000E+00         0.00000E+00        -0.26993E+05
 
   -0.91624E+06         0.26552E+06         0.00000E+00
    0.26552E+06         0.79313E+06         0.00000E+00
    0.00000E+00         0.00000E+00        -0.24621E+05
 
   -0.88982E+06         0.30024E+06         0.00000E+00
    0.30024E+06         0.77774E+06         0.00000E+00
    0.00000E+00         0.00000E+00        -0.22417E+05
 
   -0.86265E+06         0.33329E+06         0.00000E+00
    0.33329E+06         0.76078E+06         0.00000E+00
    0.00000E+00         0.00000E+00        -0.20373E+05
 
   -0.83483E+06         0.36467E+06         0.00000E+00
    0.36467E+06         0.74241E+06         0.00000E+00
    0.00000E+00         0.00000E+00        -0.18483E+05
 
   -0.80646E+06         0.39438E+06         0.00000E+00
    0.39438E+06         0.72277E+06         0.00000E+00
    0.00000E+00         0.00000E+00        -0.16737E+05
 
   -0.77764E+06         0.42243E+06         0.00000E+00
    0.42243E+06         0.70199E+06         0.00000E+00
    0.00000E+00         0.00000E+00        -0.15129E+05
 
   -0.74846E+06         0.44883E+06         0.00000E+00
    0.44883E+06         0.68021E+06         0.00000E+00
    0.00000E+00         0.00000E+00        -0.13651E+05
 
   -0.71902E+06         0.47359E+06         0.00000E+00
    0.47359E+06         0.65755E+06         0.00000E+00
    0.00000E+00         0.00000E+00        -0.12294E+05
 
   -0.68939E+06         0.49673E+06         0.00000E+00
    0.49673E+06         0.63413E+06         0.00000E+00
    0.00000E+00         0.00000E+00        -0.11052E+05
 
   -0.65966E+06         0.51827E+06         0.00000E+00
    0.51827E+06         0.61008E+06         0.00000E+00
    0.00000E+00         0.00000E+00        -0.99174E+04
 
   -0.62990E+06         0.53825E+06         0.00000E+00
    0.53825E+06         0.58549E+06         0.00000E+00
    0.00000E+00         0.00000E+00        -0.88830E+04
 
   -0.60018E+06         0.55669E+06         0.00000E+00
    0.55669E+06         0.56047E+06         0.00000E+00
    0.00000E+00         0.00000E+00        -0.79424E+04
 
   -0.57057E+06         0.57361E+06         0.00000E+00
    0.57361E+06         0.53513E+06         0.00000E+00
    0.00000E+00         0.00000E+00        -0.70891E+04
 
   -0.54114E+06         0.58906E+06         0.00000E+00
    0.58906E+06         0.50955E+06         0.00000E+00
    0.00000E+00         0.00000E+00        -0.63170E+04
 
   -0.51193E+06         0.60306E+06         0.00000E+00
    0.60306E+06         0.48383E+06         0.00000E+00
    0.00000E+00         0.00000E+00        -0.56205E+04
 
   -0.48302E+06         0.61565E+06         0.00000E+00
    0.61565E+06         0.45805E+06         0.00000E+00
    0.00000E+00         0.00000E+00        -0.49941E+04
 
   -0.45445E+06         0.62687E+06         0.00000E+00
    0.62687E+06         0.43229E+06         0.00000E+00
    0.00000E+00         0.00000E+00        -0.44330E+04
 
   -0.42628E+06         0.63675E+06         0.00000E+00
    0.63675E+06         0.40662E+06         0.00000E+00
    0.00000E+00         0.00000E+00        -0.39324E+04
 
   -0.39856E+06         0.64533E+06         0.00000E+00
    0.64533E+06         0.38112E+06         0.00000E+00
    0.00000E+00         0.00000E+00        -0.34881E+04
 
   -0.37134E+06         0.65264E+06         0.00000E+00
    0.65264E+06         0.35586E+06         0.00000E+00
    0.00000E+00         0.00000E+00        -0.30962E+04
 
   -0.34467E+06         0.65872E+06         0.00000E+00
    0.65872E+06         0.33090E+06         0.00000E+00
    0.00000E+00         0.00000E+00        -0.27532E+04
 
   -0.31859E+06         0.66360E+06         0.00000E+00
    0.66360E+06         0.30631E+06         0.00000E+00
    0.00000E+00         0.00000E+00        -0.24557E+04
 
   -0.29316E+06         0.66733E+06         0.00000E+00
    0.66733E+06         0.28215E+06         0.00000E+00
    0.00000E+00         0.00000E+00        -0.22010E+04
 
   -0.26841E+06         0.66993E+06         0.00000E+00
    0.66993E+06         0.25848E+06         0.00000E+00
    0.00000E+00         0.00000E+00        -0.19863E+04
 
   -0.24441E+06         0.67145E+06         0.00000E+00
    0.67145E+06         0.23536E+06         0.00000E+00
    0.00000E+00         0.00000E+00        -0.18095E+04
 
   -0.22119E+06         0.67192E+06         0.00000E+00
    0.67192E+06         0.21285E+06         0.00000E+00
    0.00000E+00         0.00000E+00        -0.16685E+04
 
   -0.19881E+06         0.67137E+06         0.00000E+00
    0.67137E+06         0.19100E+06         0.00000E+00
    0.00000E+00         0.00000E+00        -0.15616E+04
 
   -0.17732E+06         0.66986E+06         0.00000E+00
    0.66986E+06         0.16988E+06         0.00000E+00
    0.00000E+00         0.00000E+00        -0.14872E+04
 
   -0.15677E+06         0.66741E+06         0.00000E+00
    0.66741E+06         0.14955E+06         0.00000E+00
    0.00000E+00         0.00000E+00        -0.14440E+04
 
   -0.13722E+06         0.66406E+06         0.00000E+00
    0.66406E+06         0.13007E+06         0.00000E+00
    0.00000E+00         0.00000E+00        -0.14310E+04
 
   -0.11873E+06         0.65987E+06         0.00000E+00
    0.65987E+06         0.11149E+06         0.00000E+00
    0.00000E+00         0.00000E+00        -0.14471E+04
 
   -0.10135E+06         0.65487E+06         0.00000E+00
    0.65487E+06         0.93888E+05         0.00000E+00
    0.00000E+00         0.00000E+00        -0.14916E+04
 
   -0.85137E+05         0.64913E+06         0.00000E+00
    0.64913E+06         0.77318E+05         0.00000E+00
    0.00000E+00         0.00000E+00        -0.15638E+04
 
   -0.70165E+05         0.64268E+06         0.00000E+00
    0.64268E+06         0.61850E+05         0.00000E+00
    0.00000E+00         0.00000E+00        -0.16630E+04
 
   -0.56494E+05         0.63559E+06         0.00000E+00
    0.63559E+06         0.47551E+05         0.00000E+00
    0.00000E+00         0.00000E+00        -0.17887E+04
 
   -0.44190E+05         0.62793E+06         0.00000E+00
    0.62793E+06         0.34489E+05         0.00000E+00
    0.00000E+00         0.00000E+00        -0.19403E+04
 
   -0.33322E+05         0.61975E+06         0.00000E+00
    0.61975E+06         0.22735E+05         0.00000E+00
    0.00000E+00         0.00000E+00        -0.21173E+04
 
   -0.23956E+05         0.61114E+06         0.00000E+00
    0.61114E+06         0.12360E+05         0.00000E+00
    0.00000E+00         0.00000E+00        -0.23192E+04
 
   -0.16163E+05         0.60218E+06         0.00000E+00
    0.60218E+06         0.34364E+04         0.00000E+00
    0.00000E+00         0.00000E+00        -0.25453E+04
 
   -0.10011E+05         0.59296E+06         0.00000E+00
    0.59296E+06        -0.39630E+04         0.00000E+00
    0.00000E+00         0.00000E+00        -0.27948E+04
 
   -0.55689E+04         0.58357E+06         0.00000E+00
    0.58357E+06        -0.97655E+04         0.00000E+00
    0.00000E+00         0.00000E+00        -0.30669E+04
 
   -0.29033E+04         0.57414E+06         0.00000E+00
    0.57414E+06        -0.13899E+05         0.00000E+00
    0.00000E+00         0.00000E+00        -0.33605E+04
 
   -0.20787E+04         0.56477E+06         0.00000E+00
    0.56477E+06        -0.16293E+05         0.00000E+00
    0.00000E+00         0.00000E+00        -0.36743E+04
 
   -0.31561E+04         0.55559E+06         0.00000E+00
    0.55559E+06        -0.16879E+05         0.00000E+00
    0.00000E+00         0.00000E+00        -0.40070E+04
 
   -0.91355E+06         0.20718E+05         0.00000E+00
    0.20718E+05         0.77167E+06         0.00000E+00
    0.00000E+00         0.00000E+00        -0.28377E+05
 
   -0.90007E+06         0.59796E+05         0.00000E+00
    0.59796E+05         0.76930E+06         0.00000E+00
    0.00000E+00         0.00000E+00        -0.26154E+05
 
   -0.88507E+06         0.97774E+05         0.00000E+00
    0.97774E+05         0.76477E+06         0.00000E+00
    0.00000E+00         0.00000E+00        -0.24061E+05
 
   -0.86867E+06         0.13459E+06         0.00000E+00
    0.13459E+06         0.75819E+06         0.00000E+00
    0.00000E+00         0.00000E+00        -0.22095E+05
 
   -0.85097E+06         0.17018E+06         0.00000E+00
    0.17018E+06         0.74971E+06         0.00000E+00
    0.00000E+00         0.00000E+00        -0.20253E+05
 
   -0.83209E+06         0.20452E+06         0.00000E+00
    0.20452E+06         0.73944E+06         0.00000E+00
    0.00000E+00         0.00000E+00        -0.18530E+05
 
   -0.81213E+06         0.23754E+06         0.00000E+00
    0.23754E+06         0.72751E+06         0.00000E+00
    0.00000E+00         0.00000E+00        -0.16924E+05
 
   -0.79119E+06         0.26923E+06         0.00000E+00
    0.26923E+06         0.71405E+06         0.00000E+00
    0.00000E+00         0.00000E+00        -0.15428E+05
 
   -0.76938E+06         0.29955E+06         0.00000E+00
    0.29955E+06         0.69918E+06         0.00000E+00
    0.00000E+00         0.00000E+00        -0.14040E+05
 
   -0.74678E+06         0.32849E+06         0.00000E+00
    0.32849E+06         0.68301E+06         0.00000E+00
    0.00000E+00         0.00000E+00        -0.12753E+05
 
   -0.72350E+06         0.35604E+06         0.00000E+00
    0.35604E+06         0.66568E+06         0.00000E+00
    0.00000E+00         0.00000E+00        -0.11563E+05
 
   -0.69962E+06         0.38217E+06         0.00000E+00
    0.38217E+06         0.64729E+06         0.00000E+00
    0.00000E+00         0.00000E+00        -0.10466E+05
 
   -0.67523E+06         0.40690E+06         0.00000E+00
    0.40690E+06         0.62795E+06         0.00000E+00
    0.00000E+00         0.00000E+00        -0.94550E+04
 
   -0.65041E+06         0.43021E+06         0.00000E+00
    0.43021E+06         0.60778E+06         0.00000E+00
    0.00000E+00         0.00000E+00        -0.85264E+04
 
   -0.62526E+06         0.45213E+06         0.00000E+00
    0.45213E+06         0.58688E+06         0.00000E+00
    0.00000E+00         0.00000E+00        -0.76751E+04
 
   -0.59983E+06         0.47264E+06         0.00000E+00
    0.47264E+06         0.56535E+06         0.00000E+00
    0.00000E+00         0.00000E+00        -0.68964E+04
 
   -0.57421E+06         0.49178E+06         0.00000E+00
    0.49178E+06         0.54329E+06         0.00000E+00
    0.00000E+00         0.00000E+00        -0.61855E+04
 
   -0.54848E+06         0.50955E+06         0.00000E+00
    0.50955E+06         0.52079E+06         0.00000E+00
    0.00000E+00         0.00000E+00        -0.55381E+04
 
   -0.52269E+06         0.52598E+06         0.00000E+00
    0.52598E+06         0.49794E+06         0.00000E+00
    0.00000E+00         0.00000E+00        -0.49499E+04
 
   -0.49692E+06         0.54107E+06         0.00000E+00
    0.54107E+06         0.47483E+06         0.00000E+00
    0.00000E+00         0.00000E+00        -0.44168E+04
 
   -0.47123E+06         0.55487E+06         0.00000E+00
    0.55487E+06         0.45155E+06         0.00000E+00
    0.00000E+00         0.00000E+00        -0.39350E+04
 
   -0.44568E+06         0.56739E+06         0.00000E+00
    0.56739E+06         0.42818E+06         0.00000E+00
    0.00000E+00         0.00000E+00        -0.35007E+04
 
   -0.42033E+06         0.57867E+06         0.00000E+00
    0.57867E+06         0.40478E+06         0.00000E+00
    0.00000E+00         0.00000E+00        -0.31107E+04
 
   -0.39525E+06         0.58872E+06         0.00000E+00
    0.58872E+06         0.38144E+06         0.00000E+00
    0.00000E+00         0.00000E+00        -0.27615E+04
 
   -0.37048E+06         0.59759E+06         0.00000E+00
    0.59759E+06         0.35823E+06         0.00000E+00
    0.00000E+00         0.00000E+00        -0.24503E+04
 
   -0.34608E+06         0.60530E+06         0.00000E+00
    0.60530E+06         0.33521E+06         0.00000E+00
    0.00000E+00         0.00000E+00        -0.21742E+04
 
   -0.32210E+06         0.61189E+06         0.00000E+00
    0.61189E+06         0.31245E+06         0.00000E+00
    0.00000E+00         0.00000E+00        -0.19308E+04
 
   -0.29860E+06         0.61739E+06         0.00000E+00
    0.61739E+06         0.29001E+06         0.00000E+00
    0.00000E+00         0.00000E+00        -0.17175E+04
 
   -0.27563E+06         0.62184E+06         0.00000E+00
    0.62184E+06         0.26797E+06         0.00000E+00
    0.00000E+00         0.00000E+00        -0.15324E+04
 
   -0.25323E+06         0.62528E+06         0.00000E+00
    0.62528E+06         0.24637E+06         0.00000E+00
    0.00000E+00         0.00000E+00        -0.13733E+04
 
   -0.23146E+06         0.62774E+06         0.00000E+00
    0.62774E+06         0.22527E+06         0.00000E+00
    0.00000E+00         0.00000E+00        -0.12385E+04
 
   -0.21037E+06         0.62927E+06         0.00000E+00
    0.62927E+06         0.20474E+06         0.00000E+00
    0.00000E+00         0.00000E+00        -0.11262E+04
 
   -0.19001E+06         0.62990E+06         0.00000E+00
    0.62990E+06         0.18484E+06         0.00000E+00
    0.00000E+00         0.00000E+00        -0.10351E+04
 
   -0.17042E+06         0.62968E+06         0.00000E+00
    0.62968E+06         0.16561E+06         0.00000E+00
    0.00000E+00         0.00000E+00        -0.96367E+03
 
   -0.15166E+06         0.62866E+06         0.00000E+00
    0.62866E+06         0.14711E+06         0.00000E+00
    0.00000E+00         0.00000E+00        -0.91066E+03
 
   -0.13377E+06         0.62688E+06         0.00000E+00
    0.62688E+06         0.12940E+06         0.00000E+00
    0.00000E+00         0.00000E+00        -0.87486E+03
 
   -0.11681E+06         0.62440E+06         0.00000E+00
    0.62440E+06         0.11253E+06         0.00000E+00
    0.00000E+00         0.00000E+00        -0.85517E+03
 
   -0.10082E+06         0.62127E+06         0.00000E+00
    0.62127E+06         0.96567E+05         0.00000E+00
    0.00000E+00         0.00000E+00        -0.85051E+03
 
   -0.85848E+05         0.61754E+06         0.00000E+00
    0.61754E+06         0.81549E+05         0.00000E+00
    0.00000E+00         0.00000E+00        -0.85983E+03
 
   -0.71947E+05         0.61327E+06         0.00000E+00
    0.61327E+06         0.67537E+05         0.00000E+00
    0.00000E+00         0.00000E+00        -0.88210E+03
 
   -0.59164E+05         0.60854E+06         0.00000E+00
    0.60854E+06         0.54582E+05         0.00000E+00
    0.00000E+00         0.00000E+00        -0.91628E+03
 
   -0.47545E+05         0.60340E+06         0.00000E+00
    0.60340E+06         0.42738E+05         0.00000E+00
    0.00000E+00         0.00000E+00        -0.96129E+03
 
   -0.37137E+05         0.59793E+06         0.00000E+00
    0.59793E+06         0.32057E+05         0.00000E+00
    0.00000E+00         0.00000E+00        -0.10160E+04
 
   -0.27984E+05         0.59221E+06         0.00000E+00
    0.59221E+06         0.22588E+05         0.00000E+00
    0.00000E+00         0.00000E+00        -0.10792E+04
 
   -0.20130E+05         0.58632E+06         0.00000E+00
    0.58632E+06         0.14382E+05         0.00000E+00
    0.00000E+00         0.00000E+00        -0.11495E+04
 
   -0.13614E+05         0.58035E+06         0.00000E+00
    0.58035E+06         0.74869E+04         0.00000E+00
    0.00000E+00         0.00000E+00        -0.12255E+04
 
   -0.84752E+04         0.57439E+06         0.00000E+00
    0.57439E+06         0.19472E+04         0.00000E+00
    0.00000E+00         0.00000E+00        -0.13056E+04
 
   -0.47466E+04         0.56855E+06         0.00000E+00
    0.56855E+06        -0.21938E+04         0.00000E+00
    0.00000E+00         0.00000E+00        -0.13881E+04
 
   -0.24581E+04         0.56294E+06         0.00000E+00
    0.56294E+06        -0.48966E+04         0.00000E+00
    0.00000E+00         0.00000E+00        -0.14709E+04
 
   -0.16346E+04         0.55767E+06         0.00000E+00
    0.55767E+06        -0.61255E+04         0.00000E+00
    0.00000E+00         0.00000E+00        -0.15520E+04
 
   -0.79674E+06         0.17948E+05         0.00000E+00
    0.17948E+05         0.70307E+06         0.00000E+00
    0.00000E+00         0.00000E+00        -0.18735E+05
 
   -0.78755E+06         0.52178E+05         0.00000E+00
    0.52178E+05         0.70107E+06         0.00000E+00
    0.00000E+00         0.00000E+00        -0.17296E+05
 
   -0.77691E+06         0.85601E+05         0.00000E+00
    0.85601E+05         0.69722E+06         0.00000E+00
    0.00000E+00         0.00000E+00        -0.15937E+05
 
   -0.76491E+06         0.11815E+06         0.00000E+00
    0.11815E+06         0.69163E+06         0.00000E+00
    0.00000E+00         0.00000E+00        -0.14658E+05
 
   -0.75166E+06         0.14977E+06         0.00000E+00
    0.14977E+06         0.68438E+06         0.00000E+00
    0.00000E+00         0.00000E+00        -0.13456E+05
 
   -0.73724E+06         0.18041E+06         0.00000E+00
    0.18041E+06         0.67559E+06         0.00000E+00
    0.00000E+00         0.00000E+00        -0.12329E+05
 
   -0.72173E+06         0.21002E+06         0.00000E+00
    0.21002E+06         0.66535E+06         0.00000E+00
    0.00000E+00         0.00000E+00        -0.11275E+05
 
   -0.70522E+06         0.23857E+06         0.00000E+00
    0.23857E+06         0.65376E+06         0.00000E+00
    0.00000E+00         0.00000E+00        -0.10292E+05
 
   -0.68781E+06         0.26602E+06         0.00000E+00
    0.26602E+06         0.64093E+06         0.00000E+00
    0.00000E+00         0.00000E+00        -0.93769E+04
 
   -0.66957E+06         0.29234E+06         0.00000E+00
    0.29234E+06         0.62694E+06         0.00000E+00
    0.00000E+00         0.00000E+00        -0.85270E+04
 
   -0.65059E+06         0.31751E+06         0.00000E+00
    0.31751E+06         0.61189E+06         0.00000E+00
    0.00000E+00         0.00000E+00        -0.77394E+04
 
   -0.63095E+06         0.34152E+06         0.00000E+00
    0.34152E+06         0.59589E+06         0.00000E+00
    0.00000E+00         0.00000E+00        -0.70109E+04
 
   -0.61072E+06         0.36435E+06         0.00000E+00
    0.36435E+06         0.57902E+06         0.00000E+00
    0.00000E+00         0.00000E+00        -0.63386E+04
 
   -0.58998E+06         0.38600E+06         0.00000E+00
    0.38600E+06         0.56138E+06         0.00000E+00
    0.00000E+00         0.00000E+00        -0.57194E+04
 
   -0.56881E+06         0.40645E+06         0.00000E+00
    0.40645E+06         0.54306E+06         0.00000E+00
    0.00000E+00         0.00000E+00        -0.51501E+04
 
   -0.54727E+06         0.42572E+06         0.00000E+00
    0.42572E+06         0.52413E+06         0.00000E+00
    0.00000E+00         0.00000E+00        -0.46277E+04
 
   -0.52545E+06         0.44381E+06         0.00000E+00
    0.44381E+06         0.50470E+06         0.00000E+00
    0.00000E+00         0.00000E+00        -0.41493E+04
 
   -0.50340E+06         0.46071E+06         0.00000E+00
    0.46071E+06         0.48484E+06         0.00000E+00
    0.00000E+00         0.00000E+00        -0.37119E+04
 
   -0.48120E+06         0.47645E+06         0.00000E+00
    0.47645E+06         0.46463E+06         0.00000E+00
    0.00000E+00         0.00000E+00        -0.33127E+04
 
   -0.45890E+06         0.49104E+06         0.00000E+00
    0.49104E+06         0.44415E+06         0.00000E+00
    0.00000E+00         0.00000E+00        -0.29489E+04
 
   -0.43657E+06         0.50450E+06         0.00000E+00
    0.50450E+06         0.42348E+06         0.00000E+00
    0.00000E+00         0.00000E+00        -0.26179E+04
 
   -0.41427E+06         0.51683E+06         0.00000E+00
    0.51683E+06         0.40268E+06         0.00000E+00
    0.00000E+00         0.00000E+00        -0.23172E+04
 
   -0.39206E+06         0.52807E+06         0.00000E+00
    0.52807E+06         0.38184E+06         0.00000E+00
    0.00000E+00         0.00000E+00        -0.20443E+04
 
   -0.36999E+06         0.53824E+06         0.00000E+00
    0.53824E+06         0.36101E+06         0.00000E+00
    0.00000E+00         0.00000E+00        -0.17970E+04
 
   -0.34812E+06         0.54736E+06         0.00000E+00
    0.54736E+06         0.34026E+06         0.00000E+00
    0.00000E+00         0.00000E+00        -0.15731E+04
 
   -0.32651E+06         0.55546E+06         0.00000E+00
    0.55546E+06         0.31966E+06         0.00000E+00
    0.00000E+00         0.00000E+00        -0.13704E+04
 
   -0.30520E+06         0.56258E+06         0.00000E+00
    0.56258E+06         0.29927E+06         0.00000E+00
    0.00000E+00         0.00000E+00        -0.11870E+04
 
   -0.28425E+06         0.56874E+06         0.00000E+00
    0.56874E+06         0.27914E+06         0.00000E+00
    0.00000E+00         0.00000E+00        -0.10210E+04
 
   -0.26370E+06         0.57397E+06         0.00000E+00
    0.57397E+06         0.25935E+06         0.00000E+00
    0.00000E+00         0.00000E+00        -0.87069E+03
 
   -0.24361E+06         0.57832E+06         0.00000E+00
    0.57832E+06         0.23994E+06         0.00000E+00
    0.00000E+00         0.00000E+00        -0.73428E+03
 
   -0.22402E+06         0.58182E+06         0.00000E+00
    0.58182E+06         0.22097E+06         0.00000E+00
    0.00000E+00         0.00000E+00        -0.61015E+03
 
   -0.20498E+06         0.58452E+06         0.00000E+00
    0.58452E+06         0.20249E+06         0.00000E+00
    0.00000E+00         0.00000E+00        -0.49673E+03
 
   -0.18653E+06         0.58644E+06         0.00000E+00
    0.58644E+06         0.18456E+06         0.00000E+00
    0.00000E+00         0.00000E+00        -0.39249E+03
 
   -0.16871E+06         0.58764E+06         0.00000E+00
    0.58764E+06         0.16723E+06         0.00000E+00
    0.00000E+00         0.00000E+00        -0.29595E+03
 
   -0.15157E+06         0.58816E+06         0.00000E+00
    0.58816E+06         0.15054E+06         0.00000E+00
    0.00000E+00         0.00000E+00        -0.20564E+03
 
   -0.13515E+06         0.58806E+06         0.00000E+00
    0.58806E+06         0.13455E+06         0.00000E+00
    0.00000E+00         0.00000E+00        -0.12010E+03
 
   -0.11948E+06         0.58737E+06         0.00000E+00
    0.58737E+06         0.11929E+06         0.00000E+00
    0.00000E+00         0.00000E+00        -0.37872E+02
 
   -0.10462E+06         0.58616E+06         0.00000E+00
    0.58616E+06         0.10483E+06         0.00000E+00
    0.00000E+00         0.00000E+00         0.42531E+02
 
   -0.90587E+05         0.58448E+06         0.00000E+00
    0.58448E+06         0.91200E+05         0.00000E+00
    0.00000E+00         0.00000E+00         0.12262E+03
 
   -0.77425E+05         0.58240E+06         0.00000E+00
    0.58240E+06         0.78445E+05         0.00000E+00
    0.00000E+00         0.00000E+00         0.20397E+03
 
   -0.65166E+05         0.57996E+06         0.00000E+00
    0.57996E+06         0.66607E+05         0.00000E+00
    0.00000E+00         0.00000E+00         0.28819E+03
 
   -0.53841E+05         0.57725E+06         0.00000E+00
    0.57725E+06         0.55726E+05         0.00000E+00
    0.00000E+00         0.00000E+00         0.37701E+03
 
   -0.43479E+05         0.57433E+06         0.00000E+00
    0.57433E+06         0.45840E+05         0.00000E+00
    0.00000E+00         0.00000E+00         0.47221E+03
 
   -0.34107E+05         0.57126E+06         0.00000E+00
    0.57126E+06         0.36985E+05         0.00000E+00
    0.00000E+00         0.00000E+00         0.57572E+03
 
   -0.25747E+05         0.56814E+06         0.00000E+00
    0.56814E+06         0.29194E+05         0.00000E+00
    0.00000E+00         0.00000E+00         0.68956E+03
 
   -0.18419E+05         0.56503E+06         0.00000E+00
    0.56503E+06         0.22498E+05         0.00000E+00
    0.00000E+00         0.00000E+00         0.81590E+03
 
   -0.12139E+05         0.56203E+06         0.00000E+00
    0.56203E+06         0.16924E+05         0.00000E+00
    0.00000E+00         0.00000E+00         0.95706E+03
 
   -0.69186E+04         0.55923E+06         0.00000E+00
    0.55923E+06         0.12496E+05         0.00000E+00
    0.00000E+00         0.00000E+00         0.11155E+04
 
   -0.27638E+04         0.55670E+06         0.00000E+00
    0.55670E+06         0.92335E+04         0.00000E+00
    0.00000E+00         0.00000E+00         0.12939E+04
 
    0.32425E+03         0.55457E+06         0.00000E+00
    0.55457E+06         0.71516E+04         0.00000E+00
    0.00000E+00         0.00000E+00         0.14952E+04
 
   -0.69911E+06         0.15443E+05         0.00000E+00
    0.15443E+05         0.63928E+06         0.00000E+00
    0.00000E+00         0.00000E+00        -0.11967E+05
 
   -0.69295E+06         0.45199E+05         0.00000E+00
    0.45199E+05         0.63761E+06         0.00000E+00
    0.00000E+00         0.00000E+00        -0.11069E+05
 
   -0.68548E+06         0.74381E+05         0.00000E+00
    0.74381E+05         0.63439E+06         0.00000E+00
    0.00000E+00         0.00000E+00        -0.10217E+05
 
   -0.67675E+06         0.10293E+06         0.00000E+00
    0.10293E+06         0.62969E+06         0.00000E+00
    0.00000E+00         0.00000E+00        -0.94130E+04
 
   -0.66686E+06         0.13078E+06         0.00000E+00
    0.13078E+06         0.62358E+06         0.00000E+00
    0.00000E+00         0.00000E+00        -0.86545E+04
 
   -0.65586E+06         0.15788E+06         0.00000E+00
    0.15788E+06         0.61615E+06         0.00000E+00
    0.00000E+00         0.00000E+00        -0.79412E+04
 
   -0.64383E+06         0.18420E+06         0.00000E+00
    0.18420E+06         0.60747E+06         0.00000E+00
    0.00000E+00         0.00000E+00        -0.72720E+04
 
   -0.63085E+06         0.20968E+06         0.00000E+00
    0.20968E+06         0.59763E+06         0.00000E+00
    0.00000E+00         0.00000E+00        -0.66456E+04
 
   -0.61699E+06         0.23430E+06         0.00000E+00
    0.23430E+06         0.58669E+06         0.00000E+00
    0.00000E+00         0.00000E+00        -0.60607E+04
 
   -0.60231E+06         0.25801E+06         0.00000E+00
    0.25801E+06         0.57474E+06         0.00000E+00
    0.00000E+00         0.00000E+00        -0.55157E+04
 
   -0.58690E+06         0.28080E+06         0.00000E+00
    0.28080E+06         0.56185E+06         0.00000E+00
    0.00000E+00         0.00000E+00        -0.50088E+04
 
   -0.57081E+06         0.30264E+06         0.00000E+00
    0.30264E+06         0.54811E+06         0.00000E+00
    0.00000E+00         0.00000E+00        -0.45383E+04
 
   -0.55411E+06         0.32352E+06         0.00000E+00
    0.32352E+06         0.53360E+06         0.00000E+00
    0.00000E+00         0.00000E+00        -0.41023E+04
 
   -0.53687E+06         0.34343E+06         0.00000E+00
    0.34343E+06         0.51838E+06         0.00000E+00
    0.00000E+00         0.00000E+00        -0.36990E+04
 
   -0.51916E+06         0.36234E+06         0.00000E+00
    0.36234E+06         0.50253E+06         0.00000E+00
    0.00000E+00         0.00000E+00        -0.33264E+04
 
   -0.50105E+06         0.38027E+06         0.00000E+00
    0.38027E+06         0.48613E+06         0.00000E+00
    0.00000E+00         0.00000E+00        -0.29826E+04
 
   -0.48258E+06         0.39721E+06         0.00000E+00
    0.39721E+06         0.46926E+06         0.00000E+00
    0.00000E+00         0.00000E+00        -0.26657E+04
 
   -0.46384E+06         0.41315E+06         0.00000E+00
    0.41315E+06         0.45197E+06         0.00000E+00
    0.00000E+00         0.00000E+00        -0.23736E+04
 
   -0.44486E+06         0.42810E+06         0.00000E+00
    0.42810E+06         0.43434E+06         0.00000E+00
    0.00000E+00         0.00000E+00        -0.21046E+04
 
   -0.42572E+06         0.44208E+06         0.00000E+00
    0.44208E+06         0.41644E+06         0.00000E+00
    0.00000E+00         0.00000E+00        -0.18567E+04
 
   -0.40647E+06         0.45509E+06         0.00000E+00
    0.45509E+06         0.39833E+06         0.00000E+00
    0.00000E+00         0.00000E+00        -0.16281E+04
 
   -0.38717E+06         0.46715E+06         0.00000E+00
    0.46715E+06         0.38008E+06         0.00000E+00
    0.00000E+00         0.00000E+00        -0.14169E+04
 
   -0.36786E+06         0.47827E+06         0.00000E+00
    0.47827E+06         0.36176E+06         0.00000E+00
    0.00000E+00         0.00000E+00        -0.12214E+04
 
   -0.34861E+06         0.48847E+06         0.00000E+00
    0.48847E+06         0.34341E+06         0.00000E+00
    0.00000E+00         0.00000E+00        -0.10399E+04
 
   -0.32946E+06         0.49778E+06         0.00000E+00
    0.49778E+06         0.32510E+06         0.00000E+00
    0.00000E+00         0.00000E+00        -0.87051E+03
 
   -0.31046E+06         0.50621E+06         0.00000E+00
    0.50621E+06         0.30690E+06         0.00000E+00
    0.00000E+00         0.00000E+00        -0.71167E+03
 
   -0.29165E+06         0.51379E+06         0.00000E+00
    0.51379E+06         0.28884E+06         0.00000E+00
    0.00000E+00         0.00000E+00        -0.56168E+03
 
   -0.27310E+06         0.52055E+06         0.00000E+00
    0.52055E+06         0.27100E+06         0.00000E+00
    0.00000E+00         0.00000E+00        -0.41891E+03
 
   -0.25483E+06         0.52652E+06         0.00000E+00
    0.52652E+06         0.25342E+06         0.00000E+00
    0.00000E+00         0.00000E+00        -0.28174E+03
 
   -0.23689E+06         0.53173E+06         0.00000E+00
    0.53173E+06         0.23615E+06         0.00000E+00
    0.00000E+00         0.00000E+00        -0.14852E+03
 
   -0.21933E+06         0.53622E+06         0.00000E+00
    0.53622E+06         0.21924E+06         0.00000E+00
    0.00000E+00         0.00000E+00        -0.17640E+02
 
   -0.20218E+06         0.54003E+06         0.00000E+00
    0.54003E+06         0.20274E+06         0.00000E+00
    0.00000E+00         0.00000E+00         0.11255E+03
 
   -0.18548E+06         0.54319E+06         0.00000E+00
    0.54319E+06         0.18670E+06         0.00000E+00
    0.00000E+00         0.00000E+00         0.24370E+03
 
   -0.16927E+06         0.54573E+06         0.00000E+00
    0.54573E+06         0.17116E+06         0.00000E+00
    0.00000E+00         0.00000E+00         0.37752E+03
 
   -0.15358E+06         0.54772E+06         0.00000E+00
    0.54772E+06         0.15616E+06         0.00000E+00
    0.00000E+00         0.00000E+00         0.51574E+03
 
   -0.13845E+06         0.54919E+06         0.00000E+00
    0.54919E+06         0.14175E+06         0.00000E+00
    0.00000E+00         0.00000E+00         0.66014E+03
 
   -0.12391E+06         0.55018E+06         0.00000E+00
    0.55018E+06         0.12797E+06         0.00000E+00
    0.00000E+00         0.00000E+00         0.81259E+03
 
   -0.10998E+06         0.55075E+06         0.00000E+00
    0.55075E+06         0.11485E+06         0.00000E+00
    0.00000E+00         0.00000E+00         0.97500E+03
 
   -0.96687E+05         0.55095E+06         0.00000E+00
    0.55095E+06         0.10243E+06         0.00000E+00
    0.00000E+00         0.00000E+00         0.11494E+04
 
   -0.84065E+05         0.55084E+06         0.00000E+00
    0.55084E+06         0.90754E+05         0.00000E+00
    0.00000E+00         0.00000E+00         0.13378E+04
 
   -0.72131E+05         0.55046E+06         0.00000E+00
    0.55046E+06         0.79844E+05         0.00000E+00
    0.00000E+00         0.00000E+00         0.15425E+04
 
   -0.60904E+05         0.54989E+06         0.00000E+00
    0.54989E+06         0.69733E+05         0.00000E+00
    0.00000E+00         0.00000E+00         0.17658E+04
 
   -0.50400E+05         0.54918E+06         0.00000E+00
    0.54918E+06         0.60450E+05         0.00000E+00
    0.00000E+00         0.00000E+00         0.20101E+04
 
   -0.40631E+05         0.54839E+06         0.00000E+00
    0.54839E+06         0.52021E+05         0.00000E+00
    0.00000E+00         0.00000E+00         0.22780E+04
 
   -0.31607E+05         0.54760E+06         0.00000E+00
    0.54760E+06         0.44467E+05         0.00000E+00
    0.00000E+00         0.00000E+00         0.25721E+04
 
   -0.23332E+05         0.54686E+06         0.00000E+00
    0.54686E+06         0.37809E+05         0.00000E+00
    0.00000E+00         0.00000E+00         0.28953E+04
 
   -0.15809E+05         0.54627E+06         0.00000E+00
    0.54627E+06         0.32062E+05         0.00000E+00
    0.00000E+00         0.00000E+00         0.32506E+04
 
   -0.90339E+04         0.54588E+06         0.00000E+00
    0.54588E+06         0.27239E+05         0.00000E+00
    0.00000E+00         0.00000E+00         0.36411E+04
 
   -0.29981E+04         0.54577E+06         0.00000E+00
    0.54577E+06         0.23348E+05         0.00000E+00
    0.00000E+00         0.00000E+00         0.40700E+04
 
    0.23118E+04         0.54603E+06         0.00000E+00
    0.54603E+06         0.20392E+05         0.00000E+00
    0.00000E+00         0.00000E+00         0.45408E+04
 
   -0.61790E+06         0.13241E+05         0.00000E+00
    0.13241E+05         0.58079E+06         0.00000E+00
    0.00000E+00         0.00000E+00        -0.74215E+04
 
   -0.61380E+06         0.38999E+05         0.00000E+00
    0.38999E+05         0.57941E+06         0.00000E+00
    0.00000E+00         0.00000E+00        -0.68782E+04
 
   -0.60854E+06         0.64365E+05         0.00000E+00
    0.64365E+05         0.57674E+06         0.00000E+00
    0.00000E+00         0.00000E+00        -0.63608E+04
 
   -0.60217E+06         0.89279E+05         0.00000E+00
    0.89279E+05         0.57283E+06         0.00000E+00
    0.00000E+00         0.00000E+00        -0.58696E+04
 
   -0.59475E+06         0.11369E+06         0.00000E+00
    0.11369E+06         0.56773E+06         0.00000E+00
    0.00000E+00         0.00000E+00        -0.54044E+04
 
   -0.58634E+06         0.13754E+06         0.00000E+00
    0.13754E+06         0.56151E+06         0.00000E+00
    0.00000E+00         0.00000E+00        -0.49651E+04
 
   -0.57699E+06         0.16080E+06         0.00000E+00
    0.16080E+06         0.55423E+06         0.00000E+00
    0.00000E+00         0.00000E+00        -0.45512E+04
 
   -0.56675E+06         0.18342E+06         0.00000E+00
    0.18342E+06         0.54594E+06         0.00000E+00
    0.00000E+00         0.00000E+00        -0.41622E+04
 
   -0.55570E+06         0.20537E+06         0.00000E+00
    0.20537E+06         0.53672E+06         0.00000E+00
    0.00000E+00         0.00000E+00        -0.37972E+04
 
   -0.54389E+06         0.22661E+06         0.00000E+00
    0.22661E+06         0.52661E+06         0.00000E+00
    0.00000E+00         0.00000E+00        -0.34556E+04
 
   -0.53137E+06         0.24712E+06         0.00000E+00
    0.24712E+06         0.51569E+06         0.00000E+00
    0.00000E+00         0.00000E+00        -0.31362E+04
 
   -0.51820E+06         0.26687E+06         0.00000E+00
    0.26687E+06         0.50401E+06         0.00000E+00
    0.00000E+00         0.00000E+00        -0.28381E+04
 
   -0.50444E+06         0.28585E+06         0.00000E+00
    0.28585E+06         0.49164E+06         0.00000E+00
    0.00000E+00         0.00000E+00        -0.25602E+04
 
   -0.49015E+06         0.30404E+06         0.00000E+00
    0.30404E+06         0.47865E+06         0.00000E+00
    0.00000E+00         0.00000E+00        -0.23013E+04
 
   -0.47538E+06         0.32143E+06         0.00000E+00
    0.32143E+06         0.46508E+06         0.00000E+00
    0.00000E+00         0.00000E+00        -0.20601E+04
 
   -0.46019E+06         0.33800E+06         0.00000E+00
    0.33800E+06         0.45101E+06         0.00000E+00
    0.00000E+00         0.00000E+00        -0.18355E+04
 
   -0.44463E+06         0.35377E+06         0.00000E+00
    0.35377E+06         0.43650E+06         0.00000E+00
    0.00000E+00         0.00000E+00        -0.16260E+04
 
   -0.42875E+06         0.36871E+06         0.00000E+00
    0.36871E+06         0.42160E+06         0.00000E+00
    0.00000E+00         0.00000E+00        -0.14304E+04
 
   -0.41261E+06         0.38283E+06         0.00000E+00
    0.38283E+06         0.40638E+06         0.00000E+00
    0.00000E+00         0.00000E+00        -0.12473E+04
 
   -0.39626E+06         0.39614E+06         0.00000E+00
    0.39614E+06         0.39088E+06         0.00000E+00
    0.00000E+00         0.00000E+00        -0.10753E+04
 
   -0.37974E+06         0.40865E+06         0.00000E+00
    0.40865E+06         0.37518E+06         0.00000E+00
    0.00000E+00         0.00000E+00        -0.91315E+03
 
   -0.36311E+06         0.42035E+06         0.00000E+00
    0.42035E+06         0.35931E+06         0.00000E+00
    0.00000E+00         0.00000E+00        -0.75931E+03
 
   -0.34641E+06         0.43127E+06         0.00000E+00
    0.43127E+06         0.34335E+06         0.00000E+00
    0.00000E+00         0.00000E+00        -0.61241E+03
 
   -0.32968E+06         0.44142E+06         0.00000E+00
    0.44142E+06         0.32733E+06         0.00000E+00
    0.00000E+00         0.00000E+00        -0.47099E+03
 
   -0.31298E+06         0.45081E+06         0.00000E+00
    0.45081E+06         0.31131E+06         0.00000E+00
    0.00000E+00         0.00000E+00        -0.33361E+03
 
   -0.29634E+06         0.45947E+06         0.00000E+00
    0.45947E+06         0.29535E+06         0.00000E+00
    0.00000E+00         0.00000E+00        -0.19877E+03
 
   -0.27981E+06         0.46741E+06         0.00000E+00
    0.46741E+06         0.27949E+06         0.00000E+00
    0.00000E+00         0.00000E+00        -0.64964E+02
 
   -0.26343E+06         0.47467E+06         0.00000E+00
    0.47467E+06         0.26377E+06         0.00000E+00
    0.00000E+00         0.00000E+00         0.69377E+02
 
   -0.24723E+06         0.48126E+06         0.00000E+00
    0.48126E+06         0.24826E+06         0.00000E+00
    0.00000E+00         0.00000E+00         0.20585E+03
 
   -0.23124E+06         0.48721E+06         0.00000E+00
    0.48721E+06         0.23298E+06         0.00000E+00
    0.00000E+00         0.00000E+00         0.34610E+03
 
   -0.21552E+06         0.49255E+06         0.00000E+00
    0.49255E+06         0.21798E+06         0.00000E+00
    0.00000E+00         0.00000E+00         0.49184E+03
 
   -0.20008E+06         0.49732E+06         0.00000E+00
    0.49732E+06         0.20331E+06         0.00000E+00
    0.00000E+00         0.00000E+00         0.64484E+03
 
   -0.18496E+06         0.50155E+06         0.00000E+00
    0.50155E+06         0.18900E+06         0.00000E+00
    0.00000E+00         0.00000E+00         0.80695E+03
 
   -0.17019E+06         0.50527E+06         0.00000E+00
    0.50527E+06         0.17509E+06         0.00000E+00
    0.00000E+00         0.00000E+00         0.98010E+03
 
   -0.15580E+06         0.50853E+06         0.00000E+00
    0.50853E+06         0.16163E+06         0.00000E+00
    0.00000E+00         0.00000E+00         0.11663E+04
 
   -0.14181E+06         0.51135E+06         0.00000E+00
    0.51135E+06         0.14864E+06         0.00000E+00
    0.00000E+00         0.00000E+00         0.13677E+04
 
   -0.12824E+06         0.51379E+06         0.00000E+00
    0.51379E+06         0.13617E+06         0.00000E+00
    0.00000E+00         0.00000E+00         0.15864E+04
 
   -0.11511E+06         0.51589E+06         0.00000E+00
    0.51589E+06         0.12424E+06         0.00000E+00
    0.00000E+00         0.00000E+00         0.18249E+04
 
   -0.10245E+06         0.51769E+06         0.00000E+00
    0.51769E+06         0.11288E+06         0.00000E+00
    0.00000E+00         0.00000E+00         0.20856E+04
 
   -0.90267E+05         0.51924E+06         0.00000E+00
    0.51924E+06         0.10212E+06         0.00000E+00
    0.00000E+00         0.00000E+00         0.23710E+04
 
   -0.78574E+05         0.52059E+06         0.00000E+00
    0.52059E+06         0.91993E+05         0.00000E+00
    0.00000E+00         0.00000E+00         0.26838E+04
 
   -0.67382E+05         0.52178E+06         0.00000E+00
    0.52178E+06         0.82516E+05         0.00000E+00
    0.00000E+00         0.00000E+00         0.30269E+04
 
   -0.56696E+05         0.52288E+06         0.00000E+00
    0.52288E+06         0.73712E+05         0.00000E+00
    0.00000E+00         0.00000E+00         0.34032E+04
 
   -0.46521E+05         0.52393E+06         0.00000E+00
    0.52393E+06         0.65601E+05         0.00000E+00
    0.00000E+00         0.00000E+00         0.38158E+04
 
   -0.36857E+05         0.52499E+06         0.00000E+00
    0.52499E+06         0.58197E+05         0.00000E+00
    0.00000E+00         0.00000E+00         0.42681E+04
 
   -0.27698E+05         0.52612E+06         0.00000E+00
    0.52612E+06         0.51515E+05         0.00000E+00
    0.00000E+00         0.00000E+00         0.47633E+04
 
   -0.19038E+05         0.52738E+06         0.00000E+00
    0.52738E+06         0.45563E+05         0.00000E+00
    0.00000E+00         0.00000E+00         0.53049E+04
 
   -0.10865E+05         0.52882E+06         0.00000E+00
    0.52882E+06         0.40348E+05         0.00000E+00
    0.00000E+00         0.00000E+00         0.58967E+04
 
   -0.31609E+04         0.53051E+06         0.00000E+00
    0.53051E+06         0.35873E+05         0.00000E+00
    0.00000E+00         0.00000E+00         0.65425E+04
 
    0.40944E+04         0.53250E+06         0.00000E+00
    0.53250E+06         0.32136E+05         0.00000E+00
    0.00000E+00         0.00000E+00         0.72461E+04
 
   -0.55038E+06         0.11353E+05         0.00000E+00
    0.11353E+05         0.52768E+06         0.00000E+00
    0.00000E+00         0.00000E+00        -0.45405E+04
 
   -0.54762E+06         0.33628E+05         0.00000E+00
    0.33628E+05         0.52655E+06         0.00000E+00
    0.00000E+00         0.00000E+00        -0.42145E+04
 
   -0.54386E+06         0.55646E+05         0.00000E+00
    0.55646E+05         0.52435E+06         0.00000E+00
    0.00000E+00         0.00000E+00        -0.39025E+04
 
   -0.53914E+06         0.77355E+05         0.00000E+00
    0.77355E+05         0.52112E+06         0.00000E+00
    0.00000E+00         0.00000E+00        -0.36047E+04
 
   -0.53350E+06         0.98706E+05         0.00000E+00
    0.98706E+05         0.51689E+06         0.00000E+00
    0.00000E+00         0.00000E+00        -0.33214E+04
 
   -0.52699E+06         0.11966E+06         0.00000E+00
    0.11966E+06         0.51172E+06         0.00000E+00
    0.00000E+00         0.00000E+00        -0.30526E+04
 
   -0.51964E+06         0.14016E+06         0.00000E+00
    0.14016E+06         0.50565E+06         0.00000E+00
    0.00000E+00         0.00000E+00        -0.27980E+04
 
   -0.51152E+06         0.16019E+06         0.00000E+00
    0.16019E+06         0.49873E+06         0.00000E+00
    0.00000E+00         0.00000E+00        -0.25574E+04
 
   -0.50265E+06         0.17970E+06         0.00000E+00
    0.17970E+06         0.49100E+06         0.00000E+00
    0.00000E+00         0.00000E+00        -0.23304E+04
 
   -0.49310E+06         0.19867E+06         0.00000E+00
    0.19867E+06         0.48251E+06         0.00000E+00
    0.00000E+00         0.00000E+00        -0.21166E+04
 
   -0.48289E+06         0.21707E+06         0.00000E+00
    0.21707E+06         0.47332E+06         0.00000E+00
    0.00000E+00         0.00000E+00        -0.19154E+04
 
   -0.47209E+06         0.23488E+06         0.00000E+00
    0.23488E+06         0.46346E+06         0.00000E+00
    0.00000E+00         0.00000E+00        -0.17261E+04
 
   -0.46074E+06         0.25208E+06         0.00000E+00
    0.25208E+06         0.45300E+06         0.00000E+00
    0.00000E+00         0.00000E+00        -0.15480E+04
 
   -0.44887E+06         0.26865E+06         0.00000E+00
    0.26865E+06         0.44197E+06         0.00000E+00
    0.00000E+00         0.00000E+00        -0.13803E+04
 
   -0.43655E+06         0.28457E+06         0.00000E+00
    0.28457E+06         0.43044E+06         0.00000E+00
    0.00000E+00         0.00000E+00        -0.12221E+04
 
   -0.42381E+06         0.29984E+06         0.00000E+00
    0.29984E+06         0.41845E+06         0.00000E+00
    0.00000E+00         0.00000E+00        -0.10725E+04
 
   -0.41071E+06         0.31446E+06         0.00000E+00
    0.31446E+06         0.40605E+06         0.00000E+00
    0.00000E+00         0.00000E+00        -0.93070E+03
 
   -0.39728E+06         0.32840E+06         0.00000E+00
    0.32840E+06         0.39330E+06         0.00000E+00
    0.00000E+00         0.00000E+00        -0.79552E+03
 
   -0.38356E+06         0.34168E+06         0.00000E+00
    0.34168E+06         0.38023E+06         0.00000E+00
    0.00000E+00         0.00000E+00        -0.66598E+03
 
   -0.36961E+06         0.35430E+06         0.00000E+00
    0.35430E+06         0.36690E+06         0.00000E+00
    0.00000E+00         0.00000E+00        -0.54098E+03
 
   -0.35545E+06         0.36625E+06         0.00000E+00
    0.36625E+06         0.35336E+06         0.00000E+00
    0.00000E+00         0.00000E+00        -0.41938E+03
 
   -0.34115E+06         0.37755E+06         0.00000E+00
    0.37755E+06         0.33965E+06         0.00000E+00
    0.00000E+00         0.00000E+00        -0.29998E+03
 
   -0.32672E+06         0.38819E+06         0.00000E+00
    0.38819E+06         0.32581E+06         0.00000E+00
    0.00000E+00         0.00000E+00        -0.18156E+03
 
   -0.31221E+06         0.39820E+06         0.00000E+00
    0.39820E+06         0.31190E+06         0.00000E+00
    0.00000E+00         0.00000E+00        -0.62819E+02
 
   -0.29767E+06         0.40759E+06         0.00000E+00
    0.40759E+06         0.29796E+06         0.00000E+00
    0.00000E+00         0.00000E+00         0.57592E+02
 
   -0.28312E+06         0.41636E+06         0.00000E+00
    0.41636E+06         0.28402E+06         0.00000E+00
    0.00000E+00         0.00000E+00         0.18108E+03
 
   -0.26859E+06         0.42454E+06         0.00000E+00
    0.42454E+06         0.27014E+06         0.00000E+00
    0.00000E+00         0.00000E+00         0.30914E+03
 
   -0.25413E+06         0.43214E+06         0.00000E+00
    0.43214E+06         0.25635E+06         0.00000E+00
    0.00000E+00         0.00000E+00         0.44331E+03
 
   -0.23976E+06         0.43920E+06         0.00000E+00
    0.43920E+06         0.24269E+06         0.00000E+00
    0.00000E+00         0.00000E+00         0.58524E+03
 
   -0.22552E+06         0.44572E+06         0.00000E+00
    0.44572E+06         0.22920E+06         0.00000E+00
    0.00000E+00         0.00000E+00         0.73665E+03
 
   -0.21143E+06         0.45174E+06         0.00000E+00
    0.45174E+06         0.21593E+06         0.00000E+00
    0.00000E+00         0.00000E+00         0.89935E+03
 
   -0.19751E+06         0.45728E+06         0.00000E+00
    0.45728E+06         0.20289E+06         0.00000E+00
    0.00000E+00         0.00000E+00         0.10753E+04
 
   -0.18380E+06         0.46237E+06         0.00000E+00
    0.46237E+06         0.19013E+06         0.00000E+00
    0.00000E+00         0.00000E+00         0.12664E+04
 
   -0.17032E+06         0.46704E+06         0.00000E+00
    0.46704E+06         0.17769E+06         0.00000E+00
    0.00000E+00         0.00000E+00         0.14750E+04
 
   -0.15707E+06         0.47132E+06         0.00000E+00
    0.47132E+06         0.16559E+06         0.00000E+00
    0.00000E+00         0.00000E+00         0.17032E+04
 
   -0.14410E+06         0.47525E+06         0.00000E+00
    0.47525E+06         0.15387E+06         0.00000E+00
    0.00000E+00         0.00000E+00         0.19535E+04
 
   -0.13140E+06         0.47885E+06         0.00000E+00
    0.47885E+06         0.14254E+06         0.00000E+00
    0.00000E+00         0.00000E+00         0.22284E+04
 
   -0.11900E+06         0.48218E+06         0.00000E+00
    0.48218E+06         0.13165E+06         0.00000E+00
    0.00000E+00         0.00000E+00         0.25305E+04
 
   -0.10690E+06         0.48525E+06         0.00000E+00
    0.48525E+06         0.12122E+06         0.00000E+00
    0.00000E+00         0.00000E+00         0.28627E+04
 
   -0.95122E+05         0.48812E+06         0.00000E+00
    0.48812E+06         0.11126E+06         0.00000E+00
    0.00000E+00         0.00000E+00         0.32278E+04
 
   -0.83661E+05         0.49083E+06         0.00000E+00
    0.49083E+06         0.10181E+06         0.00000E+00
    0.00000E+00         0.00000E+00         0.36291E+04
 
   -0.72524E+05         0.49341E+06         0.00000E+00
    0.49341E+06         0.92872E+05         0.00000E+00
    0.00000E+00         0.00000E+00         0.40697E+04
 
   -0.61711E+05         0.49590E+06         0.00000E+00
    0.49590E+06         0.84475E+05         0.00000E+00
    0.00000E+00         0.00000E+00         0.45529E+04
 
   -0.51219E+05         0.49836E+06         0.00000E+00
    0.49836E+06         0.76632E+05         0.00000E+00
    0.00000E+00         0.00000E+00         0.50825E+04
 
   -0.41043E+05         0.50082E+06         0.00000E+00
    0.50082E+06         0.69353E+05         0.00000E+00
    0.00000E+00         0.00000E+00         0.56619E+04
 
   -0.31174E+05         0.50333E+06         0.00000E+00
    0.50333E+06         0.62649E+05         0.00000E+00
    0.00000E+00         0.00000E+00         0.62951E+04
 
   -0.21597E+05         0.50594E+06         0.00000E+00
    0.50594E+06         0.56527E+05         0.00000E+00
    0.00000E+00         0.00000E+00         0.69858E+04
 
   -0.12298E+05         0.50869E+06         0.00000E+00
    0.50869E+06         0.50989E+05         0.00000E+00
    0.00000E+00         0.00000E+00         0.77383E+04
 
   -0.32547E+04         0.51163E+06         0.00000E+00
    0.51163E+06         0.46038E+05         0.00000E+00
    0.00000E+00         0.00000E+00         0.85566E+04
 
    0.55565E+04         0.51481E+06         0.00000E+00
    0.51481E+06         0.41669E+05         0.00000E+00
    0.00000E+00         0.00000E+00         0.94451E+04
 
   -0.49408E+06         0.97643E+04         0.00000E+00
    0.97643E+04         0.47977E+06         0.00000E+00
    0.00000E+00         0.00000E+00        -0.28601E+04
 
   -0.49212E+06         0.29067E+05         0.00000E+00
    0.29067E+05         0.47885E+06         0.00000E+00
    0.00000E+00         0.00000E+00        -0.26539E+04
 
   -0.48932E+06         0.48211E+05         0.00000E+00
    0.48211E+05         0.47704E+06         0.00000E+00
    0.00000E+00         0.00000E+00        -0.24559E+04
 
   -0.48571E+06         0.67151E+05         0.00000E+00
    0.67151E+05         0.47438E+06         0.00000E+00
    0.00000E+00         0.00000E+00        -0.22664E+04
 
   -0.48132E+06         0.85844E+05         0.00000E+00
    0.85844E+05         0.47089E+06         0.00000E+00
    0.00000E+00         0.00000E+00        -0.20854E+04
 
   -0.47618E+06         0.10425E+06         0.00000E+00
    0.10425E+06         0.46661E+06         0.00000E+00
    0.00000E+00         0.00000E+00        -0.19130E+04
 
   -0.47032E+06         0.12234E+06         0.00000E+00
    0.12234E+06         0.46157E+06         0.00000E+00
    0.00000E+00         0.00000E+00        -0.17491E+04
 
   -0.46378E+06         0.14007E+06         0.00000E+00
    0.14007E+06         0.45581E+06         0.00000E+00
    0.00000E+00         0.00000E+00        -0.15934E+04
 
   -0.45659E+06         0.15742E+06         0.00000E+00
    0.15742E+06         0.44936E+06         0.00000E+00
    0.00000E+00         0.00000E+00        -0.14457E+04
 
   -0.44878E+06         0.17436E+06         0.00000E+00
    0.17436E+06         0.44225E+06         0.00000E+00
    0.00000E+00         0.00000E+00        -0.13056E+04
 
   -0.44040E+06         0.19086E+06         0.00000E+00
    0.19086E+06         0.43454E+06         0.00000E+00
    0.00000E+00         0.00000E+00        -0.11727E+04
 
   -0.43148E+06         0.20690E+06         0.00000E+00
    0.20690E+06         0.42625E+06         0.00000E+00
    0.00000E+00         0.00000E+00        -0.10465E+04
 
   -0.42206E+06         0.22246E+06         0.00000E+00
    0.22246E+06         0.41743E+06         0.00000E+00
    0.00000E+00         0.00000E+00        -0.92639E+03
 
   -0.41217E+06         0.23753E+06         0.00000E+00
    0.23753E+06         0.40811E+06         0.00000E+00
    0.00000E+00         0.00000E+00        -0.81173E+03
 
   -0.40185E+06         0.25210E+06         0.00000E+00
    0.25210E+06         0.39835E+06         0.00000E+00
    0.00000E+00         0.00000E+00        -0.70185E+03
 
   -0.39114E+06         0.26614E+06         0.00000E+00
    0.26614E+06         0.38816E+06         0.00000E+00
    0.00000E+00         0.00000E+00        -0.59599E+03
 
   -0.38007E+06         0.27966E+06         0.00000E+00
    0.27966E+06         0.37761E+06         0.00000E+00
    0.00000E+00         0.00000E+00        -0.49337E+03
 
   -0.36868E+06         0.29265E+06         0.00000E+00
    0.29265E+06         0.36672E+06         0.00000E+00
    0.00000E+00         0.00000E+00        -0.39311E+03
 
   -0.35701E+06         0.30510E+06         0.00000E+00
    0.30510E+06         0.35554E+06         0.00000E+00
    0.00000E+00         0.00000E+00        -0.29430E+03
 
   -0.34508E+06         0.31701E+06         0.00000E+00
    0.31701E+06         0.34410E+06         0.00000E+00
    0.00000E+00         0.00000E+00        -0.19597E+03
 
   -0.33294E+06         0.32838E+06         0.00000E+00
    0.32838E+06         0.33246E+06         0.00000E+00
    0.00000E+00         0.00000E+00        -0.97073E+02
 
   -0.32062E+06         0.33922E+06         0.00000E+00
    0.33922E+06         0.32063E+06         0.00000E+00
    0.00000E+00         0.00000E+00         0.34811E+01
 
   -0.30814E+06         0.34953E+06         0.00000E+00
    0.34953E+06         0.30867E+06         0.00000E+00
    0.00000E+00         0.00000E+00         0.10687E+03
 
   -0.29554E+06         0.35932E+06         0.00000E+00
    0.35932E+06         0.29662E+06         0.00000E+00
    0.00000E+00         0.00000E+00         0.21432E+03
 
   -0.28286E+06         0.36860E+06         0.00000E+00
    0.36860E+06         0.28449E+06         0.00000E+00
    0.00000E+00         0.00000E+00         0.32718E+03
 
   -0.27011E+06         0.37738E+06         0.00000E+00
    0.37738E+06         0.27235E+06         0.00000E+00
    0.00000E+00         0.00000E+00         0.44683E+03
 
   -0.25734E+06         0.38566E+06         0.00000E+00
    0.38566E+06         0.26021E+06         0.00000E+00
    0.00000E+00         0.00000E+00         0.57478E+03
 
   -0.24455E+06         0.39348E+06         0.00000E+00
    0.39348E+06         0.24812E+06         0.00000E+00
    0.00000E+00         0.00000E+00         0.71263E+03
 
   -0.23179E+06         0.40083E+06         0.00000E+00
    0.40083E+06         0.23610E+06         0.00000E+00
    0.00000E+00         0.00000E+00         0.86207E+03
 
   -0.21907E+06         0.40775E+06         0.00000E+00
    0.40775E+06         0.22419E+06         0.00000E+00
    0.00000E+00         0.00000E+00         0.10249E+04
 
   -0.20641E+06         0.41425E+06         0.00000E+00
    0.41425E+06         0.21243E+06         0.00000E+00
    0.00000E+00         0.00000E+00         0.12031E+04
 
   -0.19384E+06         0.42035E+06         0.00000E+00
    0.42035E+06         0.20084E+06         0.00000E+00
    0.00000E+00         0.00000E+00         0.13986E+04
 
   -0.18138E+06         0.42608E+06         0.00000E+00
    0.42608E+06         0.18945E+06         0.00000E+00
    0.00000E+00         0.00000E+00         0.16137E+04
 
   -0.16903E+06         0.43146E+06         0.00000E+00
    0.43146E+06         0.17829E+06         0.00000E+00
    0.00000E+00         0.00000E+00         0.18507E+04
 
   -0.15683E+06         0.43651E+06         0.00000E+00
    0.43651E+06         0.16739E+06         0.00000E+00
    0.00000E+00         0.00000E+00         0.21121E+04
 
   -0.14477E+06         0.44127E+06         0.00000E+00
    0.44127E+06         0.15677E+06         0.00000E+00
    0.00000E+00         0.00000E+00         0.24003E+04
 
   -0.13287E+06         0.44575E+06         0.00000E+00
    0.44575E+06         0.14646E+06         0.00000E+00
    0.00000E+00         0.00000E+00         0.27183E+04
 
   -0.12114E+06         0.45000E+06         0.00000E+00
    0.45000E+06         0.13649E+06         0.00000E+00
    0.00000E+00         0.00000E+00         0.30689E+04
 
   -0.10959E+06         0.45403E+06         0.00000E+00
    0.45403E+06         0.12686E+06         0.00000E+00
    0.00000E+00         0.00000E+00         0.34552E+04
 
   -0.98211E+05         0.45789E+06         0.00000E+00
    0.45789E+06         0.11761E+06         0.00000E+00
    0.00000E+00         0.00000E+00         0.38804E+04
 
   -0.87017E+05         0.46160E+06         0.00000E+00
    0.46160E+06         0.10876E+06         0.00000E+00
    0.00000E+00         0.00000E+00         0.43479E+04
 
   -0.76002E+05         0.46519E+06         0.00000E+00
    0.46519E+06         0.10031E+06         0.00000E+00
    0.00000E+00         0.00000E+00         0.48611E+04
 
   -0.65164E+05         0.46870E+06         0.00000E+00
    0.46870E+06         0.92284E+05         0.00000E+00
    0.00000E+00         0.00000E+00         0.54239E+04
 
   -0.54496E+05         0.47217E+06         0.00000E+00
    0.47217E+06         0.84696E+05         0.00000E+00
    0.00000E+00         0.00000E+00         0.60399E+04
 
   -0.43989E+05         0.47562E+06         0.00000E+00
    0.47562E+06         0.77555E+05         0.00000E+00
    0.00000E+00         0.00000E+00         0.67132E+04
 
   -0.33631E+05         0.47910E+06         0.00000E+00
    0.47910E+06         0.70870E+05         0.00000E+00
    0.00000E+00         0.00000E+00         0.74478E+04
 
   -0.23407E+05         0.48264E+06         0.00000E+00
    0.48264E+06         0.64647E+05         0.00000E+00
    0.00000E+00         0.00000E+00         0.82479E+04
 
   -0.13299E+05         0.48626E+06         0.00000E+00
    0.48626E+06         0.58888E+05         0.00000E+00
    0.00000E+00         0.00000E+00         0.91179E+04
 
   -0.32846E+04         0.49001E+06         0.00000E+00
    0.49001E+06         0.53596E+05         0.00000E+00
    0.00000E+00         0.00000E+00         0.10062E+05
 
    0.66593E+04         0.49393E+06         0.00000E+00
    0.49393E+06         0.48767E+05         0.00000E+00
    0.00000E+00         0.00000E+00         0.11085E+05
 
   -0.44676E+06         0.84488E+04         0.00000E+00
    0.84488E+04         0.43672E+06         0.00000E+00
    0.00000E+00         0.00000E+00        -0.20089E+04
 
   -0.44525E+06         0.25256E+05         0.00000E+00
    0.25256E+05         0.43596E+06         0.00000E+00
    0.00000E+00         0.00000E+00        -0.18565E+04
 
   -0.44303E+06         0.41973E+05         0.00000E+00
    0.41973E+05         0.43448E+06         0.00000E+00
    0.00000E+00         0.00000E+00        -0.17107E+04
 
   -0.44015E+06         0.58560E+05         0.00000E+00
    0.58560E+05         0.43229E+06         0.00000E+00
    0.00000E+00         0.00000E+00        -0.15715E+04
 
   -0.43660E+06         0.74983E+05         0.00000E+00
    0.74983E+05         0.42941E+06         0.00000E+00
    0.00000E+00         0.00000E+00        -0.14387E+04
 
   -0.43243E+06         0.91209E+05         0.00000E+00
    0.91209E+05         0.42587E+06         0.00000E+00
    0.00000E+00         0.00000E+00        -0.13124E+04
 
   -0.42764E+06         0.10721E+06         0.00000E+00
    0.10721E+06         0.42168E+06         0.00000E+00
    0.00000E+00         0.00000E+00        -0.11922E+04
 
   -0.42227E+06         0.12294E+06         0.00000E+00
    0.12294E+06         0.41688E+06         0.00000E+00
    0.00000E+00         0.00000E+00        -0.10779E+04
 
   -0.41635E+06         0.13840E+06         0.00000E+00
    0.13840E+06         0.41150E+06         0.00000E+00
    0.00000E+00         0.00000E+00        -0.96922E+03
 
   -0.40989E+06         0.15355E+06         0.00000E+00
    0.15355E+06         0.40556E+06         0.00000E+00
    0.00000E+00         0.00000E+00        -0.86573E+03
 
   -0.40293E+06         0.16836E+06         0.00000E+00
    0.16836E+06         0.39909E+06         0.00000E+00
    0.00000E+00         0.00000E+00        -0.76698E+03
 
   -0.39549E+06         0.18283E+06         0.00000E+00
    0.18283E+06         0.39212E+06         0.00000E+00
    0.00000E+00         0.00000E+00        -0.67247E+03
 
   -0.38760E+06         0.19693E+06         0.00000E+00
    0.19693E+06         0.38469E+06         0.00000E+00
    0.00000E+00         0.00000E+00        -0.58164E+03
 
   -0.37929E+06         0.21064E+06         0.00000E+00
    0.21064E+06         0.37682E+06         0.00000E+00
    0.00000E+00         0.00000E+00        -0.49388E+03
 
   -0.37059E+06         0.22396E+06         0.00000E+00
    0.22396E+06         0.36855E+06         0.00000E+00
    0.00000E+00         0.00000E+00        -0.40853E+03
 
   -0.36153E+06         0.23687E+06         0.00000E+00
    0.23687E+06         0.35990E+06         0.00000E+00
    0.00000E+00         0.00000E+00        -0.32488E+03
 
   -0.35213E+06         0.24937E+06         0.00000E+00
    0.24937E+06         0.35092E+06         0.00000E+00
    0.00000E+00         0.00000E+00        -0.24214E+03
 
   -0.34242E+06         0.26144E+06         0.00000E+00
    0.26144E+06         0.34162E+06         0.00000E+00
    0.00000E+00         0.00000E+00        -0.15949E+03
 
   -0.33244E+06         0.27309E+06         0.00000E+00
    0.27309E+06         0.33206E+06         0.00000E+00
    0.00000E+00         0.00000E+00        -0.76052E+02
 
   -0.32220E+06         0.28430E+06         0.00000E+00
    0.28430E+06         0.32225E+06         0.00000E+00
    0.00000E+00         0.00000E+00         0.91350E+01
 
   -0.31174E+06         0.29509E+06         0.00000E+00
    0.29509E+06         0.31223E+06         0.00000E+00
    0.00000E+00         0.00000E+00         0.97085E+02
 
   -0.30109E+06         0.30544E+06         0.00000E+00
    0.30544E+06         0.30203E+06         0.00000E+00
    0.00000E+00         0.00000E+00         0.18889E+03
 
   -0.29026E+06         0.31536E+06         0.00000E+00
    0.31536E+06         0.29169E+06         0.00000E+00
    0.00000E+00         0.00000E+00         0.28571E+03
 
   -0.27928E+06         0.32486E+06         0.00000E+00
    0.32486E+06         0.28123E+06         0.00000E+00
    0.00000E+00         0.00000E+00         0.38879E+03
 
   -0.26818E+06         0.33395E+06         0.00000E+00
    0.33395E+06         0.27068E+06         0.00000E+00
    0.00000E+00         0.00000E+00         0.49947E+03
 
   -0.25698E+06         0.34262E+06         0.00000E+00
    0.34262E+06         0.26008E+06         0.00000E+00
    0.00000E+00         0.00000E+00         0.61919E+03
 
   -0.24570E+06         0.35089E+06         0.00000E+00
    0.35089E+06         0.24945E+06         0.00000E+00
    0.00000E+00         0.00000E+00         0.74948E+03
 
   -0.23437E+06         0.35878E+06         0.00000E+00
    0.35878E+06         0.23883E+06         0.00000E+00
    0.00000E+00         0.00000E+00         0.89198E+03
 
   -0.22299E+06         0.36628E+06         0.00000E+00
    0.36628E+06         0.22824E+06         0.00000E+00
    0.00000E+00         0.00000E+00         0.10484E+04
 
   -0.21160E+06         0.37343E+06         0.00000E+00
    0.37343E+06         0.21770E+06         0.00000E+00
    0.00000E+00         0.00000E+00         0.12208E+04
 
   -0.20020E+06         0.38023E+06         0.00000E+00
    0.38023E+06         0.20725E+06         0.00000E+00
    0.00000E+00         0.00000E+00         0.14110E+04
 
   -0.18881E+06         0.38669E+06         0.00000E+00
    0.38669E+06         0.19692E+06         0.00000E+00
    0.00000E+00         0.00000E+00         0.16212E+04
 
   -0.17745E+06         0.39284E+06         0.00000E+00
    0.39284E+06         0.18672E+06         0.00000E+00
    0.00000E+00         0.00000E+00         0.18537E+04
 
   -0.16613E+06         0.39870E+06         0.00000E+00
    0.39870E+06         0.17668E+06         0.00000E+00
    0.00000E+00         0.00000E+00         0.21109E+04
 
   -0.15485E+06         0.40428E+06         0.00000E+00
    0.40428E+06         0.16683E+06         0.00000E+00
    0.00000E+00         0.00000E+00         0.23955E+04
 
   -0.14364E+06         0.40961E+06         0.00000E+00
    0.40961E+06         0.15719E+06         0.00000E+00
    0.00000E+00         0.00000E+00         0.27102E+04
 
   -0.13248E+06         0.41471E+06         0.00000E+00
    0.41471E+06         0.14777E+06         0.00000E+00
    0.00000E+00         0.00000E+00         0.30578E+04
 
   -0.12140E+06         0.41959E+06         0.00000E+00
    0.41959E+06         0.13861E+06         0.00000E+00
    0.00000E+00         0.00000E+00         0.34416E+04
 
   -0.11038E+06         0.42430E+06         0.00000E+00
    0.42430E+06         0.12971E+06         0.00000E+00
    0.00000E+00         0.00000E+00         0.38646E+04
 
   -0.99442E+05         0.42883E+06         0.00000E+00
    0.42883E+06         0.12109E+06         0.00000E+00
    0.00000E+00         0.00000E+00         0.43302E+04
 
   -0.88572E+05         0.43323E+06         0.00000E+00
    0.43323E+06         0.11278E+06         0.00000E+00
    0.00000E+00         0.00000E+00         0.48421E+04
 
   -0.77769E+05         0.43752E+06         0.00000E+00
    0.43752E+06         0.10479E+06         0.00000E+00
    0.00000E+00         0.00000E+00         0.54039E+04
 
   -0.67027E+05         0.44172E+06         0.00000E+00
    0.44172E+06         0.97125E+05         0.00000E+00
    0.00000E+00         0.00000E+00         0.60194E+04
 
   -0.56340E+05         0.44586E+06         0.00000E+00
    0.44586E+06         0.89804E+05         0.00000E+00
    0.00000E+00         0.00000E+00         0.66927E+04
 
   -0.45696E+05         0.44997E+06         0.00000E+00
    0.44997E+06         0.82835E+05         0.00000E+00
    0.00000E+00         0.00000E+00         0.74279E+04
 
   -0.35082E+05         0.45406E+06         0.00000E+00
    0.45406E+06         0.76228E+05         0.00000E+00
    0.00000E+00         0.00000E+00         0.82292E+04
 
   -0.24483E+05         0.45817E+06         0.00000E+00
    0.45817E+06         0.69988E+05         0.00000E+00
    0.00000E+00         0.00000E+00         0.91009E+04
 
   -0.13882E+05         0.46232E+06         0.00000E+00
    0.46232E+06         0.64120E+05         0.00000E+00
    0.00000E+00         0.00000E+00         0.10048E+05
 
   -0.32583E+04         0.46654E+06         0.00000E+00
    0.46654E+06         0.58626E+05         0.00000E+00
    0.00000E+00         0.00000E+00         0.11074E+05
 
    0.74112E+04         0.47084E+06         0.00000E+00
    0.47084E+06         0.53507E+05         0.00000E+00
    0.00000E+00         0.00000E+00         0.12184E+05
 
   -0.40657E+06         0.73728E+04         0.00000E+00
    0.73728E+04         0.39807E+06         0.00000E+00
    0.00000E+00         0.00000E+00        -0.16993E+04
 
   -0.40524E+06         0.22111E+05         0.00000E+00
    0.22111E+05         0.39745E+06         0.00000E+00
    0.00000E+00         0.00000E+00        -0.15591E+04
 
   -0.40336E+06         0.36804E+05         0.00000E+00
    0.36804E+05         0.39623E+06         0.00000E+00
    0.00000E+00         0.00000E+00        -0.14261E+04
 
   -0.40092E+06         0.51419E+05         0.00000E+00
    0.51419E+05         0.39442E+06         0.00000E+00
    0.00000E+00         0.00000E+00        -0.13001E+04
 
   -0.39793E+06         0.65928E+05         0.00000E+00
    0.65928E+05         0.39203E+06         0.00000E+00
    0.00000E+00         0.00000E+00        -0.11809E+04
 
   -0.39443E+06         0.80303E+05         0.00000E+00
    0.80303E+05         0.38909E+06         0.00000E+00
    0.00000E+00         0.00000E+00        -0.10682E+04
 
   -0.39041E+06         0.94517E+05         0.00000E+00
    0.94517E+05         0.38560E+06         0.00000E+00
    0.00000E+00         0.00000E+00        -0.96158E+03
 
   -0.38590E+06         0.10855E+06         0.00000E+00
    0.10855E+06         0.38160E+06         0.00000E+00
    0.00000E+00         0.00000E+00        -0.86064E+03
 
   -0.38092E+06         0.12237E+06         0.00000E+00
    0.12237E+06         0.37709E+06         0.00000E+00
    0.00000E+00         0.00000E+00        -0.76495E+03
 
   -0.37548E+06         0.13596E+06         0.00000E+00
    0.13596E+06         0.37211E+06         0.00000E+00
    0.00000E+00         0.00000E+00        -0.67400E+03
 
   -0.36960E+06         0.14931E+06         0.00000E+00
    0.14931E+06         0.36667E+06         0.00000E+00
    0.00000E+00         0.00000E+00        -0.58725E+03
 
   -0.36332E+06         0.16238E+06         0.00000E+00
    0.16238E+06         0.36080E+06         0.00000E+00
    0.00000E+00         0.00000E+00        -0.50412E+03
 
   -0.35663E+06         0.17518E+06         0.00000E+00
    0.17518E+06         0.35451E+06         0.00000E+00
    0.00000E+00         0.00000E+00        -0.42398E+03
 
   -0.34958E+06         0.18769E+06         0.00000E+00
    0.18769E+06         0.34785E+06         0.00000E+00
    0.00000E+00         0.00000E+00        -0.34618E+03
 
   -0.34217E+06         0.19988E+06         0.00000E+00
    0.19988E+06         0.34082E+06         0.00000E+00
    0.00000E+00         0.00000E+00        -0.26999E+03
 
   -0.33444E+06         0.21176E+06         0.00000E+00
    0.21176E+06         0.33346E+06         0.00000E+00
    0.00000E+00         0.00000E+00        -0.19467E+03
 
   -0.32639E+06         0.22331E+06         0.00000E+00
    0.22331E+06         0.32580E+06         0.00000E+00
    0.00000E+00         0.00000E+00        -0.11940E+03
 
   -0.31806E+06         0.23453E+06         0.00000E+00
    0.23453E+06         0.31785E+06         0.00000E+00
    0.00000E+00         0.00000E+00        -0.43326E+02
 
   -0.30947E+06         0.24541E+06         0.00000E+00
    0.24541E+06         0.30964E+06         0.00000E+00
    0.00000E+00         0.00000E+00         0.34466E+02
 
   -0.30063E+06         0.25594E+06         0.00000E+00
    0.25594E+06         0.30120E+06         0.00000E+00
    0.00000E+00         0.00000E+00         0.11495E+03
 
   -0.29156E+06         0.26613E+06         0.00000E+00
    0.26613E+06         0.29256E+06         0.00000E+00
    0.00000E+00         0.00000E+00         0.19918E+03
 
   -0.28230E+06         0.27598E+06         0.00000E+00
    0.27598E+06         0.28374E+06         0.00000E+00
    0.00000E+00         0.00000E+00         0.28825E+03
 
   -0.27285E+06         0.28548E+06         0.00000E+00
    0.28548E+06         0.27476E+06         0.00000E+00
    0.00000E+00         0.00000E+00         0.38337E+03
 
   -0.26323E+06         0.29463E+06         0.00000E+00
    0.29463E+06         0.26566E+06         0.00000E+00
    0.00000E+00         0.00000E+00         0.48580E+03
 
   -0.25347E+06         0.30345E+06         0.00000E+00
    0.30345E+06         0.25646E+06         0.00000E+00
    0.00000E+00         0.00000E+00         0.59693E+03
 
   -0.24358E+06         0.31193E+06         0.00000E+00
    0.31193E+06         0.24717E+06         0.00000E+00
    0.00000E+00         0.00000E+00         0.71820E+03
 
   -0.23358E+06         0.32009E+06         0.00000E+00
    0.32009E+06         0.23784E+06         0.00000E+00
    0.00000E+00         0.00000E+00         0.85120E+03
 
   -0.22349E+06         0.32792E+06         0.00000E+00
    0.32792E+06         0.22848E+06         0.00000E+00
    0.00000E+00         0.00000E+00         0.99760E+03
 
   -0.21331E+06         0.33544E+06         0.00000E+00
    0.33544E+06         0.21911E+06         0.00000E+00
    0.00000E+00         0.00000E+00         0.11592E+04
 
   -0.20307E+06         0.34266E+06         0.00000E+00
    0.34266E+06         0.20976E+06         0.00000E+00
    0.00000E+00         0.00000E+00         0.13380E+04
 
   -0.19276E+06         0.34959E+06         0.00000E+00
    0.34959E+06         0.20044E+06         0.00000E+00
    0.00000E+00         0.00000E+00         0.15359E+04
 
   -0.18242E+06         0.35625E+06         0.00000E+00
    0.35625E+06         0.19120E+06         0.00000E+00
    0.00000E+00         0.00000E+00         0.17553E+04
 
   -0.17204E+06         0.36263E+06         0.00000E+00
    0.36263E+06         0.18203E+06         0.00000E+00
    0.00000E+00         0.00000E+00         0.19984E+04
 
   -0.16163E+06         0.36877E+06         0.00000E+00
    0.36877E+06         0.17297E+06         0.00000E+00
    0.00000E+00         0.00000E+00         0.22678E+04
 
   -0.15121E+06         0.37467E+06         0.00000E+00
    0.37467E+06         0.16404E+06         0.00000E+00
    0.00000E+00         0.00000E+00         0.25661E+04
 
   -0.14077E+06         0.38034E+06         0.00000E+00
    0.38034E+06         0.15525E+06         0.00000E+00
    0.00000E+00         0.00000E+00         0.28962E+04
 
   -0.13032E+06         0.38582E+06         0.00000E+00
    0.38582E+06         0.14663E+06         0.00000E+00
    0.00000E+00         0.00000E+00         0.32609E+04
 
   -0.11987E+06         0.39110E+06         0.00000E+00
    0.39110E+06         0.13818E+06         0.00000E+00
    0.00000E+00         0.00000E+00         0.36636E+04
 
   -0.10940E+06         0.39622E+06         0.00000E+00
    0.39622E+06         0.12994E+06         0.00000E+00
    0.00000E+00         0.00000E+00         0.41074E+04
 
   -0.98930E+05         0.40118E+06         0.00000E+00
    0.40118E+06         0.12191E+06         0.00000E+00
    0.00000E+00         0.00000E+00         0.45957E+04
 
   -0.88446E+05         0.40601E+06         0.00000E+00
    0.40601E+06         0.11411E+06         0.00000E+00
    0.00000E+00         0.00000E+00         0.51324E+04
 
   -0.77946E+05         0.41072E+06         0.00000E+00
    0.41072E+06         0.10655E+06         0.00000E+00
    0.00000E+00         0.00000E+00         0.57210E+04
 
   -0.67423E+05         0.41534E+06         0.00000E+00
    0.41534E+06         0.99250E+05         0.00000E+00
    0.00000E+00         0.00000E+00         0.63655E+04
 
   -0.56868E+05         0.41987E+06         0.00000E+00
    0.41987E+06         0.92218E+05         0.00000E+00
    0.00000E+00         0.00000E+00         0.70701E+04
 
   -0.46271E+05         0.42435E+06         0.00000E+00
    0.42435E+06         0.85464E+05         0.00000E+00
    0.00000E+00         0.00000E+00         0.78387E+04
 
   -0.35619E+05         0.42878E+06         0.00000E+00
    0.42878E+06         0.78998E+05         0.00000E+00
    0.00000E+00         0.00000E+00         0.86757E+04
 
   -0.24899E+05         0.43319E+06         0.00000E+00
    0.43319E+06         0.72827E+05         0.00000E+00
    0.00000E+00         0.00000E+00         0.95856E+04
 
   -0.14093E+05         0.43760E+06         0.00000E+00
    0.43760E+06         0.66957E+05         0.00000E+00
    0.00000E+00         0.00000E+00         0.10573E+05
 
   -0.31847E+04         0.44202E+06         0.00000E+00
    0.44202E+06         0.61394E+05         0.00000E+00
    0.00000E+00         0.00000E+00         0.11642E+05
 
    0.78475E+04         0.44646E+06         0.00000E+00
    0.44646E+06         0.56139E+05         0.00000E+00
    0.00000E+00         0.00000E+00         0.12797E+05
 
   -0.37193E+06         0.65004E+04         0.00000E+00
    0.65004E+04         0.36334E+06         0.00000E+00
    0.00000E+00         0.00000E+00        -0.17165E+04
 
   -0.37065E+06         0.19539E+05         0.00000E+00
    0.19539E+05         0.36283E+06         0.00000E+00
    0.00000E+00         0.00000E+00        -0.15644E+04
 
   -0.36892E+06         0.32560E+05         0.00000E+00
    0.32560E+05         0.36182E+06         0.00000E+00
    0.00000E+00         0.00000E+00        -0.14214E+04
 
   -0.36674E+06         0.45537E+05         0.00000E+00
    0.45537E+05         0.36031E+06         0.00000E+00
    0.00000E+00         0.00000E+00        -0.12872E+04
 
   -0.36412E+06         0.58447E+05         0.00000E+00
    0.58447E+05         0.35832E+06         0.00000E+00
    0.00000E+00         0.00000E+00        -0.11613E+04
 
   -0.36107E+06         0.71267E+05         0.00000E+00
    0.71267E+05         0.35585E+06         0.00000E+00
    0.00000E+00         0.00000E+00        -0.10433E+04
 
   -0.35759E+06         0.83976E+05         0.00000E+00
    0.83976E+05         0.35293E+06         0.00000E+00
    0.00000E+00         0.00000E+00        -0.93240E+03
 
   -0.35371E+06         0.96552E+05         0.00000E+00
    0.96552E+05         0.34957E+06         0.00000E+00
    0.00000E+00         0.00000E+00        -0.82821E+03
 
   -0.34943E+06         0.10898E+06         0.00000E+00
    0.10898E+06         0.34577E+06         0.00000E+00
    0.00000E+00         0.00000E+00        -0.73008E+03
 
   -0.34476E+06         0.12123E+06         0.00000E+00
    0.12123E+06         0.34157E+06         0.00000E+00
    0.00000E+00         0.00000E+00        -0.63737E+03
 
   -0.33972E+06         0.13330E+06         0.00000E+00
    0.13330E+06         0.33697E+06         0.00000E+00
    0.00000E+00         0.00000E+00        -0.54942E+03
 
   -0.33432E+06         0.14517E+06         0.00000E+00
    0.14517E+06         0.33199E+06         0.00000E+00
    0.00000E+00         0.00000E+00        -0.46553E+03
 
   -0.32858E+06         0.15683E+06         0.00000E+00
    0.15683E+06         0.32665E+06         0.00000E+00
    0.00000E+00         0.00000E+00        -0.38499E+03
 
   -0.32251E+06         0.16826E+06         0.00000E+00
    0.16826E+06         0.32098E+06         0.00000E+00
    0.00000E+00         0.00000E+00        -0.30703E+03
 
   -0.31613E+06         0.17945E+06         0.00000E+00
    0.17945E+06         0.31498E+06         0.00000E+00
    0.00000E+00         0.00000E+00        -0.23087E+03
 
   -0.30946E+06         0.19039E+06         0.00000E+00
    0.19039E+06         0.30868E+06         0.00000E+00
    0.00000E+00         0.00000E+00        -0.15566E+03
 
   -0.30251E+06         0.20108E+06         0.00000E+00
    0.20108E+06         0.30210E+06         0.00000E+00
    0.00000E+00         0.00000E+00        -0.80548E+02
 
   -0.29529E+06         0.21150E+06         0.00000E+00
    0.21150E+06         0.29527E+06         0.00000E+00
    0.00000E+00         0.00000E+00        -0.46107E+01
 
   -0.28783E+06         0.22166E+06         0.00000E+00
    0.22166E+06         0.28819E+06         0.00000E+00
    0.00000E+00         0.00000E+00         0.73119E+02
 
   -0.28013E+06         0.23154E+06         0.00000E+00
    0.23154E+06         0.28090E+06         0.00000E+00
    0.00000E+00         0.00000E+00         0.15366E+03
 
   -0.27222E+06         0.24115E+06         0.00000E+00
    0.24115E+06         0.27341E+06         0.00000E+00
    0.00000E+00         0.00000E+00         0.23810E+03
 
   -0.26410E+06         0.25047E+06         0.00000E+00
    0.25047E+06         0.26574E+06         0.00000E+00
    0.00000E+00         0.00000E+00         0.32760E+03
 
   -0.25580E+06         0.25952E+06         0.00000E+00
    0.25952E+06         0.25792E+06         0.00000E+00
    0.00000E+00         0.00000E+00         0.42336E+03
 
   -0.24733E+06         0.26829E+06         0.00000E+00
    0.26829E+06         0.24996E+06         0.00000E+00
    0.00000E+00         0.00000E+00         0.52671E+03
 
   -0.23869E+06         0.27679E+06         0.00000E+00
    0.27679E+06         0.24189E+06         0.00000E+00
    0.00000E+00         0.00000E+00         0.63904E+03
 
   -0.22992E+06         0.28501E+06         0.00000E+00
    0.28501E+06         0.23372E+06         0.00000E+00
    0.00000E+00         0.00000E+00         0.76183E+03
 
   -0.22100E+06         0.29296E+06         0.00000E+00
    0.29296E+06         0.22549E+06         0.00000E+00
    0.00000E+00         0.00000E+00         0.89669E+03
 
   -0.21197E+06         0.30064E+06         0.00000E+00
    0.30064E+06         0.21720E+06         0.00000E+00
    0.00000E+00         0.00000E+00         0.10453E+04
 
   -0.20282E+06         0.30806E+06         0.00000E+00
    0.30806E+06         0.20887E+06         0.00000E+00
    0.00000E+00         0.00000E+00         0.12095E+04
 
   -0.19358E+06         0.31524E+06         0.00000E+00
    0.31524E+06         0.20053E+06         0.00000E+00
    0.00000E+00         0.00000E+00         0.13913E+04
 
   -0.18424E+06         0.32216E+06         0.00000E+00
    0.32216E+06         0.19220E+06         0.00000E+00
    0.00000E+00         0.00000E+00         0.15927E+04
 
   -0.17481E+06         0.32885E+06         0.00000E+00
    0.32885E+06         0.18389E+06         0.00000E+00
    0.00000E+00         0.00000E+00         0.18159E+04
 
   -0.16531E+06         0.33531E+06         0.00000E+00
    0.33531E+06         0.17563E+06         0.00000E+00
    0.00000E+00         0.00000E+00         0.20633E+04
 
   -0.15573E+06         0.34156E+06         0.00000E+00
    0.34156E+06         0.16742E+06         0.00000E+00
    0.00000E+00         0.00000E+00         0.23375E+04
 
   -0.14609E+06         0.34759E+06         0.00000E+00
    0.34759E+06         0.15929E+06         0.00000E+00
    0.00000E+00         0.00000E+00         0.26410E+04
 
   -0.13638E+06         0.35343E+06         0.00000E+00
    0.35343E+06         0.15126E+06         0.00000E+00
    0.00000E+00         0.00000E+00         0.29768E+04
 
   -0.12661E+06         0.35909E+06         0.00000E+00
    0.35909E+06         0.14335E+06         0.00000E+00
    0.00000E+00         0.00000E+00         0.33477E+04
 
   -0.11677E+06         0.36457E+06         0.00000E+00
    0.36457E+06         0.13556E+06         0.00000E+00
    0.00000E+00         0.00000E+00         0.37570E+04
 
   -0.10687E+06         0.36990E+06         0.00000E+00
    0.36990E+06         0.12791E+06         0.00000E+00
    0.00000E+00         0.00000E+00         0.42079E+04
 
   -0.96902E+05         0.37507E+06         0.00000E+00
    0.37507E+06         0.12042E+06         0.00000E+00
    0.00000E+00         0.00000E+00         0.47039E+04
 
   -0.86864E+05         0.38011E+06         0.00000E+00
    0.38011E+06         0.11311E+06         0.00000E+00
    0.00000E+00         0.00000E+00         0.52486E+04
 
   -0.76750E+05         0.38503E+06         0.00000E+00
    0.38503E+06         0.10598E+06         0.00000E+00
    0.00000E+00         0.00000E+00         0.58457E+04
 
   -0.66554E+05         0.38985E+06         0.00000E+00
    0.38985E+06         0.99049E+05         0.00000E+00
    0.00000E+00         0.00000E+00         0.64991E+04
 
   -0.56266E+05         0.39456E+06         0.00000E+00
    0.39456E+06         0.92331E+05         0.00000E+00
    0.00000E+00         0.00000E+00         0.72129E+04
 
   -0.45878E+05         0.39920E+06         0.00000E+00
    0.39920E+06         0.85834E+05         0.00000E+00
    0.00000E+00         0.00000E+00         0.79912E+04
 
   -0.35379E+05         0.40376E+06         0.00000E+00
    0.40376E+06         0.79569E+05         0.00000E+00
    0.00000E+00         0.00000E+00         0.88381E+04
 
   -0.24754E+05         0.40827E+06         0.00000E+00
    0.40827E+06         0.73545E+05         0.00000E+00
    0.00000E+00         0.00000E+00         0.97582E+04
 
   -0.13991E+05         0.41273E+06         0.00000E+00
    0.41273E+06         0.67769E+05         0.00000E+00
    0.00000E+00         0.00000E+00         0.10756E+05
 
   -0.30732E+04         0.41716E+06         0.00000E+00
    0.41716E+06         0.62249E+05         0.00000E+00
    0.00000E+00         0.00000E+00         0.11835E+05
 
    0.80163E+04         0.42156E+06         0.00000E+00
    0.42156E+06         0.56989E+05         0.00000E+00
    0.00000E+00         0.00000E+00         0.13001E+05
 
   -0.34159E+06         0.57965E+04         0.00000E+00
    0.57965E+04         0.33206E+06         0.00000E+00
    0.00000E+00         0.00000E+00        -0.19062E+04
 
   -0.34028E+06         0.17446E+05         0.00000E+00
    0.17446E+05         0.33163E+06         0.00000E+00
    0.00000E+00         0.00000E+00        -0.17306E+04
 
   -0.33861E+06         0.29094E+05         0.00000E+00
    0.29094E+05         0.33078E+06         0.00000E+00
    0.00000E+00         0.00000E+00        -0.15666E+04
 
   -0.33658E+06         0.40718E+05         0.00000E+00
    0.40718E+05         0.32951E+06         0.00000E+00
    0.00000E+00         0.00000E+00        -0.14137E+04
 
   -0.33419E+06         0.52300E+05         0.00000E+00
    0.52300E+05         0.32783E+06         0.00000E+00
    0.00000E+00         0.00000E+00        -0.12711E+04
 
   -0.33144E+06         0.63822E+05         0.00000E+00
    0.63822E+05         0.32575E+06         0.00000E+00
    0.00000E+00         0.00000E+00        -0.11381E+04
 
   -0.32835E+06         0.75266E+05         0.00000E+00
    0.75266E+05         0.32328E+06         0.00000E+00
    0.00000E+00         0.00000E+00        -0.10141E+04
 
   -0.32492E+06         0.86615E+05         0.00000E+00
    0.86615E+05         0.32042E+06         0.00000E+00
    0.00000E+00         0.00000E+00        -0.89820E+03
 
   -0.32115E+06         0.97853E+05         0.00000E+00
    0.97853E+05         0.31720E+06         0.00000E+00
    0.00000E+00         0.00000E+00        -0.78975E+03
 
   -0.31706E+06         0.10897E+06         0.00000E+00
    0.10897E+06         0.31362E+06         0.00000E+00
    0.00000E+00         0.00000E+00        -0.68794E+03
 
   -0.31266E+06         0.11994E+06         0.00000E+00
    0.11994E+06         0.30970E+06         0.00000E+00
    0.00000E+00         0.00000E+00        -0.59199E+03
 
   -0.30795E+06         0.13076E+06         0.00000E+00
    0.13076E+06         0.30544E+06         0.00000E+00
    0.00000E+00         0.00000E+00        -0.50108E+03
 
   -0.30295E+06         0.14142E+06         0.00000E+00
    0.14142E+06         0.30087E+06         0.00000E+00
    0.00000E+00         0.00000E+00        -0.41439E+03
 
   -0.29766E+06         0.15190E+06         0.00000E+00
    0.15190E+06         0.29600E+06         0.00000E+00
    0.00000E+00         0.00000E+00        -0.33105E+03
 
   -0.29210E+06         0.16219E+06         0.00000E+00
    0.16219E+06         0.29084E+06         0.00000E+00
    0.00000E+00         0.00000E+00        -0.25020E+03
 
   -0.28627E+06         0.17230E+06         0.00000E+00
    0.17230E+06         0.28542E+06         0.00000E+00
    0.00000E+00         0.00000E+00        -0.17092E+03
 
   -0.28020E+06         0.18220E+06         0.00000E+00
    0.18220E+06         0.27973E+06         0.00000E+00
    0.00000E+00         0.00000E+00        -0.92280E+02
 
   -0.27388E+06         0.19189E+06         0.00000E+00
    0.19189E+06         0.27381E+06         0.00000E+00
    0.00000E+00         0.00000E+00        -0.13291E+02
 
   -0.26734E+06         0.20137E+06         0.00000E+00
    0.20137E+06         0.26767E+06         0.00000E+00
    0.00000E+00         0.00000E+00         0.67066E+02
 
   -0.26058E+06         0.21063E+06         0.00000E+00
    0.21063E+06         0.26133E+06         0.00000E+00
    0.00000E+00         0.00000E+00         0.14986E+03
 
   -0.25361E+06         0.21967E+06         0.00000E+00
    0.21967E+06         0.25479E+06         0.00000E+00
    0.00000E+00         0.00000E+00         0.23621E+03
 
   -0.24645E+06         0.22848E+06         0.00000E+00
    0.22848E+06         0.24808E+06         0.00000E+00
    0.00000E+00         0.00000E+00         0.32731E+03
 
   -0.23910E+06         0.23707E+06         0.00000E+00
    0.23707E+06         0.24122E+06         0.00000E+00
    0.00000E+00         0.00000E+00         0.42441E+03
 
   -0.23158E+06         0.24542E+06         0.00000E+00
    0.24542E+06         0.23423E+06         0.00000E+00
    0.00000E+00         0.00000E+00         0.52883E+03
 
   -0.22390E+06         0.25355E+06         0.00000E+00
    0.25355E+06         0.22711E+06         0.00000E+00
    0.00000E+00         0.00000E+00         0.64200E+03
 
   -0.21606E+06         0.26146E+06         0.00000E+00
    0.26146E+06         0.21989E+06         0.00000E+00
    0.00000E+00         0.00000E+00         0.76540E+03
 
   -0.20807E+06         0.26914E+06         0.00000E+00
    0.26914E+06         0.21258E+06         0.00000E+00
    0.00000E+00         0.00000E+00         0.90064E+03
 
   -0.19995E+06         0.27659E+06         0.00000E+00
    0.27659E+06         0.20520E+06         0.00000E+00
    0.00000E+00         0.00000E+00         0.10494E+04
 
   -0.19170E+06         0.28383E+06         0.00000E+00
    0.28383E+06         0.19776E+06         0.00000E+00
    0.00000E+00         0.00000E+00         0.12136E+04
 
   -0.18332E+06         0.29085E+06         0.00000E+00
    0.29085E+06         0.19030E+06         0.00000E+00
    0.00000E+00         0.00000E+00         0.13950E+04
 
   -0.17483E+06         0.29767E+06         0.00000E+00
    0.29767E+06         0.18280E+06         0.00000E+00
    0.00000E+00         0.00000E+00         0.15958E+04
 
   -0.16622E+06         0.30427E+06         0.00000E+00
    0.30427E+06         0.17531E+06         0.00000E+00
    0.00000E+00         0.00000E+00         0.18182E+04
 
   -0.15750E+06         0.31068E+06         0.00000E+00
    0.31068E+06         0.16783E+06         0.00000E+00
    0.00000E+00         0.00000E+00         0.20644E+04
 
   -0.14869E+06         0.31690E+06         0.00000E+00
    0.31690E+06         0.16037E+06         0.00000E+00
    0.00000E+00         0.00000E+00         0.23371E+04
 
   -0.13976E+06         0.32293E+06         0.00000E+00
    0.32293E+06         0.15296E+06         0.00000E+00
    0.00000E+00         0.00000E+00         0.26387E+04
 
   -0.13074E+06         0.32879E+06         0.00000E+00
    0.32879E+06         0.14560E+06         0.00000E+00
    0.00000E+00         0.00000E+00         0.29721E+04
 
   -0.12162E+06         0.33447E+06         0.00000E+00
    0.33447E+06         0.13832E+06         0.00000E+00
    0.00000E+00         0.00000E+00         0.33402E+04
 
   -0.11240E+06         0.34000E+06         0.00000E+00
    0.34000E+06         0.13113E+06         0.00000E+00
    0.00000E+00         0.00000E+00         0.37461E+04
 
   -0.10307E+06         0.34537E+06         0.00000E+00
    0.34537E+06         0.12403E+06         0.00000E+00
    0.00000E+00         0.00000E+00         0.41930E+04
 
   -0.93637E+05         0.35059E+06         0.00000E+00
    0.35059E+06         0.11706E+06         0.00000E+00
    0.00000E+00         0.00000E+00         0.46844E+04
 
   -0.84095E+05         0.35568E+06         0.00000E+00
    0.35568E+06         0.11021E+06         0.00000E+00
    0.00000E+00         0.00000E+00         0.52236E+04
 
   -0.74437E+05         0.36064E+06         0.00000E+00
    0.36064E+06         0.10351E+06         0.00000E+00
    0.00000E+00         0.00000E+00         0.58144E+04
 
   -0.64658E+05         0.36549E+06         0.00000E+00
    0.36549E+06         0.96961E+05         0.00000E+00
    0.00000E+00         0.00000E+00         0.64606E+04
 
   -0.54750E+05         0.37022E+06         0.00000E+00
    0.37022E+06         0.90581E+05         0.00000E+00
    0.00000E+00         0.00000E+00         0.71661E+04
 
   -0.44704E+05         0.37486E+06         0.00000E+00
    0.37486E+06         0.84379E+05         0.00000E+00
    0.00000E+00         0.00000E+00         0.79349E+04
 
   -0.34511E+05         0.37940E+06         0.00000E+00
    0.37940E+06         0.78367E+05         0.00000E+00
    0.00000E+00         0.00000E+00         0.87712E+04
 
   -0.24160E+05         0.38386E+06         0.00000E+00
    0.38386E+06         0.72555E+05         0.00000E+00
    0.00000E+00         0.00000E+00         0.96791E+04
 
   -0.13638E+05         0.38823E+06         0.00000E+00
    0.38823E+06         0.66953E+05         0.00000E+00
    0.00000E+00         0.00000E+00         0.10663E+05
 
   -0.29329E+04         0.39254E+06         0.00000E+00
    0.39254E+06         0.61568E+05         0.00000E+00
    0.00000E+00         0.00000E+00         0.11727E+05
 
    0.79695E+04         0.39679E+06         0.00000E+00
    0.39679E+06         0.56409E+05         0.00000E+00
    0.00000E+00         0.00000E+00         0.12876E+05
 
   -0.31457E+06         0.52292E+04         0.00000E+00
    0.52292E+04         0.30376E+06         0.00000E+00
    0.00000E+00         0.00000E+00        -0.21624E+04
 
   -0.31320E+06         0.15746E+05         0.00000E+00
    0.15746E+05         0.30340E+06         0.00000E+00
    0.00000E+00         0.00000E+00        -0.19602E+04
 
   -0.31153E+06         0.26267E+05         0.00000E+00
    0.26267E+05         0.30267E+06         0.00000E+00
    0.00000E+00         0.00000E+00        -0.17721E+04
 
   -0.30958E+06         0.36777E+05         0.00000E+00
    0.36777E+05         0.30159E+06         0.00000E+00
    0.00000E+00         0.00000E+00        -0.15973E+04
 
   -0.30733E+06         0.47259E+05         0.00000E+00
    0.47259E+05         0.30016E+06         0.00000E+00
    0.00000E+00         0.00000E+00        -0.14348E+04
 
   -0.30480E+06         0.57700E+05         0.00000E+00
    0.57700E+05         0.29838E+06         0.00000E+00
    0.00000E+00         0.00000E+00        -0.12839E+04
 
   -0.30198E+06         0.68084E+05         0.00000E+00
    0.68084E+05         0.29626E+06         0.00000E+00
    0.00000E+00         0.00000E+00        -0.11437E+04
 
   -0.29888E+06         0.78399E+05         0.00000E+00
    0.78399E+05         0.29381E+06         0.00000E+00
    0.00000E+00         0.00000E+00        -0.10133E+04
 
   -0.29551E+06         0.88632E+05         0.00000E+00
    0.88632E+05         0.29105E+06         0.00000E+00
    0.00000E+00         0.00000E+00        -0.89174E+03
 
   -0.29186E+06         0.98769E+05         0.00000E+00
    0.98769E+05         0.28797E+06         0.00000E+00
    0.00000E+00         0.00000E+00        -0.77823E+03
 
   -0.28795E+06         0.10880E+06         0.00000E+00
    0.10880E+06         0.28459E+06         0.00000E+00
    0.00000E+00         0.00000E+00        -0.67183E+03
 
   -0.28377E+06         0.11871E+06         0.00000E+00
    0.11871E+06         0.28091E+06         0.00000E+00
    0.00000E+00         0.00000E+00        -0.57163E+03
 
   -0.27935E+06         0.12850E+06         0.00000E+00
    0.12850E+06         0.27696E+06         0.00000E+00
    0.00000E+00         0.00000E+00        -0.47670E+03
 
   -0.27467E+06         0.13815E+06         0.00000E+00
    0.13815E+06         0.27274E+06         0.00000E+00
    0.00000E+00         0.00000E+00        -0.38611E+03
 
   -0.26976E+06         0.14765E+06         0.00000E+00
    0.14765E+06         0.26827E+06         0.00000E+00
    0.00000E+00         0.00000E+00        -0.29889E+03
 
   -0.26462E+06         0.15700E+06         0.00000E+00
    0.15700E+06         0.26355E+06         0.00000E+00
    0.00000E+00         0.00000E+00        -0.21407E+03
 
   -0.25925E+06         0.16619E+06         0.00000E+00
    0.16619E+06         0.25860E+06         0.00000E+00
    0.00000E+00         0.00000E+00        -0.13066E+03
 
   -0.25367E+06         0.17521E+06         0.00000E+00
    0.17521E+06         0.25343E+06         0.00000E+00
    0.00000E+00         0.00000E+00        -0.47617E+02
 
   -0.24788E+06         0.18406E+06         0.00000E+00
    0.18406E+06         0.24806E+06         0.00000E+00
    0.00000E+00         0.00000E+00         0.36122E+02
 
   -0.24188E+06         0.19273E+06         0.00000E+00
    0.19273E+06         0.24249E+06         0.00000E+00
    0.00000E+00         0.00000E+00         0.12166E+03
 
   -0.23570E+06         0.20123E+06         0.00000E+00
    0.20123E+06         0.23675E+06         0.00000E+00
    0.00000E+00         0.00000E+00         0.21015E+03
 
   -0.22933E+06         0.20953E+06         0.00000E+00
    0.20953E+06         0.23084E+06         0.00000E+00
    0.00000E+00         0.00000E+00         0.30281E+03
 
   -0.22278E+06         0.21765E+06         0.00000E+00
    0.21765E+06         0.22478E+06         0.00000E+00
    0.00000E+00         0.00000E+00         0.40089E+03
 
   -0.21606E+06         0.22558E+06         0.00000E+00
    0.22558E+06         0.21859E+06         0.00000E+00
    0.00000E+00         0.00000E+00         0.50573E+03
 
   -0.20918E+06         0.23333E+06         0.00000E+00
    0.23333E+06         0.21227E+06         0.00000E+00
    0.00000E+00         0.00000E+00         0.61874E+03
 
   -0.20214E+06         0.24088E+06         0.00000E+00
    0.24088E+06         0.20584E+06         0.00000E+00
    0.00000E+00         0.00000E+00         0.74142E+03
 
   -0.19495E+06         0.24824E+06         0.00000E+00
    0.24824E+06         0.19932E+06         0.00000E+00
    0.00000E+00         0.00000E+00         0.87534E+03
 
   -0.18761E+06         0.25541E+06         0.00000E+00
    0.25541E+06         0.19272E+06         0.00000E+00
    0.00000E+00         0.00000E+00         0.10222E+04
 
   -0.18013E+06         0.26240E+06         0.00000E+00
    0.26240E+06         0.18605E+06         0.00000E+00
    0.00000E+00         0.00000E+00         0.11837E+04
 
   -0.17252E+06         0.26920E+06         0.00000E+00
    0.26920E+06         0.17933E+06         0.00000E+00
    0.00000E+00         0.00000E+00         0.13619E+04
 
   -0.16477E+06         0.27582E+06         0.00000E+00
    0.27582E+06         0.17257E+06         0.00000E+00
    0.00000E+00         0.00000E+00         0.15587E+04
 
   -0.15690E+06         0.28225E+06         0.00000E+00
    0.28225E+06         0.16578E+06         0.00000E+00
    0.00000E+00         0.00000E+00         0.17763E+04
 
   -0.14890E+06         0.28851E+06         0.00000E+00
    0.28851E+06         0.15898E+06         0.00000E+00
    0.00000E+00         0.00000E+00         0.20169E+04
 
   -0.14077E+06         0.29460E+06         0.00000E+00
    0.29460E+06         0.15219E+06         0.00000E+00
    0.00000E+00         0.00000E+00         0.22829E+04
 
   -0.13253E+06         0.30052E+06         0.00000E+00
    0.30052E+06         0.14541E+06         0.00000E+00
    0.00000E+00         0.00000E+00         0.25769E+04
 
   -0.12416E+06         0.30628E+06         0.00000E+00
    0.30628E+06         0.13867E+06         0.00000E+00
    0.00000E+00         0.00000E+00         0.29017E+04
 
   -0.11566E+06         0.31188E+06         0.00000E+00
    0.31188E+06         0.13196E+06         0.00000E+00
    0.00000E+00         0.00000E+00         0.32599E+04
 
   -0.10704E+06         0.31732E+06         0.00000E+00
    0.31732E+06         0.12532E+06         0.00000E+00
    0.00000E+00         0.00000E+00         0.36546E+04
 
   -0.98299E+05         0.32262E+06         0.00000E+00
    0.32262E+06         0.11874E+06         0.00000E+00
    0.00000E+00         0.00000E+00         0.40889E+04
 
   -0.89424E+05         0.32777E+06         0.00000E+00
    0.32777E+06         0.11225E+06         0.00000E+00
    0.00000E+00         0.00000E+00         0.45661E+04
 
   -0.80415E+05         0.33279E+06         0.00000E+00
    0.33279E+06         0.10586E+06         0.00000E+00
    0.00000E+00         0.00000E+00         0.50896E+04
 
   -0.71267E+05         0.33767E+06         0.00000E+00
    0.33767E+06         0.99581E+05         0.00000E+00
    0.00000E+00         0.00000E+00         0.56628E+04
 
   -0.61975E+05         0.34243E+06         0.00000E+00
    0.34243E+06         0.93422E+05         0.00000E+00
    0.00000E+00         0.00000E+00         0.62894E+04
 
   -0.52532E+05         0.34707E+06         0.00000E+00
    0.34707E+06         0.87399E+05         0.00000E+00
    0.00000E+00         0.00000E+00         0.69733E+04
 
   -0.42931E+05         0.35159E+06         0.00000E+00
    0.35159E+06         0.81522E+05         0.00000E+00
    0.00000E+00         0.00000E+00         0.77181E+04
 
   -0.33164E+05         0.35600E+06         0.00000E+00
    0.35600E+06         0.75804E+05         0.00000E+00
    0.00000E+00         0.00000E+00         0.85280E+04
 
   -0.23222E+05         0.36031E+06         0.00000E+00
    0.36031E+06         0.70256E+05         0.00000E+00
    0.00000E+00         0.00000E+00         0.94068E+04
 
   -0.13095E+05         0.36451E+06         0.00000E+00
    0.36451E+06         0.64889E+05         0.00000E+00
    0.00000E+00         0.00000E+00         0.10359E+05
 
   -0.27723E+04         0.36862E+06         0.00000E+00
    0.36862E+06         0.59712E+05         0.00000E+00
    0.00000E+00         0.00000E+00         0.11388E+05
 
    0.77571E+04         0.37263E+06         0.00000E+00
    0.37263E+06         0.54736E+05         0.00000E+00
    0.00000E+00         0.00000E+00         0.12499E+05
 
   -0.29012E+06         0.47705E+04         0.00000E+00
    0.47705E+04         0.27804E+06         0.00000E+00
    0.00000E+00         0.00000E+00        -0.24166E+04
 
   -0.28867E+06         0.14362E+05         0.00000E+00
    0.14362E+05         0.27772E+06         0.00000E+00
    0.00000E+00         0.00000E+00        -0.21900E+04
 
   -0.28699E+06         0.23958E+05         0.00000E+00
    0.23958E+05         0.27710E+06         0.00000E+00
    0.00000E+00         0.00000E+00        -0.19796E+04
 
   -0.28508E+06         0.33547E+05         0.00000E+00
    0.33547E+05         0.27616E+06         0.00000E+00
    0.00000E+00         0.00000E+00        -0.17844E+04
 
   -0.28294E+06         0.43117E+05         0.00000E+00
    0.43117E+05         0.27492E+06         0.00000E+00
    0.00000E+00         0.00000E+00        -0.16033E+04
 
   -0.28055E+06         0.52656E+05         0.00000E+00
    0.52656E+05         0.27338E+06         0.00000E+00
    0.00000E+00         0.00000E+00        -0.14355E+04
 
   -0.27794E+06         0.62153E+05         0.00000E+00
    0.62153E+05         0.27154E+06         0.00000E+00
    0.00000E+00         0.00000E+00        -0.12799E+04
 
   -0.27509E+06         0.71596E+05         0.00000E+00
    0.71596E+05         0.26942E+06         0.00000E+00
    0.00000E+00         0.00000E+00        -0.11356E+04
 
   -0.27202E+06         0.80975E+05         0.00000E+00
    0.80975E+05         0.26701E+06         0.00000E+00
    0.00000E+00         0.00000E+00        -0.10016E+04
 
   -0.26871E+06         0.90280E+05         0.00000E+00
    0.90280E+05         0.26433E+06         0.00000E+00
    0.00000E+00         0.00000E+00        -0.87677E+03
 
   -0.26519E+06         0.99502E+05         0.00000E+00
    0.99502E+05         0.26139E+06         0.00000E+00
    0.00000E+00         0.00000E+00        -0.76027E+03
 
   -0.26144E+06         0.10863E+06         0.00000E+00
    0.10863E+06         0.25818E+06         0.00000E+00
    0.00000E+00         0.00000E+00        -0.65107E+03
 
   -0.25747E+06         0.11766E+06         0.00000E+00
    0.11766E+06         0.25473E+06         0.00000E+00
    0.00000E+00         0.00000E+00        -0.54816E+03
 
   -0.25329E+06         0.12657E+06         0.00000E+00
    0.12657E+06         0.25104E+06         0.00000E+00
    0.00000E+00         0.00000E+00        -0.45054E+03
 
   -0.24890E+06         0.13538E+06         0.00000E+00
    0.13538E+06         0.24712E+06         0.00000E+00
    0.00000E+00         0.00000E+00        -0.35721E+03
 
   -0.24431E+06         0.14405E+06         0.00000E+00
    0.14405E+06         0.24298E+06         0.00000E+00
    0.00000E+00         0.00000E+00        -0.26713E+03
 
   -0.23952E+06         0.15260E+06         0.00000E+00
    0.15260E+06         0.23862E+06         0.00000E+00
    0.00000E+00         0.00000E+00        -0.17926E+03
 
   -0.23454E+06         0.16101E+06         0.00000E+00
    0.16101E+06         0.23407E+06         0.00000E+00
    0.00000E+00         0.00000E+00        -0.92531E+02
 
   -0.22936E+06         0.16928E+06         0.00000E+00
    0.16928E+06         0.22933E+06         0.00000E+00
    0.00000E+00         0.00000E+00        -0.58591E+01
 
   -0.22401E+06         0.17740E+06         0.00000E+00
    0.17740E+06         0.22442E+06         0.00000E+00
    0.00000E+00         0.00000E+00         0.81887E+02
 
   -0.21847E+06         0.18537E+06         0.00000E+00
    0.18537E+06         0.21933E+06         0.00000E+00
    0.00000E+00         0.00000E+00         0.17187E+03
 
   -0.21276E+06         0.19319E+06         0.00000E+00
    0.19319E+06         0.21409E+06         0.00000E+00
    0.00000E+00         0.00000E+00         0.26530E+03
 
   -0.20688E+06         0.20085E+06         0.00000E+00
    0.20085E+06         0.20870E+06         0.00000E+00
    0.00000E+00         0.00000E+00         0.36345E+03
 
   -0.20084E+06         0.20835E+06         0.00000E+00
    0.20835E+06         0.20318E+06         0.00000E+00
    0.00000E+00         0.00000E+00         0.46763E+03
 
   -0.19464E+06         0.21570E+06         0.00000E+00
    0.21570E+06         0.19754E+06         0.00000E+00
    0.00000E+00         0.00000E+00         0.57923E+03
 
   -0.18829E+06         0.22288E+06         0.00000E+00
    0.22288E+06         0.19179E+06         0.00000E+00
    0.00000E+00         0.00000E+00         0.69972E+03
 
   -0.18178E+06         0.22989E+06         0.00000E+00
    0.22989E+06         0.18594E+06         0.00000E+00
    0.00000E+00         0.00000E+00         0.83065E+03
 
   -0.17513E+06         0.23674E+06         0.00000E+00
    0.23674E+06         0.18000E+06         0.00000E+00
    0.00000E+00         0.00000E+00         0.97364E+03
 
   -0.16833E+06         0.24343E+06         0.00000E+00
    0.24343E+06         0.17399E+06         0.00000E+00
    0.00000E+00         0.00000E+00         0.11304E+04
 
   -0.16140E+06         0.24996E+06         0.00000E+00
    0.24996E+06         0.16791E+06         0.00000E+00
    0.00000E+00         0.00000E+00         0.13029E+04
 
   -0.15432E+06         0.25632E+06         0.00000E+00
    0.25632E+06         0.16178E+06         0.00000E+00
    0.00000E+00         0.00000E+00         0.14929E+04
 
   -0.14711E+06         0.26253E+06         0.00000E+00
    0.26253E+06         0.15562E+06         0.00000E+00
    0.00000E+00         0.00000E+00         0.17025E+04
 
   -0.13976E+06         0.26857E+06         0.00000E+00
    0.26857E+06         0.14943E+06         0.00000E+00
    0.00000E+00         0.00000E+00         0.19340E+04
 
   -0.13228E+06         0.27446E+06         0.00000E+00
    0.27446E+06         0.14323E+06         0.00000E+00
    0.00000E+00         0.00000E+00         0.21896E+04
 
   -0.12466E+06         0.28019E+06         0.00000E+00
    0.28019E+06         0.13702E+06         0.00000E+00
    0.00000E+00         0.00000E+00         0.24717E+04
 
   -0.11691E+06         0.28577E+06         0.00000E+00
    0.28577E+06         0.13082E+06         0.00000E+00
    0.00000E+00         0.00000E+00         0.27830E+04
 
   -0.10902E+06         0.29120E+06         0.00000E+00
    0.29120E+06         0.12465E+06         0.00000E+00
    0.00000E+00         0.00000E+00         0.31261E+04
 
   -0.10100E+06         0.29648E+06         0.00000E+00
    0.29648E+06         0.11852E+06         0.00000E+00
    0.00000E+00         0.00000E+00         0.35039E+04
 
   -0.92837E+05         0.30162E+06         0.00000E+00
    0.30162E+06         0.11243E+06         0.00000E+00
    0.00000E+00         0.00000E+00         0.39193E+04
 
   -0.84532E+05         0.30661E+06         0.00000E+00
    0.30661E+06         0.10641E+06         0.00000E+00
    0.00000E+00         0.00000E+00         0.43755E+04
 
   -0.76081E+05         0.31147E+06         0.00000E+00
    0.31147E+06         0.10046E+06         0.00000E+00
    0.00000E+00         0.00000E+00         0.48756E+04
 
   -0.67480E+05         0.31619E+06         0.00000E+00
    0.31619E+06         0.94595E+05         0.00000E+00
    0.00000E+00         0.00000E+00         0.54230E+04
 
   -0.58725E+05         0.32079E+06         0.00000E+00
    0.32079E+06         0.88831E+05         0.00000E+00
    0.00000E+00         0.00000E+00         0.60211E+04
 
   -0.49809E+05         0.32525E+06         0.00000E+00
    0.32525E+06         0.83177E+05         0.00000E+00
    0.00000E+00         0.00000E+00         0.66736E+04
 
   -0.40728E+05         0.32958E+06         0.00000E+00
    0.32958E+06         0.77648E+05         0.00000E+00
    0.00000E+00         0.00000E+00         0.73840E+04
 
   -0.31473E+05         0.33380E+06         0.00000E+00
    0.33380E+06         0.72254E+05         0.00000E+00
    0.00000E+00         0.00000E+00         0.81562E+04
 
   -0.22039E+05         0.33789E+06         0.00000E+00
    0.33789E+06         0.67008E+05         0.00000E+00
    0.00000E+00         0.00000E+00         0.89939E+04
 
   -0.12417E+05         0.34187E+06         0.00000E+00
    0.34187E+06         0.61921E+05         0.00000E+00
    0.00000E+00         0.00000E+00         0.99009E+04
 
   -0.25986E+04         0.34572E+06         0.00000E+00
    0.34572E+06         0.57005E+05         0.00000E+00
    0.00000E+00         0.00000E+00         0.10881E+05
 
    0.74239E+04         0.34947E+06         0.00000E+00
    0.34947E+06         0.52270E+05         0.00000E+00
    0.00000E+00         0.00000E+00         0.11939E+05
 
   -0.26766E+06         0.43969E+04         0.00000E+00
    0.43969E+04         0.25452E+06         0.00000E+00
    0.00000E+00         0.00000E+00        -0.26282E+04
 
   -0.26615E+06         0.13227E+05         0.00000E+00
    0.13227E+05         0.25424E+06         0.00000E+00
    0.00000E+00         0.00000E+00        -0.23824E+04
 
   -0.26446E+06         0.22059E+05         0.00000E+00
    0.22059E+05         0.25369E+06         0.00000E+00
    0.00000E+00         0.00000E+00        -0.21543E+04
 
   -0.26259E+06         0.30885E+05         0.00000E+00
    0.30885E+05         0.25287E+06         0.00000E+00
    0.00000E+00         0.00000E+00        -0.19428E+04
 
   -0.26052E+06         0.39695E+05         0.00000E+00
    0.39695E+05         0.25178E+06         0.00000E+00
    0.00000E+00         0.00000E+00        -0.17469E+04
 
   -0.25826E+06         0.48479E+05         0.00000E+00
    0.48479E+05         0.25043E+06         0.00000E+00
    0.00000E+00         0.00000E+00        -0.15656E+04
 
   -0.25580E+06         0.57228E+05         0.00000E+00
    0.57228E+05         0.24881E+06         0.00000E+00
    0.00000E+00         0.00000E+00        -0.13977E+04
 
   -0.25316E+06         0.65934E+05         0.00000E+00
    0.65934E+05         0.24695E+06         0.00000E+00
    0.00000E+00         0.00000E+00        -0.12422E+04
 
   -0.25032E+06         0.74588E+05         0.00000E+00
    0.74588E+05         0.24483E+06         0.00000E+00
    0.00000E+00         0.00000E+00        -0.10980E+04
 
   -0.24729E+06         0.83181E+05         0.00000E+00
    0.83181E+05         0.24247E+06         0.00000E+00
    0.00000E+00         0.00000E+00        -0.96417E+03
 
   -0.24407E+06         0.91706E+05         0.00000E+00
    0.91706E+05         0.23988E+06         0.00000E+00
    0.00000E+00         0.00000E+00        -0.83954E+03
 
   -0.24067E+06         0.10015E+06         0.00000E+00
    0.10015E+06         0.23705E+06         0.00000E+00
    0.00000E+00         0.00000E+00        -0.72312E+03
 
   -0.23707E+06         0.10852E+06         0.00000E+00
    0.10852E+06         0.23400E+06         0.00000E+00
    0.00000E+00         0.00000E+00        -0.61386E+03
 
   -0.23330E+06         0.11679E+06         0.00000E+00
    0.11679E+06         0.23074E+06         0.00000E+00
    0.00000E+00         0.00000E+00        -0.51071E+03
 
   -0.22934E+06         0.12497E+06         0.00000E+00
    0.12497E+06         0.22727E+06         0.00000E+00
    0.00000E+00         0.00000E+00        -0.41263E+03
 
   -0.22520E+06         0.13305E+06         0.00000E+00
    0.13305E+06         0.22361E+06         0.00000E+00
    0.00000E+00         0.00000E+00        -0.31856E+03
 
   -0.22088E+06         0.14101E+06         0.00000E+00
    0.14101E+06         0.21975E+06         0.00000E+00
    0.00000E+00         0.00000E+00        -0.22743E+03
 
   -0.21640E+06         0.14887E+06         0.00000E+00
    0.14887E+06         0.21571E+06         0.00000E+00
    0.00000E+00         0.00000E+00        -0.13818E+03
 
   -0.21174E+06         0.15660E+06         0.00000E+00
    0.15660E+06         0.21149E+06         0.00000E+00
    0.00000E+00         0.00000E+00        -0.49687E+02
 
   -0.20691E+06         0.16421E+06         0.00000E+00
    0.16421E+06         0.20711E+06         0.00000E+00
    0.00000E+00         0.00000E+00         0.39163E+02
 
   -0.20193E+06         0.17169E+06         0.00000E+00
    0.17169E+06         0.20257E+06         0.00000E+00
    0.00000E+00         0.00000E+00         0.12953E+03
 
   -0.19678E+06         0.17905E+06         0.00000E+00
    0.17905E+06         0.19789E+06         0.00000E+00
    0.00000E+00         0.00000E+00         0.22262E+03
 
   -0.19147E+06         0.18626E+06         0.00000E+00
    0.18626E+06         0.19307E+06         0.00000E+00
    0.00000E+00         0.00000E+00         0.31966E+03
 
   -0.18601E+06         0.19334E+06         0.00000E+00
    0.19334E+06         0.18812E+06         0.00000E+00
    0.00000E+00         0.00000E+00         0.42196E+03
 
   -0.18040E+06         0.20029E+06         0.00000E+00
    0.20029E+06         0.18305E+06         0.00000E+00
    0.00000E+00         0.00000E+00         0.53086E+03
 
   -0.17464E+06         0.20709E+06         0.00000E+00
    0.20709E+06         0.17788E+06         0.00000E+00
    0.00000E+00         0.00000E+00         0.64779E+03
 
   -0.16873E+06         0.21374E+06         0.00000E+00
    0.21374E+06         0.17260E+06         0.00000E+00
    0.00000E+00         0.00000E+00         0.77422E+03
 
   -0.16268E+06         0.22025E+06         0.00000E+00
    0.22025E+06         0.16724E+06         0.00000E+00
    0.00000E+00         0.00000E+00         0.91175E+03
 
   -0.15649E+06         0.22662E+06         0.00000E+00
    0.22662E+06         0.16180E+06         0.00000E+00
    0.00000E+00         0.00000E+00         0.10620E+04
 
   -0.15016E+06         0.23284E+06         0.00000E+00
    0.23284E+06         0.15629E+06         0.00000E+00
    0.00000E+00         0.00000E+00         0.12268E+04
 
   -0.14368E+06         0.23892E+06         0.00000E+00
    0.23892E+06         0.15072E+06         0.00000E+00
    0.00000E+00         0.00000E+00         0.14079E+04
 
   -0.13707E+06         0.24485E+06         0.00000E+00
    0.24485E+06         0.14511E+06         0.00000E+00
    0.00000E+00         0.00000E+00         0.16073E+04
 
   -0.13033E+06         0.25063E+06         0.00000E+00
    0.25063E+06         0.13946E+06         0.00000E+00
    0.00000E+00         0.00000E+00         0.18271E+04
 
   -0.12344E+06         0.25627E+06         0.00000E+00
    0.25627E+06         0.13379E+06         0.00000E+00
    0.00000E+00         0.00000E+00         0.20695E+04
 
   -0.11642E+06         0.26176E+06         0.00000E+00
    0.26176E+06         0.12810E+06         0.00000E+00
    0.00000E+00         0.00000E+00         0.23367E+04
 
   -0.10926E+06         0.26711E+06         0.00000E+00
    0.26711E+06         0.12241E+06         0.00000E+00
    0.00000E+00         0.00000E+00         0.26312E+04
 
   -0.10196E+06         0.27231E+06         0.00000E+00
    0.27231E+06         0.11673E+06         0.00000E+00
    0.00000E+00         0.00000E+00         0.29555E+04
 
   -0.94515E+05         0.27737E+06         0.00000E+00
    0.27737E+06         0.11108E+06         0.00000E+00
    0.00000E+00         0.00000E+00         0.33124E+04
 
   -0.86930E+05         0.28230E+06         0.00000E+00
    0.28230E+06         0.10545E+06         0.00000E+00
    0.00000E+00         0.00000E+00         0.37046E+04
 
   -0.79199E+05         0.28708E+06         0.00000E+00
    0.28708E+06         0.99874E+05         0.00000E+00
    0.00000E+00         0.00000E+00         0.41349E+04
 
   -0.71320E+05         0.29172E+06         0.00000E+00
    0.29172E+06         0.94353E+05         0.00000E+00
    0.00000E+00         0.00000E+00         0.46065E+04
 
   -0.63288E+05         0.29623E+06         0.00000E+00
    0.29623E+06         0.88901E+05         0.00000E+00
    0.00000E+00         0.00000E+00         0.51225E+04
 
   -0.55100E+05         0.30061E+06         0.00000E+00
    0.30061E+06         0.83531E+05         0.00000E+00
    0.00000E+00         0.00000E+00         0.56862E+04
 
   -0.46752E+05         0.30485E+06         0.00000E+00
    0.30485E+06         0.78256E+05         0.00000E+00
    0.00000E+00         0.00000E+00         0.63008E+04
 
   -0.38238E+05         0.30896E+06         0.00000E+00
    0.30896E+06         0.73087E+05         0.00000E+00
    0.00000E+00         0.00000E+00         0.69698E+04
 
   -0.29553E+05         0.31293E+06         0.00000E+00
    0.31293E+06         0.68037E+05         0.00000E+00
    0.00000E+00         0.00000E+00         0.76966E+04
 
   -0.20692E+05         0.31678E+06         0.00000E+00
    0.31678E+06         0.63117E+05         0.00000E+00
    0.00000E+00         0.00000E+00         0.84850E+04
 
   -0.11649E+05         0.32050E+06         0.00000E+00
    0.32050E+06         0.58341E+05         0.00000E+00
    0.00000E+00         0.00000E+00         0.93384E+04
 
   -0.24180E+04         0.32409E+06         0.00000E+00
    0.32409E+06         0.53721E+05         0.00000E+00
    0.00000E+00         0.00000E+00         0.10261E+05
 
    0.70082E+04         0.32755E+06         0.00000E+00
    0.32755E+06         0.49267E+05         0.00000E+00
    0.00000E+00         0.00000E+00         0.11255E+05
 
   -0.24677E+06         0.40890E+04         0.00000E+00
    0.40890E+04         0.23289E+06         0.00000E+00
    0.00000E+00         0.00000E+00        -0.27765E+04
 
   -0.24523E+06         0.12287E+05         0.00000E+00
    0.12287E+05         0.23264E+06         0.00000E+00
    0.00000E+00         0.00000E+00        -0.25180E+04
 
   -0.24354E+06         0.20483E+05         0.00000E+00
    0.20483E+05         0.23215E+06         0.00000E+00
    0.00000E+00         0.00000E+00        -0.22781E+04
 
   -0.24170E+06         0.28671E+05         0.00000E+00
    0.28671E+05         0.23142E+06         0.00000E+00
    0.00000E+00         0.00000E+00        -0.20559E+04
 
   -0.23970E+06         0.36843E+05         0.00000E+00
    0.36843E+05         0.23045E+06         0.00000E+00
    0.00000E+00         0.00000E+00        -0.18501E+04
 
   -0.23755E+06         0.44991E+05         0.00000E+00
    0.44991E+05         0.22925E+06         0.00000E+00
    0.00000E+00         0.00000E+00        -0.16597E+04
 
   -0.23523E+06         0.53108E+05         0.00000E+00
    0.53108E+05         0.22782E+06         0.00000E+00
    0.00000E+00         0.00000E+00        -0.14836E+04
 
   -0.23276E+06         0.61186E+05         0.00000E+00
    0.61186E+05         0.22615E+06         0.00000E+00
    0.00000E+00         0.00000E+00        -0.13206E+04
 
   -0.23012E+06         0.69220E+05         0.00000E+00
    0.69220E+05         0.22427E+06         0.00000E+00
    0.00000E+00         0.00000E+00        -0.11697E+04
 
   -0.22732E+06         0.77201E+05         0.00000E+00
    0.77201E+05         0.22217E+06         0.00000E+00
    0.00000E+00         0.00000E+00        -0.10298E+04
 
   -0.22436E+06         0.85124E+05         0.00000E+00
    0.85124E+05         0.21986E+06         0.00000E+00
    0.00000E+00         0.00000E+00        -0.89986E+03
 
   -0.22124E+06         0.92982E+05         0.00000E+00
    0.92982E+05         0.21735E+06         0.00000E+00
    0.00000E+00         0.00000E+00        -0.77875E+03
 
   -0.21796E+06         0.10077E+06         0.00000E+00
    0.10077E+06         0.21463E+06         0.00000E+00
    0.00000E+00         0.00000E+00        -0.66543E+03
 
   -0.21452E+06         0.10848E+06         0.00000E+00
    0.10848E+06         0.21172E+06         0.00000E+00
    0.00000E+00         0.00000E+00        -0.55884E+03
 
   -0.21092E+06         0.11610E+06         0.00000E+00
    0.11610E+06         0.20863E+06         0.00000E+00
    0.00000E+00         0.00000E+00        -0.45792E+03
 
   -0.20716E+06         0.12364E+06         0.00000E+00
    0.12364E+06         0.20535E+06         0.00000E+00
    0.00000E+00         0.00000E+00        -0.36162E+03
 
   -0.20325E+06         0.13109E+06         0.00000E+00
    0.13109E+06         0.20190E+06         0.00000E+00
    0.00000E+00         0.00000E+00        -0.26887E+03
 
   -0.19918E+06         0.13843E+06         0.00000E+00
    0.13843E+06         0.19829E+06         0.00000E+00
    0.00000E+00         0.00000E+00        -0.17859E+03
 
   -0.19496E+06         0.14567E+06         0.00000E+00
    0.14567E+06         0.19451E+06         0.00000E+00
    0.00000E+00         0.00000E+00        -0.89699E+02
 
   -0.19059E+06         0.15281E+06         0.00000E+00
    0.15281E+06         0.19058E+06         0.00000E+00
    0.00000E+00         0.00000E+00        -0.10769E+01
 
   -0.18607E+06         0.15984E+06         0.00000E+00
    0.15984E+06         0.18651E+06         0.00000E+00
    0.00000E+00         0.00000E+00         0.88407E+02
 
   -0.18140E+06         0.16675E+06         0.00000E+00
    0.16675E+06         0.18230E+06         0.00000E+00
    0.00000E+00         0.00000E+00         0.17992E+03
 
   -0.17659E+06         0.17354E+06         0.00000E+00
    0.17354E+06         0.17796E+06         0.00000E+00
    0.00000E+00         0.00000E+00         0.27467E+03
 
   -0.17164E+06         0.18021E+06         0.00000E+00
    0.18021E+06         0.17350E+06         0.00000E+00
    0.00000E+00         0.00000E+00         0.37389E+03
 
   -0.16654E+06         0.18676E+06         0.00000E+00
    0.18676E+06         0.16893E+06         0.00000E+00
    0.00000E+00         0.00000E+00         0.47890E+03
 
   -0.16130E+06         0.19319E+06         0.00000E+00
    0.19319E+06         0.16426E+06         0.00000E+00
    0.00000E+00         0.00000E+00         0.59105E+03
 
   -0.15592E+06         0.19948E+06         0.00000E+00
    0.19948E+06         0.15948E+06         0.00000E+00
    0.00000E+00         0.00000E+00         0.71177E+03
 
   -0.15041E+06         0.20565E+06         0.00000E+00
    0.20565E+06         0.15462E+06         0.00000E+00
    0.00000E+00         0.00000E+00         0.84254E+03
 
   -0.14476E+06         0.21168E+06         0.00000E+00
    0.21168E+06         0.14968E+06         0.00000E+00
    0.00000E+00         0.00000E+00         0.98493E+03
 
   -0.13897E+06         0.21758E+06         0.00000E+00
    0.21758E+06         0.14467E+06         0.00000E+00
    0.00000E+00         0.00000E+00         0.11406E+04
 
   -0.13305E+06         0.22335E+06         0.00000E+00
    0.22335E+06         0.13960E+06         0.00000E+00
    0.00000E+00         0.00000E+00         0.13113E+04
 
   -0.12699E+06         0.22898E+06         0.00000E+00
    0.22898E+06         0.13449E+06         0.00000E+00
    0.00000E+00         0.00000E+00         0.14989E+04
 
   -0.12080E+06         0.23448E+06         0.00000E+00
    0.23448E+06         0.12933E+06         0.00000E+00
    0.00000E+00         0.00000E+00         0.17053E+04
 
   -0.11447E+06         0.23984E+06         0.00000E+00
    0.23984E+06         0.12414E+06         0.00000E+00
    0.00000E+00         0.00000E+00         0.19326E+04
 
   -0.10801E+06         0.24506E+06         0.00000E+00
    0.24506E+06         0.11892E+06         0.00000E+00
    0.00000E+00         0.00000E+00         0.21829E+04
 
   -0.10141E+06         0.25015E+06         0.00000E+00
    0.25015E+06         0.11370E+06         0.00000E+00
    0.00000E+00         0.00000E+00         0.24585E+04
 
   -0.94676E+05         0.25509E+06         0.00000E+00
    0.25509E+06         0.10848E+06         0.00000E+00
    0.00000E+00         0.00000E+00         0.27617E+04
 
   -0.87800E+05         0.25991E+06         0.00000E+00
    0.25991E+06         0.10328E+06         0.00000E+00
    0.00000E+00         0.00000E+00         0.30951E+04
 
   -0.80784E+05         0.26458E+06         0.00000E+00
    0.26458E+06         0.98091E+05         0.00000E+00
    0.00000E+00         0.00000E+00         0.34613E+04
 
   -0.73625E+05         0.26912E+06         0.00000E+00
    0.26912E+06         0.92939E+05         0.00000E+00
    0.00000E+00         0.00000E+00         0.38630E+04
 
   -0.66320E+05         0.27352E+06         0.00000E+00
    0.27352E+06         0.87834E+05         0.00000E+00
    0.00000E+00         0.00000E+00         0.43030E+04
 
   -0.58866E+05         0.27779E+06         0.00000E+00
    0.27779E+06         0.82787E+05         0.00000E+00
    0.00000E+00         0.00000E+00         0.47841E+04
 
   -0.51261E+05         0.28192E+06         0.00000E+00
    0.28192E+06         0.77809E+05         0.00000E+00
    0.00000E+00         0.00000E+00         0.53096E+04
 
   -0.43501E+05         0.28591E+06         0.00000E+00
    0.28591E+06         0.72912E+05         0.00000E+00
    0.00000E+00         0.00000E+00         0.58823E+04
 
   -0.35582E+05         0.28977E+06         0.00000E+00
    0.28977E+06         0.68110E+05         0.00000E+00
    0.00000E+00         0.00000E+00         0.65056E+04
 
   -0.27500E+05         0.29349E+06         0.00000E+00
    0.29349E+06         0.63414E+05         0.00000E+00
    0.00000E+00         0.00000E+00         0.71827E+04
 
   -0.19251E+05         0.29708E+06         0.00000E+00
    0.29708E+06         0.58836E+05         0.00000E+00
    0.00000E+00         0.00000E+00         0.79168E+04
 
   -0.10831E+05         0.30054E+06         0.00000E+00
    0.30054E+06         0.54388E+05         0.00000E+00
    0.00000E+00         0.00000E+00         0.87114E+04
 
   -0.22354E+04         0.30385E+06         0.00000E+00
    0.30385E+06         0.50084E+05         0.00000E+00
    0.00000E+00         0.00000E+00         0.95698E+04
 
    0.65413E+04         0.30703E+06         0.00000E+00
    0.30703E+06         0.45936E+05         0.00000E+00
    0.00000E+00         0.00000E+00         0.10495E+05
 
   -0.22715E+06         0.38315E+04         0.00000E+00
    0.38315E+04         0.21287E+06         0.00000E+00
    0.00000E+00         0.00000E+00        -0.28547E+04
 
   -0.22561E+06         0.11498E+05         0.00000E+00
    0.11498E+05         0.21265E+06         0.00000E+00
    0.00000E+00         0.00000E+00        -0.25902E+04
 
   -0.22394E+06         0.19159E+05         0.00000E+00
    0.19159E+05         0.21221E+06         0.00000E+00
    0.00000E+00         0.00000E+00        -0.23448E+04
 
   -0.22214E+06         0.26808E+05         0.00000E+00
    0.26808E+05         0.21156E+06         0.00000E+00
    0.00000E+00         0.00000E+00        -0.21174E+04
 
   -0.22022E+06         0.34439E+05         0.00000E+00
    0.34439E+05         0.21069E+06         0.00000E+00
    0.00000E+00         0.00000E+00        -0.19069E+04
 
   -0.21817E+06         0.42046E+05         0.00000E+00
    0.42046E+05         0.20961E+06         0.00000E+00
    0.00000E+00         0.00000E+00        -0.17123E+04
 
   -0.21598E+06         0.49623E+05         0.00000E+00
    0.49623E+05         0.20832E+06         0.00000E+00
    0.00000E+00         0.00000E+00        -0.15323E+04
 
   -0.21365E+06         0.57165E+05         0.00000E+00
    0.57165E+05         0.20683E+06         0.00000E+00
    0.00000E+00         0.00000E+00        -0.13658E+04
 
   -0.21119E+06         0.64665E+05         0.00000E+00
    0.64665E+05         0.20514E+06         0.00000E+00
    0.00000E+00         0.00000E+00        -0.12119E+04
 
   -0.20860E+06         0.72117E+05         0.00000E+00
    0.72117E+05         0.20325E+06         0.00000E+00
    0.00000E+00         0.00000E+00        -0.10693E+04
 
   -0.20586E+06         0.79517E+05         0.00000E+00
    0.79517E+05         0.20118E+06         0.00000E+00
    0.00000E+00         0.00000E+00        -0.93698E+03
 
   -0.20299E+06         0.86858E+05         0.00000E+00
    0.86858E+05         0.19892E+06         0.00000E+00
    0.00000E+00         0.00000E+00        -0.81393E+03
 
   -0.19997E+06         0.94136E+05         0.00000E+00
    0.94136E+05         0.19648E+06         0.00000E+00
    0.00000E+00         0.00000E+00        -0.69905E+03
 
   -0.19682E+06         0.10135E+06         0.00000E+00
    0.10135E+06         0.19387E+06         0.00000E+00
    0.00000E+00         0.00000E+00        -0.59131E+03
 
   -0.19353E+06         0.10848E+06         0.00000E+00
    0.10848E+06         0.19108E+06         0.00000E+00
    0.00000E+00         0.00000E+00        -0.48964E+03
 
   -0.19010E+06         0.11554E+06         0.00000E+00
    0.11554E+06         0.18814E+06         0.00000E+00
    0.00000E+00         0.00000E+00        -0.39300E+03
 
   -0.18654E+06         0.12251E+06         0.00000E+00
    0.12251E+06         0.18503E+06         0.00000E+00
    0.00000E+00         0.00000E+00        -0.30035E+03
 
   -0.18283E+06         0.12940E+06         0.00000E+00
    0.12940E+06         0.18178E+06         0.00000E+00
    0.00000E+00         0.00000E+00        -0.21064E+03
 
   -0.17899E+06         0.13620E+06         0.00000E+00
    0.13620E+06         0.17838E+06         0.00000E+00
    0.00000E+00         0.00000E+00        -0.12280E+03
 
   -0.17502E+06         0.14290E+06         0.00000E+00
    0.14290E+06         0.17484E+06         0.00000E+00
    0.00000E+00         0.00000E+00        -0.35751E+02
 
   -0.17090E+06         0.14950E+06         0.00000E+00
    0.14950E+06         0.17116E+06         0.00000E+00
    0.00000E+00         0.00000E+00         0.51594E+02
 
   -0.16666E+06         0.15600E+06         0.00000E+00
    0.15600E+06         0.16736E+06         0.00000E+00
    0.00000E+00         0.00000E+00         0.14036E+03
 
   -0.16228E+06         0.16239E+06         0.00000E+00
    0.16239E+06         0.16344E+06         0.00000E+00
    0.00000E+00         0.00000E+00         0.23171E+03
 
   -0.15777E+06         0.16867E+06         0.00000E+00
    0.16867E+06         0.15941E+06         0.00000E+00
    0.00000E+00         0.00000E+00         0.32682E+03
 
   -0.15313E+06         0.17485E+06         0.00000E+00
    0.17485E+06         0.15527E+06         0.00000E+00
    0.00000E+00         0.00000E+00         0.42693E+03
 
   -0.14836E+06         0.18091E+06         0.00000E+00
    0.18091E+06         0.15103E+06         0.00000E+00
    0.00000E+00         0.00000E+00         0.53333E+03
 
   -0.14346E+06         0.18685E+06         0.00000E+00
    0.18685E+06         0.14669E+06         0.00000E+00
    0.00000E+00         0.00000E+00         0.64737E+03
 
   -0.13843E+06         0.19267E+06         0.00000E+00
    0.19267E+06         0.14228E+06         0.00000E+00
    0.00000E+00         0.00000E+00         0.77044E+03
 
   -0.13327E+06         0.19837E+06         0.00000E+00
    0.19837E+06         0.13779E+06         0.00000E+00
    0.00000E+00         0.00000E+00         0.90402E+03
 
   -0.12798E+06         0.20395E+06         0.00000E+00
    0.20395E+06         0.13323E+06         0.00000E+00
    0.00000E+00         0.00000E+00         0.10497E+04
 
   -0.12256E+06         0.20940E+06         0.00000E+00
    0.20940E+06         0.12861E+06         0.00000E+00
    0.00000E+00         0.00000E+00         0.12090E+04
 
   -0.11702E+06         0.21473E+06         0.00000E+00
    0.21473E+06         0.12394E+06         0.00000E+00
    0.00000E+00         0.00000E+00         0.13838E+04
 
   -0.11134E+06         0.21993E+06         0.00000E+00
    0.21993E+06         0.11922E+06         0.00000E+00
    0.00000E+00         0.00000E+00         0.15757E+04
 
   -0.10554E+06         0.22500E+06         0.00000E+00
    0.22500E+06         0.11448E+06         0.00000E+00
    0.00000E+00         0.00000E+00         0.17868E+04
 
   -0.99610E+05         0.22994E+06         0.00000E+00
    0.22994E+06         0.10970E+06         0.00000E+00
    0.00000E+00         0.00000E+00         0.20191E+04
 
   -0.93547E+05         0.23475E+06         0.00000E+00
    0.23475E+06         0.10492E+06         0.00000E+00
    0.00000E+00         0.00000E+00         0.22745E+04
 
   -0.87353E+05         0.23943E+06         0.00000E+00
    0.23943E+06         0.10013E+06         0.00000E+00
    0.00000E+00         0.00000E+00         0.25554E+04
 
   -0.81025E+05         0.24398E+06         0.00000E+00
    0.24398E+06         0.95346E+05         0.00000E+00
    0.00000E+00         0.00000E+00         0.28640E+04
 
   -0.74564E+05         0.24839E+06         0.00000E+00
    0.24839E+06         0.90578E+05         0.00000E+00
    0.00000E+00         0.00000E+00         0.32028E+04
 
   -0.67966E+05         0.25267E+06         0.00000E+00
    0.25267E+06         0.85837E+05         0.00000E+00
    0.00000E+00         0.00000E+00         0.35742E+04
 
   -0.61230E+05         0.25682E+06         0.00000E+00
    0.25682E+06         0.81134E+05         0.00000E+00
    0.00000E+00         0.00000E+00         0.39809E+04
 
   -0.54353E+05         0.26083E+06         0.00000E+00
    0.26083E+06         0.76480E+05         0.00000E+00
    0.00000E+00         0.00000E+00         0.44256E+04
 
   -0.47333E+05         0.26470E+06         0.00000E+00
    0.26470E+06         0.71888E+05         0.00000E+00
    0.00000E+00         0.00000E+00         0.49109E+04
 
   -0.40168E+05         0.26844E+06         0.00000E+00
    0.26844E+06         0.67367E+05         0.00000E+00
    0.00000E+00         0.00000E+00         0.54399E+04
 
   -0.32854E+05         0.27205E+06         0.00000E+00
    0.27205E+06         0.62931E+05         0.00000E+00
    0.00000E+00         0.00000E+00         0.60154E+04
 
   -0.25389E+05         0.27552E+06         0.00000E+00
    0.27552E+06         0.58591E+05         0.00000E+00
    0.00000E+00         0.00000E+00         0.66404E+04
 
   -0.17769E+05         0.27885E+06         0.00000E+00
    0.27885E+06         0.54360E+05         0.00000E+00
    0.00000E+00         0.00000E+00         0.73181E+04
 
   -0.99924E+04         0.28205E+06         0.00000E+00
    0.28205E+06         0.50249E+05         0.00000E+00
    0.00000E+00         0.00000E+00         0.80513E+04
 
   -0.20544E+04         0.28510E+06         0.00000E+00
    0.28510E+06         0.46271E+05         0.00000E+00
    0.00000E+00         0.00000E+00         0.88434E+04
 
    0.60476E+04         0.28802E+06         0.00000E+00
    0.28802E+06         0.42439E+05         0.00000E+00
    0.00000E+00         0.00000E+00         0.96973E+04
 
   -0.20858E+06         0.36126E+04         0.00000E+00
    0.36126E+04         0.19425E+06         0.00000E+00
    0.00000E+00         0.00000E+00        -0.28646E+04
 
   -0.20705E+06         0.10827E+05         0.00000E+00
    0.10827E+05         0.19405E+06         0.00000E+00
    0.00000E+00         0.00000E+00        -0.26004E+04
 
   -0.20543E+06         0.18031E+05         0.00000E+00
    0.18031E+05         0.19365E+06         0.00000E+00
    0.00000E+00         0.00000E+00        -0.23553E+04
 
   -0.20370E+06         0.25220E+05         0.00000E+00
    0.25220E+05         0.19306E+06         0.00000E+00
    0.00000E+00         0.00000E+00        -0.21282E+04
 
   -0.20186E+06         0.32388E+05         0.00000E+00
    0.32388E+05         0.19227E+06         0.00000E+00
    0.00000E+00         0.00000E+00        -0.19180E+04
 
   -0.19991E+06         0.39530E+05         0.00000E+00
    0.39530E+05         0.19129E+06         0.00000E+00
    0.00000E+00         0.00000E+00        -0.17236E+04
 
   -0.19784E+06         0.46643E+05         0.00000E+00
    0.46643E+05         0.19012E+06         0.00000E+00
    0.00000E+00         0.00000E+00        -0.15439E+04
 
   -0.19566E+06         0.53720E+05         0.00000E+00
    0.53720E+05         0.18877E+06         0.00000E+00
    0.00000E+00         0.00000E+00        -0.13778E+04
 
   -0.19337E+06         0.60757E+05         0.00000E+00
    0.60757E+05         0.18725E+06         0.00000E+00
    0.00000E+00         0.00000E+00        -0.12242E+04
 
   -0.19095E+06         0.67749E+05         0.00000E+00
    0.67749E+05         0.18554E+06         0.00000E+00
    0.00000E+00         0.00000E+00        -0.10821E+04
 
   -0.18842E+06         0.74692E+05         0.00000E+00
    0.74692E+05         0.18367E+06         0.00000E+00
    0.00000E+00         0.00000E+00        -0.95037E+03
 
   -0.18577E+06         0.81581E+05         0.00000E+00
    0.81581E+05         0.18163E+06         0.00000E+00
    0.00000E+00         0.00000E+00        -0.82802E+03
 
   -0.18299E+06         0.88411E+05         0.00000E+00
    0.88411E+05         0.17942E+06         0.00000E+00
    0.00000E+00         0.00000E+00        -0.71400E+03
 
   -0.18010E+06         0.95177E+05         0.00000E+00
    0.95177E+05         0.17706E+06         0.00000E+00
    0.00000E+00         0.00000E+00        -0.60727E+03
 
   -0.17708E+06         0.10188E+06         0.00000E+00
    0.10188E+06         0.17455E+06         0.00000E+00
    0.00000E+00         0.00000E+00        -0.50684E+03
 
   -0.17394E+06         0.10850E+06         0.00000E+00
    0.10850E+06         0.17189E+06         0.00000E+00
    0.00000E+00         0.00000E+00        -0.41167E+03
 
   -0.17068E+06         0.11506E+06         0.00000E+00
    0.11506E+06         0.16908E+06         0.00000E+00
    0.00000E+00         0.00000E+00        -0.32076E+03
 
   -0.16730E+06         0.12153E+06         0.00000E+00
    0.12153E+06         0.16614E+06         0.00000E+00
    0.00000E+00         0.00000E+00        -0.23310E+03
 
   -0.16380E+06         0.12792E+06         0.00000E+00
    0.12792E+06         0.16306E+06         0.00000E+00
    0.00000E+00         0.00000E+00        -0.14767E+03
 
   -0.16017E+06         0.13422E+06         0.00000E+00
    0.13422E+06         0.15986E+06         0.00000E+00
    0.00000E+00         0.00000E+00        -0.63434E+02
 
   -0.15643E+06         0.14043E+06         0.00000E+00
    0.14043E+06         0.15653E+06         0.00000E+00
    0.00000E+00         0.00000E+00         0.20650E+02
 
   -0.15256E+06         0.14655E+06         0.00000E+00
    0.14655E+06         0.15309E+06         0.00000E+00
    0.00000E+00         0.00000E+00         0.10565E+03
 
   -0.14857E+06         0.15256E+06         0.00000E+00
    0.15256E+06         0.14953E+06         0.00000E+00
    0.00000E+00         0.00000E+00         0.19265E+03
 
   -0.14446E+06         0.15848E+06         0.00000E+00
    0.15848E+06         0.14587E+06         0.00000E+00
    0.00000E+00         0.00000E+00         0.28278E+03
 
   -0.14023E+06         0.16430E+06         0.00000E+00
    0.16430E+06         0.14212E+06         0.00000E+00
    0.00000E+00         0.00000E+00         0.37721E+03
 
   -0.13588E+06         0.17001E+06         0.00000E+00
    0.17001E+06         0.13827E+06         0.00000E+00
    0.00000E+00         0.00000E+00         0.47713E+03
 
   -0.13141E+06         0.17561E+06         0.00000E+00
    0.17561E+06         0.13433E+06         0.00000E+00
    0.00000E+00         0.00000E+00         0.58380E+03
 
   -0.12682E+06         0.18110E+06         0.00000E+00
    0.18110E+06         0.13031E+06         0.00000E+00
    0.00000E+00         0.00000E+00         0.69854E+03
 
   -0.12211E+06         0.18648E+06         0.00000E+00
    0.18648E+06         0.12623E+06         0.00000E+00
    0.00000E+00         0.00000E+00         0.82271E+03
 
   -0.11728E+06         0.19174E+06         0.00000E+00
    0.19174E+06         0.12207E+06         0.00000E+00
    0.00000E+00         0.00000E+00         0.95775E+03
 
   -0.11234E+06         0.19689E+06         0.00000E+00
    0.19689E+06         0.11786E+06         0.00000E+00
    0.00000E+00         0.00000E+00         0.11052E+04
 
   -0.10727E+06         0.20192E+06         0.00000E+00
    0.20192E+06         0.11360E+06         0.00000E+00
    0.00000E+00         0.00000E+00         0.12666E+04
 
   -0.10208E+06         0.20682E+06         0.00000E+00
    0.20682E+06         0.10930E+06         0.00000E+00
    0.00000E+00         0.00000E+00         0.14436E+04
 
   -0.96774E+05         0.21161E+06         0.00000E+00
    0.21161E+06         0.10496E+06         0.00000E+00
    0.00000E+00         0.00000E+00         0.16381E+04
 
   -0.91344E+05         0.21626E+06         0.00000E+00
    0.21626E+06         0.10060E+06         0.00000E+00
    0.00000E+00         0.00000E+00         0.18517E+04
 
   -0.85793E+05         0.22080E+06         0.00000E+00
    0.22080E+06         0.96226E+05         0.00000E+00
    0.00000E+00         0.00000E+00         0.20866E+04
 
   -0.80118E+05         0.22521E+06         0.00000E+00
    0.22521E+06         0.91841E+05         0.00000E+00
    0.00000E+00         0.00000E+00         0.23447E+04
 
   -0.74319E+05         0.22949E+06         0.00000E+00
    0.22949E+06         0.87459E+05         0.00000E+00
    0.00000E+00         0.00000E+00         0.26280E+04
 
   -0.68394E+05         0.23364E+06         0.00000E+00
    0.23364E+06         0.83089E+05         0.00000E+00
    0.00000E+00         0.00000E+00         0.29389E+04
 
   -0.62343E+05         0.23766E+06         0.00000E+00
    0.23766E+06         0.78742E+05         0.00000E+00
    0.00000E+00         0.00000E+00         0.32797E+04
 
   -0.56164E+05         0.24155E+06         0.00000E+00
    0.24155E+06         0.74427E+05         0.00000E+00
    0.00000E+00         0.00000E+00         0.36526E+04
 
   -0.49854E+05         0.24531E+06         0.00000E+00
    0.24531E+06         0.70155E+05         0.00000E+00
    0.00000E+00         0.00000E+00         0.40602E+04
 
   -0.43412E+05         0.24893E+06         0.00000E+00
    0.24893E+06         0.65938E+05         0.00000E+00
    0.00000E+00         0.00000E+00         0.45051E+04
 
   -0.36837E+05         0.25242E+06         0.00000E+00
    0.25242E+06         0.61786E+05         0.00000E+00
    0.00000E+00         0.00000E+00         0.49898E+04
 
   -0.30125E+05         0.25578E+06         0.00000E+00
    0.25578E+06         0.57711E+05         0.00000E+00
    0.00000E+00         0.00000E+00         0.55171E+04
 
   -0.23276E+05         0.25901E+06         0.00000E+00
    0.25901E+06         0.53724E+05         0.00000E+00
    0.00000E+00         0.00000E+00         0.60897E+04
 
   -0.16286E+05         0.26210E+06         0.00000E+00
    0.26210E+06         0.49838E+05         0.00000E+00
    0.00000E+00         0.00000E+00         0.67103E+04
 
   -0.91545E+04         0.26505E+06         0.00000E+00
    0.26505E+06         0.46063E+05         0.00000E+00
    0.00000E+00         0.00000E+00         0.73818E+04
 
   -0.18779E+04         0.26786E+06         0.00000E+00
    0.26786E+06         0.42413E+05         0.00000E+00
    0.00000E+00         0.00000E+00         0.81070E+04
 
    0.55456E+04         0.27054E+06         0.00000E+00
    0.27054E+06         0.38899E+05         0.00000E+00
    0.00000E+00         0.00000E+00         0.88889E+04
 
   -0.19089E+06         0.34235E+04         0.00000E+00
    0.34235E+04         0.17683E+06         0.00000E+00
    0.00000E+00         0.00000E+00        -0.28132E+04
 
   -0.18942E+06         0.10248E+05         0.00000E+00
    0.10248E+05         0.17665E+06         0.00000E+00
    0.00000E+00         0.00000E+00        -0.25549E+04
 
   -0.18786E+06         0.17057E+05         0.00000E+00
    0.17057E+05         0.17628E+06         0.00000E+00
    0.00000E+00         0.00000E+00        -0.23152E+04
 
   -0.18620E+06         0.23847E+05         0.00000E+00
    0.23847E+05         0.17574E+06         0.00000E+00
    0.00000E+00         0.00000E+00        -0.20931E+04
 
   -0.18446E+06         0.30614E+05         0.00000E+00
    0.30614E+05         0.17502E+06         0.00000E+00
    0.00000E+00         0.00000E+00        -0.18875E+04
 
   -0.18262E+06         0.37354E+05         0.00000E+00
    0.37354E+05         0.17413E+06         0.00000E+00
    0.00000E+00         0.00000E+00        -0.16973E+04
 
   -0.18068E+06         0.44062E+05         0.00000E+00
    0.44062E+05         0.17307E+06         0.00000E+00
    0.00000E+00         0.00000E+00        -0.15216E+04
 
   -0.17864E+06         0.50735E+05         0.00000E+00
    0.50735E+05         0.17184E+06         0.00000E+00
    0.00000E+00         0.00000E+00        -0.13592E+04
 
   -0.17650E+06         0.57368E+05         0.00000E+00
    0.57368E+05         0.17045E+06         0.00000E+00
    0.00000E+00         0.00000E+00        -0.12091E+04
 
   -0.17426E+06         0.63957E+05         0.00000E+00
    0.63957E+05         0.16891E+06         0.00000E+00
    0.00000E+00         0.00000E+00        -0.10703E+04
 
   -0.17192E+06         0.70499E+05         0.00000E+00
    0.70499E+05         0.16721E+06         0.00000E+00
    0.00000E+00         0.00000E+00        -0.94174E+03
 
   -0.16947E+06         0.76988E+05         0.00000E+00
    0.76988E+05         0.16536E+06         0.00000E+00
    0.00000E+00         0.00000E+00        -0.82244E+03
 
   -0.16691E+06         0.83422E+05         0.00000E+00
    0.83422E+05         0.16336E+06         0.00000E+00
    0.00000E+00         0.00000E+00        -0.71140E+03
 
   -0.16426E+06         0.89796E+05         0.00000E+00
    0.89796E+05         0.16122E+06         0.00000E+00
    0.00000E+00         0.00000E+00        -0.60765E+03
 
   -0.16149E+06         0.96106E+05         0.00000E+00
    0.96106E+05         0.15894E+06         0.00000E+00
    0.00000E+00         0.00000E+00        -0.51020E+03
 
   -0.15861E+06         0.10235E+06         0.00000E+00
    0.10235E+06         0.15652E+06         0.00000E+00
    0.00000E+00         0.00000E+00        -0.41809E+03
 
   -0.15563E+06         0.10852E+06         0.00000E+00
    0.10852E+06         0.15398E+06         0.00000E+00
    0.00000E+00         0.00000E+00        -0.33036E+03
 
   -0.15254E+06         0.11462E+06         0.00000E+00
    0.11462E+06         0.15131E+06         0.00000E+00
    0.00000E+00         0.00000E+00        -0.24605E+03
 
   -0.14934E+06         0.12064E+06         0.00000E+00
    0.12064E+06         0.14852E+06         0.00000E+00
    0.00000E+00         0.00000E+00        -0.16420E+03
 
   -0.14604E+06         0.12657E+06         0.00000E+00
    0.12657E+06         0.14562E+06         0.00000E+00
    0.00000E+00         0.00000E+00        -0.83816E+02
 
   -0.14262E+06         0.13243E+06         0.00000E+00
    0.13243E+06         0.14260E+06         0.00000E+00
    0.00000E+00         0.00000E+00        -0.39307E+01
 
   -0.13909E+06         0.13819E+06         0.00000E+00
    0.13819E+06         0.13948E+06         0.00000E+00
    0.00000E+00         0.00000E+00         0.76460E+02
 
   -0.13546E+06         0.14387E+06         0.00000E+00
    0.14387E+06         0.13625E+06         0.00000E+00
    0.00000E+00         0.00000E+00         0.15838E+03
 
   -0.13171E+06         0.14945E+06         0.00000E+00
    0.14945E+06         0.13293E+06         0.00000E+00
    0.00000E+00         0.00000E+00         0.24288E+03
 
   -0.12786E+06         0.15493E+06         0.00000E+00
    0.15493E+06         0.12952E+06         0.00000E+00
    0.00000E+00         0.00000E+00         0.33103E+03
 
   -0.12390E+06         0.16031E+06         0.00000E+00
    0.16031E+06         0.12602E+06         0.00000E+00
    0.00000E+00         0.00000E+00         0.42397E+03
 
   -0.11983E+06         0.16560E+06         0.00000E+00
    0.16560E+06         0.12244E+06         0.00000E+00
    0.00000E+00         0.00000E+00         0.52284E+03
 
   -0.11565E+06         0.17077E+06         0.00000E+00
    0.17077E+06         0.11879E+06         0.00000E+00
    0.00000E+00         0.00000E+00         0.62887E+03
 
   -0.11136E+06         0.17584E+06         0.00000E+00
    0.17584E+06         0.11507E+06         0.00000E+00
    0.00000E+00         0.00000E+00         0.74331E+03
 
   -0.10696E+06         0.18081E+06         0.00000E+00
    0.18081E+06         0.11130E+06         0.00000E+00
    0.00000E+00         0.00000E+00         0.86749E+03
 
   -0.10245E+06         0.18566E+06         0.00000E+00
    0.18566E+06         0.10746E+06         0.00000E+00
    0.00000E+00         0.00000E+00         0.10028E+04
 
   -0.97830E+05         0.19039E+06         0.00000E+00
    0.19039E+06         0.10358E+06         0.00000E+00
    0.00000E+00         0.00000E+00         0.11507E+04
 
   -0.93100E+05         0.19502E+06         0.00000E+00
    0.19502E+06         0.99664E+05         0.00000E+00
    0.00000E+00         0.00000E+00         0.13127E+04
 
   -0.88259E+05         0.19952E+06         0.00000E+00
    0.19952E+06         0.95711E+05         0.00000E+00
    0.00000E+00         0.00000E+00         0.14905E+04
 
   -0.83307E+05         0.20391E+06         0.00000E+00
    0.20391E+06         0.91735E+05         0.00000E+00
    0.00000E+00         0.00000E+00         0.16856E+04
 
   -0.78242E+05         0.20817E+06         0.00000E+00
    0.20817E+06         0.87742E+05         0.00000E+00
    0.00000E+00         0.00000E+00         0.18999E+04
 
   -0.73064E+05         0.21232E+06         0.00000E+00
    0.21232E+06         0.83740E+05         0.00000E+00
    0.00000E+00         0.00000E+00         0.21353E+04
 
   -0.67772E+05         0.21634E+06         0.00000E+00
    0.21634E+06         0.79740E+05         0.00000E+00
    0.00000E+00         0.00000E+00         0.23936E+04
 
   -0.62366E+05         0.22024E+06         0.00000E+00
    0.22024E+06         0.75750E+05         0.00000E+00
    0.00000E+00         0.00000E+00         0.26769E+04
 
   -0.56843E+05         0.22401E+06         0.00000E+00
    0.22401E+06         0.71779E+05         0.00000E+00
    0.00000E+00         0.00000E+00         0.29872E+04
 
   -0.51203E+05         0.22765E+06         0.00000E+00
    0.22765E+06         0.67837E+05         0.00000E+00
    0.00000E+00         0.00000E+00         0.33268E+04
 
   -0.45445E+05         0.23117E+06         0.00000E+00
    0.23117E+06         0.63935E+05         0.00000E+00
    0.00000E+00         0.00000E+00         0.36979E+04
 
   -0.39568E+05         0.23455E+06         0.00000E+00
    0.23455E+06         0.60081E+05         0.00000E+00
    0.00000E+00         0.00000E+00         0.41028E+04
 
   -0.33569E+05         0.23781E+06         0.00000E+00
    0.23781E+06         0.56288E+05         0.00000E+00
    0.00000E+00         0.00000E+00         0.45439E+04
 
   -0.27447E+05         0.24094E+06         0.00000E+00
    0.24094E+06         0.52565E+05         0.00000E+00
    0.00000E+00         0.00000E+00         0.50236E+04
 
   -0.21202E+05         0.24393E+06         0.00000E+00
    0.24393E+06         0.48924E+05         0.00000E+00
    0.00000E+00         0.00000E+00         0.55445E+04
 
   -0.14831E+05         0.24679E+06         0.00000E+00
    0.24679E+06         0.45376E+05         0.00000E+00
    0.00000E+00         0.00000E+00         0.61090E+04
 
   -0.83336E+04         0.24952E+06         0.00000E+00
    0.24952E+06         0.41932E+05         0.00000E+00
    0.00000E+00         0.00000E+00         0.67197E+04
 
   -0.17076E+04         0.25212E+06         0.00000E+00
    0.25212E+06         0.38604E+05         0.00000E+00
    0.00000E+00         0.00000E+00         0.73793E+04
 
    0.50484E+04         0.25458E+06         0.00000E+00
    0.25458E+06         0.35403E+05         0.00000E+00
    0.00000E+00         0.00000E+00         0.80903E+04
 
   -0.17399E+06         0.32577E+04         0.00000E+00
    0.32577E+04         0.16044E+06         0.00000E+00
    0.00000E+00         0.00000E+00        -0.27101E+04
 
   -0.17258E+06         0.97400E+04         0.00000E+00
    0.97400E+04         0.16027E+06         0.00000E+00
    0.00000E+00         0.00000E+00        -0.24622E+04
 
   -0.17110E+06         0.16204E+05         0.00000E+00
    0.16204E+05         0.15994E+06         0.00000E+00
    0.00000E+00         0.00000E+00        -0.22321E+04
 
   -0.16954E+06         0.22646E+05         0.00000E+00
    0.22646E+05         0.15945E+06         0.00000E+00
    0.00000E+00         0.00000E+00        -0.20189E+04
 
   -0.16790E+06         0.29062E+05         0.00000E+00
    0.29062E+05         0.15879E+06         0.00000E+00
    0.00000E+00         0.00000E+00        -0.18216E+04
 
   -0.16617E+06         0.35449E+05         0.00000E+00
    0.35449E+05         0.15798E+06         0.00000E+00
    0.00000E+00         0.00000E+00        -0.16390E+04
 
   -0.16436E+06         0.41803E+05         0.00000E+00
    0.41803E+05         0.15701E+06         0.00000E+00
    0.00000E+00         0.00000E+00        -0.14703E+04
 
   -0.16247E+06         0.48121E+05         0.00000E+00
    0.48121E+05         0.15590E+06         0.00000E+00
    0.00000E+00         0.00000E+00        -0.13145E+04
 
   -0.16048E+06         0.54399E+05         0.00000E+00
    0.54399E+05         0.15463E+06         0.00000E+00
    0.00000E+00         0.00000E+00        -0.11704E+04
 
   -0.15841E+06         0.60633E+05         0.00000E+00
    0.60633E+05         0.15323E+06         0.00000E+00
    0.00000E+00         0.00000E+00        -0.10373E+04
 
   -0.15625E+06         0.66821E+05         0.00000E+00
    0.66821E+05         0.15168E+06         0.00000E+00
    0.00000E+00         0.00000E+00        -0.91404E+03
 
   -0.15400E+06         0.72957E+05         0.00000E+00
    0.72957E+05         0.15000E+06         0.00000E+00
    0.00000E+00         0.00000E+00        -0.79975E+03
 
   -0.15165E+06         0.79039E+05         0.00000E+00
    0.79039E+05         0.14818E+06         0.00000E+00
    0.00000E+00         0.00000E+00        -0.69348E+03
 
   -0.14921E+06         0.85063E+05         0.00000E+00
    0.85063E+05         0.14624E+06         0.00000E+00
    0.00000E+00         0.00000E+00        -0.59430E+03
 
   -0.14668E+06         0.91026E+05         0.00000E+00
    0.91026E+05         0.14417E+06         0.00000E+00
    0.00000E+00         0.00000E+00        -0.50131E+03
 
   -0.14405E+06         0.96925E+05         0.00000E+00
    0.96925E+05         0.14198E+06         0.00000E+00
    0.00000E+00         0.00000E+00        -0.41358E+03
 
   -0.14132E+06         0.10276E+06         0.00000E+00
    0.10276E+06         0.13967E+06         0.00000E+00
    0.00000E+00         0.00000E+00        -0.33021E+03
 
   -0.13850E+06         0.10851E+06         0.00000E+00
    0.10851E+06         0.13725E+06         0.00000E+00
    0.00000E+00         0.00000E+00        -0.25031E+03
 
   -0.13559E+06         0.11420E+06         0.00000E+00
    0.11420E+06         0.13472E+06         0.00000E+00
    0.00000E+00         0.00000E+00        -0.17297E+03
 
   -0.13257E+06         0.11981E+06         0.00000E+00
    0.11981E+06         0.13209E+06         0.00000E+00
    0.00000E+00         0.00000E+00        -0.97284E+02
 
   -0.12946E+06         0.12533E+06         0.00000E+00
    0.12533E+06         0.12935E+06         0.00000E+00
    0.00000E+00         0.00000E+00        -0.22332E+02
 
   -0.12625E+06         0.13078E+06         0.00000E+00
    0.13078E+06         0.12652E+06         0.00000E+00
    0.00000E+00         0.00000E+00         0.52813E+02
 
   -0.12295E+06         0.13614E+06         0.00000E+00
    0.13614E+06         0.12359E+06         0.00000E+00
    0.00000E+00         0.00000E+00         0.12910E+03
 
   -0.11954E+06         0.14140E+06         0.00000E+00
    0.14140E+06         0.12058E+06         0.00000E+00
    0.00000E+00         0.00000E+00         0.20749E+03
 
   -0.11604E+06         0.14658E+06         0.00000E+00
    0.14658E+06         0.11748E+06         0.00000E+00
    0.00000E+00         0.00000E+00         0.28899E+03
 
   -0.11244E+06         0.15166E+06         0.00000E+00
    0.15166E+06         0.11431E+06         0.00000E+00
    0.00000E+00         0.00000E+00         0.37463E+03
 
   -0.10874E+06         0.15665E+06         0.00000E+00
    0.15665E+06         0.11107E+06         0.00000E+00
    0.00000E+00         0.00000E+00         0.46548E+03
 
   -0.10494E+06         0.16153E+06         0.00000E+00
    0.16153E+06         0.10775E+06         0.00000E+00
    0.00000E+00         0.00000E+00         0.56263E+03
 
   -0.10104E+06         0.16632E+06         0.00000E+00
    0.16632E+06         0.10438E+06         0.00000E+00
    0.00000E+00         0.00000E+00         0.66726E+03
 
   -0.97044E+05         0.17100E+06         0.00000E+00
    0.17100E+06         0.10095E+06         0.00000E+00
    0.00000E+00         0.00000E+00         0.78057E+03
 
   -0.92947E+05         0.17557E+06         0.00000E+00
    0.17557E+06         0.97466E+05         0.00000E+00
    0.00000E+00         0.00000E+00         0.90382E+03
 
   -0.88750E+05         0.18003E+06         0.00000E+00
    0.18003E+06         0.93942E+05         0.00000E+00
    0.00000E+00         0.00000E+00         0.10384E+04
 
   -0.84453E+05         0.18439E+06         0.00000E+00
    0.18439E+06         0.90381E+05         0.00000E+00
    0.00000E+00         0.00000E+00         0.11855E+04
 
   -0.80055E+05         0.18863E+06         0.00000E+00
    0.18863E+06         0.86790E+05         0.00000E+00
    0.00000E+00         0.00000E+00         0.13469E+04
 
   -0.75556E+05         0.19276E+06         0.00000E+00
    0.19276E+06         0.83176E+05         0.00000E+00
    0.00000E+00         0.00000E+00         0.15239E+04
 
   -0.70956E+05         0.19677E+06         0.00000E+00
    0.19677E+06         0.79546E+05         0.00000E+00
    0.00000E+00         0.00000E+00         0.17181E+04
 
   -0.66253E+05         0.20067E+06         0.00000E+00
    0.20067E+06         0.75909E+05         0.00000E+00
    0.00000E+00         0.00000E+00         0.19313E+04
 
   -0.61447E+05         0.20445E+06         0.00000E+00
    0.20445E+06         0.72273E+05         0.00000E+00
    0.00000E+00         0.00000E+00         0.21651E+04
 
   -0.56537E+05         0.20811E+06         0.00000E+00
    0.20811E+06         0.68645E+05         0.00000E+00
    0.00000E+00         0.00000E+00         0.24215E+04
 
   -0.51523E+05         0.21164E+06         0.00000E+00
    0.21164E+06         0.65035E+05         0.00000E+00
    0.00000E+00         0.00000E+00         0.27023E+04
 
   -0.46404E+05         0.21506E+06         0.00000E+00
    0.21506E+06         0.61451E+05         0.00000E+00
    0.00000E+00         0.00000E+00         0.30095E+04
 
   -0.41178E+05         0.21835E+06         0.00000E+00
    0.21835E+06         0.57903E+05         0.00000E+00
    0.00000E+00         0.00000E+00         0.33451E+04
 
   -0.35845E+05         0.22151E+06         0.00000E+00
    0.22151E+06         0.54401E+05         0.00000E+00
    0.00000E+00         0.00000E+00         0.37112E+04
 
   -0.30404E+05         0.22455E+06         0.00000E+00
    0.22455E+06         0.50954E+05         0.00000E+00
    0.00000E+00         0.00000E+00         0.41099E+04
 
   -0.24854E+05         0.22746E+06         0.00000E+00
    0.22746E+06         0.47572E+05         0.00000E+00
    0.00000E+00         0.00000E+00         0.45436E+04
 
   -0.19194E+05         0.23025E+06         0.00000E+00
    0.23025E+06         0.44266E+05         0.00000E+00
    0.00000E+00         0.00000E+00         0.50144E+04
 
   -0.13423E+05         0.23291E+06         0.00000E+00
    0.23291E+06         0.41046E+05         0.00000E+00
    0.00000E+00         0.00000E+00         0.55245E+04
 
   -0.75402E+04         0.23543E+06         0.00000E+00
    0.23543E+06         0.37923E+05         0.00000E+00
    0.00000E+00         0.00000E+00         0.60765E+04
 
   -0.15445E+04         0.23783E+06         0.00000E+00
    0.23783E+06         0.34907E+05         0.00000E+00
    0.00000E+00         0.00000E+00         0.66725E+04
 
    0.45649E+04         0.24010E+06         0.00000E+00
    0.24010E+06         0.32010E+05         0.00000E+00
    0.00000E+00         0.00000E+00         0.73149E+04
 
   -0.15779E+06         0.31105E+04         0.00000E+00
    0.31105E+04         0.14496E+06         0.00000E+00
    0.00000E+00         0.00000E+00        -0.25656E+04
 
   -0.15646E+06         0.92909E+04         0.00000E+00
    0.92909E+04         0.14480E+06         0.00000E+00
    0.00000E+00         0.00000E+00        -0.23317E+04
 
   -0.15507E+06         0.15450E+05         0.00000E+00
    0.15450E+05         0.14450E+06         0.00000E+00
    0.00000E+00         0.00000E+00        -0.21146E+04
 
   -0.15361E+06         0.21584E+05         0.00000E+00
    0.21584E+05         0.14405E+06         0.00000E+00
    0.00000E+00         0.00000E+00        -0.19134E+04
 
   -0.15208E+06         0.27691E+05         0.00000E+00
    0.27691E+05         0.14345E+06         0.00000E+00
    0.00000E+00         0.00000E+00        -0.17271E+04
 
   -0.15048E+06         0.33767E+05         0.00000E+00
    0.33767E+05         0.14271E+06         0.00000E+00
    0.00000E+00         0.00000E+00        -0.15548E+04
 
   -0.14881E+06         0.39809E+05         0.00000E+00
    0.39809E+05         0.14183E+06         0.00000E+00
    0.00000E+00         0.00000E+00        -0.13956E+04
 
   -0.14706E+06         0.45814E+05         0.00000E+00
    0.45814E+05         0.14081E+06         0.00000E+00
    0.00000E+00         0.00000E+00        -0.12485E+04
 
   -0.14523E+06         0.51778E+05         0.00000E+00
    0.51778E+05         0.13967E+06         0.00000E+00
    0.00000E+00         0.00000E+00        -0.11126E+04
 
   -0.14332E+06         0.57698E+05         0.00000E+00
    0.57698E+05         0.13839E+06         0.00000E+00
    0.00000E+00         0.00000E+00        -0.98694E+03
 
   -0.14134E+06         0.63572E+05         0.00000E+00
    0.63572E+05         0.13698E+06         0.00000E+00
    0.00000E+00         0.00000E+00        -0.87070E+03
 
   -0.13927E+06         0.69395E+05         0.00000E+00
    0.69395E+05         0.13546E+06         0.00000E+00
    0.00000E+00         0.00000E+00        -0.76298E+03
 
   -0.13713E+06         0.75164E+05         0.00000E+00
    0.75164E+05         0.13381E+06         0.00000E+00
    0.00000E+00         0.00000E+00        -0.66288E+03
 
   -0.13490E+06         0.80877E+05         0.00000E+00
    0.80877E+05         0.13205E+06         0.00000E+00
    0.00000E+00         0.00000E+00        -0.56957E+03
 
   -0.13258E+06         0.86531E+05         0.00000E+00
    0.86531E+05         0.13017E+06         0.00000E+00
    0.00000E+00         0.00000E+00        -0.48217E+03
 
   -0.13019E+06         0.92122E+05         0.00000E+00
    0.92122E+05         0.12819E+06         0.00000E+00
    0.00000E+00         0.00000E+00        -0.39985E+03
 
   -0.12771E+06         0.97647E+05         0.00000E+00
    0.97647E+05         0.12610E+06         0.00000E+00
    0.00000E+00         0.00000E+00        -0.32177E+03
 
   -0.12514E+06         0.10310E+06         0.00000E+00
    0.10310E+06         0.12391E+06         0.00000E+00
    0.00000E+00         0.00000E+00        -0.24710E+03
 
   -0.12249E+06         0.10849E+06         0.00000E+00
    0.10849E+06         0.12161E+06         0.00000E+00
    0.00000E+00         0.00000E+00        -0.17499E+03
 
   -0.11975E+06         0.11380E+06         0.00000E+00
    0.11380E+06         0.11923E+06         0.00000E+00
    0.00000E+00         0.00000E+00        -0.10462E+03
 
   -0.11693E+06         0.11903E+06         0.00000E+00
    0.11903E+06         0.11675E+06         0.00000E+00
    0.00000E+00         0.00000E+00        -0.35138E+02
 
   -0.11402E+06         0.12418E+06         0.00000E+00
    0.12418E+06         0.11419E+06         0.00000E+00
    0.00000E+00         0.00000E+00         0.34308E+02
 
   -0.11102E+06         0.12925E+06         0.00000E+00
    0.12925E+06         0.11154E+06         0.00000E+00
    0.00000E+00         0.00000E+00         0.10459E+03
 
   -0.10793E+06         0.13424E+06         0.00000E+00
    0.13424E+06         0.10881E+06         0.00000E+00
    0.00000E+00         0.00000E+00         0.17658E+03
 
   -0.10476E+06         0.13913E+06         0.00000E+00
    0.13913E+06         0.10601E+06         0.00000E+00
    0.00000E+00         0.00000E+00         0.25121E+03
 
   -0.10149E+06         0.14394E+06         0.00000E+00
    0.14394E+06         0.10314E+06         0.00000E+00
    0.00000E+00         0.00000E+00         0.32941E+03
 
   -0.98143E+05         0.14865E+06         0.00000E+00
    0.14865E+06         0.10020E+06         0.00000E+00
    0.00000E+00         0.00000E+00         0.41216E+03
 
   -0.94704E+05         0.15327E+06         0.00000E+00
    0.15327E+06         0.97206E+05         0.00000E+00
    0.00000E+00         0.00000E+00         0.50045E+03
 
   -0.91176E+05         0.15778E+06         0.00000E+00
    0.15778E+06         0.94153E+05         0.00000E+00
    0.00000E+00         0.00000E+00         0.59534E+03
 
   -0.87559E+05         0.16220E+06         0.00000E+00
    0.16220E+06         0.91049E+05         0.00000E+00
    0.00000E+00         0.00000E+00         0.69793E+03
 
   -0.83853E+05         0.16652E+06         0.00000E+00
    0.16652E+06         0.87899E+05         0.00000E+00
    0.00000E+00         0.00000E+00         0.80937E+03
 
   -0.80057E+05         0.17074E+06         0.00000E+00
    0.17074E+06         0.84711E+05         0.00000E+00
    0.00000E+00         0.00000E+00         0.93085E+03
 
   -0.76171E+05         0.17484E+06         0.00000E+00
    0.17484E+06         0.81489E+05         0.00000E+00
    0.00000E+00         0.00000E+00         0.10636E+04
 
   -0.72194E+05         0.17884E+06         0.00000E+00
    0.17884E+06         0.78239E+05         0.00000E+00
    0.00000E+00         0.00000E+00         0.12090E+04
 
   -0.68127E+05         0.18273E+06         0.00000E+00
    0.18273E+06         0.74970E+05         0.00000E+00
    0.00000E+00         0.00000E+00         0.13684E+04
 
   -0.63969E+05         0.18651E+06         0.00000E+00
    0.18651E+06         0.71686E+05         0.00000E+00
    0.00000E+00         0.00000E+00         0.15433E+04
 
   -0.59720E+05         0.19018E+06         0.00000E+00
    0.19018E+06         0.68395E+05         0.00000E+00
    0.00000E+00         0.00000E+00         0.17351E+04
 
   -0.55378E+05         0.19373E+06         0.00000E+00
    0.19373E+06         0.65106E+05         0.00000E+00
    0.00000E+00         0.00000E+00         0.19454E+04
 
   -0.50945E+05         0.19717E+06         0.00000E+00
    0.19717E+06         0.61824E+05         0.00000E+00
    0.00000E+00         0.00000E+00         0.21759E+04
 
   -0.46418E+05         0.20049E+06         0.00000E+00
    0.20049E+06         0.58559E+05         0.00000E+00
    0.00000E+00         0.00000E+00         0.24283E+04
 
   -0.41797E+05         0.20369E+06         0.00000E+00
    0.20369E+06         0.55319E+05         0.00000E+00
    0.00000E+00         0.00000E+00         0.27043E+04
 
   -0.37082E+05         0.20677E+06         0.00000E+00
    0.20677E+06         0.52111E+05         0.00000E+00
    0.00000E+00         0.00000E+00         0.30059E+04
 
   -0.32272E+05         0.20974E+06         0.00000E+00
    0.20974E+06         0.48946E+05         0.00000E+00
    0.00000E+00         0.00000E+00         0.33348E+04
 
   -0.27367E+05         0.21258E+06         0.00000E+00
    0.21258E+06         0.45832E+05         0.00000E+00
    0.00000E+00         0.00000E+00         0.36930E+04
 
   -0.22366E+05         0.21530E+06         0.00000E+00
    0.21530E+06         0.42778E+05         0.00000E+00
    0.00000E+00         0.00000E+00         0.40824E+04
 
   -0.17268E+05         0.21790E+06         0.00000E+00
    0.21790E+06         0.39795E+05         0.00000E+00
    0.00000E+00         0.00000E+00         0.45052E+04
 
   -0.12073E+05         0.22037E+06         0.00000E+00
    0.22037E+06         0.36890E+05         0.00000E+00
    0.00000E+00         0.00000E+00         0.49634E+04
 
   -0.67805E+04         0.22273E+06         0.00000E+00
    0.22273E+06         0.34076E+05         0.00000E+00
    0.00000E+00         0.00000E+00         0.54590E+04
 
   -0.13893E+04         0.22495E+06         0.00000E+00
    0.22495E+06         0.31360E+05         0.00000E+00
    0.00000E+00         0.00000E+00         0.59942E+04
 
    0.41005E+04         0.22706E+06         0.00000E+00
    0.22706E+06         0.28755E+05         0.00000E+00
    0.00000E+00         0.00000E+00         0.65711E+04
 
   -0.14221E+06         0.29789E+04         0.00000E+00
    0.29789E+04         0.13026E+06         0.00000E+00
    0.00000E+00         0.00000E+00        -0.23898E+04
 
   -0.14098E+06         0.88905E+04         0.00000E+00
    0.88905E+04         0.13012E+06         0.00000E+00
    0.00000E+00         0.00000E+00        -0.21725E+04
 
   -0.13970E+06         0.14779E+05         0.00000E+00
    0.14779E+05         0.12984E+06         0.00000E+00
    0.00000E+00         0.00000E+00        -0.19709E+04
 
   -0.13835E+06         0.20640E+05         0.00000E+00
    0.20640E+05         0.12943E+06         0.00000E+00
    0.00000E+00         0.00000E+00        -0.17839E+04
 
   -0.13694E+06         0.26473E+05         0.00000E+00
    0.26473E+05         0.12889E+06         0.00000E+00
    0.00000E+00         0.00000E+00        -0.16109E+04
 
   -0.13547E+06         0.32273E+05         0.00000E+00
    0.32273E+05         0.12822E+06         0.00000E+00
    0.00000E+00         0.00000E+00        -0.14508E+04
 
   -0.13393E+06         0.38039E+05         0.00000E+00
    0.38039E+05         0.12742E+06         0.00000E+00
    0.00000E+00         0.00000E+00        -0.13028E+04
 
   -0.13233E+06         0.43766E+05         0.00000E+00
    0.43766E+05         0.12650E+06         0.00000E+00
    0.00000E+00         0.00000E+00        -0.11661E+04
 
   -0.13066E+06         0.49452E+05         0.00000E+00
    0.49452E+05         0.12546E+06         0.00000E+00
    0.00000E+00         0.00000E+00        -0.10398E+04
 
   -0.12892E+06         0.55094E+05         0.00000E+00
    0.55094E+05         0.12430E+06         0.00000E+00
    0.00000E+00         0.00000E+00        -0.92315E+03
 
   -0.12711E+06         0.60688E+05         0.00000E+00
    0.60688E+05         0.12303E+06         0.00000E+00
    0.00000E+00         0.00000E+00        -0.81520E+03
 
   -0.12522E+06         0.66233E+05         0.00000E+00
    0.66233E+05         0.12165E+06         0.00000E+00
    0.00000E+00         0.00000E+00        -0.71520E+03
 
   -0.12327E+06         0.71725E+05         0.00000E+00
    0.71725E+05         0.12016E+06         0.00000E+00
    0.00000E+00         0.00000E+00        -0.62234E+03
 
   -0.12125E+06         0.77161E+05         0.00000E+00
    0.77161E+05         0.11857E+06         0.00000E+00
    0.00000E+00         0.00000E+00        -0.53583E+03
 
   -0.11915E+06         0.82539E+05         0.00000E+00
    0.82539E+05         0.11687E+06         0.00000E+00
    0.00000E+00         0.00000E+00        -0.45489E+03
 
   -0.11697E+06         0.87855E+05         0.00000E+00
    0.87855E+05         0.11508E+06         0.00000E+00
    0.00000E+00         0.00000E+00        -0.37874E+03
 
   -0.11473E+06         0.93107E+05         0.00000E+00
    0.93107E+05         0.11319E+06         0.00000E+00
    0.00000E+00         0.00000E+00        -0.30662E+03
 
   -0.11240E+06         0.98292E+05         0.00000E+00
    0.98292E+05         0.11121E+06         0.00000E+00
    0.00000E+00         0.00000E+00        -0.23776E+03
 
   -0.11000E+06         0.10341E+06         0.00000E+00
    0.10341E+06         0.10915E+06         0.00000E+00
    0.00000E+00         0.00000E+00        -0.17140E+03
 
   -0.10753E+06         0.10845E+06         0.00000E+00
    0.10845E+06         0.10699E+06         0.00000E+00
    0.00000E+00         0.00000E+00        -0.10678E+03
 
   -0.10498E+06         0.11342E+06         0.00000E+00
    0.11342E+06         0.10476E+06         0.00000E+00
    0.00000E+00         0.00000E+00        -0.43133E+02
 
   -0.10235E+06         0.11831E+06         0.00000E+00
    0.11831E+06         0.10245E+06         0.00000E+00
    0.00000E+00         0.00000E+00         0.20323E+02
 
   -0.99641E+05         0.12312E+06         0.00000E+00
    0.12312E+06         0.10006E+06         0.00000E+00
    0.00000E+00         0.00000E+00         0.84375E+02
 
   -0.96856E+05         0.12784E+06         0.00000E+00
    0.12784E+06         0.97605E+05         0.00000E+00
    0.00000E+00         0.00000E+00         0.14983E+03
 
   -0.93994E+05         0.13249E+06         0.00000E+00
    0.13249E+06         0.95082E+05         0.00000E+00
    0.00000E+00         0.00000E+00         0.21750E+03
 
   -0.91054E+05         0.13704E+06         0.00000E+00
    0.13704E+06         0.92495E+05         0.00000E+00
    0.00000E+00         0.00000E+00         0.28825E+03
 
   -0.88035E+05         0.14151E+06         0.00000E+00
    0.14151E+06         0.89850E+05         0.00000E+00
    0.00000E+00         0.00000E+00         0.36295E+03
 
   -0.84937E+05         0.14588E+06         0.00000E+00
    0.14588E+06         0.87150E+05         0.00000E+00
    0.00000E+00         0.00000E+00         0.44251E+03
 
   -0.81761E+05         0.15016E+06         0.00000E+00
    0.15016E+06         0.84400E+05         0.00000E+00
    0.00000E+00         0.00000E+00         0.52787E+03
 
   -0.78505E+05         0.15434E+06         0.00000E+00
    0.15434E+06         0.81605E+05         0.00000E+00
    0.00000E+00         0.00000E+00         0.62002E+03
 
   -0.75170E+05         0.15843E+06         0.00000E+00
    0.15843E+06         0.78770E+05         0.00000E+00
    0.00000E+00         0.00000E+00         0.71999E+03
 
   -0.71756E+05         0.16241E+06         0.00000E+00
    0.16241E+06         0.75900E+05         0.00000E+00
    0.00000E+00         0.00000E+00         0.82886E+03
 
   -0.68262E+05         0.16629E+06         0.00000E+00
    0.16629E+06         0.73000E+05         0.00000E+00
    0.00000E+00         0.00000E+00         0.94775E+03
 
   -0.64687E+05         0.17007E+06         0.00000E+00
    0.17007E+06         0.70076E+05         0.00000E+00
    0.00000E+00         0.00000E+00         0.10778E+04
 
   -0.61032E+05         0.17375E+06         0.00000E+00
    0.17375E+06         0.67134E+05         0.00000E+00
    0.00000E+00         0.00000E+00         0.12204E+04
 
   -0.57297E+05         0.17731E+06         0.00000E+00
    0.17731E+06         0.64180E+05         0.00000E+00
    0.00000E+00         0.00000E+00         0.13767E+04
 
   -0.53481E+05         0.18077E+06         0.00000E+00
    0.18077E+06         0.61221E+05         0.00000E+00
    0.00000E+00         0.00000E+00         0.15480E+04
 
   -0.49583E+05         0.18412E+06         0.00000E+00
    0.18412E+06         0.58262E+05         0.00000E+00
    0.00000E+00         0.00000E+00         0.17359E+04
 
   -0.45604E+05         0.18736E+06         0.00000E+00
    0.18736E+06         0.55312E+05         0.00000E+00
    0.00000E+00         0.00000E+00         0.19417E+04
 
   -0.41542E+05         0.19048E+06         0.00000E+00
    0.19048E+06         0.52377E+05         0.00000E+00
    0.00000E+00         0.00000E+00         0.21670E+04
 
   -0.37399E+05         0.19349E+06         0.00000E+00
    0.19349E+06         0.49466E+05         0.00000E+00
    0.00000E+00         0.00000E+00         0.24134E+04
 
   -0.33173E+05         0.19639E+06         0.00000E+00
    0.19639E+06         0.46585E+05         0.00000E+00
    0.00000E+00         0.00000E+00         0.26825E+04
 
   -0.28863E+05         0.19917E+06         0.00000E+00
    0.19917E+06         0.43743E+05         0.00000E+00
    0.00000E+00         0.00000E+00         0.29759E+04
 
   -0.24470E+05         0.20184E+06         0.00000E+00
    0.20184E+06         0.40948E+05         0.00000E+00
    0.00000E+00         0.00000E+00         0.32955E+04
 
   -0.19994E+05         0.20439E+06         0.00000E+00
    0.20439E+06         0.38209E+05         0.00000E+00
    0.00000E+00         0.00000E+00         0.36430E+04
 
   -0.15433E+05         0.20682E+06         0.00000E+00
    0.20682E+06         0.35534E+05         0.00000E+00
    0.00000E+00         0.00000E+00         0.40202E+04
 
   -0.10787E+05         0.20914E+06         0.00000E+00
    0.20914E+06         0.32932E+05         0.00000E+00
    0.00000E+00         0.00000E+00         0.44289E+04
 
   -0.60572E+04         0.21133E+06         0.00000E+00
    0.21133E+06         0.30412E+05         0.00000E+00
    0.00000E+00         0.00000E+00         0.48710E+04
 
   -0.12420E+04         0.21341E+06         0.00000E+00
    0.21341E+06         0.27984E+05         0.00000E+00
    0.00000E+00         0.00000E+00         0.53484E+04
 
    0.36583E+04         0.21538E+06         0.00000E+00
    0.21538E+06         0.25656E+05         0.00000E+00
    0.00000E+00         0.00000E+00         0.58629E+04
 
   -0.12721E+06         0.28608E+04         0.00000E+00
    0.28608E+04         0.11625E+06         0.00000E+00
    0.00000E+00         0.00000E+00        -0.21914E+04
 
   -0.12609E+06         0.85324E+04         0.00000E+00
    0.85324E+04         0.11613E+06         0.00000E+00
    0.00000E+00         0.00000E+00        -0.19927E+04
 
   -0.12492E+06         0.14179E+05         0.00000E+00
    0.14179E+05         0.11588E+06         0.00000E+00
    0.00000E+00         0.00000E+00        -0.18082E+04
 
   -0.12369E+06         0.19798E+05         0.00000E+00
    0.19798E+05         0.11550E+06         0.00000E+00
    0.00000E+00         0.00000E+00        -0.16372E+04
 
   -0.12241E+06         0.25387E+05         0.00000E+00
    0.25387E+05         0.11501E+06         0.00000E+00
    0.00000E+00         0.00000E+00        -0.14789E+04
 
   -0.12107E+06         0.30943E+05         0.00000E+00
    0.30943E+05         0.11441E+06         0.00000E+00
    0.00000E+00         0.00000E+00        -0.13324E+04
 
   -0.11967E+06         0.36462E+05         0.00000E+00
    0.36462E+05         0.11369E+06         0.00000E+00
    0.00000E+00         0.00000E+00        -0.11969E+04
 
   -0.11822E+06         0.41943E+05         0.00000E+00
    0.41943E+05         0.11286E+06         0.00000E+00
    0.00000E+00         0.00000E+00        -0.10718E+04
 
   -0.11670E+06         0.47383E+05         0.00000E+00
    0.47383E+05         0.11192E+06         0.00000E+00
    0.00000E+00         0.00000E+00        -0.95626E+03
 
   -0.11512E+06         0.52778E+05         0.00000E+00
    0.52778E+05         0.11088E+06         0.00000E+00
    0.00000E+00         0.00000E+00        -0.84948E+03
 
   -0.11349E+06         0.58126E+05         0.00000E+00
    0.58126E+05         0.10973E+06         0.00000E+00
    0.00000E+00         0.00000E+00        -0.75073E+03
 
   -0.11179E+06         0.63424E+05         0.00000E+00
    0.63424E+05         0.10849E+06         0.00000E+00
    0.00000E+00         0.00000E+00        -0.65927E+03
 
   -0.11002E+06         0.68670E+05         0.00000E+00
    0.68670E+05         0.10715E+06         0.00000E+00
    0.00000E+00         0.00000E+00        -0.57438E+03
 
   -0.10820E+06         0.73860E+05         0.00000E+00
    0.73860E+05         0.10572E+06         0.00000E+00
    0.00000E+00         0.00000E+00        -0.49534E+03
 
   -0.10631E+06         0.78993E+05         0.00000E+00
    0.78993E+05         0.10420E+06         0.00000E+00
    0.00000E+00         0.00000E+00        -0.42145E+03
 
   -0.10435E+06         0.84065E+05         0.00000E+00
    0.84065E+05         0.10259E+06         0.00000E+00
    0.00000E+00         0.00000E+00        -0.35199E+03
 
   -0.10233E+06         0.89074E+05         0.00000E+00
    0.89074E+05         0.10089E+06         0.00000E+00
    0.00000E+00         0.00000E+00        -0.28629E+03
 
   -0.10024E+06         0.94017E+05         0.00000E+00
    0.94017E+05         0.99119E+05         0.00000E+00
    0.00000E+00         0.00000E+00        -0.22364E+03
 
   -0.98081E+05         0.98893E+05         0.00000E+00
    0.98893E+05         0.97264E+05         0.00000E+00
    0.00000E+00         0.00000E+00        -0.16336E+03
 
   -0.95858E+05         0.10370E+06         0.00000E+00
    0.10370E+06         0.95334E+05         0.00000E+00
    0.00000E+00         0.00000E+00        -0.10477E+03
 
   -0.93568E+05         0.10843E+06         0.00000E+00
    0.10843E+06         0.93332E+05         0.00000E+00
    0.00000E+00         0.00000E+00        -0.47163E+02
 
   -0.91210E+05         0.11308E+06         0.00000E+00
    0.11308E+06         0.91260E+05         0.00000E+00
    0.00000E+00         0.00000E+00         0.10149E+02
 
   -0.88783E+05         0.11766E+06         0.00000E+00
    0.11766E+06         0.89123E+05         0.00000E+00
    0.00000E+00         0.00000E+00         0.67878E+02
 
   -0.86288E+05         0.12216E+06         0.00000E+00
    0.12216E+06         0.86922E+05         0.00000E+00
    0.00000E+00         0.00000E+00         0.12674E+03
 
   -0.83725E+05         0.12657E+06         0.00000E+00
    0.12657E+06         0.84662E+05         0.00000E+00
    0.00000E+00         0.00000E+00         0.18749E+03
 
   -0.81092E+05         0.13090E+06         0.00000E+00
    0.13090E+06         0.82346E+05         0.00000E+00
    0.00000E+00         0.00000E+00         0.25087E+03
 
   -0.78390E+05         0.13515E+06         0.00000E+00
    0.13515E+06         0.79979E+05         0.00000E+00
    0.00000E+00         0.00000E+00         0.31766E+03
 
   -0.75620E+05         0.13930E+06         0.00000E+00
    0.13930E+06         0.77563E+05         0.00000E+00
    0.00000E+00         0.00000E+00         0.38870E+03
 
   -0.72779E+05         0.14337E+06         0.00000E+00
    0.14337E+06         0.75103E+05         0.00000E+00
    0.00000E+00         0.00000E+00         0.46480E+03
 
   -0.69869E+05         0.14734E+06         0.00000E+00
    0.14734E+06         0.72603E+05         0.00000E+00
    0.00000E+00         0.00000E+00         0.54686E+03
 
   -0.66889E+05         0.15121E+06         0.00000E+00
    0.15121E+06         0.70068E+05         0.00000E+00
    0.00000E+00         0.00000E+00         0.63579E+03
 
   -0.63839E+05         0.15499E+06         0.00000E+00
    0.15499E+06         0.67502E+05         0.00000E+00
    0.00000E+00         0.00000E+00         0.73255E+03
 
   -0.60719E+05         0.15867E+06         0.00000E+00
    0.15867E+06         0.64910E+05         0.00000E+00
    0.00000E+00         0.00000E+00         0.83815E+03
 
   -0.57529E+05         0.16225E+06         0.00000E+00
    0.16225E+06         0.62297E+05         0.00000E+00
    0.00000E+00         0.00000E+00         0.95362E+03
 
   -0.54268E+05         0.16573E+06         0.00000E+00
    0.16573E+06         0.59668E+05         0.00000E+00
    0.00000E+00         0.00000E+00         0.10801E+04
 
   -0.50937E+05         0.16911E+06         0.00000E+00
    0.16911E+06         0.57030E+05         0.00000E+00
    0.00000E+00         0.00000E+00         0.12187E+04
 
   -0.47534E+05         0.17238E+06         0.00000E+00
    0.17238E+06         0.54387E+05         0.00000E+00
    0.00000E+00         0.00000E+00         0.13706E+04
 
   -0.44061E+05         0.17555E+06         0.00000E+00
    0.17555E+06         0.51746E+05         0.00000E+00
    0.00000E+00         0.00000E+00         0.15371E+04
 
   -0.40516E+05         0.17861E+06         0.00000E+00
    0.17861E+06         0.49113E+05         0.00000E+00
    0.00000E+00         0.00000E+00         0.17194E+04
 
   -0.36900E+05         0.18156E+06         0.00000E+00
    0.18156E+06         0.46495E+05         0.00000E+00
    0.00000E+00         0.00000E+00         0.19190E+04
 
   -0.33212E+05         0.18440E+06         0.00000E+00
    0.18440E+06         0.43898E+05         0.00000E+00
    0.00000E+00         0.00000E+00         0.21373E+04
 
   -0.29452E+05         0.18713E+06         0.00000E+00
    0.18713E+06         0.41330E+05         0.00000E+00
    0.00000E+00         0.00000E+00         0.23756E+04
 
   -0.25620E+05         0.18976E+06         0.00000E+00
    0.18976E+06         0.38797E+05         0.00000E+00
    0.00000E+00         0.00000E+00         0.26355E+04
 
   -0.21715E+05         0.19227E+06         0.00000E+00
    0.19227E+06         0.36308E+05         0.00000E+00
    0.00000E+00         0.00000E+00         0.29185E+04
 
   -0.17738E+05         0.19467E+06         0.00000E+00
    0.19467E+06         0.33869E+05         0.00000E+00
    0.00000E+00         0.00000E+00         0.32262E+04
 
   -0.13689E+05         0.19696E+06         0.00000E+00
    0.19696E+06         0.31490E+05         0.00000E+00
    0.00000E+00         0.00000E+00         0.35602E+04
 
   -0.95662E+04         0.19913E+06         0.00000E+00
    0.19913E+06         0.29177E+05         0.00000E+00
    0.00000E+00         0.00000E+00         0.39221E+04
 
   -0.53708E+04         0.20120E+06         0.00000E+00
    0.20120E+06         0.26938E+05         0.00000E+00
    0.00000E+00         0.00000E+00         0.43135E+04
 
   -0.11024E+04         0.20315E+06         0.00000E+00
    0.20315E+06         0.24783E+05         0.00000E+00
    0.00000E+00         0.00000E+00         0.47362E+04
 
    0.32390E+04         0.20499E+06         0.00000E+00
    0.20499E+06         0.22720E+05         0.00000E+00
    0.00000E+00         0.00000E+00         0.51917E+04
 
   -0.11274E+06         0.27549E+04         0.00000E+00
    0.27549E+04         0.10285E+06         0.00000E+00
    0.00000E+00         0.00000E+00        -0.19782E+04
 
   -0.11173E+06         0.82124E+04         0.00000E+00
    0.82124E+04         0.10274E+06         0.00000E+00
    0.00000E+00         0.00000E+00        -0.17992E+04
 
   -0.11068E+06         0.13644E+05         0.00000E+00
    0.13644E+05         0.10251E+06         0.00000E+00
    0.00000E+00         0.00000E+00        -0.16330E+04
 
   -0.10957E+06         0.19048E+05         0.00000E+00
    0.19048E+05         0.10218E+06         0.00000E+00
    0.00000E+00         0.00000E+00        -0.14789E+04
 
   -0.10842E+06         0.24420E+05         0.00000E+00
    0.24420E+05         0.10174E+06         0.00000E+00
    0.00000E+00         0.00000E+00        -0.13362E+04
 
   -0.10722E+06         0.29759E+05         0.00000E+00
    0.29759E+05         0.10120E+06         0.00000E+00
    0.00000E+00         0.00000E+00        -0.12042E+04
 
   -0.10596E+06         0.35061E+05         0.00000E+00
    0.35061E+05         0.10055E+06         0.00000E+00
    0.00000E+00         0.00000E+00        -0.10822E+04
 
   -0.10466E+06         0.40324E+05         0.00000E+00
    0.40324E+05         0.99809E+05         0.00000E+00
    0.00000E+00         0.00000E+00        -0.96941E+03
 
   -0.10330E+06         0.45545E+05         0.00000E+00
    0.45545E+05         0.98972E+05         0.00000E+00
    0.00000E+00         0.00000E+00        -0.86526E+03
 
   -0.10189E+06         0.50722E+05         0.00000E+00
    0.50722E+05         0.98041E+05         0.00000E+00
    0.00000E+00         0.00000E+00        -0.76903E+03
 
   -0.10042E+06         0.55852E+05         0.00000E+00
    0.55852E+05         0.97020E+05         0.00000E+00
    0.00000E+00         0.00000E+00        -0.68005E+03
 
   -0.98900E+05         0.60933E+05         0.00000E+00
    0.60933E+05         0.95911E+05         0.00000E+00
    0.00000E+00         0.00000E+00        -0.59766E+03
 
   -0.97324E+05         0.65961E+05         0.00000E+00
    0.65961E+05         0.94718E+05         0.00000E+00
    0.00000E+00         0.00000E+00        -0.52122E+03
 
   -0.95692E+05         0.70934E+05         0.00000E+00
    0.70934E+05         0.93441E+05         0.00000E+00
    0.00000E+00         0.00000E+00        -0.45008E+03
 
   -0.94003E+05         0.75850E+05         0.00000E+00
    0.75850E+05         0.92085E+05         0.00000E+00
    0.00000E+00         0.00000E+00        -0.38360E+03
 
   -0.92257E+05         0.80707E+05         0.00000E+00
    0.80707E+05         0.90651E+05         0.00000E+00
    0.00000E+00         0.00000E+00        -0.32116E+03
 
   -0.90454E+05         0.85502E+05         0.00000E+00
    0.85502E+05         0.89143E+05         0.00000E+00
    0.00000E+00         0.00000E+00        -0.26215E+03
 
   -0.88593E+05         0.90232E+05         0.00000E+00
    0.90232E+05         0.87563E+05         0.00000E+00
    0.00000E+00         0.00000E+00        -0.20595E+03
 
   -0.86673E+05         0.94895E+05         0.00000E+00
    0.94895E+05         0.85913E+05         0.00000E+00
    0.00000E+00         0.00000E+00        -0.15194E+03
 
   -0.84695E+05         0.99488E+05         0.00000E+00
    0.99488E+05         0.84197E+05         0.00000E+00
    0.00000E+00         0.00000E+00        -0.99507E+02
 
   -0.82657E+05         0.10401E+06         0.00000E+00
    0.10401E+06         0.82417E+05         0.00000E+00
    0.00000E+00         0.00000E+00        -0.48044E+02
 
   -0.80560E+05         0.10846E+06         0.00000E+00
    0.10846E+06         0.80576E+05         0.00000E+00
    0.00000E+00         0.00000E+00         0.30749E+01
 
   -0.78404E+05         0.11283E+06         0.00000E+00
    0.11283E+06         0.78676E+05         0.00000E+00
    0.00000E+00         0.00000E+00         0.54477E+02
 
   -0.76188E+05         0.11713E+06         0.00000E+00
    0.11713E+06         0.76722E+05         0.00000E+00
    0.00000E+00         0.00000E+00         0.10680E+03
 
   -0.73912E+05         0.12134E+06         0.00000E+00
    0.12134E+06         0.74715E+05         0.00000E+00
    0.00000E+00         0.00000E+00         0.16071E+03
 
   -0.71575E+05         0.12547E+06         0.00000E+00
    0.12547E+06         0.72660E+05         0.00000E+00
    0.00000E+00         0.00000E+00         0.21687E+03
 
   -0.69179E+05         0.12952E+06         0.00000E+00
    0.12952E+06         0.70558E+05         0.00000E+00
    0.00000E+00         0.00000E+00         0.27597E+03
 
   -0.66722E+05         0.13348E+06         0.00000E+00
    0.13348E+06         0.68415E+05         0.00000E+00
    0.00000E+00         0.00000E+00         0.33873E+03
 
   -0.64204E+05         0.13735E+06         0.00000E+00
    0.13735E+06         0.66233E+05         0.00000E+00
    0.00000E+00         0.00000E+00         0.40590E+03
 
   -0.61626E+05         0.14113E+06         0.00000E+00
    0.14113E+06         0.64017E+05         0.00000E+00
    0.00000E+00         0.00000E+00         0.47825E+03
 
   -0.58986E+05         0.14482E+06         0.00000E+00
    0.14482E+06         0.61769E+05         0.00000E+00
    0.00000E+00         0.00000E+00         0.55660E+03
 
   -0.56286E+05         0.14842E+06         0.00000E+00
    0.14842E+06         0.59495E+05         0.00000E+00
    0.00000E+00         0.00000E+00         0.64178E+03
 
   -0.53525E+05         0.15192E+06         0.00000E+00
    0.15192E+06         0.57199E+05         0.00000E+00
    0.00000E+00         0.00000E+00         0.73468E+03
 
   -0.50703E+05         0.15533E+06         0.00000E+00
    0.15533E+06         0.54884E+05         0.00000E+00
    0.00000E+00         0.00000E+00         0.83622E+03
 
   -0.47820E+05         0.15863E+06         0.00000E+00
    0.15863E+06         0.52557E+05         0.00000E+00
    0.00000E+00         0.00000E+00         0.94737E+03
 
   -0.44875E+05         0.16184E+06         0.00000E+00
    0.16184E+06         0.50221E+05         0.00000E+00
    0.00000E+00         0.00000E+00         0.10691E+04
 
   -0.41869E+05         0.16495E+06         0.00000E+00
    0.16495E+06         0.47882E+05         0.00000E+00
    0.00000E+00         0.00000E+00         0.12026E+04
 
   -0.38802E+05         0.16795E+06         0.00000E+00
    0.16795E+06         0.45546E+05         0.00000E+00
    0.00000E+00         0.00000E+00         0.13488E+04
 
   -0.35672E+05         0.17086E+06         0.00000E+00
    0.17086E+06         0.43217E+05         0.00000E+00
    0.00000E+00         0.00000E+00         0.15089E+04
 
   -0.32481E+05         0.17366E+06         0.00000E+00
    0.17366E+06         0.40902E+05         0.00000E+00
    0.00000E+00         0.00000E+00         0.16842E+04
 
   -0.29229E+05         0.17635E+06         0.00000E+00
    0.17635E+06         0.38607E+05         0.00000E+00
    0.00000E+00         0.00000E+00         0.18758E+04
 
   -0.25914E+05         0.17894E+06         0.00000E+00
    0.17894E+06         0.36339E+05         0.00000E+00
    0.00000E+00         0.00000E+00         0.20850E+04
 
   -0.22537E+05         0.18142E+06         0.00000E+00
    0.18142E+06         0.34103E+05         0.00000E+00
    0.00000E+00         0.00000E+00         0.23131E+04
 
   -0.19098E+05         0.18380E+06         0.00000E+00
    0.18380E+06         0.31906E+05         0.00000E+00
    0.00000E+00         0.00000E+00         0.25615E+04
 
   -0.15597E+05         0.18607E+06         0.00000E+00
    0.18607E+06         0.29755E+05         0.00000E+00
    0.00000E+00         0.00000E+00         0.28316E+04
 
   -0.12034E+05         0.18824E+06         0.00000E+00
    0.18824E+06         0.27657E+05         0.00000E+00
    0.00000E+00         0.00000E+00         0.31247E+04
 
   -0.84079E+04         0.19029E+06         0.00000E+00
    0.19029E+06         0.25619E+05         0.00000E+00
    0.00000E+00         0.00000E+00         0.34423E+04
 
   -0.47200E+04         0.19224E+06         0.00000E+00
    0.19224E+06         0.23649E+05         0.00000E+00
    0.00000E+00         0.00000E+00         0.37858E+04
 
   -0.96995E+03         0.19409E+06         0.00000E+00
    0.19409E+06         0.21754E+05         0.00000E+00
    0.00000E+00         0.00000E+00         0.41567E+04
 
    0.28422E+04         0.19583E+06         0.00000E+00
    0.19583E+06         0.19940E+05         0.00000E+00
    0.00000E+00         0.00000E+00         0.45565E+04
 
   -0.98752E+05         0.26605E+04         0.00000E+00
    0.26605E+04         0.89971E+05         0.00000E+00
    0.00000E+00         0.00000E+00        -0.17561E+04
 
   -0.97858E+05         0.79282E+04         0.00000E+00
    0.79282E+04         0.89871E+05         0.00000E+00
    0.00000E+00         0.00000E+00        -0.15975E+04
 
   -0.96923E+05         0.13170E+05         0.00000E+00
    0.13170E+05         0.89672E+05         0.00000E+00
    0.00000E+00         0.00000E+00        -0.14502E+04
 
   -0.95945E+05         0.18383E+05         0.00000E+00
    0.18383E+05         0.89376E+05         0.00000E+00
    0.00000E+00         0.00000E+00        -0.13137E+04
 
   -0.94923E+05         0.23564E+05         0.00000E+00
    0.23564E+05         0.88987E+05         0.00000E+00
    0.00000E+00         0.00000E+00        -0.11872E+04
 
   -0.93858E+05         0.28711E+05         0.00000E+00
    0.28711E+05         0.88507E+05         0.00000E+00
    0.00000E+00         0.00000E+00        -0.10701E+04
 
   -0.92747E+05         0.33822E+05         0.00000E+00
    0.33822E+05         0.87938E+05         0.00000E+00
    0.00000E+00         0.00000E+00        -0.96192E+03
 
   -0.91592E+05         0.38894E+05         0.00000E+00
    0.38894E+05         0.87282E+05         0.00000E+00
    0.00000E+00         0.00000E+00        -0.86196E+03
 
   -0.90390E+05         0.43923E+05         0.00000E+00
    0.43923E+05         0.86542E+05         0.00000E+00
    0.00000E+00         0.00000E+00        -0.76962E+03
 
   -0.89142E+05         0.48909E+05         0.00000E+00
    0.48909E+05         0.85721E+05         0.00000E+00
    0.00000E+00         0.00000E+00        -0.68431E+03
 
   -0.87847E+05         0.53847E+05         0.00000E+00
    0.53847E+05         0.84820E+05         0.00000E+00
    0.00000E+00         0.00000E+00        -0.60544E+03
 
   -0.86504E+05         0.58736E+05         0.00000E+00
    0.58736E+05         0.83842E+05         0.00000E+00
    0.00000E+00         0.00000E+00        -0.53242E+03
 
   -0.85112E+05         0.63574E+05         0.00000E+00
    0.63574E+05         0.82789E+05         0.00000E+00
    0.00000E+00         0.00000E+00        -0.46468E+03
 
   -0.83672E+05         0.68357E+05         0.00000E+00
    0.68357E+05         0.81664E+05         0.00000E+00
    0.00000E+00         0.00000E+00        -0.40167E+03
 
   -0.82183E+05         0.73084E+05         0.00000E+00
    0.73084E+05         0.80469E+05         0.00000E+00
    0.00000E+00         0.00000E+00        -0.34281E+03
 
   -0.80644E+05         0.77751E+05         0.00000E+00
    0.77751E+05         0.79207E+05         0.00000E+00
    0.00000E+00         0.00000E+00        -0.28756E+03
 
   -0.79056E+05         0.82358E+05         0.00000E+00
    0.82358E+05         0.77879E+05         0.00000E+00
    0.00000E+00         0.00000E+00        -0.23538E+03
 
   -0.77417E+05         0.86901E+05         0.00000E+00
    0.86901E+05         0.76488E+05         0.00000E+00
    0.00000E+00         0.00000E+00        -0.18573E+03
 
   -0.75727E+05         0.91378E+05         0.00000E+00
    0.91378E+05         0.75037E+05         0.00000E+00
    0.00000E+00         0.00000E+00        -0.13805E+03
 
   -0.73987E+05         0.95787E+05         0.00000E+00
    0.95787E+05         0.73528E+05         0.00000E+00
    0.00000E+00         0.00000E+00        -0.91831E+02
 
   -0.72195E+05         0.10013E+06         0.00000E+00
    0.10013E+06         0.71963E+05         0.00000E+00
    0.00000E+00         0.00000E+00        -0.46515E+02
 
   -0.70352E+05         0.10439E+06         0.00000E+00
    0.10439E+06         0.70344E+05         0.00000E+00
    0.00000E+00         0.00000E+00        -0.15615E+01
 
   -0.68458E+05         0.10858E+06         0.00000E+00
    0.10858E+06         0.68676E+05         0.00000E+00
    0.00000E+00         0.00000E+00         0.43580E+02
 
   -0.66512E+05         0.11270E+06         0.00000E+00
    0.11270E+06         0.66959E+05         0.00000E+00
    0.00000E+00         0.00000E+00         0.89470E+02
 
   -0.64514E+05         0.11674E+06         0.00000E+00
    0.11674E+06         0.65197E+05         0.00000E+00
    0.00000E+00         0.00000E+00         0.13668E+03
 
   -0.62464E+05         0.12070E+06         0.00000E+00
    0.12070E+06         0.63393E+05         0.00000E+00
    0.00000E+00         0.00000E+00         0.18580E+03
 
   -0.60362E+05         0.12457E+06         0.00000E+00
    0.12457E+06         0.61549E+05         0.00000E+00
    0.00000E+00         0.00000E+00         0.23744E+03
 
   -0.58208E+05         0.12836E+06         0.00000E+00
    0.12836E+06         0.59669E+05         0.00000E+00
    0.00000E+00         0.00000E+00         0.29222E+03
 
   -0.56002E+05         0.13207E+06         0.00000E+00
    0.13207E+06         0.57756E+05         0.00000E+00
    0.00000E+00         0.00000E+00         0.35079E+03
 
   -0.53743E+05         0.13568E+06         0.00000E+00
    0.13568E+06         0.55812E+05         0.00000E+00
    0.00000E+00         0.00000E+00         0.41382E+03
 
   -0.51432E+05         0.13921E+06         0.00000E+00
    0.13921E+06         0.53843E+05         0.00000E+00
    0.00000E+00         0.00000E+00         0.48203E+03
 
   -0.49069E+05         0.14265E+06         0.00000E+00
    0.14265E+06         0.51850E+05         0.00000E+00
    0.00000E+00         0.00000E+00         0.55615E+03
 
   -0.46653E+05         0.14600E+06         0.00000E+00
    0.14600E+06         0.49838E+05         0.00000E+00
    0.00000E+00         0.00000E+00         0.63694E+03
 
   -0.44185E+05         0.14925E+06         0.00000E+00
    0.14925E+06         0.47811E+05         0.00000E+00
    0.00000E+00         0.00000E+00         0.72522E+03
 
   -0.41665E+05         0.15240E+06         0.00000E+00
    0.15240E+06         0.45774E+05         0.00000E+00
    0.00000E+00         0.00000E+00         0.82182E+03
 
   -0.39091E+05         0.15547E+06         0.00000E+00
    0.15547E+06         0.43729E+05         0.00000E+00
    0.00000E+00         0.00000E+00         0.92761E+03
 
   -0.36466E+05         0.15843E+06         0.00000E+00
    0.15843E+06         0.41683E+05         0.00000E+00
    0.00000E+00         0.00000E+00         0.10435E+04
 
   -0.33787E+05         0.16130E+06         0.00000E+00
    0.16130E+06         0.39640E+05         0.00000E+00
    0.00000E+00         0.00000E+00         0.11705E+04
 
   -0.31056E+05         0.16406E+06         0.00000E+00
    0.16406E+06         0.37604E+05         0.00000E+00
    0.00000E+00         0.00000E+00         0.13096E+04
 
   -0.28272E+05         0.16673E+06         0.00000E+00
    0.16673E+06         0.35581E+05         0.00000E+00
    0.00000E+00         0.00000E+00         0.14617E+04
 
   -0.25436E+05         0.16930E+06         0.00000E+00
    0.16930E+06         0.33576E+05         0.00000E+00
    0.00000E+00         0.00000E+00         0.16281E+04
 
   -0.22546E+05         0.17176E+06         0.00000E+00
    0.17176E+06         0.31595E+05         0.00000E+00
    0.00000E+00         0.00000E+00         0.18097E+04
 
   -0.19604E+05         0.17413E+06         0.00000E+00
    0.17413E+06         0.29643E+05         0.00000E+00
    0.00000E+00         0.00000E+00         0.20077E+04
 
   -0.16609E+05         0.17639E+06         0.00000E+00
    0.17639E+06         0.27726E+05         0.00000E+00
    0.00000E+00         0.00000E+00         0.22234E+04
 
   -0.13562E+05         0.17855E+06         0.00000E+00
    0.17855E+06         0.25851E+05         0.00000E+00
    0.00000E+00         0.00000E+00         0.24578E+04
 
   -0.10461E+05         0.18061E+06         0.00000E+00
    0.18061E+06         0.24022E+05         0.00000E+00
    0.00000E+00         0.00000E+00         0.27122E+04
 
   -0.73082E+04         0.18256E+06         0.00000E+00
    0.18256E+06         0.22248E+05         0.00000E+00
    0.00000E+00         0.00000E+00         0.29879E+04
 
   -0.41024E+04         0.18442E+06         0.00000E+00
    0.18442E+06         0.20533E+05         0.00000E+00
    0.00000E+00         0.00000E+00         0.32861E+04
 
   -0.84409E+03         0.18617E+06         0.00000E+00
    0.18617E+06         0.18884E+05         0.00000E+00
    0.00000E+00         0.00000E+00         0.36081E+04
 
    0.24666E+04         0.18783E+06         0.00000E+00
    0.18783E+06         0.17309E+05         0.00000E+00
    0.00000E+00         0.00000E+00         0.39551E+04
 
   -0.85198E+05         0.25773E+04         0.00000E+00
    0.25773E+04         0.77549E+05         0.00000E+00
    0.00000E+00         0.00000E+00        -0.15299E+04
 
   -0.84421E+05         0.76784E+04         0.00000E+00
    0.76784E+04         0.77461E+05         0.00000E+00
    0.00000E+00         0.00000E+00        -0.13919E+04
 
   -0.83606E+05         0.12753E+05         0.00000E+00
    0.12753E+05         0.77287E+05         0.00000E+00
    0.00000E+00         0.00000E+00        -0.12638E+04
 
   -0.82755E+05         0.17799E+05         0.00000E+00
    0.17799E+05         0.77030E+05         0.00000E+00
    0.00000E+00         0.00000E+00        -0.11449E+04
 
   -0.81866E+05         0.22814E+05         0.00000E+00
    0.22814E+05         0.76691E+05         0.00000E+00
    0.00000E+00         0.00000E+00        -0.10349E+04
 
   -0.80938E+05         0.27794E+05         0.00000E+00
    0.27794E+05         0.76273E+05         0.00000E+00
    0.00000E+00         0.00000E+00        -0.93303E+03
 
   -0.79972E+05         0.32738E+05         0.00000E+00
    0.32738E+05         0.75777E+05         0.00000E+00
    0.00000E+00         0.00000E+00        -0.83887E+03
 
   -0.78966E+05         0.37643E+05         0.00000E+00
    0.37643E+05         0.75207E+05         0.00000E+00
    0.00000E+00         0.00000E+00        -0.75188E+03
 
   -0.77921E+05         0.42506E+05         0.00000E+00
    0.42506E+05         0.74563E+05         0.00000E+00
    0.00000E+00         0.00000E+00        -0.67152E+03
 
   -0.76836E+05         0.47324E+05         0.00000E+00
    0.47324E+05         0.73849E+05         0.00000E+00
    0.00000E+00         0.00000E+00        -0.59729E+03
 
   -0.75709E+05         0.52097E+05         0.00000E+00
    0.52097E+05         0.73066E+05         0.00000E+00
    0.00000E+00         0.00000E+00        -0.52865E+03
 
   -0.74542E+05         0.56820E+05         0.00000E+00
    0.56820E+05         0.72217E+05         0.00000E+00
    0.00000E+00         0.00000E+00        -0.46513E+03
 
   -0.73333E+05         0.61492E+05         0.00000E+00
    0.61492E+05         0.71302E+05         0.00000E+00
    0.00000E+00         0.00000E+00        -0.40621E+03
 
   -0.72083E+05         0.66110E+05         0.00000E+00
    0.66110E+05         0.70326E+05         0.00000E+00
    0.00000E+00         0.00000E+00        -0.35140E+03
 
   -0.70790E+05         0.70673E+05         0.00000E+00
    0.70673E+05         0.69289E+05         0.00000E+00
    0.00000E+00         0.00000E+00        -0.30024E+03
 
   -0.69455E+05         0.75177E+05         0.00000E+00
    0.75177E+05         0.68194E+05         0.00000E+00
    0.00000E+00         0.00000E+00        -0.25223E+03
 
   -0.68077E+05         0.79621E+05         0.00000E+00
    0.79621E+05         0.67042E+05         0.00000E+00
    0.00000E+00         0.00000E+00        -0.20692E+03
 
   -0.66656E+05         0.84002E+05         0.00000E+00
    0.84002E+05         0.65837E+05         0.00000E+00
    0.00000E+00         0.00000E+00        -0.16382E+03
 
   -0.65192E+05         0.88318E+05         0.00000E+00
    0.88318E+05         0.64579E+05         0.00000E+00
    0.00000E+00         0.00000E+00        -0.12248E+03
 
   -0.63684E+05         0.92567E+05         0.00000E+00
    0.92567E+05         0.63272E+05         0.00000E+00
    0.00000E+00         0.00000E+00        -0.82433E+02
 
   -0.62132E+05         0.96748E+05         0.00000E+00
    0.96748E+05         0.61916E+05         0.00000E+00
    0.00000E+00         0.00000E+00        -0.43209E+02
 
   -0.60537E+05         0.10086E+06         0.00000E+00
    0.10086E+06         0.60515E+05         0.00000E+00
    0.00000E+00         0.00000E+00        -0.43395E+01
 
   -0.58898E+05         0.10489E+06         0.00000E+00
    0.10489E+06         0.59071E+05         0.00000E+00
    0.00000E+00         0.00000E+00         0.34650E+02
 
   -0.57214E+05         0.10886E+06         0.00000E+00
    0.10886E+06         0.57586E+05         0.00000E+00
    0.00000E+00         0.00000E+00         0.74242E+02
 
   -0.55487E+05         0.11274E+06         0.00000E+00
    0.11274E+06         0.56062E+05         0.00000E+00
    0.00000E+00         0.00000E+00         0.11493E+03
 
   -0.53715E+05         0.11655E+06         0.00000E+00
    0.11655E+06         0.54501E+05         0.00000E+00
    0.00000E+00         0.00000E+00         0.15722E+03
 
   -0.51899E+05         0.12027E+06         0.00000E+00
    0.12027E+06         0.52908E+05         0.00000E+00
    0.00000E+00         0.00000E+00         0.20164E+03
 
   -0.50039E+05         0.12392E+06         0.00000E+00
    0.12392E+06         0.51283E+05         0.00000E+00
    0.00000E+00         0.00000E+00         0.24871E+03
 
   -0.48134E+05         0.12748E+06         0.00000E+00
    0.12748E+06         0.49630E+05         0.00000E+00
    0.00000E+00         0.00000E+00         0.29901E+03
 
   -0.46185E+05         0.13095E+06         0.00000E+00
    0.13095E+06         0.47951E+05         0.00000E+00
    0.00000E+00         0.00000E+00         0.35311E+03
 
   -0.44192E+05         0.13434E+06         0.00000E+00
    0.13434E+06         0.46250E+05         0.00000E+00
    0.00000E+00         0.00000E+00         0.41161E+03
 
   -0.42154E+05         0.13764E+06         0.00000E+00
    0.13764E+06         0.44530E+05         0.00000E+00
    0.00000E+00         0.00000E+00         0.47515E+03
 
   -0.40072E+05         0.14085E+06         0.00000E+00
    0.14085E+06         0.42794E+05         0.00000E+00
    0.00000E+00         0.00000E+00         0.54439E+03
 
   -0.37945E+05         0.14398E+06         0.00000E+00
    0.14398E+06         0.41045E+05         0.00000E+00
    0.00000E+00         0.00000E+00         0.62002E+03
 
   -0.35774E+05         0.14700E+06         0.00000E+00
    0.14700E+06         0.39288E+05         0.00000E+00
    0.00000E+00         0.00000E+00         0.70275E+03
 
   -0.33559E+05         0.14994E+06         0.00000E+00
    0.14994E+06         0.37525E+05         0.00000E+00
    0.00000E+00         0.00000E+00         0.79334E+03
 
   -0.31299E+05         0.15278E+06         0.00000E+00
    0.15278E+06         0.35762E+05         0.00000E+00
    0.00000E+00         0.00000E+00         0.89258E+03
 
   -0.28994E+05         0.15553E+06         0.00000E+00
    0.15553E+06         0.34001E+05         0.00000E+00
    0.00000E+00         0.00000E+00         0.10013E+04
 
   -0.26646E+05         0.15818E+06         0.00000E+00
    0.15818E+06         0.32247E+05         0.00000E+00
    0.00000E+00         0.00000E+00         0.11203E+04
 
   -0.24253E+05         0.16073E+06         0.00000E+00
    0.16073E+06         0.30505E+05         0.00000E+00
    0.00000E+00         0.00000E+00         0.12505E+04
 
   -0.21815E+05         0.16319E+06         0.00000E+00
    0.16319E+06         0.28780E+05         0.00000E+00
    0.00000E+00         0.00000E+00         0.13929E+04
 
   -0.19334E+05         0.16555E+06         0.00000E+00
    0.16555E+06         0.27075E+05         0.00000E+00
    0.00000E+00         0.00000E+00         0.15483E+04
 
   -0.16808E+05         0.16781E+06         0.00000E+00
    0.16781E+06         0.25397E+05         0.00000E+00
    0.00000E+00         0.00000E+00         0.17178E+04
 
   -0.14237E+05         0.16998E+06         0.00000E+00
    0.16998E+06         0.23749E+05         0.00000E+00
    0.00000E+00         0.00000E+00         0.19023E+04
 
   -0.11623E+05         0.17205E+06         0.00000E+00
    0.17205E+06         0.22137E+05         0.00000E+00
    0.00000E+00         0.00000E+00         0.21029E+04
 
   -0.89641E+04         0.17402E+06         0.00000E+00
    0.17402E+06         0.20567E+05         0.00000E+00
    0.00000E+00         0.00000E+00         0.23206E+04
 
   -0.62613E+04         0.17589E+06         0.00000E+00
    0.17589E+06         0.19044E+05         0.00000E+00
    0.00000E+00         0.00000E+00         0.25565E+04
 
   -0.35146E+04         0.17766E+06         0.00000E+00
    0.17766E+06         0.17573E+05         0.00000E+00
    0.00000E+00         0.00000E+00         0.28117E+04
 
   -0.72409E+03         0.17934E+06         0.00000E+00
    0.17934E+06         0.16160E+05         0.00000E+00
    0.00000E+00         0.00000E+00         0.30872E+04
 
    0.21101E+04         0.18092E+06         0.00000E+00
    0.18092E+06         0.14811E+05         0.00000E+00
    0.00000E+00         0.00000E+00         0.33841E+04
 
   -0.72030E+05         0.25052E+04         0.00000E+00
    0.25052E+04         0.65517E+05         0.00000E+00
    0.00000E+00         0.00000E+00        -0.13027E+04
 
   -0.71369E+05         0.74624E+04         0.00000E+00
    0.74624E+04         0.65442E+05         0.00000E+00
    0.00000E+00         0.00000E+00        -0.11854E+04
 
   -0.70675E+05         0.12394E+05         0.00000E+00
    0.12394E+05         0.65294E+05         0.00000E+00
    0.00000E+00         0.00000E+00        -0.10764E+04
 
   -0.69950E+05         0.17296E+05         0.00000E+00
    0.17296E+05         0.65074E+05         0.00000E+00
    0.00000E+00         0.00000E+00        -0.97531E+03
 
   -0.69193E+05         0.22167E+05         0.00000E+00
    0.22167E+05         0.64785E+05         0.00000E+00
    0.00000E+00         0.00000E+00        -0.88167E+03
 
   -0.68403E+05         0.27004E+05         0.00000E+00
    0.27004E+05         0.64428E+05         0.00000E+00
    0.00000E+00         0.00000E+00        -0.79503E+03
 
   -0.67581E+05         0.31804E+05         0.00000E+00
    0.31804E+05         0.64006E+05         0.00000E+00
    0.00000E+00         0.00000E+00        -0.71493E+03
 
   -0.66724E+05         0.36566E+05         0.00000E+00
    0.36566E+05         0.63520E+05         0.00000E+00
    0.00000E+00         0.00000E+00        -0.64092E+03
 
   -0.65834E+05         0.41286E+05         0.00000E+00
    0.41286E+05         0.62972E+05         0.00000E+00
    0.00000E+00         0.00000E+00        -0.57255E+03
 
   -0.64910E+05         0.45963E+05         0.00000E+00
    0.45963E+05         0.62364E+05         0.00000E+00
    0.00000E+00         0.00000E+00        -0.50939E+03
 
   -0.63952E+05         0.50593E+05         0.00000E+00
    0.50593E+05         0.61697E+05         0.00000E+00
    0.00000E+00         0.00000E+00        -0.45100E+03
 
   -0.62959E+05         0.55175E+05         0.00000E+00
    0.55175E+05         0.60974E+05         0.00000E+00
    0.00000E+00         0.00000E+00        -0.39697E+03
 
   -0.61931E+05         0.59705E+05         0.00000E+00
    0.59705E+05         0.60197E+05         0.00000E+00
    0.00000E+00         0.00000E+00        -0.34685E+03
 
   -0.60867E+05         0.64183E+05         0.00000E+00
    0.64183E+05         0.59366E+05         0.00000E+00
    0.00000E+00         0.00000E+00        -0.30025E+03
 
   -0.59768E+05         0.68605E+05         0.00000E+00
    0.68605E+05         0.58485E+05         0.00000E+00
    0.00000E+00         0.00000E+00        -0.25676E+03
 
   -0.58634E+05         0.72970E+05         0.00000E+00
    0.72970E+05         0.57554E+05         0.00000E+00
    0.00000E+00         0.00000E+00        -0.21597E+03
 
   -0.57463E+05         0.77275E+05         0.00000E+00
    0.77275E+05         0.56576E+05         0.00000E+00
    0.00000E+00         0.00000E+00        -0.17748E+03
 
   -0.56256E+05         0.81518E+05         0.00000E+00
    0.81518E+05         0.55552E+05         0.00000E+00
    0.00000E+00         0.00000E+00        -0.14089E+03
 
   -0.55013E+05         0.85698E+05         0.00000E+00
    0.85698E+05         0.54484E+05         0.00000E+00
    0.00000E+00         0.00000E+00        -0.10582E+03
 
   -0.53733E+05         0.89811E+05         0.00000E+00
    0.89811E+05         0.53374E+05         0.00000E+00
    0.00000E+00         0.00000E+00        -0.71870E+02
 
   -0.52417E+05         0.93857E+05         0.00000E+00
    0.93857E+05         0.52224E+05         0.00000E+00
    0.00000E+00         0.00000E+00        -0.38644E+02
 
   -0.51064E+05         0.97833E+05         0.00000E+00
    0.97833E+05         0.51036E+05         0.00000E+00
    0.00000E+00         0.00000E+00        -0.57462E+01
 
   -0.49675E+05         0.10174E+06         0.00000E+00
    0.10174E+06         0.49811E+05         0.00000E+00
    0.00000E+00         0.00000E+00         0.27224E+02
 
   -0.48248E+05         0.10557E+06         0.00000E+00
    0.10557E+06         0.48551E+05         0.00000E+00
    0.00000E+00         0.00000E+00         0.60674E+02
 
   -0.46785E+05         0.10932E+06         0.00000E+00
    0.10932E+06         0.47260E+05         0.00000E+00
    0.00000E+00         0.00000E+00         0.95020E+02
 
   -0.45284E+05         0.11300E+06         0.00000E+00
    0.11300E+06         0.45938E+05         0.00000E+00
    0.00000E+00         0.00000E+00         0.13069E+03
 
   -0.43747E+05         0.11660E+06         0.00000E+00
    0.11660E+06         0.44587E+05         0.00000E+00
    0.00000E+00         0.00000E+00         0.16812E+03
 
   -0.42172E+05         0.12012E+06         0.00000E+00
    0.12012E+06         0.43211E+05         0.00000E+00
    0.00000E+00         0.00000E+00         0.20777E+03
 
   -0.40561E+05         0.12356E+06         0.00000E+00
    0.12356E+06         0.41811E+05         0.00000E+00
    0.00000E+00         0.00000E+00         0.25010E+03
 
   -0.38913E+05         0.12692E+06         0.00000E+00
    0.12692E+06         0.40391E+05         0.00000E+00
    0.00000E+00         0.00000E+00         0.29561E+03
 
   -0.37227E+05         0.13019E+06         0.00000E+00
    0.13019E+06         0.38951E+05         0.00000E+00
    0.00000E+00         0.00000E+00         0.34480E+03
 
   -0.35505E+05         0.13337E+06         0.00000E+00
    0.13337E+06         0.37496E+05         0.00000E+00
    0.00000E+00         0.00000E+00         0.39821E+03
 
   -0.33746E+05         0.13647E+06         0.00000E+00
    0.13647E+06         0.36028E+05         0.00000E+00
    0.00000E+00         0.00000E+00         0.45638E+03
 
   -0.31950E+05         0.13948E+06         0.00000E+00
    0.13948E+06         0.34549E+05         0.00000E+00
    0.00000E+00         0.00000E+00         0.51991E+03
 
   -0.30117E+05         0.14240E+06         0.00000E+00
    0.14240E+06         0.33064E+05         0.00000E+00
    0.00000E+00         0.00000E+00         0.58939E+03
 
   -0.28247E+05         0.14523E+06         0.00000E+00
    0.14523E+06         0.31574E+05         0.00000E+00
    0.00000E+00         0.00000E+00         0.66546E+03
 
   -0.26341E+05         0.14797E+06         0.00000E+00
    0.14797E+06         0.30084E+05         0.00000E+00
    0.00000E+00         0.00000E+00         0.74879E+03
 
   -0.24397E+05         0.15061E+06         0.00000E+00
    0.15061E+06         0.28597E+05         0.00000E+00
    0.00000E+00         0.00000E+00         0.84005E+03
 
   -0.22417E+05         0.15317E+06         0.00000E+00
    0.15317E+06         0.27117E+05         0.00000E+00
    0.00000E+00         0.00000E+00         0.93996E+03
 
   -0.20400E+05         0.15563E+06         0.00000E+00
    0.15563E+06         0.25647E+05         0.00000E+00
    0.00000E+00         0.00000E+00         0.10493E+04
 
   -0.18347E+05         0.15799E+06         0.00000E+00
    0.15799E+06         0.24191E+05         0.00000E+00
    0.00000E+00         0.00000E+00         0.11688E+04
 
   -0.16257E+05         0.16027E+06         0.00000E+00
    0.16027E+06         0.22753E+05         0.00000E+00
    0.00000E+00         0.00000E+00         0.12992E+04
 
   -0.14131E+05         0.16245E+06         0.00000E+00
    0.16245E+06         0.21338E+05         0.00000E+00
    0.00000E+00         0.00000E+00         0.14415E+04
 
   -0.11968E+05         0.16453E+06         0.00000E+00
    0.16453E+06         0.19949E+05         0.00000E+00
    0.00000E+00         0.00000E+00         0.15963E+04
 
   -0.97685E+04         0.16652E+06         0.00000E+00
    0.16652E+06         0.18592E+05         0.00000E+00
    0.00000E+00         0.00000E+00         0.17647E+04
 
   -0.75329E+04         0.16842E+06         0.00000E+00
    0.16842E+06         0.17270E+05         0.00000E+00
    0.00000E+00         0.00000E+00         0.19474E+04
 
   -0.52610E+04         0.17022E+06         0.00000E+00
    0.17022E+06         0.15988E+05         0.00000E+00
    0.00000E+00         0.00000E+00         0.21454E+04
 
   -0.29531E+04         0.17193E+06         0.00000E+00
    0.17193E+06         0.14751E+05         0.00000E+00
    0.00000E+00         0.00000E+00         0.23596E+04
 
   -0.60921E+03         0.17355E+06         0.00000E+00
    0.17355E+06         0.13563E+05         0.00000E+00
    0.00000E+00         0.00000E+00         0.25908E+04
 
    0.17705E+04         0.17507E+06         0.00000E+00
    0.17507E+06         0.12430E+05         0.00000E+00
    0.00000E+00         0.00000E+00         0.28400E+04
 
   -0.59197E+05         0.24442E+04         0.00000E+00
    0.24442E+04         0.53813E+05         0.00000E+00
    0.00000E+00         0.00000E+00        -0.10768E+04
 
   -0.58651E+05         0.72801E+04         0.00000E+00
    0.72801E+04         0.53751E+05         0.00000E+00
    0.00000E+00         0.00000E+00        -0.97994E+03
 
   -0.58078E+05         0.12090E+05         0.00000E+00
    0.12090E+05         0.53628E+05         0.00000E+00
    0.00000E+00         0.00000E+00        -0.88993E+03
 
   -0.57478E+05         0.16872E+05         0.00000E+00
    0.16872E+05         0.53446E+05         0.00000E+00
    0.00000E+00         0.00000E+00        -0.80645E+03
 
   -0.56852E+05         0.21622E+05         0.00000E+00
    0.21622E+05         0.53207E+05         0.00000E+00
    0.00000E+00         0.00000E+00        -0.72911E+03
 
   -0.56199E+05         0.26339E+05         0.00000E+00
    0.26339E+05         0.52912E+05         0.00000E+00
    0.00000E+00         0.00000E+00        -0.65755E+03
 
   -0.55519E+05         0.31019E+05         0.00000E+00
    0.31019E+05         0.52562E+05         0.00000E+00
    0.00000E+00         0.00000E+00        -0.59138E+03
 
   -0.54811E+05         0.35661E+05         0.00000E+00
    0.35661E+05         0.52160E+05         0.00000E+00
    0.00000E+00         0.00000E+00        -0.53024E+03
 
   -0.54075E+05         0.40262E+05         0.00000E+00
    0.40262E+05         0.51706E+05         0.00000E+00
    0.00000E+00         0.00000E+00        -0.47377E+03
 
   -0.53311E+05         0.44819E+05         0.00000E+00
    0.44819E+05         0.51203E+05         0.00000E+00
    0.00000E+00         0.00000E+00        -0.42160E+03
 
   -0.52519E+05         0.49331E+05         0.00000E+00
    0.49331E+05         0.50652E+05         0.00000E+00
    0.00000E+00         0.00000E+00        -0.37337E+03
 
   -0.51698E+05         0.53794E+05         0.00000E+00
    0.53794E+05         0.50055E+05         0.00000E+00
    0.00000E+00         0.00000E+00        -0.32874E+03
 
   -0.50849E+05         0.58207E+05         0.00000E+00
    0.58207E+05         0.49412E+05         0.00000E+00
    0.00000E+00         0.00000E+00        -0.28736E+03
 
   -0.49971E+05         0.62567E+05         0.00000E+00
    0.62567E+05         0.48726E+05         0.00000E+00
    0.00000E+00         0.00000E+00        -0.24889E+03
 
   -0.49063E+05         0.66873E+05         0.00000E+00
    0.66873E+05         0.47998E+05         0.00000E+00
    0.00000E+00         0.00000E+00        -0.21299E+03
 
   -0.48127E+05         0.71122E+05         0.00000E+00
    0.71122E+05         0.47230E+05         0.00000E+00
    0.00000E+00         0.00000E+00        -0.17933E+03
 
   -0.47160E+05         0.75311E+05         0.00000E+00
    0.75311E+05         0.46422E+05         0.00000E+00
    0.00000E+00         0.00000E+00        -0.14758E+03
 
   -0.46165E+05         0.79440E+05         0.00000E+00
    0.79440E+05         0.45578E+05         0.00000E+00
    0.00000E+00         0.00000E+00        -0.11742E+03
 
   -0.45139E+05         0.83506E+05         0.00000E+00
    0.83506E+05         0.44697E+05         0.00000E+00
    0.00000E+00         0.00000E+00        -0.88526E+02
 
   -0.44084E+05         0.87506E+05         0.00000E+00
    0.87506E+05         0.43781E+05         0.00000E+00
    0.00000E+00         0.00000E+00        -0.60568E+02
 
   -0.42999E+05         0.91440E+05         0.00000E+00
    0.91440E+05         0.42833E+05         0.00000E+00
    0.00000E+00         0.00000E+00        -0.33226E+02
 
   -0.41884E+05         0.95305E+05         0.00000E+00
    0.95305E+05         0.41853E+05         0.00000E+00
    0.00000E+00         0.00000E+00        -0.61747E+01
 
   -0.40739E+05         0.99100E+05         0.00000E+00
    0.99100E+05         0.40844E+05         0.00000E+00
    0.00000E+00         0.00000E+00         0.20916E+02
 
   -0.39564E+05         0.10282E+06         0.00000E+00
    0.10282E+06         0.39806E+05         0.00000E+00
    0.00000E+00         0.00000E+00         0.48380E+02
 
   -0.38359E+05         0.10647E+06         0.00000E+00
    0.10647E+06         0.38742E+05         0.00000E+00
    0.00000E+00         0.00000E+00         0.76559E+02
 
   -0.37124E+05         0.11004E+06         0.00000E+00
    0.11004E+06         0.37653E+05         0.00000E+00
    0.00000E+00         0.00000E+00         0.10580E+03
 
   -0.35859E+05         0.11354E+06         0.00000E+00
    0.11354E+06         0.36542E+05         0.00000E+00
    0.00000E+00         0.00000E+00         0.13647E+03
 
   -0.34564E+05         0.11696E+06         0.00000E+00
    0.11696E+06         0.35409E+05         0.00000E+00
    0.00000E+00         0.00000E+00         0.16894E+03
 
   -0.33239E+05         0.12029E+06         0.00000E+00
    0.12029E+06         0.34257E+05         0.00000E+00
    0.00000E+00         0.00000E+00         0.20358E+03
 
   -0.31884E+05         0.12355E+06         0.00000E+00
    0.12355E+06         0.33088E+05         0.00000E+00
    0.00000E+00         0.00000E+00         0.24081E+03
 
   -0.30499E+05         0.12672E+06         0.00000E+00
    0.12672E+06         0.31904E+05         0.00000E+00
    0.00000E+00         0.00000E+00         0.28104E+03
 
   -0.29084E+05         0.12981E+06         0.00000E+00
    0.12981E+06         0.30707E+05         0.00000E+00
    0.00000E+00         0.00000E+00         0.32470E+03
 
   -0.27639E+05         0.13281E+06         0.00000E+00
    0.13281E+06         0.29500E+05         0.00000E+00
    0.00000E+00         0.00000E+00         0.37224E+03
 
   -0.26164E+05         0.13573E+06         0.00000E+00
    0.13573E+06         0.28285E+05         0.00000E+00
    0.00000E+00         0.00000E+00         0.42415E+03
 
   -0.24660E+05         0.13856E+06         0.00000E+00
    0.13856E+06         0.27064E+05         0.00000E+00
    0.00000E+00         0.00000E+00         0.48092E+03
 
   -0.23125E+05         0.14130E+06         0.00000E+00
    0.14130E+06         0.25841E+05         0.00000E+00
    0.00000E+00         0.00000E+00         0.54306E+03
 
   -0.21561E+05         0.14396E+06         0.00000E+00
    0.14396E+06         0.24617E+05         0.00000E+00
    0.00000E+00         0.00000E+00         0.61111E+03
 
   -0.19968E+05         0.14652E+06         0.00000E+00
    0.14652E+06         0.23396E+05         0.00000E+00
    0.00000E+00         0.00000E+00         0.68565E+03
 
   -0.18344E+05         0.14900E+06         0.00000E+00
    0.14900E+06         0.22181E+05         0.00000E+00
    0.00000E+00         0.00000E+00         0.76725E+03
 
   -0.16692E+05         0.15138E+06         0.00000E+00
    0.15138E+06         0.20974E+05         0.00000E+00
    0.00000E+00         0.00000E+00         0.85652E+03
 
   -0.15009E+05         0.15367E+06         0.00000E+00
    0.15367E+06         0.19780E+05         0.00000E+00
    0.00000E+00         0.00000E+00         0.95409E+03
 
   -0.13298E+05         0.15587E+06         0.00000E+00
    0.15587E+06         0.18601E+05         0.00000E+00
    0.00000E+00         0.00000E+00         0.10606E+04
 
   -0.11557E+05         0.15798E+06         0.00000E+00
    0.15798E+06         0.17441E+05         0.00000E+00
    0.00000E+00         0.00000E+00         0.11768E+04
 
   -0.97863E+04         0.16000E+06         0.00000E+00
    0.16000E+06         0.16303E+05         0.00000E+00
    0.00000E+00         0.00000E+00         0.13032E+04
 
   -0.79868E+04         0.16193E+06         0.00000E+00
    0.16193E+06         0.15190E+05         0.00000E+00
    0.00000E+00         0.00000E+00         0.14407E+04
 
   -0.61582E+04         0.16377E+06         0.00000E+00
    0.16377E+06         0.14108E+05         0.00000E+00
    0.00000E+00         0.00000E+00         0.15899E+04
 
   -0.43006E+04         0.16551E+06         0.00000E+00
    0.16551E+06         0.13059E+05         0.00000E+00
    0.00000E+00         0.00000E+00         0.17516E+04
 
   -0.24140E+04         0.16717E+06         0.00000E+00
    0.16717E+06         0.12047E+05         0.00000E+00
    0.00000E+00         0.00000E+00         0.19265E+04
 
   -0.49868E+03         0.16874E+06         0.00000E+00
    0.16874E+06         0.11075E+05         0.00000E+00
    0.00000E+00         0.00000E+00         0.21153E+04
 
    0.14453E+04         0.17022E+06         0.00000E+00
    0.17022E+06         0.10149E+05         0.00000E+00
    0.00000E+00         0.00000E+00         0.23189E+04
 
   -0.46646E+05         0.23945E+04         0.00000E+00
    0.23945E+04         0.42379E+05         0.00000E+00
    0.00000E+00         0.00000E+00        -0.85349E+03
 
   -0.46213E+05         0.71317E+04         0.00000E+00
    0.71317E+04         0.42329E+05         0.00000E+00
    0.00000E+00         0.00000E+00        -0.77675E+03
 
   -0.45759E+05         0.11843E+05         0.00000E+00
    0.11843E+05         0.42232E+05         0.00000E+00
    0.00000E+00         0.00000E+00        -0.70546E+03
 
   -0.45284E+05         0.16527E+05         0.00000E+00
    0.16527E+05         0.42087E+05         0.00000E+00
    0.00000E+00         0.00000E+00        -0.63934E+03
 
   -0.44788E+05         0.21180E+05         0.00000E+00
    0.21180E+05         0.41898E+05         0.00000E+00
    0.00000E+00         0.00000E+00        -0.57808E+03
 
   -0.44270E+05         0.25799E+05         0.00000E+00
    0.25799E+05         0.41663E+05         0.00000E+00
    0.00000E+00         0.00000E+00        -0.52139E+03
 
   -0.43731E+05         0.30382E+05         0.00000E+00
    0.30382E+05         0.41386E+05         0.00000E+00
    0.00000E+00         0.00000E+00        -0.46897E+03
 
   -0.43170E+05         0.34927E+05         0.00000E+00
    0.34927E+05         0.41068E+05         0.00000E+00
    0.00000E+00         0.00000E+00        -0.42055E+03
 
   -0.42587E+05         0.39432E+05         0.00000E+00
    0.39432E+05         0.40708E+05         0.00000E+00
    0.00000E+00         0.00000E+00        -0.37581E+03
 
   -0.41982E+05         0.43893E+05         0.00000E+00
    0.43893E+05         0.40310E+05         0.00000E+00
    0.00000E+00         0.00000E+00        -0.33449E+03
 
   -0.41355E+05         0.48308E+05         0.00000E+00
    0.48308E+05         0.39874E+05         0.00000E+00
    0.00000E+00         0.00000E+00        -0.29630E+03
 
   -0.40705E+05         0.52676E+05         0.00000E+00
    0.52676E+05         0.39401E+05         0.00000E+00
    0.00000E+00         0.00000E+00        -0.26095E+03
 
   -0.40033E+05         0.56994E+05         0.00000E+00
    0.56994E+05         0.38892E+05         0.00000E+00
    0.00000E+00         0.00000E+00        -0.22819E+03
 
   -0.39338E+05         0.61260E+05         0.00000E+00
    0.61260E+05         0.38349E+05         0.00000E+00
    0.00000E+00         0.00000E+00        -0.19773E+03
 
   -0.38620E+05         0.65472E+05         0.00000E+00
    0.65472E+05         0.37773E+05         0.00000E+00
    0.00000E+00         0.00000E+00        -0.16932E+03
 
   -0.37879E+05         0.69627E+05         0.00000E+00
    0.69627E+05         0.37166E+05         0.00000E+00
    0.00000E+00         0.00000E+00        -0.14269E+03
 
   -0.37115E+05         0.73724E+05         0.00000E+00
    0.73724E+05         0.36527E+05         0.00000E+00
    0.00000E+00         0.00000E+00        -0.11758E+03
 
   -0.36328E+05         0.77760E+05         0.00000E+00
    0.77760E+05         0.35859E+05         0.00000E+00
    0.00000E+00         0.00000E+00        -0.93743E+02
 
   -0.35517E+05         0.81734E+05         0.00000E+00
    0.81734E+05         0.35163E+05         0.00000E+00
    0.00000E+00         0.00000E+00        -0.70912E+02
 
   -0.34684E+05         0.85644E+05         0.00000E+00
    0.85644E+05         0.34439E+05         0.00000E+00
    0.00000E+00         0.00000E+00        -0.48837E+02
 
   -0.33827E+05         0.89488E+05         0.00000E+00
    0.89488E+05         0.33690E+05         0.00000E+00
    0.00000E+00         0.00000E+00        -0.27262E+02
 
   -0.32946E+05         0.93264E+05         0.00000E+00
    0.93264E+05         0.32916E+05         0.00000E+00
    0.00000E+00         0.00000E+00        -0.59308E+01
 
   -0.32042E+05         0.96971E+05         0.00000E+00
    0.96971E+05         0.32119E+05         0.00000E+00
    0.00000E+00         0.00000E+00         0.15416E+02
 
   -0.31115E+05         0.10061E+06         0.00000E+00
    0.10061E+06         0.31300E+05         0.00000E+00
    0.00000E+00         0.00000E+00         0.37041E+02
 
   -0.30164E+05         0.10417E+06         0.00000E+00
    0.10417E+06         0.30460E+05         0.00000E+00
    0.00000E+00         0.00000E+00         0.59214E+02
 
   -0.29189E+05         0.10766E+06         0.00000E+00
    0.10766E+06         0.29600E+05         0.00000E+00
    0.00000E+00         0.00000E+00         0.82210E+02
 
   -0.28192E+05         0.11107E+06         0.00000E+00
    0.11107E+06         0.28723E+05         0.00000E+00
    0.00000E+00         0.00000E+00         0.10631E+03
 
   -0.27170E+05         0.11440E+06         0.00000E+00
    0.11440E+06         0.27829E+05         0.00000E+00
    0.00000E+00         0.00000E+00         0.13181E+03
 
   -0.26126E+05         0.11766E+06         0.00000E+00
    0.11766E+06         0.26921E+05         0.00000E+00
    0.00000E+00         0.00000E+00         0.15901E+03
 
   -0.25058E+05         0.12083E+06         0.00000E+00
    0.12083E+06         0.25999E+05         0.00000E+00
    0.00000E+00         0.00000E+00         0.18822E+03
 
   -0.23967E+05         0.12393E+06         0.00000E+00
    0.12393E+06         0.25065E+05         0.00000E+00
    0.00000E+00         0.00000E+00         0.21978E+03
 
   -0.22852E+05         0.12694E+06         0.00000E+00
    0.12694E+06         0.24122E+05         0.00000E+00
    0.00000E+00         0.00000E+00         0.25402E+03
 
   -0.21714E+05         0.12987E+06         0.00000E+00
    0.12987E+06         0.23170E+05         0.00000E+00
    0.00000E+00         0.00000E+00         0.29130E+03
 
   -0.20553E+05         0.13271E+06         0.00000E+00
    0.13271E+06         0.22213E+05         0.00000E+00
    0.00000E+00         0.00000E+00         0.33199E+03
 
   -0.19369E+05         0.13547E+06         0.00000E+00
    0.13547E+06         0.21251E+05         0.00000E+00
    0.00000E+00         0.00000E+00         0.37648E+03
 
   -0.18161E+05         0.13815E+06         0.00000E+00
    0.13815E+06         0.20287E+05         0.00000E+00
    0.00000E+00         0.00000E+00         0.42518E+03
 
   -0.16931E+05         0.14073E+06         0.00000E+00
    0.14073E+06         0.19324E+05         0.00000E+00
    0.00000E+00         0.00000E+00         0.47852E+03
 
   -0.15678E+05         0.14323E+06         0.00000E+00
    0.14323E+06         0.18362E+05         0.00000E+00
    0.00000E+00         0.00000E+00         0.53692E+03
 
   -0.14401E+05         0.14564E+06         0.00000E+00
    0.14564E+06         0.17406E+05         0.00000E+00
    0.00000E+00         0.00000E+00         0.60086E+03
 
   -0.13102E+05         0.14796E+06         0.00000E+00
    0.14796E+06         0.16456E+05         0.00000E+00
    0.00000E+00         0.00000E+00         0.67081E+03
 
   -0.11780E+05         0.15020E+06         0.00000E+00
    0.15020E+06         0.15516E+05         0.00000E+00
    0.00000E+00         0.00000E+00         0.74727E+03
 
   -0.10435E+05         0.15234E+06         0.00000E+00
    0.15234E+06         0.14589E+05         0.00000E+00
    0.00000E+00         0.00000E+00         0.83073E+03
 
   -0.90679E+04         0.15440E+06         0.00000E+00
    0.15440E+06         0.13677E+05         0.00000E+00
    0.00000E+00         0.00000E+00         0.92175E+03
 
   -0.76779E+04         0.15636E+06         0.00000E+00
    0.15636E+06         0.12782E+05         0.00000E+00
    0.00000E+00         0.00000E+00         0.10208E+04
 
   -0.62654E+04         0.15824E+06         0.00000E+00
    0.15824E+06         0.11908E+05         0.00000E+00
    0.00000E+00         0.00000E+00         0.11286E+04
 
   -0.48304E+04         0.16003E+06         0.00000E+00
    0.16003E+06         0.11058E+05         0.00000E+00
    0.00000E+00         0.00000E+00         0.12455E+04
 
   -0.33731E+04         0.16174E+06         0.00000E+00
    0.16174E+06         0.10234E+05         0.00000E+00
    0.00000E+00         0.00000E+00         0.13722E+04
 
   -0.18935E+04         0.16335E+06         0.00000E+00
    0.16335E+06         0.94395E+04         0.00000E+00
    0.00000E+00         0.00000E+00         0.15092E+04
 
   -0.39174E+03         0.16488E+06         0.00000E+00
    0.16488E+06         0.86776E+04         0.00000E+00
    0.00000E+00         0.00000E+00         0.16572E+04
 
    0.11320E+04         0.16632E+06         0.00000E+00
    0.16632E+06         0.79513E+04         0.00000E+00
    0.00000E+00         0.00000E+00         0.18167E+04
 
   -0.34321E+05         0.23562E+04         0.00000E+00
    0.23562E+04         0.31155E+05         0.00000E+00
    0.00000E+00         0.00000E+00        -0.63314E+03
 
   -0.34000E+05         0.70176E+04         0.00000E+00
    0.70176E+04         0.31119E+05         0.00000E+00
    0.00000E+00         0.00000E+00        -0.57623E+03
 
   -0.33663E+05         0.11654E+05         0.00000E+00
    0.11654E+05         0.31046E+05         0.00000E+00
    0.00000E+00         0.00000E+00        -0.52338E+03
 
   -0.33311E+05         0.16262E+05         0.00000E+00
    0.16262E+05         0.30940E+05         0.00000E+00
    0.00000E+00         0.00000E+00        -0.47435E+03
 
   -0.32944E+05         0.20840E+05         0.00000E+00
    0.20840E+05         0.30799E+05         0.00000E+00
    0.00000E+00         0.00000E+00        -0.42892E+03
 
   -0.32561E+05         0.25384E+05         0.00000E+00
    0.25384E+05         0.30626E+05         0.00000E+00
    0.00000E+00         0.00000E+00        -0.38689E+03
 
   -0.32162E+05         0.29893E+05         0.00000E+00
    0.29893E+05         0.30421E+05         0.00000E+00
    0.00000E+00         0.00000E+00        -0.34803E+03
 
   -0.31747E+05         0.34364E+05         0.00000E+00
    0.34364E+05         0.30186E+05         0.00000E+00
    0.00000E+00         0.00000E+00        -0.31212E+03
 
   -0.31315E+05         0.38795E+05         0.00000E+00
    0.38795E+05         0.29921E+05         0.00000E+00
    0.00000E+00         0.00000E+00        -0.27896E+03
 
   -0.30868E+05         0.43183E+05         0.00000E+00
    0.43183E+05         0.29626E+05         0.00000E+00
    0.00000E+00         0.00000E+00        -0.24833E+03
 
   -0.30404E+05         0.47525E+05         0.00000E+00
    0.47525E+05         0.29304E+05         0.00000E+00
    0.00000E+00         0.00000E+00        -0.22002E+03
 
   -0.29924E+05         0.51820E+05         0.00000E+00
    0.51820E+05         0.28955E+05         0.00000E+00
    0.00000E+00         0.00000E+00        -0.19383E+03
 
   -0.29427E+05         0.56066E+05         0.00000E+00
    0.56066E+05         0.28580E+05         0.00000E+00
    0.00000E+00         0.00000E+00        -0.16956E+03
 
   -0.28914E+05         0.60259E+05         0.00000E+00
    0.60259E+05         0.28179E+05         0.00000E+00
    0.00000E+00         0.00000E+00        -0.14700E+03
 
   -0.28384E+05         0.64399E+05         0.00000E+00
    0.64399E+05         0.27754E+05         0.00000E+00
    0.00000E+00         0.00000E+00        -0.12596E+03
 
   -0.27837E+05         0.68483E+05         0.00000E+00
    0.68483E+05         0.27306E+05         0.00000E+00
    0.00000E+00         0.00000E+00        -0.10625E+03
 
   -0.27274E+05         0.72509E+05         0.00000E+00
    0.72509E+05         0.26835E+05         0.00000E+00
    0.00000E+00         0.00000E+00        -0.87679E+02
 
   -0.26693E+05         0.76475E+05         0.00000E+00
    0.76475E+05         0.26343E+05         0.00000E+00
    0.00000E+00         0.00000E+00        -0.70053E+02
 
   -0.26095E+05         0.80380E+05         0.00000E+00
    0.80380E+05         0.25829E+05         0.00000E+00
    0.00000E+00         0.00000E+00        -0.53184E+02
 
   -0.25481E+05         0.84220E+05         0.00000E+00
    0.84220E+05         0.25296E+05         0.00000E+00
    0.00000E+00         0.00000E+00        -0.36884E+02
 
   -0.24849E+05         0.87996E+05         0.00000E+00
    0.87996E+05         0.24744E+05         0.00000E+00
    0.00000E+00         0.00000E+00        -0.20967E+02
 
   -0.24200E+05         0.91704E+05         0.00000E+00
    0.91704E+05         0.24174E+05         0.00000E+00
    0.00000E+00         0.00000E+00        -0.52426E+01
 
   -0.23534E+05         0.95343E+05         0.00000E+00
    0.95343E+05         0.23587E+05         0.00000E+00
    0.00000E+00         0.00000E+00         0.10480E+02
 
   -0.22851E+05         0.98912E+05         0.00000E+00
    0.98912E+05         0.22983E+05         0.00000E+00
    0.00000E+00         0.00000E+00         0.26396E+02
 
   -0.22151E+05         0.10241E+06         0.00000E+00
    0.10241E+06         0.22364E+05         0.00000E+00
    0.00000E+00         0.00000E+00         0.42701E+02
 
   -0.21434E+05         0.10583E+06         0.00000E+00
    0.10583E+06         0.21731E+05         0.00000E+00
    0.00000E+00         0.00000E+00         0.59598E+02
 
   -0.20699E+05         0.10918E+06         0.00000E+00
    0.10918E+06         0.21086E+05         0.00000E+00
    0.00000E+00         0.00000E+00         0.77296E+02
 
   -0.19948E+05         0.11245E+06         0.00000E+00
    0.11245E+06         0.20428E+05         0.00000E+00
    0.00000E+00         0.00000E+00         0.96008E+02
 
   -0.19179E+05         0.11565E+06         0.00000E+00
    0.11565E+06         0.19759E+05         0.00000E+00
    0.00000E+00         0.00000E+00         0.11596E+03
 
   -0.18393E+05         0.11876E+06         0.00000E+00
    0.11876E+06         0.19080E+05         0.00000E+00
    0.00000E+00         0.00000E+00         0.13738E+03
 
   -0.17591E+05         0.12180E+06         0.00000E+00
    0.12180E+06         0.18393E+05         0.00000E+00
    0.00000E+00         0.00000E+00         0.16050E+03
 
   -0.16771E+05         0.12475E+06         0.00000E+00
    0.12475E+06         0.17699E+05         0.00000E+00
    0.00000E+00         0.00000E+00         0.18559E+03
 
   -0.15934E+05         0.12762E+06         0.00000E+00
    0.12762E+06         0.16999E+05         0.00000E+00
    0.00000E+00         0.00000E+00         0.21289E+03
 
   -0.15081E+05         0.13041E+06         0.00000E+00
    0.13041E+06         0.16294E+05         0.00000E+00
    0.00000E+00         0.00000E+00         0.24269E+03
 
   -0.14210E+05         0.13312E+06         0.00000E+00
    0.13312E+06         0.15587E+05         0.00000E+00
    0.00000E+00         0.00000E+00         0.27527E+03
 
   -0.13323E+05         0.13574E+06         0.00000E+00
    0.13574E+06         0.14878E+05         0.00000E+00
    0.00000E+00         0.00000E+00         0.31092E+03
 
   -0.12419E+05         0.13827E+06         0.00000E+00
    0.13827E+06         0.14169E+05         0.00000E+00
    0.00000E+00         0.00000E+00         0.34997E+03
 
   -0.11499E+05         0.14072E+06         0.00000E+00
    0.14072E+06         0.13462E+05         0.00000E+00
    0.00000E+00         0.00000E+00         0.39272E+03
 
   -0.10562E+05         0.14308E+06         0.00000E+00
    0.14308E+06         0.12759E+05         0.00000E+00
    0.00000E+00         0.00000E+00         0.43953E+03
 
   -0.96078E+04         0.14536E+06         0.00000E+00
    0.14536E+06         0.12061E+05         0.00000E+00
    0.00000E+00         0.00000E+00         0.49073E+03
 
   -0.86375E+04         0.14755E+06         0.00000E+00
    0.14755E+06         0.11371E+05         0.00000E+00
    0.00000E+00         0.00000E+00         0.54670E+03
 
   -0.76506E+04         0.14965E+06         0.00000E+00
    0.14965E+06         0.10690E+05         0.00000E+00
    0.00000E+00         0.00000E+00         0.60780E+03
 
   -0.66474E+04         0.15166E+06         0.00000E+00
    0.15166E+06         0.10020E+05         0.00000E+00
    0.00000E+00         0.00000E+00         0.67442E+03
 
   -0.56279E+04         0.15359E+06         0.00000E+00
    0.15359E+06         0.93626E+04         0.00000E+00
    0.00000E+00         0.00000E+00         0.74696E+03
 
   -0.45920E+04         0.15543E+06         0.00000E+00
    0.15543E+06         0.87211E+04         0.00000E+00
    0.00000E+00         0.00000E+00         0.82581E+03
 
   -0.35400E+04         0.15719E+06         0.00000E+00
    0.15719E+06         0.80970E+04         0.00000E+00
    0.00000E+00         0.00000E+00         0.91141E+03
 
   -0.24719E+04         0.15886E+06         0.00000E+00
    0.15886E+06         0.74926E+04         0.00000E+00
    0.00000E+00         0.00000E+00         0.10042E+04
 
   -0.13877E+04         0.16044E+06         0.00000E+00
    0.16044E+06         0.69101E+04         0.00000E+00
    0.00000E+00         0.00000E+00         0.11045E+04
 
   -0.28766E+03         0.16194E+06         0.00000E+00
    0.16194E+06         0.63517E+04         0.00000E+00
    0.00000E+00         0.00000E+00         0.12128E+04
 
    0.82822E+03         0.16336E+06         0.00000E+00
    0.16336E+06         0.58196E+04         0.00000E+00
    0.00000E+00         0.00000E+00         0.13296E+04
 
   -0.22164E+05         0.23295E+04         0.00000E+00
    0.23295E+04         0.20086E+05         0.00000E+00
    0.00000E+00         0.00000E+00        -0.41562E+03
 
   -0.21953E+05         0.69382E+04         0.00000E+00
    0.69382E+04         0.20062E+05         0.00000E+00
    0.00000E+00         0.00000E+00        -0.37827E+03
 
   -0.21733E+05         0.11522E+05         0.00000E+00
    0.11522E+05         0.20015E+05         0.00000E+00
    0.00000E+00         0.00000E+00        -0.34358E+03
 
   -0.21503E+05         0.16078E+05         0.00000E+00
    0.16078E+05         0.19946E+05         0.00000E+00
    0.00000E+00         0.00000E+00        -0.31140E+03
 
   -0.21263E+05         0.20604E+05         0.00000E+00
    0.20604E+05         0.19855E+05         0.00000E+00
    0.00000E+00         0.00000E+00        -0.28159E+03
 
   -0.21013E+05         0.25096E+05         0.00000E+00
    0.25096E+05         0.19743E+05         0.00000E+00
    0.00000E+00         0.00000E+00        -0.25401E+03
 
   -0.20753E+05         0.29554E+05         0.00000E+00
    0.29554E+05         0.19611E+05         0.00000E+00
    0.00000E+00         0.00000E+00        -0.22851E+03
 
   -0.20483E+05         0.33973E+05         0.00000E+00
    0.33973E+05         0.19458E+05         0.00000E+00
    0.00000E+00         0.00000E+00        -0.20495E+03
 
   -0.20203E+05         0.38353E+05         0.00000E+00
    0.38353E+05         0.19287E+05         0.00000E+00
    0.00000E+00         0.00000E+00        -0.18320E+03
 
   -0.19912E+05         0.42689E+05         0.00000E+00
    0.42689E+05         0.19096E+05         0.00000E+00
    0.00000E+00         0.00000E+00        -0.16312E+03
 
   -0.19611E+05         0.46981E+05         0.00000E+00
    0.46981E+05         0.18888E+05         0.00000E+00
    0.00000E+00         0.00000E+00        -0.14456E+03
 
   -0.19300E+05         0.51226E+05         0.00000E+00
    0.51226E+05         0.18663E+05         0.00000E+00
    0.00000E+00         0.00000E+00        -0.12740E+03
 
   -0.18978E+05         0.55421E+05         0.00000E+00
    0.55421E+05         0.18420E+05         0.00000E+00
    0.00000E+00         0.00000E+00        -0.11150E+03
 
   -0.18645E+05         0.59565E+05         0.00000E+00
    0.59565E+05         0.18161E+05         0.00000E+00
    0.00000E+00         0.00000E+00        -0.96732E+02
 
   -0.18302E+05         0.63655E+05         0.00000E+00
    0.63655E+05         0.17887E+05         0.00000E+00
    0.00000E+00         0.00000E+00        -0.82969E+02
 
   -0.17948E+05         0.67689E+05         0.00000E+00
    0.67689E+05         0.17597E+05         0.00000E+00
    0.00000E+00         0.00000E+00        -0.70083E+02
 
   -0.17583E+05         0.71666E+05         0.00000E+00
    0.71666E+05         0.17293E+05         0.00000E+00
    0.00000E+00         0.00000E+00        -0.57950E+02
 
   -0.17208E+05         0.75583E+05         0.00000E+00
    0.75583E+05         0.16975E+05         0.00000E+00
    0.00000E+00         0.00000E+00        -0.46447E+02
 
   -0.16821E+05         0.79439E+05         0.00000E+00
    0.79439E+05         0.16644E+05         0.00000E+00
    0.00000E+00         0.00000E+00        -0.35450E+02
 
   -0.16424E+05         0.83232E+05         0.00000E+00
    0.83232E+05         0.16300E+05         0.00000E+00
    0.00000E+00         0.00000E+00        -0.24837E+02
 
   -0.16016E+05         0.86959E+05         0.00000E+00
    0.86959E+05         0.15944E+05         0.00000E+00
    0.00000E+00         0.00000E+00        -0.14485E+02
 
   -0.15597E+05         0.90620E+05         0.00000E+00
    0.90620E+05         0.15576E+05         0.00000E+00
    0.00000E+00         0.00000E+00        -0.42727E+01
 
   -0.15167E+05         0.94213E+05         0.00000E+00
    0.94213E+05         0.15197E+05         0.00000E+00
    0.00000E+00         0.00000E+00         0.59252E+01
 
   -0.14726E+05         0.97735E+05         0.00000E+00
    0.97735E+05         0.14807E+05         0.00000E+00
    0.00000E+00         0.00000E+00         0.16234E+02
 
   -0.14274E+05         0.10119E+06         0.00000E+00
    0.10119E+06         0.14408E+05         0.00000E+00
    0.00000E+00         0.00000E+00         0.26782E+02
 
   -0.13811E+05         0.10456E+06         0.00000E+00
    0.10456E+06         0.13999E+05         0.00000E+00
    0.00000E+00         0.00000E+00         0.37700E+02
 
   -0.13337E+05         0.10787E+06         0.00000E+00
    0.10787E+06         0.13583E+05         0.00000E+00
    0.00000E+00         0.00000E+00         0.49122E+02
 
   -0.12852E+05         0.11110E+06         0.00000E+00
    0.11110E+06         0.13158E+05         0.00000E+00
    0.00000E+00         0.00000E+00         0.61188E+02
 
   -0.12356E+05         0.11425E+06         0.00000E+00
    0.11425E+06         0.12726E+05         0.00000E+00
    0.00000E+00         0.00000E+00         0.74041E+02
 
   -0.11849E+05         0.11732E+06         0.00000E+00
    0.11732E+06         0.12289E+05         0.00000E+00
    0.00000E+00         0.00000E+00         0.87830E+02
 
   -0.11332E+05         0.12031E+06         0.00000E+00
    0.12031E+06         0.11845E+05         0.00000E+00
    0.00000E+00         0.00000E+00         0.10271E+03
 
   -0.10803E+05         0.12323E+06         0.00000E+00
    0.12323E+06         0.11397E+05         0.00000E+00
    0.00000E+00         0.00000E+00         0.11884E+03
 
   -0.10263E+05         0.12606E+06         0.00000E+00
    0.12606E+06         0.10945E+05         0.00000E+00
    0.00000E+00         0.00000E+00         0.13640E+03
 
   -0.97131E+04         0.12881E+06         0.00000E+00
    0.12881E+06         0.10491E+05         0.00000E+00
    0.00000E+00         0.00000E+00         0.15555E+03
 
   -0.91519E+04         0.13148E+06         0.00000E+00
    0.13148E+06         0.10034E+05         0.00000E+00
    0.00000E+00         0.00000E+00         0.17648E+03
 
   -0.85800E+04         0.13406E+06         0.00000E+00
    0.13406E+06         0.95769E+04         0.00000E+00
    0.00000E+00         0.00000E+00         0.19939E+03
 
   -0.79973E+04         0.13656E+06         0.00000E+00
    0.13656E+06         0.91197E+04         0.00000E+00
    0.00000E+00         0.00000E+00         0.22448E+03
 
   -0.74039E+04         0.13897E+06         0.00000E+00
    0.13897E+06         0.86636E+04         0.00000E+00
    0.00000E+00         0.00000E+00         0.25194E+03
 
   -0.67999E+04         0.14130E+06         0.00000E+00
    0.14130E+06         0.82099E+04         0.00000E+00
    0.00000E+00         0.00000E+00         0.28201E+03
 
   -0.61852E+04         0.14355E+06         0.00000E+00
    0.14355E+06         0.77597E+04         0.00000E+00
    0.00000E+00         0.00000E+00         0.31490E+03
 
   -0.55600E+04         0.14570E+06         0.00000E+00
    0.14570E+06         0.73143E+04         0.00000E+00
    0.00000E+00         0.00000E+00         0.35085E+03
 
   -0.49244E+04         0.14778E+06         0.00000E+00
    0.14778E+06         0.68749E+04         0.00000E+00
    0.00000E+00         0.00000E+00         0.39010E+03
 
   -0.42782E+04         0.14976E+06         0.00000E+00
    0.14976E+06         0.64427E+04         0.00000E+00
    0.00000E+00         0.00000E+00         0.43290E+03
 
   -0.36217E+04         0.15166E+06         0.00000E+00
    0.15166E+06         0.60192E+04         0.00000E+00
    0.00000E+00         0.00000E+00         0.47950E+03
 
   -0.29549E+04         0.15348E+06         0.00000E+00
    0.15348E+06         0.56057E+04         0.00000E+00
    0.00000E+00         0.00000E+00         0.53017E+03
 
   -0.22778E+04         0.15521E+06         0.00000E+00
    0.15521E+06         0.52036E+04         0.00000E+00
    0.00000E+00         0.00000E+00         0.58516E+03
 
   -0.15905E+04         0.15686E+06         0.00000E+00
    0.15686E+06         0.48142E+04         0.00000E+00
    0.00000E+00         0.00000E+00         0.64475E+03
 
   -0.89311E+03         0.15842E+06         0.00000E+00
    0.15842E+06         0.44392E+04         0.00000E+00
    0.00000E+00         0.00000E+00         0.70921E+03
 
   -0.18571E+03         0.15990E+06         0.00000E+00
    0.15990E+06         0.40798E+04         0.00000E+00
    0.00000E+00         0.00000E+00         0.77882E+03
 
    0.53161E+03         0.16130E+06         0.00000E+00
    0.16130E+06         0.37376E+04         0.00000E+00
    0.00000E+00         0.00000E+00         0.85384E+03
 
   -0.10115E+05         0.23146E+04         0.00000E+00
    0.23146E+04         0.91137E+04         0.00000E+00
    0.00000E+00         0.00000E+00        -0.20034E+03
 
   -0.10015E+05         0.68938E+04         0.00000E+00
    0.68938E+04         0.91029E+04         0.00000E+00
    0.00000E+00         0.00000E+00        -0.18232E+03
 
   -0.99095E+04         0.11448E+05         0.00000E+00
    0.11448E+05         0.90816E+04         0.00000E+00
    0.00000E+00         0.00000E+00        -0.16558E+03
 
   -0.98005E+04         0.15975E+05         0.00000E+00
    0.15975E+05         0.90502E+04         0.00000E+00
    0.00000E+00         0.00000E+00        -0.15006E+03
 
   -0.96873E+04         0.20472E+05         0.00000E+00
    0.20472E+05         0.90088E+04         0.00000E+00
    0.00000E+00         0.00000E+00        -0.13569E+03
 
   -0.95699E+04         0.24936E+05         0.00000E+00
    0.24936E+05         0.89579E+04         0.00000E+00
    0.00000E+00         0.00000E+00        -0.12240E+03
 
   -0.94484E+04         0.29365E+05         0.00000E+00
    0.29365E+05         0.88978E+04         0.00000E+00
    0.00000E+00         0.00000E+00        -0.11012E+03
 
   -0.93225E+04         0.33756E+05         0.00000E+00
    0.33756E+05         0.88286E+04         0.00000E+00
    0.00000E+00         0.00000E+00        -0.98781E+02
 
   -0.91924E+04         0.38106E+05         0.00000E+00
    0.38106E+05         0.87508E+04         0.00000E+00
    0.00000E+00         0.00000E+00        -0.88319E+02
 
   -0.90580E+04         0.42415E+05         0.00000E+00
    0.42415E+05         0.86647E+04         0.00000E+00
    0.00000E+00         0.00000E+00        -0.78667E+02
 
   -0.89191E+04         0.46678E+05         0.00000E+00
    0.46678E+05         0.85703E+04         0.00000E+00
    0.00000E+00         0.00000E+00        -0.69758E+02
 
   -0.87758E+04         0.50894E+05         0.00000E+00
    0.50894E+05         0.84682E+04         0.00000E+00
    0.00000E+00         0.00000E+00        -0.61528E+02
 
   -0.86280E+04         0.55061E+05         0.00000E+00
    0.55061E+05         0.83585E+04         0.00000E+00
    0.00000E+00         0.00000E+00        -0.53914E+02
 
   -0.84757E+04         0.59177E+05         0.00000E+00
    0.59177E+05         0.82414E+04         0.00000E+00
    0.00000E+00         0.00000E+00        -0.46854E+02
 
   -0.83187E+04         0.63239E+05         0.00000E+00
    0.63239E+05         0.81173E+04         0.00000E+00
    0.00000E+00         0.00000E+00        -0.40286E+02
 
   -0.81571E+04         0.67245E+05         0.00000E+00
    0.67245E+05         0.79864E+04         0.00000E+00
    0.00000E+00         0.00000E+00        -0.34150E+02
 
   -0.79909E+04         0.71194E+05         0.00000E+00
    0.71194E+05         0.78489E+04         0.00000E+00
    0.00000E+00         0.00000E+00        -0.28387E+02
 
   -0.78198E+04         0.75084E+05         0.00000E+00
    0.75084E+05         0.77051E+04         0.00000E+00
    0.00000E+00         0.00000E+00        -0.22939E+02
 
   -0.76440E+04         0.78912E+05         0.00000E+00
    0.78912E+05         0.75553E+04         0.00000E+00
    0.00000E+00         0.00000E+00        -0.17746E+02
 
   -0.74634E+04         0.82678E+05         0.00000E+00
    0.82678E+05         0.73996E+04         0.00000E+00
    0.00000E+00         0.00000E+00        -0.12752E+02
 
   -0.72779E+04         0.86378E+05         0.00000E+00
    0.86378E+05         0.72384E+04         0.00000E+00
    0.00000E+00         0.00000E+00        -0.78994E+01
 
   -0.70876E+04         0.90012E+05         0.00000E+00
    0.90012E+05         0.70719E+04         0.00000E+00
    0.00000E+00         0.00000E+00        -0.31301E+01
 
   -0.68923E+04         0.93578E+05         0.00000E+00
    0.93578E+05         0.69004E+04         0.00000E+00
    0.00000E+00         0.00000E+00         0.16135E+01
 
   -0.66921E+04         0.97074E+05         0.00000E+00
    0.97074E+05         0.67241E+04         0.00000E+00
    0.00000E+00         0.00000E+00         0.63901E+01
 
   -0.64870E+04         0.10050E+06         0.00000E+00
    0.10050E+06         0.65432E+04         0.00000E+00
    0.00000E+00         0.00000E+00         0.11259E+02
 
   -0.62768E+04         0.10385E+06         0.00000E+00
    0.10385E+06         0.63582E+04         0.00000E+00
    0.00000E+00         0.00000E+00         0.16281E+02
 
   -0.60617E+04         0.10713E+06         0.00000E+00
    0.10713E+06         0.61693E+04         0.00000E+00
    0.00000E+00         0.00000E+00         0.21519E+02
 
   -0.58416E+04         0.11033E+06         0.00000E+00
    0.11033E+06         0.59767E+04         0.00000E+00
    0.00000E+00         0.00000E+00         0.27036E+02
 
   -0.56164E+04         0.11346E+06         0.00000E+00
    0.11346E+06         0.57809E+04         0.00000E+00
    0.00000E+00         0.00000E+00         0.32899E+02
 
   -0.53863E+04         0.11651E+06         0.00000E+00
    0.11651E+06         0.55822E+04         0.00000E+00
    0.00000E+00         0.00000E+00         0.39175E+02
 
   -0.51511E+04         0.11948E+06         0.00000E+00
    0.11948E+06         0.53808E+04         0.00000E+00
    0.00000E+00         0.00000E+00         0.45937E+02
 
   -0.49110E+04         0.12237E+06         0.00000E+00
    0.12237E+06         0.51773E+04         0.00000E+00
    0.00000E+00         0.00000E+00         0.53259E+02
 
   -0.46658E+04         0.12517E+06         0.00000E+00
    0.12517E+06         0.49719E+04         0.00000E+00
    0.00000E+00         0.00000E+00         0.61217E+02
 
   -0.44157E+04         0.12790E+06         0.00000E+00
    0.12790E+06         0.47652E+04         0.00000E+00
    0.00000E+00         0.00000E+00         0.69893E+02
 
   -0.41606E+04         0.13055E+06         0.00000E+00
    0.13055E+06         0.45574E+04         0.00000E+00
    0.00000E+00         0.00000E+00         0.79371E+02
 
   -0.39005E+04         0.13311E+06         0.00000E+00
    0.13311E+06         0.43492E+04         0.00000E+00
    0.00000E+00         0.00000E+00         0.89738E+02
 
   -0.36356E+04         0.13559E+06         0.00000E+00
    0.13559E+06         0.41410E+04         0.00000E+00
    0.00000E+00         0.00000E+00         0.10109E+03
 
   -0.33657E+04         0.13798E+06         0.00000E+00
    0.13798E+06         0.39332E+04         0.00000E+00
    0.00000E+00         0.00000E+00         0.11351E+03
 
   -0.30909E+04         0.14029E+06         0.00000E+00
    0.14029E+06         0.37265E+04         0.00000E+00
    0.00000E+00         0.00000E+00         0.12711E+03
 
   -0.28114E+04         0.14252E+06         0.00000E+00
    0.14252E+06         0.35213E+04         0.00000E+00
    0.00000E+00         0.00000E+00         0.14199E+03
 
   -0.25270E+04         0.14466E+06         0.00000E+00
    0.14466E+06         0.33183E+04         0.00000E+00
    0.00000E+00         0.00000E+00         0.15825E+03
 
   -0.22379E+04         0.14671E+06         0.00000E+00
    0.14671E+06         0.31179E+04         0.00000E+00
    0.00000E+00         0.00000E+00         0.17601E+03
 
   -0.19440E+04         0.14868E+06         0.00000E+00
    0.14868E+06         0.29209E+04         0.00000E+00
    0.00000E+00         0.00000E+00         0.19538E+03
 
   -0.16455E+04         0.15057E+06         0.00000E+00
    0.15057E+06         0.27278E+04         0.00000E+00
    0.00000E+00         0.00000E+00         0.21646E+03
 
   -0.13424E+04         0.15237E+06         0.00000E+00
    0.15237E+06         0.25394E+04         0.00000E+00
    0.00000E+00         0.00000E+00         0.23940E+03
 
   -0.10348E+04         0.15409E+06         0.00000E+00
    0.15409E+06         0.23562E+04         0.00000E+00
    0.00000E+00         0.00000E+00         0.26429E+03
 
   -0.72264E+03         0.15572E+06         0.00000E+00
    0.15572E+06         0.21790E+04         0.00000E+00
    0.00000E+00         0.00000E+00         0.29127E+03
 
   -0.40610E+03         0.15727E+06         0.00000E+00
    0.15727E+06         0.20084E+04         0.00000E+00
    0.00000E+00         0.00000E+00         0.32045E+03
 
   -0.85216E+02         0.15874E+06         0.00000E+00
    0.15874E+06         0.18451E+04         0.00000E+00
    0.00000E+00         0.00000E+00         0.35197E+03
 
    0.23992E+03         0.16013E+06         0.00000E+00
    0.16013E+06         0.16898E+04         0.00000E+00
    0.00000E+00         0.00000E+00         0.38594E+03
 
    0.18856E+04         0.23116E+04         0.00000E+00
    0.23116E+04        -0.18173E+04         0.00000E+00
    0.00000E+00         0.00000E+00         0.13676E+02
 
    0.18776E+04         0.68851E+04         0.00000E+00
    0.68851E+04        -0.18151E+04         0.00000E+00
    0.00000E+00         0.00000E+00         0.12502E+02
 
    0.18679E+04         0.11434E+05         0.00000E+00
    0.11434E+05        -0.18109E+04         0.00000E+00
    0.00000E+00         0.00000E+00         0.11401E+02
 
    0.18563E+04         0.15955E+05         0.00000E+00
    0.15955E+05        -0.18045E+04         0.00000E+00
    0.00000E+00         0.00000E+00         0.10369E+02
 
    0.18431E+04         0.20446E+05         0.00000E+00
    0.20446E+05        -0.17961E+04         0.00000E+00
    0.00000E+00         0.00000E+00         0.94014E+01
 
    0.18280E+04         0.24904E+05         0.00000E+00
    0.24904E+05        -0.17856E+04         0.00000E+00
    0.00000E+00         0.00000E+00         0.84929E+01
 
    0.18113E+04         0.29327E+05         0.00000E+00
    0.29327E+05        -0.17731E+04         0.00000E+00
    0.00000E+00         0.00000E+00         0.76394E+01
 
    0.17929E+04         0.33713E+05         0.00000E+00
    0.33713E+05        -0.17587E+04         0.00000E+00
    0.00000E+00         0.00000E+00         0.68363E+01
 
    0.17727E+04         0.38057E+05         0.00000E+00
    0.38057E+05        -0.17423E+04         0.00000E+00
    0.00000E+00         0.00000E+00         0.60789E+01
 
    0.17510E+04         0.42360E+05         0.00000E+00
    0.42360E+05        -0.17242E+04         0.00000E+00
    0.00000E+00         0.00000E+00         0.53628E+01
 
    0.17276E+04         0.46617E+05         0.00000E+00
    0.46617E+05        -0.17042E+04         0.00000E+00
    0.00000E+00         0.00000E+00         0.46831E+01
 
    0.17027E+04         0.50827E+05         0.00000E+00
    0.50827E+05        -0.16825E+04         0.00000E+00
    0.00000E+00         0.00000E+00         0.40351E+01
 
    0.16762E+04         0.54988E+05         0.00000E+00
    0.54988E+05        -0.16591E+04         0.00000E+00
    0.00000E+00         0.00000E+00         0.34139E+01
 
    0.16482E+04         0.59098E+05         0.00000E+00
    0.59098E+05        -0.16342E+04         0.00000E+00
    0.00000E+00         0.00000E+00         0.28143E+01
 
    0.16188E+04         0.63153E+05         0.00000E+00
    0.63153E+05        -0.16077E+04         0.00000E+00
    0.00000E+00         0.00000E+00         0.22311E+01
 
    0.15880E+04         0.67153E+05         0.00000E+00
    0.67153E+05        -0.15797E+04         0.00000E+00
    0.00000E+00         0.00000E+00         0.16588E+01
 
    0.15559E+04         0.71096E+05         0.00000E+00
    0.71096E+05        -0.15504E+04         0.00000E+00
    0.00000E+00         0.00000E+00         0.10918E+01
 
    0.15224E+04         0.74979E+05         0.00000E+00
    0.74979E+05        -0.15198E+04         0.00000E+00
    0.00000E+00         0.00000E+00         0.52412E+00
 
    0.14877E+04         0.78801E+05         0.00000E+00
    0.78801E+05        -0.14880E+04         0.00000E+00
    0.00000E+00         0.00000E+00        -0.50481E-01
 
    0.14518E+04         0.82559E+05         0.00000E+00
    0.82559E+05        -0.14550E+04         0.00000E+00
    0.00000E+00         0.00000E+00        -0.63850E+00
 
    0.14147E+04         0.86252E+05         0.00000E+00
    0.86252E+05        -0.14209E+04         0.00000E+00
    0.00000E+00         0.00000E+00        -0.12468E+01
 
    0.13765E+04         0.89879E+05         0.00000E+00
    0.89879E+05        -0.13859E+04         0.00000E+00
    0.00000E+00         0.00000E+00        -0.18826E+01
 
    0.13372E+04         0.93438E+05         0.00000E+00
    0.93438E+05        -0.13500E+04         0.00000E+00
    0.00000E+00         0.00000E+00        -0.25535E+01
 
    0.12969E+04         0.96927E+05         0.00000E+00
    0.96927E+05        -0.13132E+04         0.00000E+00
    0.00000E+00         0.00000E+00        -0.32676E+01
 
    0.12556E+04         0.10034E+06         0.00000E+00
    0.10034E+06        -0.12758E+04         0.00000E+00
    0.00000E+00         0.00000E+00        -0.40333E+01
 
    0.12133E+04         0.10369E+06         0.00000E+00
    0.10369E+06        -0.12376E+04         0.00000E+00
    0.00000E+00         0.00000E+00        -0.48597E+01
 
    0.11702E+04         0.10696E+06         0.00000E+00
    0.10696E+06        -0.11990E+04         0.00000E+00
    0.00000E+00         0.00000E+00        -0.57563E+01
 
    0.11261E+04         0.11016E+06         0.00000E+00
    0.11016E+06        -0.11598E+04         0.00000E+00
    0.00000E+00         0.00000E+00        -0.67332E+01
 
    0.10813E+04         0.11328E+06         0.00000E+00
    0.11328E+06        -0.11203E+04         0.00000E+00
    0.00000E+00         0.00000E+00        -0.78011E+01
 
    0.10355E+04         0.11632E+06         0.00000E+00
    0.11632E+06        -0.10804E+04         0.00000E+00
    0.00000E+00         0.00000E+00        -0.89712E+01
 
    0.98903E+03         0.11928E+06         0.00000E+00
    0.11928E+06        -0.10403E+04         0.00000E+00
    0.00000E+00         0.00000E+00        -0.10256E+02
 
    0.94174E+03         0.12216E+06         0.00000E+00
    0.12216E+06        -0.10001E+04         0.00000E+00
    0.00000E+00         0.00000E+00        -0.11667E+02
 
    0.89368E+03         0.12496E+06         0.00000E+00
    0.12496E+06        -0.95977E+03         0.00000E+00
    0.00000E+00         0.00000E+00        -0.13218E+02
 
    0.84488E+03         0.12768E+06         0.00000E+00
    0.12768E+06        -0.91949E+03         0.00000E+00
    0.00000E+00         0.00000E+00        -0.14924E+02
 
    0.79532E+03         0.13032E+06         0.00000E+00
    0.13032E+06        -0.87931E+03         0.00000E+00
    0.00000E+00         0.00000E+00        -0.16798E+02
 
    0.74501E+03         0.13288E+06         0.00000E+00
    0.13288E+06        -0.83930E+03         0.00000E+00
    0.00000E+00         0.00000E+00        -0.18857E+02
 
    0.69396E+03         0.13535E+06         0.00000E+00
    0.13535E+06        -0.79954E+03         0.00000E+00
    0.00000E+00         0.00000E+00        -0.21117E+02
 
    0.64215E+03         0.13774E+06         0.00000E+00
    0.13774E+06        -0.76012E+03         0.00000E+00
    0.00000E+00         0.00000E+00        -0.23594E+02
 
    0.58956E+03         0.14004E+06         0.00000E+00
    0.14004E+06        -0.72110E+03         0.00000E+00
    0.00000E+00         0.00000E+00        -0.26307E+02
 
    0.53619E+03         0.14226E+06         0.00000E+00
    0.14226E+06        -0.68256E+03         0.00000E+00
    0.00000E+00         0.00000E+00        -0.29274E+02
 
    0.48200E+03         0.14440E+06         0.00000E+00
    0.14440E+06        -0.64457E+03         0.00000E+00
    0.00000E+00         0.00000E+00        -0.32515E+02
 
    0.42696E+03         0.14645E+06         0.00000E+00
    0.14645E+06        -0.60721E+03         0.00000E+00
    0.00000E+00         0.00000E+00        -0.36049E+02
 
    0.37105E+03         0.14841E+06         0.00000E+00
    0.14841E+06        -0.57054E+03         0.00000E+00
    0.00000E+00         0.00000E+00        -0.39898E+02
 
    0.31422E+03         0.15029E+06         0.00000E+00
    0.15029E+06        -0.53463E+03         0.00000E+00
    0.00000E+00         0.00000E+00        -0.44084E+02
 
    0.25642E+03         0.15209E+06         0.00000E+00
    0.15209E+06        -0.49956E+03         0.00000E+00
    0.00000E+00         0.00000E+00        -0.48628E+02
 
    0.19761E+03         0.15381E+06         0.00000E+00
    0.15381E+06        -0.46538E+03         0.00000E+00
    0.00000E+00         0.00000E+00        -0.53554E+02
 
    0.13772E+03         0.15544E+06         0.00000E+00
    0.15544E+06        -0.43216E+03         0.00000E+00
    0.00000E+00         0.00000E+00        -0.58887E+02
 
    0.76708E+02         0.15699E+06         0.00000E+00
    0.15699E+06        -0.39996E+03         0.00000E+00
    0.00000E+00         0.00000E+00        -0.64650E+02
 
    0.14496E+02         0.15845E+06         0.00000E+00
    0.15845E+06        -0.36885E+03         0.00000E+00
    0.00000E+00         0.00000E+00        -0.70871E+02
 
   -0.48985E+02         0.15984E+06         0.00000E+00
    0.15984E+06        -0.33889E+03         0.00000E+00
    0.00000E+00         0.00000E+00        -0.77574E+02
 
    0.13902E+05         0.23207E+04         0.00000E+00
    0.23207E+04        -0.12764E+05         0.00000E+00
    0.00000E+00         0.00000E+00         0.22763E+03
 
    0.13785E+05         0.69124E+04         0.00000E+00
    0.69124E+04        -0.12749E+05         0.00000E+00
    0.00000E+00         0.00000E+00         0.20727E+03
 
    0.13660E+05         0.11479E+05         0.00000E+00
    0.11479E+05        -0.12719E+05         0.00000E+00
    0.00000E+00         0.00000E+00         0.18835E+03
 
    0.13528E+05         0.16018E+05         0.00000E+00
    0.16018E+05        -0.12674E+05         0.00000E+00
    0.00000E+00         0.00000E+00         0.17078E+03
 
    0.13388E+05         0.20527E+05         0.00000E+00
    0.20527E+05        -0.12616E+05         0.00000E+00
    0.00000E+00         0.00000E+00         0.15448E+03
 
    0.13240E+05         0.25003E+05         0.00000E+00
    0.25003E+05        -0.12543E+05         0.00000E+00
    0.00000E+00         0.00000E+00         0.13939E+03
 
    0.13085E+05         0.29444E+05         0.00000E+00
    0.29444E+05        -0.12458E+05         0.00000E+00
    0.00000E+00         0.00000E+00         0.12541E+03
 
    0.12922E+05         0.33846E+05         0.00000E+00
    0.33846E+05        -0.12359E+05         0.00000E+00
    0.00000E+00         0.00000E+00         0.11247E+03
 
    0.12751E+05         0.38208E+05         0.00000E+00
    0.38208E+05        -0.12248E+05         0.00000E+00
    0.00000E+00         0.00000E+00         0.10050E+03
 
    0.12572E+05         0.42527E+05         0.00000E+00
    0.42527E+05        -0.12125E+05         0.00000E+00
    0.00000E+00         0.00000E+00         0.89419E+02
 
    0.12386E+05         0.46801E+05         0.00000E+00
    0.46801E+05        -0.11990E+05         0.00000E+00
    0.00000E+00         0.00000E+00         0.79155E+02
 
    0.12192E+05         0.51028E+05         0.00000E+00
    0.51028E+05        -0.11844E+05         0.00000E+00
    0.00000E+00         0.00000E+00         0.69632E+02
 
    0.11991E+05         0.55204E+05         0.00000E+00
    0.55204E+05        -0.11687E+05         0.00000E+00
    0.00000E+00         0.00000E+00         0.60779E+02
 
    0.11782E+05         0.59329E+05         0.00000E+00
    0.59329E+05        -0.11519E+05         0.00000E+00
    0.00000E+00         0.00000E+00         0.52523E+02
 
    0.11565E+05         0.63400E+05         0.00000E+00
    0.63400E+05        -0.11341E+05         0.00000E+00
    0.00000E+00         0.00000E+00         0.44791E+02
 
    0.11341E+05         0.67416E+05         0.00000E+00
    0.67416E+05        -0.11154E+05         0.00000E+00
    0.00000E+00         0.00000E+00         0.37513E+02
 
    0.11110E+05         0.71373E+05         0.00000E+00
    0.71373E+05        -0.10957E+05         0.00000E+00
    0.00000E+00         0.00000E+00         0.30619E+02
 
    0.10871E+05         0.75270E+05         0.00000E+00
    0.75270E+05        -0.10751E+05         0.00000E+00
    0.00000E+00         0.00000E+00         0.24038E+02
 
    0.10625E+05         0.79106E+05         0.00000E+00
    0.79106E+05        -0.10536E+05         0.00000E+00
    0.00000E+00         0.00000E+00         0.17700E+02
 
    0.10372E+05         0.82878E+05         0.00000E+00
    0.82878E+05        -0.10314E+05         0.00000E+00
    0.00000E+00         0.00000E+00         0.11534E+02
 
    0.10111E+05         0.86584E+05         0.00000E+00
    0.86584E+05        -0.10084E+05         0.00000E+00
    0.00000E+00         0.00000E+00         0.54688E+01
 
    0.98436E+04         0.90224E+05         0.00000E+00
    0.90224E+05        -0.98465E+04         0.00000E+00
    0.00000E+00         0.00000E+00        -0.56708E+00
 
    0.95690E+04         0.93795E+05         0.00000E+00
    0.93795E+05        -0.96023E+04         0.00000E+00
    0.00000E+00         0.00000E+00        -0.66469E+01
 
    0.92875E+04         0.97297E+05         0.00000E+00
    0.97297E+05        -0.93517E+04         0.00000E+00
    0.00000E+00         0.00000E+00        -0.12845E+02
 
    0.89990E+04         0.10073E+06         0.00000E+00
    0.10073E+06        -0.90952E+04         0.00000E+00
    0.00000E+00         0.00000E+00        -0.19238E+02
 
    0.87036E+04         0.10408E+06         0.00000E+00
    0.10408E+06        -0.88332E+04         0.00000E+00
    0.00000E+00         0.00000E+00        -0.25905E+02
 
    0.84015E+04         0.10736E+06         0.00000E+00
    0.10736E+06        -0.85662E+04         0.00000E+00
    0.00000E+00         0.00000E+00        -0.32926E+02
 
    0.80927E+04         0.11057E+06         0.00000E+00
    0.11057E+06        -0.82946E+04         0.00000E+00
    0.00000E+00         0.00000E+00        -0.40385E+02
 
    0.77772E+04         0.11370E+06         0.00000E+00
    0.11370E+06        -0.80191E+04         0.00000E+00
    0.00000E+00         0.00000E+00        -0.48371E+02
 
    0.74551E+04         0.11675E+06         0.00000E+00
    0.11675E+06        -0.77400E+04         0.00000E+00
    0.00000E+00         0.00000E+00        -0.56974E+02
 
    0.71265E+04         0.11972E+06         0.00000E+00
    0.11972E+06        -0.74579E+04         0.00000E+00
    0.00000E+00         0.00000E+00        -0.66289E+02
 
    0.67913E+04         0.12262E+06         0.00000E+00
    0.12262E+06        -0.71734E+04         0.00000E+00
    0.00000E+00         0.00000E+00        -0.76414E+02
 
    0.64497E+04         0.12543E+06         0.00000E+00
    0.12543E+06        -0.68869E+04         0.00000E+00
    0.00000E+00         0.00000E+00        -0.87455E+02
 
    0.61016E+04         0.12816E+06         0.00000E+00
    0.12816E+06        -0.65992E+04         0.00000E+00
    0.00000E+00         0.00000E+00        -0.99520E+02
 
    0.57471E+04         0.13080E+06         0.00000E+00
    0.13080E+06        -0.63107E+04         0.00000E+00
    0.00000E+00         0.00000E+00        -0.11272E+03
 
    0.53863E+04         0.13337E+06         0.00000E+00
    0.13337E+06        -0.60222E+04         0.00000E+00
    0.00000E+00         0.00000E+00        -0.12718E+03
 
    0.50191E+04         0.13585E+06         0.00000E+00
    0.13585E+06        -0.57342E+04         0.00000E+00
    0.00000E+00         0.00000E+00        -0.14302E+03
 
    0.46455E+04         0.13824E+06         0.00000E+00
    0.13824E+06        -0.54473E+04         0.00000E+00
    0.00000E+00         0.00000E+00        -0.16036E+03
 
    0.42657E+04         0.14055E+06         0.00000E+00
    0.14055E+06        -0.51624E+04         0.00000E+00
    0.00000E+00         0.00000E+00        -0.17935E+03
 
    0.38794E+04         0.14278E+06         0.00000E+00
    0.14278E+06        -0.48800E+04         0.00000E+00
    0.00000E+00         0.00000E+00        -0.20012E+03
 
    0.34868E+04         0.14492E+06         0.00000E+00
    0.14492E+06        -0.46009E+04         0.00000E+00
    0.00000E+00         0.00000E+00        -0.22282E+03
 
    0.30879E+04         0.14698E+06         0.00000E+00
    0.14698E+06        -0.43259E+04         0.00000E+00
    0.00000E+00         0.00000E+00        -0.24760E+03
 
    0.26825E+04         0.14895E+06         0.00000E+00
    0.14895E+06        -0.40556E+04         0.00000E+00
    0.00000E+00         0.00000E+00        -0.27461E+03
 
    0.22707E+04         0.15084E+06         0.00000E+00
    0.15084E+06        -0.37908E+04         0.00000E+00
    0.00000E+00         0.00000E+00        -0.30401E+03
 
    0.18525E+04         0.15264E+06         0.00000E+00
    0.15264E+06        -0.35324E+04         0.00000E+00
    0.00000E+00         0.00000E+00        -0.33597E+03
 
    0.14278E+04         0.15436E+06         0.00000E+00
    0.15436E+06        -0.32810E+04         0.00000E+00
    0.00000E+00         0.00000E+00        -0.37065E+03
 
    0.99650E+03         0.15600E+06         0.00000E+00
    0.15600E+06        -0.30376E+04         0.00000E+00
    0.00000E+00         0.00000E+00        -0.40822E+03
 
    0.55862E+03         0.15755E+06         0.00000E+00
    0.15755E+06        -0.28029E+04         0.00000E+00
    0.00000E+00         0.00000E+00        -0.44885E+03
 
    0.11407E+03         0.15903E+06         0.00000E+00
    0.15903E+06        -0.25777E+04         0.00000E+00
    0.00000E+00         0.00000E+00        -0.49272E+03
 
   -0.33720E+03         0.16042E+06         0.00000E+00
    0.16042E+06        -0.23628E+04         0.00000E+00
    0.00000E+00         0.00000E+00        -0.54000E+03
 
    0.25997E+05         0.23421E+04         0.00000E+00
    0.23421E+04        -0.23783E+05         0.00000E+00
    0.00000E+00         0.00000E+00         0.44289E+03
 
    0.25771E+05         0.69762E+04         0.00000E+00
    0.69762E+04        -0.23755E+05         0.00000E+00
    0.00000E+00         0.00000E+00         0.40325E+03
 
    0.25531E+05         0.11585E+05         0.00000E+00
    0.11585E+05        -0.23699E+05         0.00000E+00
    0.00000E+00         0.00000E+00         0.36640E+03
 
    0.25277E+05         0.16166E+05         0.00000E+00
    0.16166E+05        -0.23616E+05         0.00000E+00
    0.00000E+00         0.00000E+00         0.33219E+03
 
    0.25009E+05         0.20717E+05         0.00000E+00
    0.20717E+05        -0.23507E+05         0.00000E+00
    0.00000E+00         0.00000E+00         0.30048E+03
 
    0.24728E+05         0.25234E+05         0.00000E+00
    0.25234E+05        -0.23372E+05         0.00000E+00
    0.00000E+00         0.00000E+00         0.27110E+03
 
    0.24432E+05         0.29715E+05         0.00000E+00
    0.29715E+05        -0.23213E+05         0.00000E+00
    0.00000E+00         0.00000E+00         0.24392E+03
 
    0.24123E+05         0.34158E+05         0.00000E+00
    0.34158E+05        -0.23029E+05         0.00000E+00
    0.00000E+00         0.00000E+00         0.21878E+03
 
    0.23800E+05         0.38560E+05         0.00000E+00
    0.38560E+05        -0.22823E+05         0.00000E+00
    0.00000E+00         0.00000E+00         0.19553E+03
 
    0.23464E+05         0.42919E+05         0.00000E+00
    0.42919E+05        -0.22594E+05         0.00000E+00
    0.00000E+00         0.00000E+00         0.17402E+03
 
    0.23113E+05         0.47232E+05         0.00000E+00
    0.47232E+05        -0.22343E+05         0.00000E+00
    0.00000E+00         0.00000E+00         0.15411E+03
 
    0.22749E+05         0.51497E+05         0.00000E+00
    0.51497E+05        -0.22071E+05         0.00000E+00
    0.00000E+00         0.00000E+00         0.13566E+03
 
    0.22371E+05         0.55712E+05         0.00000E+00
    0.55712E+05        -0.21779E+05         0.00000E+00
    0.00000E+00         0.00000E+00         0.11853E+03
 
    0.21980E+05         0.59875E+05         0.00000E+00
    0.59875E+05        -0.21467E+05         0.00000E+00
    0.00000E+00         0.00000E+00         0.10257E+03
 
    0.21575E+05         0.63983E+05         0.00000E+00
    0.63983E+05        -0.21136E+05         0.00000E+00
    0.00000E+00         0.00000E+00         0.87645E+02
 
    0.21156E+05         0.68035E+05         0.00000E+00
    0.68035E+05        -0.20788E+05         0.00000E+00
    0.00000E+00         0.00000E+00         0.73621E+02
 
    0.20724E+05         0.72028E+05         0.00000E+00
    0.72028E+05        -0.20422E+05         0.00000E+00
    0.00000E+00         0.00000E+00         0.60362E+02
 
    0.20278E+05         0.75961E+05         0.00000E+00
    0.75961E+05        -0.20039E+05         0.00000E+00
    0.00000E+00         0.00000E+00         0.47732E+02
 
    0.19819E+05         0.79831E+05         0.00000E+00
    0.79831E+05        -0.19641E+05         0.00000E+00
    0.00000E+00         0.00000E+00         0.35596E+02
 
    0.19347E+05         0.83637E+05         0.00000E+00
    0.83637E+05        -0.19227E+05         0.00000E+00
    0.00000E+00         0.00000E+00         0.23819E+02
 
    0.18861E+05         0.87377E+05         0.00000E+00
    0.87377E+05        -0.18800E+05         0.00000E+00
    0.00000E+00         0.00000E+00         0.12266E+02
 
    0.18362E+05         0.91050E+05         0.00000E+00
    0.91050E+05        -0.18358E+05         0.00000E+00
    0.00000E+00         0.00000E+00         0.79941E+00
 
    0.17851E+05         0.94654E+05         0.00000E+00
    0.94654E+05        -0.17904E+05         0.00000E+00
    0.00000E+00         0.00000E+00        -0.10719E+02
 
    0.17326E+05         0.98186E+05         0.00000E+00
    0.98186E+05        -0.17438E+05         0.00000E+00
    0.00000E+00         0.00000E+00        -0.22432E+02
 
    0.16788E+05         0.10165E+06         0.00000E+00
    0.10165E+06        -0.16961E+05         0.00000E+00
    0.00000E+00         0.00000E+00        -0.34483E+02
 
    0.16238E+05         0.10503E+06         0.00000E+00
    0.10503E+06        -0.16473E+05         0.00000E+00
    0.00000E+00         0.00000E+00        -0.47020E+02
 
    0.15675E+05         0.10834E+06         0.00000E+00
    0.10834E+06        -0.15976E+05         0.00000E+00
    0.00000E+00         0.00000E+00        -0.60197E+02
 
    0.15100E+05         0.11158E+06         0.00000E+00
    0.11158E+06        -0.15471E+05         0.00000E+00
    0.00000E+00         0.00000E+00        -0.74173E+02
 
    0.14512E+05         0.11474E+06         0.00000E+00
    0.11474E+06        -0.14957E+05         0.00000E+00
    0.00000E+00         0.00000E+00        -0.89112E+02
 
    0.13911E+05         0.11782E+06         0.00000E+00
    0.11782E+06        -0.14437E+05         0.00000E+00
    0.00000E+00         0.00000E+00        -0.10518E+03
 
    0.13299E+05         0.12081E+06         0.00000E+00
    0.12081E+06        -0.13911E+05         0.00000E+00
    0.00000E+00         0.00000E+00        -0.12257E+03
 
    0.12674E+05         0.12373E+06         0.00000E+00
    0.12373E+06        -0.13381E+05         0.00000E+00
    0.00000E+00         0.00000E+00        -0.14145E+03
 
    0.12037E+05         0.12657E+06         0.00000E+00
    0.12657E+06        -0.12847E+05         0.00000E+00
    0.00000E+00         0.00000E+00        -0.16203E+03
 
    0.11387E+05         0.12932E+06         0.00000E+00
    0.12932E+06        -0.12310E+05         0.00000E+00
    0.00000E+00         0.00000E+00        -0.18450E+03
 
    0.10726E+05         0.13199E+06         0.00000E+00
    0.13199E+06        -0.11771E+05         0.00000E+00
    0.00000E+00         0.00000E+00        -0.20908E+03
 
    0.10053E+05         0.13458E+06         0.00000E+00
    0.13458E+06        -0.11233E+05         0.00000E+00
    0.00000E+00         0.00000E+00        -0.23600E+03
 
    0.93674E+04         0.13708E+06         0.00000E+00
    0.13708E+06        -0.10695E+05         0.00000E+00
    0.00000E+00         0.00000E+00        -0.26548E+03
 
    0.86702E+04         0.13950E+06         0.00000E+00
    0.13950E+06        -0.10159E+05         0.00000E+00
    0.00000E+00         0.00000E+00        -0.29776E+03
 
    0.79611E+04         0.14183E+06         0.00000E+00
    0.14183E+06        -0.96266E+04         0.00000E+00
    0.00000E+00         0.00000E+00        -0.33310E+03
 
    0.72401E+04         0.14407E+06         0.00000E+00
    0.14407E+06        -0.90989E+04         0.00000E+00
    0.00000E+00         0.00000E+00        -0.37176E+03
 
    0.65072E+04         0.14623E+06         0.00000E+00
    0.14623E+06        -0.85773E+04         0.00000E+00
    0.00000E+00         0.00000E+00        -0.41402E+03
 
    0.57624E+04         0.14831E+06         0.00000E+00
    0.14831E+06        -0.80631E+04         0.00000E+00
    0.00000E+00         0.00000E+00        -0.46014E+03
 
    0.50057E+04         0.15030E+06         0.00000E+00
    0.15030E+06        -0.75578E+04         0.00000E+00
    0.00000E+00         0.00000E+00        -0.51042E+03
 
    0.42371E+04         0.15220E+06         0.00000E+00
    0.15220E+06        -0.70629E+04         0.00000E+00
    0.00000E+00         0.00000E+00        -0.56515E+03
 
    0.34566E+04         0.15402E+06         0.00000E+00
    0.15402E+06        -0.65798E+04         0.00000E+00
    0.00000E+00         0.00000E+00        -0.62465E+03
 
    0.26640E+04         0.15576E+06         0.00000E+00
    0.15576E+06        -0.61101E+04         0.00000E+00
    0.00000E+00         0.00000E+00        -0.68922E+03
 
    0.18595E+04         0.15741E+06         0.00000E+00
    0.15741E+06        -0.56554E+04         0.00000E+00
    0.00000E+00         0.00000E+00        -0.75918E+03
 
    0.10429E+04         0.15898E+06         0.00000E+00
    0.15898E+06        -0.52171E+04         0.00000E+00
    0.00000E+00         0.00000E+00        -0.83484E+03
 
    0.21416E+03         0.16046E+06         0.00000E+00
    0.16046E+06        -0.47968E+04         0.00000E+00
    0.00000E+00         0.00000E+00        -0.91654E+03
 
   -0.62675E+03         0.16187E+06         0.00000E+00
    0.16187E+06        -0.43962E+04         0.00000E+00
    0.00000E+00         0.00000E+00        -0.10046E+04
 
    0.38237E+05         0.23760E+04         0.00000E+00
    0.23760E+04        -0.34932E+05         0.00000E+00
    0.00000E+00         0.00000E+00         0.66095E+03
 
    0.37899E+05         0.70769E+04         0.00000E+00
    0.70769E+04        -0.34890E+05         0.00000E+00
    0.00000E+00         0.00000E+00         0.60176E+03
 
    0.37542E+05         0.11752E+05         0.00000E+00
    0.11752E+05        -0.34808E+05         0.00000E+00
    0.00000E+00         0.00000E+00         0.54675E+03
 
    0.37165E+05         0.16399E+05         0.00000E+00
    0.16399E+05        -0.34686E+05         0.00000E+00
    0.00000E+00         0.00000E+00         0.49570E+03
 
    0.36768E+05         0.21015E+05         0.00000E+00
    0.21015E+05        -0.34526E+05         0.00000E+00
    0.00000E+00         0.00000E+00         0.44837E+03
 
    0.36351E+05         0.25597E+05         0.00000E+00
    0.25597E+05        -0.34328E+05         0.00000E+00
    0.00000E+00         0.00000E+00         0.40453E+03
 
    0.35914E+05         0.30143E+05         0.00000E+00
    0.30143E+05        -0.34094E+05         0.00000E+00
    0.00000E+00         0.00000E+00         0.36398E+03
 
    0.35457E+05         0.34650E+05         0.00000E+00
    0.34650E+05        -0.33825E+05         0.00000E+00
    0.00000E+00         0.00000E+00         0.32647E+03
 
    0.34981E+05         0.39116E+05         0.00000E+00
    0.39116E+05        -0.33522E+05         0.00000E+00
    0.00000E+00         0.00000E+00         0.29179E+03
 
    0.34484E+05         0.43537E+05         0.00000E+00
    0.43537E+05        -0.33185E+05         0.00000E+00
    0.00000E+00         0.00000E+00         0.25973E+03
 
    0.33967E+05         0.47912E+05         0.00000E+00
    0.47912E+05        -0.32817E+05         0.00000E+00
    0.00000E+00         0.00000E+00         0.23005E+03
 
    0.33431E+05         0.52239E+05         0.00000E+00
    0.52239E+05        -0.32418E+05         0.00000E+00
    0.00000E+00         0.00000E+00         0.20256E+03
 
    0.32875E+05         0.56515E+05         0.00000E+00
    0.56515E+05        -0.31989E+05         0.00000E+00
    0.00000E+00         0.00000E+00         0.17704E+03
 
    0.32298E+05         0.60737E+05         0.00000E+00
    0.60737E+05        -0.31532E+05         0.00000E+00
    0.00000E+00         0.00000E+00         0.15327E+03
 
    0.31702E+05         0.64905E+05         0.00000E+00
    0.64905E+05        -0.31047E+05         0.00000E+00
    0.00000E+00         0.00000E+00         0.13107E+03
 
    0.31086E+05         0.69015E+05         0.00000E+00
    0.69015E+05        -0.30535E+05         0.00000E+00
    0.00000E+00         0.00000E+00         0.11021E+03
 
    0.30451E+05         0.73065E+05         0.00000E+00
    0.73065E+05        -0.29998E+05         0.00000E+00
    0.00000E+00         0.00000E+00         0.90507E+02
 
    0.29796E+05         0.77055E+05         0.00000E+00
    0.77055E+05        -0.29437E+05         0.00000E+00
    0.00000E+00         0.00000E+00         0.71750E+02
 
    0.29121E+05         0.80981E+05         0.00000E+00
    0.80981E+05        -0.28852E+05         0.00000E+00
    0.00000E+00         0.00000E+00         0.53743E+02
 
    0.28427E+05         0.84842E+05         0.00000E+00
    0.84842E+05        -0.28246E+05         0.00000E+00
    0.00000E+00         0.00000E+00         0.36285E+02
 
    0.27714E+05         0.88636E+05         0.00000E+00
    0.88636E+05        -0.27618E+05         0.00000E+00
    0.00000E+00         0.00000E+00         0.19175E+02
 
    0.26981E+05         0.92362E+05         0.00000E+00
    0.92362E+05        -0.26970E+05         0.00000E+00
    0.00000E+00         0.00000E+00         0.22101E+01
 
    0.26230E+05         0.96017E+05         0.00000E+00
    0.96017E+05        -0.26304E+05         0.00000E+00
    0.00000E+00         0.00000E+00        -0.14815E+02
 
    0.25459E+05         0.99601E+05         0.00000E+00
    0.99601E+05        -0.25619E+05         0.00000E+00
    0.00000E+00         0.00000E+00        -0.32110E+02
 
    0.24669E+05         0.10311E+06         0.00000E+00
    0.10311E+06        -0.24919E+05         0.00000E+00
    0.00000E+00         0.00000E+00        -0.49887E+02
 
    0.23861E+05         0.10655E+06         0.00000E+00
    0.10655E+06        -0.24203E+05         0.00000E+00
    0.00000E+00         0.00000E+00        -0.68367E+02
 
    0.23034E+05         0.10991E+06         0.00000E+00
    0.10991E+06        -0.23473E+05         0.00000E+00
    0.00000E+00         0.00000E+00        -0.87775E+02
 
    0.22189E+05         0.11319E+06         0.00000E+00
    0.11319E+06        -0.22731E+05         0.00000E+00
    0.00000E+00         0.00000E+00        -0.10834E+03
 
    0.21325E+05         0.11639E+06         0.00000E+00
    0.11639E+06        -0.21977E+05         0.00000E+00
    0.00000E+00         0.00000E+00        -0.13032E+03
 
    0.20443E+05         0.11951E+06         0.00000E+00
    0.11951E+06        -0.21213E+05         0.00000E+00
    0.00000E+00         0.00000E+00        -0.15395E+03
 
    0.19543E+05         0.12256E+06         0.00000E+00
    0.12256E+06        -0.20441E+05         0.00000E+00
    0.00000E+00         0.00000E+00        -0.17950E+03
 
    0.18625E+05         0.12552E+06         0.00000E+00
    0.12552E+06        -0.19661E+05         0.00000E+00
    0.00000E+00         0.00000E+00        -0.20724E+03
 
    0.17689E+05         0.12839E+06         0.00000E+00
    0.12839E+06        -0.18876E+05         0.00000E+00
    0.00000E+00         0.00000E+00        -0.23747E+03
 
    0.16735E+05         0.13119E+06         0.00000E+00
    0.13119E+06        -0.18087E+05         0.00000E+00
    0.00000E+00         0.00000E+00        -0.27047E+03
 
    0.15763E+05         0.13389E+06         0.00000E+00
    0.13389E+06        -0.17296E+05         0.00000E+00
    0.00000E+00         0.00000E+00        -0.30657E+03
 
    0.14774E+05         0.13652E+06         0.00000E+00
    0.13652E+06        -0.16504E+05         0.00000E+00
    0.00000E+00         0.00000E+00        -0.34609E+03
 
    0.13767E+05         0.13906E+06         0.00000E+00
    0.13906E+06        -0.15713E+05         0.00000E+00
    0.00000E+00         0.00000E+00        -0.38937E+03
 
    0.12742E+05         0.14151E+06         0.00000E+00
    0.14151E+06        -0.14926E+05         0.00000E+00
    0.00000E+00         0.00000E+00        -0.43676E+03
 
    0.11700E+05         0.14387E+06         0.00000E+00
    0.14387E+06        -0.14143E+05         0.00000E+00
    0.00000E+00         0.00000E+00        -0.48865E+03
 
    0.10640E+05         0.14615E+06         0.00000E+00
    0.14615E+06        -0.13367E+05         0.00000E+00
    0.00000E+00         0.00000E+00        -0.54541E+03
 
    0.95628E+04         0.14834E+06         0.00000E+00
    0.14834E+06        -0.12600E+05         0.00000E+00
    0.00000E+00         0.00000E+00        -0.60744E+03
 
    0.84681E+04         0.15045E+06         0.00000E+00
    0.15045E+06        -0.11844E+05         0.00000E+00
    0.00000E+00         0.00000E+00        -0.67515E+03
 
    0.73560E+04         0.15247E+06         0.00000E+00
    0.15247E+06        -0.11101E+05         0.00000E+00
    0.00000E+00         0.00000E+00        -0.74897E+03
 
    0.62264E+04         0.15440E+06         0.00000E+00
    0.15440E+06        -0.10373E+05         0.00000E+00
    0.00000E+00         0.00000E+00        -0.82934E+03
 
    0.50793E+04         0.15624E+06         0.00000E+00
    0.15624E+06        -0.96627E+04         0.00000E+00
    0.00000E+00         0.00000E+00        -0.91669E+03
 
    0.39147E+04         0.15800E+06         0.00000E+00
    0.15800E+06        -0.89721E+04         0.00000E+00
    0.00000E+00         0.00000E+00        -0.10115E+04
 
    0.27325E+04         0.15968E+06         0.00000E+00
    0.15968E+06        -0.83036E+04         0.00000E+00
    0.00000E+00         0.00000E+00        -0.11142E+04
 
    0.15328E+04         0.16127E+06         0.00000E+00
    0.16127E+06        -0.76594E+04         0.00000E+00
    0.00000E+00         0.00000E+00        -0.12253E+04
 
    0.31539E+03         0.16278E+06         0.00000E+00
    0.16278E+06        -0.70418E+04         0.00000E+00
    0.00000E+00         0.00000E+00        -0.13453E+04
 
   -0.91966E+03         0.16420E+06         0.00000E+00
    0.16420E+06        -0.64532E+04         0.00000E+00
    0.00000E+00         0.00000E+00        -0.14746E+04
 
    0.50685E+05         0.24224E+04         0.00000E+00
    0.24224E+04        -0.46269E+05         0.00000E+00
    0.00000E+00         0.00000E+00         0.88329E+03
 
    0.50235E+05         0.72149E+04         0.00000E+00
    0.72149E+04        -0.46214E+05         0.00000E+00
    0.00000E+00         0.00000E+00         0.80418E+03
 
    0.49758E+05         0.11981E+05         0.00000E+00
    0.11981E+05        -0.46105E+05         0.00000E+00
    0.00000E+00         0.00000E+00         0.73065E+03
 
    0.49255E+05         0.16719E+05         0.00000E+00
    0.16719E+05        -0.45943E+05         0.00000E+00
    0.00000E+00         0.00000E+00         0.66241E+03
 
    0.48727E+05         0.21425E+05         0.00000E+00
    0.21425E+05        -0.45731E+05         0.00000E+00
    0.00000E+00         0.00000E+00         0.59916E+03
 
    0.48172E+05         0.26096E+05         0.00000E+00
    0.26096E+05        -0.45469E+05         0.00000E+00
    0.00000E+00         0.00000E+00         0.54058E+03
 
    0.47592E+05         0.30730E+05         0.00000E+00
    0.30730E+05        -0.45160E+05         0.00000E+00
    0.00000E+00         0.00000E+00         0.48639E+03
 
    0.46985E+05         0.35325E+05         0.00000E+00
    0.35325E+05        -0.44803E+05         0.00000E+00
    0.00000E+00         0.00000E+00         0.43627E+03
 
    0.46352E+05         0.39877E+05         0.00000E+00
    0.39877E+05        -0.44402E+05         0.00000E+00
    0.00000E+00         0.00000E+00         0.38994E+03
 
    0.45692E+05         0.44385E+05         0.00000E+00
    0.44385E+05        -0.43957E+05         0.00000E+00
    0.00000E+00         0.00000E+00         0.34711E+03
 
    0.45007E+05         0.48845E+05         0.00000E+00
    0.48845E+05        -0.43469E+05         0.00000E+00
    0.00000E+00         0.00000E+00         0.30748E+03
 
    0.44295E+05         0.53256E+05         0.00000E+00
    0.53256E+05        -0.42941E+05         0.00000E+00
    0.00000E+00         0.00000E+00         0.27076E+03
 
    0.43557E+05         0.57615E+05         0.00000E+00
    0.57615E+05        -0.42374E+05         0.00000E+00
    0.00000E+00         0.00000E+00         0.23669E+03
 
    0.42793E+05         0.61920E+05         0.00000E+00
    0.61920E+05        -0.41769E+05         0.00000E+00
    0.00000E+00         0.00000E+00         0.20497E+03
 
    0.42003E+05         0.66169E+05         0.00000E+00
    0.66169E+05        -0.41127E+05         0.00000E+00
    0.00000E+00         0.00000E+00         0.17534E+03
 
    0.41187E+05         0.70360E+05         0.00000E+00
    0.70360E+05        -0.40450E+05         0.00000E+00
    0.00000E+00         0.00000E+00         0.14752E+03
 
    0.40345E+05         0.74490E+05         0.00000E+00
    0.74490E+05        -0.39739E+05         0.00000E+00
    0.00000E+00         0.00000E+00         0.12124E+03
 
    0.39477E+05         0.78557E+05         0.00000E+00
    0.78557E+05        -0.38996E+05         0.00000E+00
    0.00000E+00         0.00000E+00         0.96241E+02
 
    0.38584E+05         0.82560E+05         0.00000E+00
    0.82560E+05        -0.38223E+05         0.00000E+00
    0.00000E+00         0.00000E+00         0.72250E+02
 
    0.37665E+05         0.86497E+05         0.00000E+00
    0.86497E+05        -0.37420E+05         0.00000E+00
    0.00000E+00         0.00000E+00         0.49001E+02
 
    0.36720E+05         0.90366E+05         0.00000E+00
    0.90366E+05        -0.36589E+05         0.00000E+00
    0.00000E+00         0.00000E+00         0.26227E+02
 
    0.35750E+05         0.94165E+05         0.00000E+00
    0.94165E+05        -0.35731E+05         0.00000E+00
    0.00000E+00         0.00000E+00         0.36588E+01
 
    0.34754E+05         0.97893E+05         0.00000E+00
    0.97893E+05        -0.34849E+05         0.00000E+00
    0.00000E+00         0.00000E+00        -0.18978E+02
 
    0.33734E+05         0.10155E+06         0.00000E+00
    0.10155E+06        -0.33943E+05         0.00000E+00
    0.00000E+00         0.00000E+00        -0.41961E+02
 
    0.32688E+05         0.10513E+06         0.00000E+00
    0.10513E+06        -0.33016E+05         0.00000E+00
    0.00000E+00         0.00000E+00        -0.65574E+02
 
    0.31618E+05         0.10863E+06         0.00000E+00
    0.10863E+06        -0.32068E+05         0.00000E+00
    0.00000E+00         0.00000E+00        -0.90108E+02
 
    0.30523E+05         0.11206E+06         0.00000E+00
    0.11206E+06        -0.31102E+05         0.00000E+00
    0.00000E+00         0.00000E+00        -0.11586E+03
 
    0.29403E+05         0.11540E+06         0.00000E+00
    0.11540E+06        -0.30119E+05         0.00000E+00
    0.00000E+00         0.00000E+00        -0.14315E+03
 
    0.28259E+05         0.11867E+06         0.00000E+00
    0.11867E+06        -0.29120E+05         0.00000E+00
    0.00000E+00         0.00000E+00        -0.17229E+03
 
    0.27091E+05         0.12185E+06         0.00000E+00
    0.12185E+06        -0.28109E+05         0.00000E+00
    0.00000E+00         0.00000E+00        -0.20363E+03
 
    0.25898E+05         0.12496E+06         0.00000E+00
    0.12496E+06        -0.27086E+05         0.00000E+00
    0.00000E+00         0.00000E+00        -0.23749E+03
 
    0.24682E+05         0.12798E+06         0.00000E+00
    0.12798E+06        -0.26053E+05         0.00000E+00
    0.00000E+00         0.00000E+00        -0.27427E+03
 
    0.23442E+05         0.13091E+06         0.00000E+00
    0.13091E+06        -0.25013E+05         0.00000E+00
    0.00000E+00         0.00000E+00        -0.31432E+03
 
    0.22178E+05         0.13376E+06         0.00000E+00
    0.13376E+06        -0.23968E+05         0.00000E+00
    0.00000E+00         0.00000E+00        -0.35805E+03
 
    0.20890E+05         0.13652E+06         0.00000E+00
    0.13652E+06        -0.22920E+05         0.00000E+00
    0.00000E+00         0.00000E+00        -0.40587E+03
 
    0.19579E+05         0.13920E+06         0.00000E+00
    0.13920E+06        -0.21870E+05         0.00000E+00
    0.00000E+00         0.00000E+00        -0.45823E+03
 
    0.18245E+05         0.14179E+06         0.00000E+00
    0.14179E+06        -0.20823E+05         0.00000E+00
    0.00000E+00         0.00000E+00        -0.51556E+03
 
    0.16887E+05         0.14429E+06         0.00000E+00
    0.14429E+06        -0.19779E+05         0.00000E+00
    0.00000E+00         0.00000E+00        -0.57835E+03
 
    0.15506E+05         0.14670E+06         0.00000E+00
    0.14670E+06        -0.18741E+05         0.00000E+00
    0.00000E+00         0.00000E+00        -0.64709E+03
 
    0.14101E+05         0.14902E+06         0.00000E+00
    0.14902E+06        -0.17713E+05         0.00000E+00
    0.00000E+00         0.00000E+00        -0.72228E+03
 
    0.12674E+05         0.15126E+06         0.00000E+00
    0.15126E+06        -0.16696E+05         0.00000E+00
    0.00000E+00         0.00000E+00        -0.80445E+03
 
    0.11223E+05         0.15340E+06         0.00000E+00
    0.15340E+06        -0.15694E+05         0.00000E+00
    0.00000E+00         0.00000E+00        -0.89415E+03
 
    0.97489E+04         0.15546E+06         0.00000E+00
    0.15546E+06        -0.14709E+05         0.00000E+00
    0.00000E+00         0.00000E+00        -0.99195E+03
 
    0.82518E+04         0.15743E+06         0.00000E+00
    0.15743E+06        -0.13744E+05         0.00000E+00
    0.00000E+00         0.00000E+00        -0.10984E+04
 
    0.67315E+04         0.15931E+06         0.00000E+00
    0.15931E+06        -0.12802E+05         0.00000E+00
    0.00000E+00         0.00000E+00        -0.12141E+04
 
    0.51881E+04         0.16111E+06         0.00000E+00
    0.16111E+06        -0.11887E+05         0.00000E+00
    0.00000E+00         0.00000E+00        -0.13397E+04
 
    0.36214E+04         0.16281E+06         0.00000E+00
    0.16281E+06        -0.11001E+05         0.00000E+00
    0.00000E+00         0.00000E+00        -0.14758E+04
 
    0.20316E+04         0.16444E+06         0.00000E+00
    0.16444E+06        -0.10147E+05         0.00000E+00
    0.00000E+00         0.00000E+00        -0.16230E+04
 
    0.41842E+03         0.16597E+06         0.00000E+00
    0.16597E+06        -0.93281E+04         0.00000E+00
    0.00000E+00         0.00000E+00        -0.17819E+04
 
   -0.12180E+04         0.16742E+06         0.00000E+00
    0.16742E+06        -0.85482E+04         0.00000E+00
    0.00000E+00         0.00000E+00        -0.19532E+04
 
    0.63409E+05         0.24815E+04         0.00000E+00
    0.24815E+04        -0.57852E+05         0.00000E+00
    0.00000E+00         0.00000E+00         0.11114E+04
 
    0.62843E+05         0.73906E+04         0.00000E+00
    0.73906E+04        -0.57783E+05         0.00000E+00
    0.00000E+00         0.00000E+00         0.10118E+04
 
    0.62244E+05         0.12273E+05         0.00000E+00
    0.12273E+05        -0.57647E+05         0.00000E+00
    0.00000E+00         0.00000E+00         0.91930E+03
 
    0.61613E+05         0.17126E+05         0.00000E+00
    0.17126E+05        -0.57446E+05         0.00000E+00
    0.00000E+00         0.00000E+00         0.83343E+03
 
    0.60950E+05         0.21946E+05         0.00000E+00
    0.21946E+05        -0.57181E+05         0.00000E+00
    0.00000E+00         0.00000E+00         0.75383E+03
 
    0.60255E+05         0.26731E+05         0.00000E+00
    0.26731E+05        -0.56854E+05         0.00000E+00
    0.00000E+00         0.00000E+00         0.68012E+03
 
    0.59527E+05         0.31478E+05         0.00000E+00
    0.31478E+05        -0.56467E+05         0.00000E+00
    0.00000E+00         0.00000E+00         0.61193E+03
 
    0.58767E+05         0.36184E+05         0.00000E+00
    0.36184E+05        -0.56022E+05         0.00000E+00
    0.00000E+00         0.00000E+00         0.54889E+03
 
    0.57974E+05         0.40847E+05         0.00000E+00
    0.40847E+05        -0.55521E+05         0.00000E+00
    0.00000E+00         0.00000E+00         0.49060E+03
 
    0.57149E+05         0.45465E+05         0.00000E+00
    0.45465E+05        -0.54965E+05         0.00000E+00
    0.00000E+00         0.00000E+00         0.43672E+03
 
    0.56291E+05         0.50034E+05         0.00000E+00
    0.50034E+05        -0.54357E+05         0.00000E+00
    0.00000E+00         0.00000E+00         0.38687E+03
 
    0.55401E+05         0.54553E+05         0.00000E+00
    0.54553E+05        -0.53697E+05         0.00000E+00
    0.00000E+00         0.00000E+00         0.34070E+03
 
    0.54478E+05         0.59018E+05         0.00000E+00
    0.59018E+05        -0.52989E+05         0.00000E+00
    0.00000E+00         0.00000E+00         0.29786E+03
 
    0.53522E+05         0.63429E+05         0.00000E+00
    0.63429E+05        -0.52233E+05         0.00000E+00
    0.00000E+00         0.00000E+00         0.25798E+03
 
    0.52535E+05         0.67782E+05         0.00000E+00
    0.67782E+05        -0.51431E+05         0.00000E+00
    0.00000E+00         0.00000E+00         0.22073E+03
 
    0.51514E+05         0.72075E+05         0.00000E+00
    0.72075E+05        -0.50586E+05         0.00000E+00
    0.00000E+00         0.00000E+00         0.18577E+03
 
    0.50462E+05         0.76307E+05         0.00000E+00
    0.76307E+05        -0.49698E+05         0.00000E+00
    0.00000E+00         0.00000E+00         0.15275E+03
 
    0.49377E+05         0.80474E+05         0.00000E+00
    0.80474E+05        -0.48770E+05         0.00000E+00
    0.00000E+00         0.00000E+00         0.12134E+03
 
    0.48260E+05         0.84576E+05         0.00000E+00
    0.84576E+05        -0.47804E+05         0.00000E+00
    0.00000E+00         0.00000E+00         0.91214E+02
 
    0.47111E+05         0.88610E+05         0.00000E+00
    0.88610E+05        -0.46801E+05         0.00000E+00
    0.00000E+00         0.00000E+00         0.62027E+02
 
    0.45930E+05         0.92575E+05         0.00000E+00
    0.92575E+05        -0.45763E+05         0.00000E+00
    0.00000E+00         0.00000E+00         0.33445E+02
 
    0.44718E+05         0.96468E+05         0.00000E+00
    0.96468E+05        -0.44692E+05         0.00000E+00
    0.00000E+00         0.00000E+00         0.51293E+01
 
    0.43474E+05         0.10029E+06         0.00000E+00
    0.10029E+06        -0.43590E+05         0.00000E+00
    0.00000E+00         0.00000E+00        -0.23262E+02
 
    0.42198E+05         0.10403E+06         0.00000E+00
    0.10403E+06        -0.42459E+05         0.00000E+00
    0.00000E+00         0.00000E+00        -0.52078E+02
 
    0.40891E+05         0.10770E+06         0.00000E+00
    0.10770E+06        -0.41300E+05         0.00000E+00
    0.00000E+00         0.00000E+00        -0.81675E+02
 
    0.39553E+05         0.11129E+06         0.00000E+00
    0.11129E+06        -0.40116E+05         0.00000E+00
    0.00000E+00         0.00000E+00        -0.11242E+03
 
    0.38185E+05         0.11480E+06         0.00000E+00
    0.11480E+06        -0.38908E+05         0.00000E+00
    0.00000E+00         0.00000E+00        -0.14468E+03
 
    0.36785E+05         0.11824E+06         0.00000E+00
    0.11824E+06        -0.37679E+05         0.00000E+00
    0.00000E+00         0.00000E+00        -0.17886E+03
 
    0.35355E+05         0.12158E+06         0.00000E+00
    0.12158E+06        -0.36431E+05         0.00000E+00
    0.00000E+00         0.00000E+00        -0.21535E+03
 
    0.33894E+05         0.12485E+06         0.00000E+00
    0.12485E+06        -0.35167E+05         0.00000E+00
    0.00000E+00         0.00000E+00        -0.25458E+03
 
    0.32403E+05         0.12803E+06         0.00000E+00
    0.12803E+06        -0.33888E+05         0.00000E+00
    0.00000E+00         0.00000E+00        -0.29698E+03
 
    0.30882E+05         0.13112E+06         0.00000E+00
    0.13112E+06        -0.32597E+05         0.00000E+00
    0.00000E+00         0.00000E+00        -0.34300E+03
 
    0.29331E+05         0.13413E+06         0.00000E+00
    0.13413E+06        -0.31297E+05         0.00000E+00
    0.00000E+00         0.00000E+00        -0.39313E+03
 
    0.27750E+05         0.13705E+06         0.00000E+00
    0.13705E+06        -0.29990E+05         0.00000E+00
    0.00000E+00         0.00000E+00        -0.44786E+03
 
    0.26140E+05         0.13989E+06         0.00000E+00
    0.13989E+06        -0.28679E+05         0.00000E+00
    0.00000E+00         0.00000E+00        -0.50771E+03
 
    0.24500E+05         0.14263E+06         0.00000E+00
    0.14263E+06        -0.27366E+05         0.00000E+00
    0.00000E+00         0.00000E+00        -0.57323E+03
 
    0.22831E+05         0.14528E+06         0.00000E+00
    0.14528E+06        -0.26056E+05         0.00000E+00
    0.00000E+00         0.00000E+00        -0.64498E+03
 
    0.21132E+05         0.14785E+06         0.00000E+00
    0.14785E+06        -0.24750E+05         0.00000E+00
    0.00000E+00         0.00000E+00        -0.72355E+03
 
    0.19404E+05         0.15032E+06         0.00000E+00
    0.15032E+06        -0.23452E+05         0.00000E+00
    0.00000E+00         0.00000E+00        -0.80956E+03
 
    0.17647E+05         0.15270E+06         0.00000E+00
    0.15270E+06        -0.22165E+05         0.00000E+00
    0.00000E+00         0.00000E+00        -0.90364E+03
 
    0.15860E+05         0.15499E+06         0.00000E+00
    0.15499E+06        -0.20893E+05         0.00000E+00
    0.00000E+00         0.00000E+00        -0.10065E+04
 
    0.14045E+05         0.15719E+06         0.00000E+00
    0.15719E+06        -0.19639E+05         0.00000E+00
    0.00000E+00         0.00000E+00        -0.11187E+04
 
    0.12201E+05         0.15930E+06         0.00000E+00
    0.15930E+06        -0.18406E+05         0.00000E+00
    0.00000E+00         0.00000E+00        -0.12411E+04
 
    0.10327E+05         0.16132E+06         0.00000E+00
    0.16132E+06        -0.17199E+05         0.00000E+00
    0.00000E+00         0.00000E+00        -0.13743E+04
 
    0.84245E+04         0.16325E+06         0.00000E+00
    0.16325E+06        -0.16020E+05         0.00000E+00
    0.00000E+00         0.00000E+00        -0.15191E+04
 
    0.64929E+04         0.16509E+06         0.00000E+00
    0.16509E+06        -0.14874E+05         0.00000E+00
    0.00000E+00         0.00000E+00        -0.16763E+04
 
    0.45323E+04         0.16684E+06         0.00000E+00
    0.16684E+06        -0.13765E+05         0.00000E+00
    0.00000E+00         0.00000E+00        -0.18466E+04
 
    0.25427E+04         0.16850E+06         0.00000E+00
    0.16850E+06        -0.12697E+05         0.00000E+00
    0.00000E+00         0.00000E+00        -0.20308E+04
 
    0.52392E+03         0.17007E+06         0.00000E+00
    0.17007E+06        -0.11672E+05         0.00000E+00
    0.00000E+00         0.00000E+00        -0.22296E+04
 
   -0.15239E+04         0.17156E+06         0.00000E+00
    0.17156E+06        -0.10696E+05         0.00000E+00
    0.00000E+00         0.00000E+00        -0.24440E+04
 
    0.76475E+05         0.25533E+04         0.00000E+00
    0.25533E+04        -0.69742E+05         0.00000E+00
    0.00000E+00         0.00000E+00         0.13466E+04
 
    0.75789E+05         0.76044E+04         0.00000E+00
    0.76044E+04        -0.69659E+05         0.00000E+00
    0.00000E+00         0.00000E+00         0.12259E+04
 
    0.75064E+05         0.12628E+05         0.00000E+00
    0.12628E+05        -0.69495E+05         0.00000E+00
    0.00000E+00         0.00000E+00         0.11138E+04
 
    0.74302E+05         0.17621E+05         0.00000E+00
    0.17621E+05        -0.69253E+05         0.00000E+00
    0.00000E+00         0.00000E+00         0.10097E+04
 
    0.73501E+05         0.22580E+05         0.00000E+00
    0.22580E+05        -0.68934E+05         0.00000E+00
    0.00000E+00         0.00000E+00         0.91328E+03
 
    0.72661E+05         0.27504E+05         0.00000E+00
    0.27504E+05        -0.68541E+05         0.00000E+00
    0.00000E+00         0.00000E+00         0.82397E+03
 
    0.71782E+05         0.32388E+05         0.00000E+00
    0.32388E+05        -0.68076E+05         0.00000E+00
    0.00000E+00         0.00000E+00         0.74135E+03
 
    0.70865E+05         0.37230E+05         0.00000E+00
    0.37230E+05        -0.67540E+05         0.00000E+00
    0.00000E+00         0.00000E+00         0.66495E+03
 
    0.69909E+05         0.42029E+05         0.00000E+00
    0.42029E+05        -0.66937E+05         0.00000E+00
    0.00000E+00         0.00000E+00         0.59434E+03
 
    0.68914E+05         0.46780E+05         0.00000E+00
    0.46780E+05        -0.66268E+05         0.00000E+00
    0.00000E+00         0.00000E+00         0.52907E+03
 
    0.67880E+05         0.51482E+05         0.00000E+00
    0.51482E+05        -0.65536E+05         0.00000E+00
    0.00000E+00         0.00000E+00         0.46869E+03
 
    0.66807E+05         0.56132E+05         0.00000E+00
    0.56132E+05        -0.64743E+05         0.00000E+00
    0.00000E+00         0.00000E+00         0.41276E+03
 
    0.65695E+05         0.60728E+05         0.00000E+00
    0.60728E+05        -0.63890E+05         0.00000E+00
    0.00000E+00         0.00000E+00         0.36087E+03
 
    0.64544E+05         0.65267E+05         0.00000E+00
    0.65267E+05        -0.62981E+05         0.00000E+00
    0.00000E+00         0.00000E+00         0.31258E+03
 
    0.63353E+05         0.69747E+05         0.00000E+00
    0.69747E+05        -0.62016E+05         0.00000E+00
    0.00000E+00         0.00000E+00         0.26747E+03
 
    0.62124E+05         0.74166E+05         0.00000E+00
    0.74166E+05        -0.60999E+05         0.00000E+00
    0.00000E+00         0.00000E+00         0.22514E+03
 
    0.60857E+05         0.78522E+05         0.00000E+00
    0.78522E+05        -0.59931E+05         0.00000E+00
    0.00000E+00         0.00000E+00         0.18518E+03
 
    0.59550E+05         0.82813E+05         0.00000E+00
    0.82813E+05        -0.58814E+05         0.00000E+00
    0.00000E+00         0.00000E+00         0.14717E+03
 
    0.58205E+05         0.87035E+05         0.00000E+00
    0.87035E+05        -0.57651E+05         0.00000E+00
    0.00000E+00         0.00000E+00         0.11071E+03
 
    0.56821E+05         0.91189E+05         0.00000E+00
    0.91189E+05        -0.56444E+05         0.00000E+00
    0.00000E+00         0.00000E+00         0.75399E+02
 
    0.55398E+05         0.95271E+05         0.00000E+00
    0.95271E+05        -0.55194E+05         0.00000E+00
    0.00000E+00         0.00000E+00         0.40827E+02
 
    0.53938E+05         0.99280E+05         0.00000E+00
    0.99280E+05        -0.53905E+05         0.00000E+00
    0.00000E+00         0.00000E+00         0.65853E+01
 
    0.52439E+05         0.10321E+06         0.00000E+00
    0.10321E+06        -0.52578E+05         0.00000E+00
    0.00000E+00         0.00000E+00        -0.27741E+02
 
    0.50902E+05         0.10707E+06         0.00000E+00
    0.10707E+06        -0.51215E+05         0.00000E+00
    0.00000E+00         0.00000E+00        -0.62574E+02
 
    0.49328E+05         0.11085E+06         0.00000E+00
    0.11085E+06        -0.49819E+05         0.00000E+00
    0.00000E+00         0.00000E+00        -0.98343E+02
 
    0.47716E+05         0.11455E+06         0.00000E+00
    0.11455E+06        -0.48393E+05         0.00000E+00
    0.00000E+00         0.00000E+00        -0.13549E+03
 
    0.46066E+05         0.11817E+06         0.00000E+00
    0.11817E+06        -0.46939E+05         0.00000E+00
    0.00000E+00         0.00000E+00        -0.17447E+03
 
    0.44379E+05         0.12170E+06         0.00000E+00
    0.12170E+06        -0.45458E+05         0.00000E+00
    0.00000E+00         0.00000E+00        -0.21576E+03
 
    0.42656E+05         0.12515E+06         0.00000E+00
    0.12515E+06        -0.43955E+05         0.00000E+00
    0.00000E+00         0.00000E+00        -0.25983E+03
 
    0.40895E+05         0.12851E+06         0.00000E+00
    0.12851E+06        -0.42431E+05         0.00000E+00
    0.00000E+00         0.00000E+00        -0.30721E+03
 
    0.39098E+05         0.13179E+06         0.00000E+00
    0.13179E+06        -0.40890E+05         0.00000E+00
    0.00000E+00         0.00000E+00        -0.35841E+03
 
    0.37264E+05         0.13498E+06         0.00000E+00
    0.13498E+06        -0.39334E+05         0.00000E+00
    0.00000E+00         0.00000E+00        -0.41398E+03
 
    0.35394E+05         0.13808E+06         0.00000E+00
    0.13808E+06        -0.37767E+05         0.00000E+00
    0.00000E+00         0.00000E+00        -0.47451E+03
 
    0.33488E+05         0.14109E+06         0.00000E+00
    0.14109E+06        -0.36191E+05         0.00000E+00
    0.00000E+00         0.00000E+00        -0.54059E+03
 
    0.31546E+05         0.14401E+06         0.00000E+00
    0.14401E+06        -0.34610E+05         0.00000E+00
    0.00000E+00         0.00000E+00        -0.61285E+03
 
    0.29568E+05         0.14683E+06         0.00000E+00
    0.14683E+06        -0.33028E+05         0.00000E+00
    0.00000E+00         0.00000E+00        -0.69195E+03
 
    0.27554E+05         0.14957E+06         0.00000E+00
    0.14957E+06        -0.31447E+05         0.00000E+00
    0.00000E+00         0.00000E+00        -0.77857E+03
 
    0.25505E+05         0.15221E+06         0.00000E+00
    0.15221E+06        -0.29872E+05         0.00000E+00
    0.00000E+00         0.00000E+00        -0.87343E+03
 
    0.23420E+05         0.15476E+06         0.00000E+00
    0.15476E+06        -0.28306E+05         0.00000E+00
    0.00000E+00         0.00000E+00        -0.97726E+03
 
    0.21300E+05         0.15721E+06         0.00000E+00
    0.15721E+06        -0.26754E+05         0.00000E+00
    0.00000E+00         0.00000E+00        -0.10908E+04
 
    0.19144E+05         0.15957E+06         0.00000E+00
    0.15957E+06        -0.25219E+05         0.00000E+00
    0.00000E+00         0.00000E+00        -0.12150E+04
 
    0.16954E+05         0.16184E+06         0.00000E+00
    0.16184E+06        -0.23706E+05         0.00000E+00
    0.00000E+00         0.00000E+00        -0.13505E+04
 
    0.14728E+05         0.16401E+06         0.00000E+00
    0.16401E+06        -0.22219E+05         0.00000E+00
    0.00000E+00         0.00000E+00        -0.14982E+04
 
    0.12466E+05         0.16609E+06         0.00000E+00
    0.16609E+06        -0.20762E+05         0.00000E+00
    0.00000E+00         0.00000E+00        -0.16591E+04
 
    0.10170E+05         0.16808E+06         0.00000E+00
    0.16808E+06        -0.19339E+05         0.00000E+00
    0.00000E+00         0.00000E+00        -0.18339E+04
 
    0.78383E+04         0.16997E+06         0.00000E+00
    0.16997E+06        -0.17956E+05         0.00000E+00
    0.00000E+00         0.00000E+00        -0.20236E+04
 
    0.54716E+04         0.17177E+06         0.00000E+00
    0.17177E+06        -0.16618E+05         0.00000E+00
    0.00000E+00         0.00000E+00        -0.22292E+04
 
    0.30697E+04         0.17348E+06         0.00000E+00
    0.17348E+06        -0.15328E+05         0.00000E+00
    0.00000E+00         0.00000E+00        -0.24516E+04
 
    0.63259E+03         0.17510E+06         0.00000E+00
    0.17510E+06        -0.14091E+05         0.00000E+00
    0.00000E+00         0.00000E+00        -0.26917E+04
 
   -0.18397E+04         0.17663E+06         0.00000E+00
    0.17663E+06        -0.12912E+05         0.00000E+00
    0.00000E+00         0.00000E+00        -0.29504E+04
 
    0.89949E+05         0.26381E+04         0.00000E+00
    0.26381E+04        -0.81999E+05         0.00000E+00
    0.00000E+00         0.00000E+00         0.15901E+04
 
    0.89140E+05         0.78565E+04         0.00000E+00
    0.78565E+04        -0.81902E+05         0.00000E+00
    0.00000E+00         0.00000E+00         0.14476E+04
 
    0.88285E+05         0.13046E+05         0.00000E+00
    0.13046E+05        -0.81710E+05         0.00000E+00
    0.00000E+00         0.00000E+00         0.13151E+04
 
    0.87387E+05         0.18205E+05         0.00000E+00
    0.18205E+05        -0.81426E+05         0.00000E+00
    0.00000E+00         0.00000E+00         0.11922E+04
 
    0.86443E+05         0.23329E+05         0.00000E+00
    0.23329E+05        -0.81052E+05         0.00000E+00
    0.00000E+00         0.00000E+00         0.10783E+04
 
    0.85455E+05         0.28415E+05         0.00000E+00
    0.28415E+05        -0.80591E+05         0.00000E+00
    0.00000E+00         0.00000E+00         0.97279E+03
 
    0.84421E+05         0.33462E+05         0.00000E+00
    0.33462E+05        -0.80045E+05         0.00000E+00
    0.00000E+00         0.00000E+00         0.87522E+03
 
    0.83343E+05         0.38466E+05         0.00000E+00
    0.38466E+05        -0.79418E+05         0.00000E+00
    0.00000E+00         0.00000E+00         0.78501E+03
 
    0.82219E+05         0.43424E+05         0.00000E+00
    0.43424E+05        -0.78711E+05         0.00000E+00
    0.00000E+00         0.00000E+00         0.70163E+03
 
    0.81049E+05         0.48333E+05         0.00000E+00
    0.48333E+05        -0.77927E+05         0.00000E+00
    0.00000E+00         0.00000E+00         0.62456E+03
 
    0.79835E+05         0.53192E+05         0.00000E+00
    0.53192E+05        -0.77068E+05         0.00000E+00
    0.00000E+00         0.00000E+00         0.55327E+03
 
    0.78574E+05         0.57998E+05         0.00000E+00
    0.57998E+05        -0.76138E+05         0.00000E+00
    0.00000E+00         0.00000E+00         0.48725E+03
 
    0.77268E+05         0.62748E+05         0.00000E+00
    0.62748E+05        -0.75138E+05         0.00000E+00
    0.00000E+00         0.00000E+00         0.42598E+03
 
    0.75916E+05         0.67440E+05         0.00000E+00
    0.67440E+05        -0.74071E+05         0.00000E+00
    0.00000E+00         0.00000E+00         0.36898E+03
 
    0.74519E+05         0.72071E+05         0.00000E+00
    0.72071E+05        -0.72940E+05         0.00000E+00
    0.00000E+00         0.00000E+00         0.31575E+03
 
    0.73075E+05         0.76640E+05         0.00000E+00
    0.76640E+05        -0.71746E+05         0.00000E+00
    0.00000E+00         0.00000E+00         0.26579E+03
 
    0.71587E+05         0.81143E+05         0.00000E+00
    0.81143E+05        -0.70493E+05         0.00000E+00
    0.00000E+00         0.00000E+00         0.21863E+03
 
    0.70052E+05         0.85580E+05         0.00000E+00
    0.85580E+05        -0.69183E+05         0.00000E+00
    0.00000E+00         0.00000E+00         0.17378E+03
 
    0.68473E+05         0.89946E+05         0.00000E+00
    0.89946E+05        -0.67819E+05         0.00000E+00
    0.00000E+00         0.00000E+00         0.13077E+03
 
    0.66848E+05         0.94242E+05         0.00000E+00
    0.94242E+05        -0.66402E+05         0.00000E+00
    0.00000E+00         0.00000E+00         0.89118E+02
 
    0.65177E+05         0.98464E+05         0.00000E+00
    0.98464E+05        -0.64936E+05         0.00000E+00
    0.00000E+00         0.00000E+00         0.48340E+02
 
    0.63462E+05         0.10261E+06         0.00000E+00
    0.10261E+06        -0.63422E+05         0.00000E+00
    0.00000E+00         0.00000E+00         0.79574E+01
 
    0.61702E+05         0.10668E+06         0.00000E+00
    0.10668E+06        -0.61864E+05         0.00000E+00
    0.00000E+00         0.00000E+00        -0.32521E+02
 
    0.59897E+05         0.11067E+06         0.00000E+00
    0.11067E+06        -0.60265E+05         0.00000E+00
    0.00000E+00         0.00000E+00        -0.73591E+02
 
    0.58047E+05         0.11458E+06         0.00000E+00
    0.11458E+06        -0.58626E+05         0.00000E+00
    0.00000E+00         0.00000E+00        -0.11576E+03
 
    0.56153E+05         0.11841E+06         0.00000E+00
    0.11841E+06        -0.56951E+05         0.00000E+00
    0.00000E+00         0.00000E+00        -0.15955E+03
 
    0.54215E+05         0.12215E+06         0.00000E+00
    0.12215E+06        -0.55243E+05         0.00000E+00
    0.00000E+00         0.00000E+00        -0.20550E+03
 
    0.52233E+05         0.12581E+06         0.00000E+00
    0.12581E+06        -0.53504E+05         0.00000E+00
    0.00000E+00         0.00000E+00        -0.25416E+03
 
    0.50207E+05         0.12938E+06         0.00000E+00
    0.12938E+06        -0.51738E+05         0.00000E+00
    0.00000E+00         0.00000E+00        -0.30611E+03
 
    0.48137E+05         0.13286E+06         0.00000E+00
    0.13286E+06        -0.49947E+05         0.00000E+00
    0.00000E+00         0.00000E+00        -0.36194E+03
 
    0.46025E+05         0.13625E+06         0.00000E+00
    0.13625E+06        -0.48136E+05         0.00000E+00
    0.00000E+00         0.00000E+00        -0.42227E+03
 
    0.43869E+05         0.13956E+06         0.00000E+00
    0.13956E+06        -0.46307E+05         0.00000E+00
    0.00000E+00         0.00000E+00        -0.48776E+03
 
    0.41670E+05         0.14276E+06         0.00000E+00
    0.14276E+06        -0.44465E+05         0.00000E+00
    0.00000E+00         0.00000E+00        -0.55908E+03
 
    0.39428E+05         0.14588E+06         0.00000E+00
    0.14588E+06        -0.42612E+05         0.00000E+00
    0.00000E+00         0.00000E+00        -0.63695E+03
 
    0.37143E+05         0.14890E+06         0.00000E+00
    0.14890E+06        -0.40754E+05         0.00000E+00
    0.00000E+00         0.00000E+00        -0.72209E+03
 
    0.34816E+05         0.15183E+06         0.00000E+00
    0.15183E+06        -0.38893E+05         0.00000E+00
    0.00000E+00         0.00000E+00        -0.81530E+03
 
    0.32447E+05         0.15466E+06         0.00000E+00
    0.15466E+06        -0.37034E+05         0.00000E+00
    0.00000E+00         0.00000E+00        -0.91736E+03
 
    0.30035E+05         0.15740E+06         0.00000E+00
    0.15740E+06        -0.35181E+05         0.00000E+00
    0.00000E+00         0.00000E+00        -0.10291E+04
 
    0.27582E+05         0.16004E+06         0.00000E+00
    0.16004E+06        -0.33339E+05         0.00000E+00
    0.00000E+00         0.00000E+00        -0.11515E+04
 
    0.25086E+05         0.16258E+06         0.00000E+00
    0.16258E+06        -0.31513E+05         0.00000E+00
    0.00000E+00         0.00000E+00        -0.12853E+04
 
    0.22548E+05         0.16502E+06         0.00000E+00
    0.16502E+06        -0.29706E+05         0.00000E+00
    0.00000E+00         0.00000E+00        -0.14316E+04
 
    0.19969E+05         0.16737E+06         0.00000E+00
    0.16737E+06        -0.27925E+05         0.00000E+00
    0.00000E+00         0.00000E+00        -0.15912E+04
 
    0.17348E+05         0.16962E+06         0.00000E+00
    0.16962E+06        -0.26174E+05         0.00000E+00
    0.00000E+00         0.00000E+00        -0.17653E+04
 
    0.14685E+05         0.17177E+06         0.00000E+00
    0.17177E+06        -0.24459E+05         0.00000E+00
    0.00000E+00         0.00000E+00        -0.19548E+04
 
    0.11980E+05         0.17383E+06         0.00000E+00
    0.17383E+06        -0.22784E+05         0.00000E+00
    0.00000E+00         0.00000E+00        -0.21608E+04
 
    0.92339E+04         0.17579E+06         0.00000E+00
    0.17579E+06        -0.21156E+05         0.00000E+00
    0.00000E+00         0.00000E+00        -0.23844E+04
 
    0.64460E+04         0.17765E+06         0.00000E+00
    0.17765E+06        -0.19579E+05         0.00000E+00
    0.00000E+00         0.00000E+00        -0.26266E+04
 
    0.36164E+04         0.17942E+06         0.00000E+00
    0.17942E+06        -0.18059E+05         0.00000E+00
    0.00000E+00         0.00000E+00        -0.28886E+04
 
    0.74517E+03         0.18110E+06         0.00000E+00
    0.18110E+06        -0.16602E+05         0.00000E+00
    0.00000E+00         0.00000E+00        -0.31715E+04
 
   -0.21676E+04         0.18268E+06         0.00000E+00
    0.18268E+06        -0.15214E+05         0.00000E+00
    0.00000E+00         0.00000E+00        -0.34763E+04
 
    0.10390E+06         0.27357E+04         0.00000E+00
    0.27357E+04        -0.94685E+05         0.00000E+00
    0.00000E+00         0.00000E+00         0.18427E+04
 
    0.10296E+06         0.81473E+04         0.00000E+00
    0.81473E+04        -0.94573E+05         0.00000E+00
    0.00000E+00         0.00000E+00         0.16774E+04
 
    0.10197E+06         0.13529E+05         0.00000E+00
    0.13529E+05        -0.94352E+05         0.00000E+00
    0.00000E+00         0.00000E+00         0.15239E+04
 
    0.10093E+06         0.18879E+05         0.00000E+00
    0.18879E+05        -0.94026E+05         0.00000E+00
    0.00000E+00         0.00000E+00         0.13814E+04
 
    0.99842E+05         0.24193E+05         0.00000E+00
    0.24193E+05        -0.93596E+05         0.00000E+00
    0.00000E+00         0.00000E+00         0.12493E+04
 
    0.98701E+05         0.29468E+05         0.00000E+00
    0.29468E+05        -0.93065E+05         0.00000E+00
    0.00000E+00         0.00000E+00         0.11270E+04
 
    0.97508E+05         0.34702E+05         0.00000E+00
    0.34702E+05        -0.92438E+05         0.00000E+00
    0.00000E+00         0.00000E+00         0.10140E+04
 
    0.96263E+05         0.39892E+05         0.00000E+00
    0.39892E+05        -0.91716E+05         0.00000E+00
    0.00000E+00         0.00000E+00         0.90940E+03
 
    0.94967E+05         0.45035E+05         0.00000E+00
    0.45035E+05        -0.90903E+05         0.00000E+00
    0.00000E+00         0.00000E+00         0.81278E+03
 
    0.93618E+05         0.50128E+05         0.00000E+00
    0.50128E+05        -0.90001E+05         0.00000E+00
    0.00000E+00         0.00000E+00         0.72346E+03
 
    0.92217E+05         0.55169E+05         0.00000E+00
    0.55169E+05        -0.89013E+05         0.00000E+00
    0.00000E+00         0.00000E+00         0.64085E+03
 
    0.90764E+05         0.60156E+05         0.00000E+00
    0.60156E+05        -0.87942E+05         0.00000E+00
    0.00000E+00         0.00000E+00         0.56435E+03
 
    0.89258E+05         0.65085E+05         0.00000E+00
    0.65085E+05        -0.86792E+05         0.00000E+00
    0.00000E+00         0.00000E+00         0.49337E+03
 
    0.87700E+05         0.69954E+05         0.00000E+00
    0.69954E+05        -0.85564E+05         0.00000E+00
    0.00000E+00         0.00000E+00         0.42733E+03
 
    0.86090E+05         0.74761E+05         0.00000E+00
    0.74761E+05        -0.84262E+05         0.00000E+00
    0.00000E+00         0.00000E+00         0.36565E+03
 
    0.84427E+05         0.79503E+05         0.00000E+00
    0.79503E+05        -0.82888E+05         0.00000E+00
    0.00000E+00         0.00000E+00         0.30778E+03
 
    0.82711E+05         0.84178E+05         0.00000E+00
    0.84178E+05        -0.81445E+05         0.00000E+00
    0.00000E+00         0.00000E+00         0.25315E+03
 
    0.80943E+05         0.88784E+05         0.00000E+00
    0.88784E+05        -0.79937E+05         0.00000E+00
    0.00000E+00         0.00000E+00         0.20120E+03
 
    0.79122E+05         0.93319E+05         0.00000E+00
    0.93319E+05        -0.78365E+05         0.00000E+00
    0.00000E+00         0.00000E+00         0.15138E+03
 
    0.77249E+05         0.97780E+05         0.00000E+00
    0.97780E+05        -0.76733E+05         0.00000E+00
    0.00000E+00         0.00000E+00         0.10313E+03
 
    0.75323E+05         0.10217E+06         0.00000E+00
    0.10217E+06        -0.75044E+05         0.00000E+00
    0.00000E+00         0.00000E+00         0.55900E+02
 
    0.73346E+05         0.10647E+06         0.00000E+00
    0.10647E+06        -0.73300E+05         0.00000E+00
    0.00000E+00         0.00000E+00         0.91298E+01
 
    0.71316E+05         0.11070E+06         0.00000E+00
    0.11070E+06        -0.71505E+05         0.00000E+00
    0.00000E+00         0.00000E+00        -0.37749E+02
 
    0.69234E+05         0.11485E+06         0.00000E+00
    0.11485E+06        -0.69661E+05         0.00000E+00
    0.00000E+00         0.00000E+00        -0.85313E+02
 
    0.67101E+05         0.11891E+06         0.00000E+00
    0.11891E+06        -0.67772E+05         0.00000E+00
    0.00000E+00         0.00000E+00        -0.13415E+03
 
    0.64916E+05         0.12289E+06         0.00000E+00
    0.12289E+06        -0.65841E+05         0.00000E+00
    0.00000E+00         0.00000E+00        -0.18486E+03
 
    0.62680E+05         0.12678E+06         0.00000E+00
    0.12678E+06        -0.63871E+05         0.00000E+00
    0.00000E+00         0.00000E+00        -0.23808E+03
 
    0.60393E+05         0.13058E+06         0.00000E+00
    0.13058E+06        -0.61865E+05         0.00000E+00
    0.00000E+00         0.00000E+00        -0.29443E+03
 
    0.58055E+05         0.13429E+06         0.00000E+00
    0.13429E+06        -0.59828E+05         0.00000E+00
    0.00000E+00         0.00000E+00        -0.35458E+03
 
    0.55666E+05         0.13792E+06         0.00000E+00
    0.13792E+06        -0.57763E+05         0.00000E+00
    0.00000E+00         0.00000E+00        -0.41924E+03
 
    0.53227E+05         0.14144E+06         0.00000E+00
    0.14144E+06        -0.55673E+05         0.00000E+00
    0.00000E+00         0.00000E+00        -0.48911E+03
 
    0.50737E+05         0.14488E+06         0.00000E+00
    0.14488E+06        -0.53562E+05         0.00000E+00
    0.00000E+00         0.00000E+00        -0.56495E+03
 
    0.48198E+05         0.14822E+06         0.00000E+00
    0.14822E+06        -0.51435E+05         0.00000E+00
    0.00000E+00         0.00000E+00        -0.64754E+03
 
    0.45608E+05         0.15146E+06         0.00000E+00
    0.15146E+06        -0.49297E+05         0.00000E+00
    0.00000E+00         0.00000E+00        -0.73772E+03
 
    0.42969E+05         0.15460E+06         0.00000E+00
    0.15460E+06        -0.47150E+05         0.00000E+00
    0.00000E+00         0.00000E+00        -0.83632E+03
 
    0.40280E+05         0.15765E+06         0.00000E+00
    0.15765E+06        -0.45001E+05         0.00000E+00
    0.00000E+00         0.00000E+00        -0.94425E+03
 
    0.37541E+05         0.16059E+06         0.00000E+00
    0.16059E+06        -0.42854E+05         0.00000E+00
    0.00000E+00         0.00000E+00        -0.10624E+04
 
    0.34754E+05         0.16344E+06         0.00000E+00
    0.16344E+06        -0.40713E+05         0.00000E+00
    0.00000E+00         0.00000E+00        -0.11919E+04
 
    0.31917E+05         0.16619E+06         0.00000E+00
    0.16619E+06        -0.38585E+05         0.00000E+00
    0.00000E+00         0.00000E+00        -0.13336E+04
 
    0.29031E+05         0.16883E+06         0.00000E+00
    0.16883E+06        -0.36474E+05         0.00000E+00
    0.00000E+00         0.00000E+00        -0.14886E+04
 
    0.26096E+05         0.17138E+06         0.00000E+00
    0.17138E+06        -0.34386E+05         0.00000E+00
    0.00000E+00         0.00000E+00        -0.16579E+04
 
    0.23112E+05         0.17382E+06         0.00000E+00
    0.17382E+06        -0.32327E+05         0.00000E+00
    0.00000E+00         0.00000E+00        -0.18428E+04
 
    0.20080E+05         0.17616E+06         0.00000E+00
    0.17616E+06        -0.30302E+05         0.00000E+00
    0.00000E+00         0.00000E+00        -0.20444E+04
 
    0.16999E+05         0.17840E+06         0.00000E+00
    0.17840E+06        -0.28318E+05         0.00000E+00
    0.00000E+00         0.00000E+00        -0.22639E+04
 
    0.13869E+05         0.18054E+06         0.00000E+00
    0.18054E+06        -0.26381E+05         0.00000E+00
    0.00000E+00         0.00000E+00        -0.25024E+04
 
    0.10690E+05         0.18258E+06         0.00000E+00
    0.18258E+06        -0.24496E+05         0.00000E+00
    0.00000E+00         0.00000E+00        -0.27613E+04
 
    0.74626E+04         0.18451E+06         0.00000E+00
    0.18451E+06        -0.22672E+05         0.00000E+00
    0.00000E+00         0.00000E+00        -0.30418E+04
 
    0.41868E+04         0.18635E+06         0.00000E+00
    0.18635E+06        -0.20913E+05         0.00000E+00
    0.00000E+00         0.00000E+00        -0.33452E+04
 
    0.86244E+03         0.18809E+06         0.00000E+00
    0.18809E+06        -0.19226E+05         0.00000E+00
    0.00000E+00         0.00000E+00        -0.36728E+04
 
   -0.25104E+04         0.18973E+06         0.00000E+00
    0.18973E+06        -0.17619E+05         0.00000E+00
    0.00000E+00         0.00000E+00        -0.40259E+04
 
    0.11839E+06         0.28464E+04         0.00000E+00
    0.28464E+04        -0.10786E+06         0.00000E+00
    0.00000E+00         0.00000E+00         0.21047E+04
 
    0.11732E+06         0.84769E+04         0.00000E+00
    0.84769E+04        -0.10774E+06         0.00000E+00
    0.00000E+00         0.00000E+00         0.19158E+04
 
    0.11619E+06         0.14077E+05         0.00000E+00
    0.14077E+05        -0.10749E+06         0.00000E+00
    0.00000E+00         0.00000E+00         0.17403E+04
 
    0.11500E+06         0.19643E+05         0.00000E+00
    0.19643E+05        -0.10712E+06         0.00000E+00
    0.00000E+00         0.00000E+00         0.15775E+04
 
    0.11376E+06         0.25173E+05         0.00000E+00
    0.25173E+05        -0.10663E+06         0.00000E+00
    0.00000E+00         0.00000E+00         0.14266E+04
 
    0.11246E+06         0.30663E+05         0.00000E+00
    0.30663E+05        -0.10603E+06         0.00000E+00
    0.00000E+00         0.00000E+00         0.12869E+04
 
    0.11111E+06         0.36110E+05         0.00000E+00
    0.36110E+05        -0.10532E+06         0.00000E+00
    0.00000E+00         0.00000E+00         0.11577E+04
 
    0.10969E+06         0.41512E+05         0.00000E+00
    0.41512E+05        -0.10450E+06         0.00000E+00
    0.00000E+00         0.00000E+00         0.10383E+04
 
    0.10822E+06         0.46866E+05         0.00000E+00
    0.46866E+05        -0.10358E+06         0.00000E+00
    0.00000E+00         0.00000E+00         0.92787E+03
 
    0.10668E+06         0.52168E+05         0.00000E+00
    0.52168E+05        -0.10255E+06         0.00000E+00
    0.00000E+00         0.00000E+00         0.82584E+03
 
    0.10509E+06         0.57417E+05         0.00000E+00
    0.57417E+05        -0.10143E+06         0.00000E+00
    0.00000E+00         0.00000E+00         0.73147E+03
 
    0.10344E+06         0.62610E+05         0.00000E+00
    0.62610E+05        -0.10022E+06         0.00000E+00
    0.00000E+00         0.00000E+00         0.64409E+03
 
    0.10173E+06         0.67743E+05         0.00000E+00
    0.67743E+05        -0.98914E+05         0.00000E+00
    0.00000E+00         0.00000E+00         0.56302E+03
 
    0.99959E+05         0.72815E+05         0.00000E+00
    0.72815E+05        -0.97521E+05         0.00000E+00
    0.00000E+00         0.00000E+00         0.48759E+03
 
    0.98129E+05         0.77823E+05         0.00000E+00
    0.77823E+05        -0.96043E+05         0.00000E+00
    0.00000E+00         0.00000E+00         0.41715E+03
 
    0.96239E+05         0.82764E+05         0.00000E+00
    0.82764E+05        -0.94484E+05         0.00000E+00
    0.00000E+00         0.00000E+00         0.35105E+03
 
    0.94289E+05         0.87636E+05         0.00000E+00
    0.87636E+05        -0.92846E+05         0.00000E+00
    0.00000E+00         0.00000E+00         0.28865E+03
 
    0.92280E+05         0.92436E+05         0.00000E+00
    0.92436E+05        -0.91133E+05         0.00000E+00
    0.00000E+00         0.00000E+00         0.22932E+03
 
    0.90211E+05         0.97163E+05         0.00000E+00
    0.97163E+05        -0.89349E+05         0.00000E+00
    0.00000E+00         0.00000E+00         0.17241E+03
 
    0.88082E+05         0.10181E+06         0.00000E+00
    0.10181E+06        -0.87495E+05         0.00000E+00
    0.00000E+00         0.00000E+00         0.11730E+03
 
    0.85893E+05         0.10639E+06         0.00000E+00
    0.10639E+06        -0.85577E+05         0.00000E+00
    0.00000E+00         0.00000E+00         0.63355E+02
 
    0.83645E+05         0.11088E+06         0.00000E+00
    0.11088E+06        -0.83595E+05         0.00000E+00
    0.00000E+00         0.00000E+00         0.99249E+01
 
    0.81337E+05         0.11529E+06         0.00000E+00
    0.11529E+06        -0.81555E+05         0.00000E+00
    0.00000E+00         0.00000E+00        -0.43633E+02
 
    0.78970E+05         0.11962E+06         0.00000E+00
    0.11962E+06        -0.79460E+05         0.00000E+00
    0.00000E+00         0.00000E+00        -0.97979E+02
 
    0.76544E+05         0.12386E+06         0.00000E+00
    0.12386E+06        -0.77312E+05         0.00000E+00
    0.00000E+00         0.00000E+00        -0.15378E+03
 
    0.74058E+05         0.12801E+06         0.00000E+00
    0.12801E+06        -0.75117E+05         0.00000E+00
    0.00000E+00         0.00000E+00        -0.21174E+03
 
    0.71514E+05         0.13207E+06         0.00000E+00
    0.13207E+06        -0.72876E+05         0.00000E+00
    0.00000E+00         0.00000E+00        -0.27255E+03
 
    0.68911E+05         0.13604E+06         0.00000E+00
    0.13604E+06        -0.70595E+05         0.00000E+00
    0.00000E+00         0.00000E+00        -0.33696E+03
 
    0.66249E+05         0.13992E+06         0.00000E+00
    0.13992E+06        -0.68278E+05         0.00000E+00
    0.00000E+00         0.00000E+00        -0.40572E+03
 
    0.63529E+05         0.14370E+06         0.00000E+00
    0.14370E+06        -0.65927E+05         0.00000E+00
    0.00000E+00         0.00000E+00        -0.47963E+03
 
    0.60751E+05         0.14738E+06         0.00000E+00
    0.14738E+06        -0.63548E+05         0.00000E+00
    0.00000E+00         0.00000E+00        -0.55950E+03
 
    0.57915E+05         0.15097E+06         0.00000E+00
    0.15097E+06        -0.61146E+05         0.00000E+00
    0.00000E+00         0.00000E+00        -0.64621E+03
 
    0.55021E+05         0.15446E+06         0.00000E+00
    0.15446E+06        -0.58724E+05         0.00000E+00
    0.00000E+00         0.00000E+00        -0.74064E+03
 
    0.52070E+05         0.15785E+06         0.00000E+00
    0.15785E+06        -0.56289E+05         0.00000E+00
    0.00000E+00         0.00000E+00        -0.84373E+03
 
    0.49061E+05         0.16113E+06         0.00000E+00
    0.16113E+06        -0.53844E+05         0.00000E+00
    0.00000E+00         0.00000E+00        -0.95647E+03
 
    0.45995E+05         0.16432E+06         0.00000E+00
    0.16432E+06        -0.51395E+05         0.00000E+00
    0.00000E+00         0.00000E+00        -0.10799E+04
 
    0.42873E+05         0.16740E+06         0.00000E+00
    0.16740E+06        -0.48948E+05         0.00000E+00
    0.00000E+00         0.00000E+00        -0.12150E+04
 
    0.39693E+05         0.17037E+06         0.00000E+00
    0.17037E+06        -0.46508E+05         0.00000E+00
    0.00000E+00         0.00000E+00        -0.13630E+04
 
    0.36456E+05         0.17324E+06         0.00000E+00
    0.17324E+06        -0.44081E+05         0.00000E+00
    0.00000E+00         0.00000E+00        -0.15250E+04
 
    0.33163E+05         0.17601E+06         0.00000E+00
    0.17601E+06        -0.41674E+05         0.00000E+00
    0.00000E+00         0.00000E+00        -0.17022E+04
 
    0.29813E+05         0.17867E+06         0.00000E+00
    0.17867E+06        -0.39292E+05         0.00000E+00
    0.00000E+00         0.00000E+00        -0.18959E+04
 
    0.26406E+05         0.18122E+06         0.00000E+00
    0.18122E+06        -0.36943E+05         0.00000E+00
    0.00000E+00         0.00000E+00        -0.21073E+04
 
    0.22944E+05         0.18367E+06         0.00000E+00
    0.18367E+06        -0.34633E+05         0.00000E+00
    0.00000E+00         0.00000E+00        -0.23378E+04
 
    0.19424E+05         0.18601E+06         0.00000E+00
    0.18601E+06        -0.32368E+05         0.00000E+00
    0.00000E+00         0.00000E+00        -0.25887E+04
 
    0.15849E+05         0.18825E+06         0.00000E+00
    0.18825E+06        -0.30156E+05         0.00000E+00
    0.00000E+00         0.00000E+00        -0.28615E+04
 
    0.12217E+05         0.19038E+06         0.00000E+00
    0.19038E+06        -0.28005E+05         0.00000E+00
    0.00000E+00         0.00000E+00        -0.31575E+04
 
    0.85293E+04         0.19240E+06         0.00000E+00
    0.19240E+06        -0.25921E+05         0.00000E+00
    0.00000E+00         0.00000E+00        -0.34783E+04
 
    0.47853E+04         0.19432E+06         0.00000E+00
    0.19432E+06        -0.23911E+05         0.00000E+00
    0.00000E+00         0.00000E+00        -0.38252E+04
 
    0.98524E+03         0.19614E+06         0.00000E+00
    0.19614E+06        -0.21984E+05         0.00000E+00
    0.00000E+00         0.00000E+00        -0.41997E+04
 
   -0.28707E+04         0.19785E+06         0.00000E+00
    0.19785E+06        -0.20146E+05         0.00000E+00
    0.00000E+00         0.00000E+00        -0.46034E+04
 
    0.13348E+06         0.29700E+04         0.00000E+00
    0.29700E+04        -0.12160E+06         0.00000E+00
    0.00000E+00         0.00000E+00         0.23759E+04
 
    0.13227E+06         0.88457E+04         0.00000E+00
    0.88457E+04        -0.12146E+06         0.00000E+00
    0.00000E+00         0.00000E+00         0.21625E+04
 
    0.13100E+06         0.14690E+05         0.00000E+00
    0.14690E+05        -0.12118E+06         0.00000E+00
    0.00000E+00         0.00000E+00         0.19643E+04
 
    0.12967E+06         0.20499E+05         0.00000E+00
    0.20499E+05        -0.12076E+06         0.00000E+00
    0.00000E+00         0.00000E+00         0.17803E+04
 
    0.12827E+06         0.26271E+05         0.00000E+00
    0.26271E+05        -0.12022E+06         0.00000E+00
    0.00000E+00         0.00000E+00         0.16099E+04
 
    0.12681E+06         0.32002E+05         0.00000E+00
    0.32002E+05        -0.11955E+06         0.00000E+00
    0.00000E+00         0.00000E+00         0.14521E+04
 
    0.12528E+06         0.37689E+05         0.00000E+00
    0.37689E+05        -0.11875E+06         0.00000E+00
    0.00000E+00         0.00000E+00         0.13062E+04
 
    0.12369E+06         0.43329E+05         0.00000E+00
    0.43329E+05        -0.11783E+06         0.00000E+00
    0.00000E+00         0.00000E+00         0.11713E+04
 
    0.12203E+06         0.48920E+05         0.00000E+00
    0.48920E+05        -0.11680E+06         0.00000E+00
    0.00000E+00         0.00000E+00         0.10467E+04
 
    0.12031E+06         0.54458E+05         0.00000E+00
    0.54458E+05        -0.11565E+06         0.00000E+00
    0.00000E+00         0.00000E+00         0.93148E+03
 
    0.11852E+06         0.59941E+05         0.00000E+00
    0.59941E+05        -0.11439E+06         0.00000E+00
    0.00000E+00         0.00000E+00         0.82494E+03
 
    0.11666E+06         0.65366E+05         0.00000E+00
    0.65366E+05        -0.11303E+06         0.00000E+00
    0.00000E+00         0.00000E+00         0.72628E+03
 
    0.11474E+06         0.70730E+05         0.00000E+00
    0.70730E+05        -0.11157E+06         0.00000E+00
    0.00000E+00         0.00000E+00         0.63474E+03
 
    0.11275E+06         0.76031E+05         0.00000E+00
    0.76031E+05        -0.11001E+06         0.00000E+00
    0.00000E+00         0.00000E+00         0.54958E+03
 
    0.11070E+06         0.81266E+05         0.00000E+00
    0.81266E+05        -0.10835E+06         0.00000E+00
    0.00000E+00         0.00000E+00         0.47005E+03
 
    0.10857E+06         0.86432E+05         0.00000E+00
    0.86432E+05        -0.10660E+06         0.00000E+00
    0.00000E+00         0.00000E+00         0.39542E+03
 
    0.10638E+06         0.91527E+05         0.00000E+00
    0.91527E+05        -0.10476E+06         0.00000E+00
    0.00000E+00         0.00000E+00         0.32496E+03
 
    0.10413E+06         0.96548E+05         0.00000E+00
    0.96548E+05        -0.10284E+06         0.00000E+00
    0.00000E+00         0.00000E+00         0.25795E+03
 
    0.10180E+06         0.10149E+06         0.00000E+00
    0.10149E+06        -0.10083E+06         0.00000E+00
    0.00000E+00         0.00000E+00         0.19367E+03
 
    0.99408E+05         0.10636E+06         0.00000E+00
    0.10636E+06        -0.98751E+05         0.00000E+00
    0.00000E+00         0.00000E+00         0.13142E+03
 
    0.96947E+05         0.11115E+06         0.00000E+00
    0.11115E+06        -0.96595E+05         0.00000E+00
    0.00000E+00         0.00000E+00         0.70466E+02
 
    0.94419E+05         0.11585E+06         0.00000E+00
    0.11585E+06        -0.94369E+05         0.00000E+00
    0.00000E+00         0.00000E+00         0.10086E+02
 
    0.91823E+05         0.12047E+06         0.00000E+00
    0.12047E+06        -0.92076E+05         0.00000E+00
    0.00000E+00         0.00000E+00        -0.50451E+02
 
    0.89160E+05         0.12500E+06         0.00000E+00
    0.12500E+06        -0.89720E+05         0.00000E+00
    0.00000E+00         0.00000E+00        -0.11189E+03
 
    0.86430E+05         0.12944E+06         0.00000E+00
    0.12944E+06        -0.87305E+05         0.00000E+00
    0.00000E+00         0.00000E+00        -0.17500E+03
 
    0.83632E+05         0.13379E+06         0.00000E+00
    0.13379E+06        -0.84835E+05         0.00000E+00
    0.00000E+00         0.00000E+00        -0.24055E+03
 
    0.80768E+05         0.13805E+06         0.00000E+00
    0.13805E+06        -0.82315E+05         0.00000E+00
    0.00000E+00         0.00000E+00        -0.30934E+03
 
    0.77837E+05         0.14221E+06         0.00000E+00
    0.14221E+06        -0.79748E+05         0.00000E+00
    0.00000E+00         0.00000E+00        -0.38222E+03
 
    0.74839E+05         0.14627E+06         0.00000E+00
    0.14627E+06        -0.77139E+05         0.00000E+00
    0.00000E+00         0.00000E+00        -0.46003E+03
 
    0.71774E+05         0.15024E+06         0.00000E+00
    0.15024E+06        -0.74493E+05         0.00000E+00
    0.00000E+00         0.00000E+00        -0.54368E+03
 
    0.68644E+05         0.15410E+06         0.00000E+00
    0.15410E+06        -0.71814E+05         0.00000E+00
    0.00000E+00         0.00000E+00        -0.63410E+03
 
    0.65447E+05         0.15787E+06         0.00000E+00
    0.15787E+06        -0.69108E+05         0.00000E+00
    0.00000E+00         0.00000E+00        -0.73225E+03
 
    0.62184E+05         0.16153E+06         0.00000E+00
    0.16153E+06        -0.66380E+05         0.00000E+00
    0.00000E+00         0.00000E+00        -0.83916E+03
 
    0.58855E+05         0.16508E+06         0.00000E+00
    0.16508E+06        -0.63635E+05         0.00000E+00
    0.00000E+00         0.00000E+00        -0.95589E+03
 
    0.55461E+05         0.16853E+06         0.00000E+00
    0.16853E+06        -0.60879E+05         0.00000E+00
    0.00000E+00         0.00000E+00        -0.10835E+04
 
    0.52002E+05         0.17187E+06         0.00000E+00
    0.17187E+06        -0.58118E+05         0.00000E+00
    0.00000E+00         0.00000E+00        -0.12233E+04
 
    0.48476E+05         0.17511E+06         0.00000E+00
    0.17511E+06        -0.55358E+05         0.00000E+00
    0.00000E+00         0.00000E+00        -0.13763E+04
 
    0.44886E+05         0.17823E+06         0.00000E+00
    0.17823E+06        -0.52606E+05         0.00000E+00
    0.00000E+00         0.00000E+00        -0.15439E+04
 
    0.41231E+05         0.18125E+06         0.00000E+00
    0.18125E+06        -0.49868E+05         0.00000E+00
    0.00000E+00         0.00000E+00        -0.17274E+04
 
    0.37510E+05         0.18415E+06         0.00000E+00
    0.18415E+06        -0.47151E+05         0.00000E+00
    0.00000E+00         0.00000E+00        -0.19281E+04
 
    0.33725E+05         0.18694E+06         0.00000E+00
    0.18694E+06        -0.44462E+05         0.00000E+00
    0.00000E+00         0.00000E+00        -0.21474E+04
 
    0.29875E+05         0.18963E+06         0.00000E+00
    0.18963E+06        -0.41809E+05         0.00000E+00
    0.00000E+00         0.00000E+00        -0.23869E+04
 
    0.25960E+05         0.19220E+06         0.00000E+00
    0.19220E+06        -0.39199E+05         0.00000E+00
    0.00000E+00         0.00000E+00        -0.26479E+04
 
    0.21980E+05         0.19466E+06         0.00000E+00
    0.19466E+06        -0.36641E+05         0.00000E+00
    0.00000E+00         0.00000E+00        -0.29321E+04
 
    0.17936E+05         0.19700E+06         0.00000E+00
    0.19700E+06        -0.34141E+05         0.00000E+00
    0.00000E+00         0.00000E+00        -0.32410E+04
 
    0.13827E+05         0.19924E+06         0.00000E+00
    0.19924E+06        -0.31708E+05         0.00000E+00
    0.00000E+00         0.00000E+00        -0.35762E+04
 
    0.96540E+04         0.20136E+06         0.00000E+00
    0.20136E+06        -0.29351E+05         0.00000E+00
    0.00000E+00         0.00000E+00        -0.39395E+04
 
    0.54164E+04         0.20338E+06         0.00000E+00
    0.20338E+06        -0.27078E+05         0.00000E+00
    0.00000E+00         0.00000E+00        -0.43323E+04
 
    0.11145E+04         0.20528E+06         0.00000E+00
    0.20528E+06        -0.24897E+05         0.00000E+00
    0.00000E+00         0.00000E+00        -0.47565E+04
 
   -0.32517E+04         0.20708E+06         0.00000E+00
    0.20708E+06        -0.22817E+05         0.00000E+00
    0.00000E+00         0.00000E+00        -0.52137E+04
 
    0.14924E+06         0.31067E+04         0.00000E+00
    0.31067E+04        -0.13596E+06         0.00000E+00
    0.00000E+00         0.00000E+00         0.26551E+04
 
    0.14789E+06         0.92539E+04         0.00000E+00
    0.92539E+04        -0.13581E+06         0.00000E+00
    0.00000E+00         0.00000E+00         0.24164E+04
 
    0.14647E+06         0.15369E+05         0.00000E+00
    0.15369E+05        -0.13550E+06         0.00000E+00
    0.00000E+00         0.00000E+00         0.21947E+04
 
    0.14498E+06         0.21448E+05         0.00000E+00
    0.21448E+05        -0.13504E+06         0.00000E+00
    0.00000E+00         0.00000E+00         0.19890E+04
 
    0.14342E+06         0.27488E+05         0.00000E+00
    0.27488E+05        -0.13443E+06         0.00000E+00
    0.00000E+00         0.00000E+00         0.17984E+04
 
    0.14179E+06         0.33487E+05         0.00000E+00
    0.33487E+05        -0.13368E+06         0.00000E+00
    0.00000E+00         0.00000E+00         0.16219E+04
 
    0.14009E+06         0.39441E+05         0.00000E+00
    0.39441E+05        -0.13280E+06         0.00000E+00
    0.00000E+00         0.00000E+00         0.14588E+04
 
    0.13832E+06         0.45346E+05         0.00000E+00
    0.45346E+05        -0.13178E+06         0.00000E+00
    0.00000E+00         0.00000E+00         0.13080E+04
 
    0.13648E+06         0.51201E+05         0.00000E+00
    0.51201E+05        -0.13063E+06         0.00000E+00
    0.00000E+00         0.00000E+00         0.11686E+04
 
    0.13456E+06         0.57003E+05         0.00000E+00
    0.57003E+05        -0.12936E+06         0.00000E+00
    0.00000E+00         0.00000E+00         0.10398E+04
 
    0.13257E+06         0.62747E+05         0.00000E+00
    0.62747E+05        -0.12796E+06         0.00000E+00
    0.00000E+00         0.00000E+00         0.92071E+03
 
    0.13050E+06         0.68432E+05         0.00000E+00
    0.68432E+05        -0.12645E+06         0.00000E+00
    0.00000E+00         0.00000E+00         0.81042E+03
 
    0.12836E+06         0.74054E+05         0.00000E+00
    0.74054E+05        -0.12482E+06         0.00000E+00
    0.00000E+00         0.00000E+00         0.70808E+03
 
    0.12615E+06         0.79611E+05         0.00000E+00
    0.79611E+05        -0.12309E+06         0.00000E+00
    0.00000E+00         0.00000E+00         0.61287E+03
 
    0.12386E+06         0.85101E+05         0.00000E+00
    0.85101E+05        -0.12124E+06         0.00000E+00
    0.00000E+00         0.00000E+00         0.52394E+03
 
    0.12150E+06         0.90519E+05         0.00000E+00
    0.90519E+05        -0.11930E+06         0.00000E+00
    0.00000E+00         0.00000E+00         0.44049E+03
 
    0.11906E+06         0.95864E+05         0.00000E+00
    0.95864E+05        -0.11725E+06         0.00000E+00
    0.00000E+00         0.00000E+00         0.36168E+03
 
    0.11654E+06         0.10113E+06         0.00000E+00
    0.10113E+06        -0.11511E+06         0.00000E+00
    0.00000E+00         0.00000E+00         0.28672E+03
 
    0.11395E+06         0.10632E+06         0.00000E+00
    0.10632E+06        -0.11288E+06         0.00000E+00
    0.00000E+00         0.00000E+00         0.21481E+03
 
    0.11129E+06         0.11143E+06         0.00000E+00
    0.11143E+06        -0.11056E+06         0.00000E+00
    0.00000E+00         0.00000E+00         0.14513E+03
 
    0.10855E+06         0.11646E+06         0.00000E+00
    0.11646E+06        -0.10816E+06         0.00000E+00
    0.00000E+00         0.00000E+00         0.76886E+02
 
    0.10573E+06         0.12140E+06         0.00000E+00
    0.12140E+06        -0.10568E+06         0.00000E+00
    0.00000E+00         0.00000E+00         0.92599E+01
 
    0.10283E+06         0.12625E+06         0.00000E+00
    0.12625E+06        -0.10313E+06         0.00000E+00
    0.00000E+00         0.00000E+00        -0.58568E+02
 
    0.99864E+05         0.13102E+06         0.00000E+00
    0.13102E+06        -0.10050E+06         0.00000E+00
    0.00000E+00         0.00000E+00        -0.12743E+03
 
    0.96818E+05         0.13569E+06         0.00000E+00
    0.13569E+06        -0.97809E+05         0.00000E+00
    0.00000E+00         0.00000E+00        -0.19819E+03
 
    0.93696E+05         0.14026E+06         0.00000E+00
    0.14026E+06        -0.95055E+05         0.00000E+00
    0.00000E+00         0.00000E+00        -0.27172E+03
 
    0.90499E+05         0.14474E+06         0.00000E+00
    0.14474E+06        -0.92243E+05         0.00000E+00
    0.00000E+00         0.00000E+00        -0.34892E+03
 
    0.87226E+05         0.14912E+06         0.00000E+00
    0.14912E+06        -0.89379E+05         0.00000E+00
    0.00000E+00         0.00000E+00        -0.43072E+03
 
    0.83877E+05         0.15339E+06         0.00000E+00
    0.15339E+06        -0.86468E+05         0.00000E+00
    0.00000E+00         0.00000E+00        -0.51808E+03
 
    0.80454E+05         0.15757E+06         0.00000E+00
    0.15757E+06        -0.83514E+05         0.00000E+00
    0.00000E+00         0.00000E+00        -0.61202E+03
 
    0.76955E+05         0.16164E+06         0.00000E+00
    0.16164E+06        -0.80523E+05         0.00000E+00
    0.00000E+00         0.00000E+00        -0.71358E+03
 
    0.73381E+05         0.16560E+06         0.00000E+00
    0.16560E+06        -0.77500E+05         0.00000E+00
    0.00000E+00         0.00000E+00        -0.82386E+03
 
    0.69732E+05         0.16946E+06         0.00000E+00
    0.16946E+06        -0.74452E+05         0.00000E+00
    0.00000E+00         0.00000E+00        -0.94399E+03
 
    0.66009E+05         0.17320E+06         0.00000E+00
    0.17320E+06        -0.71384E+05         0.00000E+00
    0.00000E+00         0.00000E+00        -0.10752E+04
 
    0.62210E+05         0.17684E+06         0.00000E+00
    0.17684E+06        -0.68304E+05         0.00000E+00
    0.00000E+00         0.00000E+00        -0.12186E+04
 
    0.58338E+05         0.18036E+06         0.00000E+00
    0.18036E+06        -0.65216E+05         0.00000E+00
    0.00000E+00         0.00000E+00        -0.13757E+04
 
    0.54391E+05         0.18377E+06         0.00000E+00
    0.18377E+06        -0.62129E+05         0.00000E+00
    0.00000E+00         0.00000E+00        -0.15477E+04
 
    0.50369E+05         0.18706E+06         0.00000E+00
    0.18706E+06        -0.59050E+05         0.00000E+00
    0.00000E+00         0.00000E+00        -0.17361E+04
 
    0.46274E+05         0.19024E+06         0.00000E+00
    0.19024E+06        -0.55985E+05         0.00000E+00
    0.00000E+00         0.00000E+00        -0.19424E+04
 
    0.42104E+05         0.19331E+06         0.00000E+00
    0.19331E+06        -0.52944E+05         0.00000E+00
    0.00000E+00         0.00000E+00        -0.21680E+04
 
    0.37860E+05         0.19625E+06         0.00000E+00
    0.19625E+06        -0.49933E+05         0.00000E+00
    0.00000E+00         0.00000E+00        -0.24145E+04
 
    0.33542E+05         0.19908E+06         0.00000E+00
    0.19908E+06        -0.46961E+05         0.00000E+00
    0.00000E+00         0.00000E+00        -0.26837E+04
 
    0.29151E+05         0.20180E+06         0.00000E+00
    0.20180E+06        -0.44037E+05         0.00000E+00
    0.00000E+00         0.00000E+00        -0.29772E+04
 
    0.24685E+05         0.20439E+06         0.00000E+00
    0.20439E+06        -0.41168E+05         0.00000E+00
    0.00000E+00         0.00000E+00        -0.32967E+04
 
    0.20146E+05         0.20687E+06         0.00000E+00
    0.20687E+06        -0.38365E+05         0.00000E+00
    0.00000E+00         0.00000E+00        -0.36440E+04
 
    0.15532E+05         0.20923E+06         0.00000E+00
    0.20923E+06        -0.35637E+05         0.00000E+00
    0.00000E+00         0.00000E+00        -0.40209E+04
 
    0.10845E+05         0.21147E+06         0.00000E+00
    0.21147E+06        -0.32992E+05         0.00000E+00
    0.00000E+00         0.00000E+00        -0.44292E+04
 
    0.60850E+04         0.21359E+06         0.00000E+00
    0.21359E+06        -0.30440E+05         0.00000E+00
    0.00000E+00         0.00000E+00        -0.48709E+04
 
    0.12510E+04         0.21560E+06         0.00000E+00
    0.21560E+06        -0.27990E+05         0.00000E+00
    0.00000E+00         0.00000E+00        -0.53478E+04
 
   -0.36563E+04         0.21749E+06         0.00000E+00
    0.21749E+06        -0.25652E+05         0.00000E+00
    0.00000E+00         0.00000E+00        -0.58617E+04
 
    0.16573E+06         0.32565E+04         0.00000E+00
    0.32565E+04        -0.15103E+06         0.00000E+00
    0.00000E+00         0.00000E+00         0.29400E+04
 
    0.16423E+06         0.97019E+04         0.00000E+00
    0.97019E+04        -0.15085E+06         0.00000E+00
    0.00000E+00         0.00000E+00         0.26754E+04
 
    0.16266E+06         0.16114E+05         0.00000E+00
    0.16114E+05        -0.15051E+06         0.00000E+00
    0.00000E+00         0.00000E+00         0.24296E+04
 
    0.16101E+06         0.22491E+05         0.00000E+00
    0.22491E+05        -0.15001E+06         0.00000E+00
    0.00000E+00         0.00000E+00         0.22016E+04
 
    0.15929E+06         0.28827E+05         0.00000E+00
    0.28827E+05        -0.14934E+06         0.00000E+00
    0.00000E+00         0.00000E+00         0.19903E+04
 
    0.15749E+06         0.35121E+05         0.00000E+00
    0.35121E+05        -0.14852E+06         0.00000E+00
    0.00000E+00         0.00000E+00         0.17948E+04
 
    0.15561E+06         0.41370E+05         0.00000E+00
    0.41370E+05        -0.14754E+06         0.00000E+00
    0.00000E+00         0.00000E+00         0.16140E+04
 
    0.15366E+06         0.47569E+05         0.00000E+00
    0.47569E+05        -0.14642E+06         0.00000E+00
    0.00000E+00         0.00000E+00         0.14469E+04
 
    0.15162E+06         0.53717E+05         0.00000E+00
    0.53717E+05        -0.14516E+06         0.00000E+00
    0.00000E+00         0.00000E+00         0.12925E+04
 
    0.14950E+06         0.59809E+05         0.00000E+00
    0.59809E+05        -0.14375E+06         0.00000E+00
    0.00000E+00         0.00000E+00         0.11498E+04
 
    0.14730E+06         0.65844E+05         0.00000E+00
    0.65844E+05        -0.14221E+06         0.00000E+00
    0.00000E+00         0.00000E+00         0.10178E+04
 
    0.14502E+06         0.71817E+05         0.00000E+00
    0.71817E+05        -0.14055E+06         0.00000E+00
    0.00000E+00         0.00000E+00         0.89563E+03
 
    0.14266E+06         0.77726E+05         0.00000E+00
    0.77726E+05        -0.13875E+06         0.00000E+00
    0.00000E+00         0.00000E+00         0.78223E+03
 
    0.14022E+06         0.83569E+05         0.00000E+00
    0.83569E+05        -0.13683E+06         0.00000E+00
    0.00000E+00         0.00000E+00         0.67672E+03
 
    0.13769E+06         0.89341E+05         0.00000E+00
    0.89341E+05        -0.13480E+06         0.00000E+00
    0.00000E+00         0.00000E+00         0.57816E+03
 
    0.13508E+06         0.95041E+05         0.00000E+00
    0.95041E+05        -0.13265E+06         0.00000E+00
    0.00000E+00         0.00000E+00         0.48564E+03
 
    0.13238E+06         0.10067E+06         0.00000E+00
    0.10067E+06        -0.13039E+06         0.00000E+00
    0.00000E+00         0.00000E+00         0.39825E+03
 
    0.12960E+06         0.10621E+06         0.00000E+00
    0.10621E+06        -0.12802E+06         0.00000E+00
    0.00000E+00         0.00000E+00         0.31511E+03
 
    0.12674E+06         0.11168E+06         0.00000E+00
    0.11168E+06        -0.12556E+06         0.00000E+00
    0.00000E+00         0.00000E+00         0.23530E+03
 
    0.12379E+06         0.11706E+06         0.00000E+00
    0.11706E+06        -0.12300E+06         0.00000E+00
    0.00000E+00         0.00000E+00         0.15794E+03
 
    0.12075E+06         0.12235E+06         0.00000E+00
    0.12235E+06        -0.12034E+06         0.00000E+00
    0.00000E+00         0.00000E+00         0.82138E+02
 
    0.11763E+06         0.12756E+06         0.00000E+00
    0.12756E+06        -0.11760E+06         0.00000E+00
    0.00000E+00         0.00000E+00         0.69790E+01
 
    0.11443E+06         0.13268E+06         0.00000E+00
    0.13268E+06        -0.11477E+06         0.00000E+00
    0.00000E+00         0.00000E+00        -0.68449E+02
 
    0.11114E+06         0.13770E+06         0.00000E+00
    0.13770E+06        -0.11187E+06         0.00000E+00
    0.00000E+00         0.00000E+00        -0.14508E+03
 
    0.10777E+06         0.14262E+06         0.00000E+00
    0.14262E+06        -0.10889E+06         0.00000E+00
    0.00000E+00         0.00000E+00        -0.22386E+03
 
    0.10431E+06         0.14745E+06         0.00000E+00
    0.14745E+06        -0.10584E+06         0.00000E+00
    0.00000E+00         0.00000E+00        -0.30577E+03
 
    0.10076E+06         0.15217E+06         0.00000E+00
    0.15217E+06        -0.10272E+06         0.00000E+00
    0.00000E+00         0.00000E+00        -0.39181E+03
 
    0.97132E+05         0.15680E+06         0.00000E+00
    0.15680E+06        -0.99547E+05         0.00000E+00
    0.00000E+00         0.00000E+00        -0.48302E+03
 
    0.93418E+05         0.16131E+06         0.00000E+00
    0.16131E+06        -0.96320E+05         0.00000E+00
    0.00000E+00         0.00000E+00        -0.58048E+03
 
    0.89618E+05         0.16572E+06         0.00000E+00
    0.16572E+06        -0.93045E+05         0.00000E+00
    0.00000E+00         0.00000E+00        -0.68532E+03
 
    0.85734E+05         0.17002E+06         0.00000E+00
    0.17002E+06        -0.89728E+05         0.00000E+00
    0.00000E+00         0.00000E+00        -0.79869E+03
 
    0.81765E+05         0.17421E+06         0.00000E+00
    0.17421E+06        -0.86375E+05         0.00000E+00
    0.00000E+00         0.00000E+00        -0.92183E+03
 
    0.77712E+05         0.17829E+06         0.00000E+00
    0.17829E+06        -0.82992E+05         0.00000E+00
    0.00000E+00         0.00000E+00        -0.10560E+04
 
    0.73574E+05         0.18225E+06         0.00000E+00
    0.18225E+06        -0.79587E+05         0.00000E+00
    0.00000E+00         0.00000E+00        -0.12025E+04
 
    0.69352E+05         0.18610E+06         0.00000E+00
    0.18610E+06        -0.76166E+05         0.00000E+00
    0.00000E+00         0.00000E+00        -0.13628E+04
 
    0.65045E+05         0.18982E+06         0.00000E+00
    0.18982E+06        -0.72736E+05         0.00000E+00
    0.00000E+00         0.00000E+00        -0.15383E+04
 
    0.60654E+05         0.19343E+06         0.00000E+00
    0.19343E+06        -0.69306E+05         0.00000E+00
    0.00000E+00         0.00000E+00        -0.17306E+04
 
    0.56178E+05         0.19692E+06         0.00000E+00
    0.19692E+06        -0.65884E+05         0.00000E+00
    0.00000E+00         0.00000E+00        -0.19411E+04
 
    0.51619E+05         0.20029E+06         0.00000E+00
    0.20029E+06        -0.62477E+05         0.00000E+00
    0.00000E+00         0.00000E+00        -0.21716E+04
 
    0.46975E+05         0.20353E+06         0.00000E+00
    0.20353E+06        -0.59094E+05         0.00000E+00
    0.00000E+00         0.00000E+00        -0.24238E+04
 
    0.42247E+05         0.20665E+06         0.00000E+00
    0.20665E+06        -0.55744E+05         0.00000E+00
    0.00000E+00         0.00000E+00        -0.26994E+04
 
    0.37435E+05         0.20965E+06         0.00000E+00
    0.20965E+06        -0.52436E+05         0.00000E+00
    0.00000E+00         0.00000E+00        -0.30003E+04
 
    0.32538E+05         0.21253E+06         0.00000E+00
    0.21253E+06        -0.49180E+05         0.00000E+00
    0.00000E+00         0.00000E+00        -0.33283E+04
 
    0.27558E+05         0.21528E+06         0.00000E+00
    0.21528E+06        -0.45985E+05         0.00000E+00
    0.00000E+00         0.00000E+00        -0.36855E+04
 
    0.22493E+05         0.21790E+06         0.00000E+00
    0.21790E+06        -0.42862E+05         0.00000E+00
    0.00000E+00         0.00000E+00        -0.40737E+04
 
    0.17345E+05         0.22040E+06         0.00000E+00
    0.22040E+06        -0.39820E+05         0.00000E+00
    0.00000E+00         0.00000E+00        -0.44950E+04
 
    0.12112E+05         0.22278E+06         0.00000E+00
    0.22278E+06        -0.36870E+05         0.00000E+00
    0.00000E+00         0.00000E+00        -0.49514E+04
 
    0.67961E+04         0.22503E+06         0.00000E+00
    0.22503E+06        -0.34022E+05         0.00000E+00
    0.00000E+00         0.00000E+00        -0.54452E+04
 
    0.13959E+04         0.22716E+06         0.00000E+00
    0.22716E+06        -0.31287E+05         0.00000E+00
    0.00000E+00         0.00000E+00        -0.59782E+04
 
   -0.40879E+04         0.22916E+06         0.00000E+00
    0.22916E+06        -0.28676E+05         0.00000E+00
    0.00000E+00         0.00000E+00        -0.65527E+04
 
    0.18300E+06         0.34196E+04         0.00000E+00
    0.34196E+04        -0.16686E+06         0.00000E+00
    0.00000E+00         0.00000E+00         0.32269E+04
 
    0.18136E+06         0.10191E+05         0.00000E+00
    0.10191E+05        -0.16668E+06         0.00000E+00
    0.00000E+00         0.00000E+00         0.29361E+04
 
    0.17963E+06         0.16929E+05         0.00000E+00
    0.16929E+05        -0.16630E+06         0.00000E+00
    0.00000E+00         0.00000E+00         0.26659E+04
 
    0.17783E+06         0.23630E+05         0.00000E+00
    0.23630E+05        -0.16575E+06         0.00000E+00
    0.00000E+00         0.00000E+00         0.24154E+04
 
    0.17594E+06         0.30292E+05         0.00000E+00
    0.30292E+05        -0.16502E+06         0.00000E+00
    0.00000E+00         0.00000E+00         0.21832E+04
 
    0.17396E+06         0.36910E+05         0.00000E+00
    0.36910E+05        -0.16412E+06         0.00000E+00
    0.00000E+00         0.00000E+00         0.19684E+04
 
    0.17190E+06         0.43482E+05         0.00000E+00
    0.43482E+05        -0.16306E+06         0.00000E+00
    0.00000E+00         0.00000E+00         0.17698E+04
 
    0.16976E+06         0.50005E+05         0.00000E+00
    0.50005E+05        -0.16183E+06         0.00000E+00
    0.00000E+00         0.00000E+00         0.15862E+04
 
    0.16753E+06         0.56475E+05         0.00000E+00
    0.56475E+05        -0.16044E+06         0.00000E+00
    0.00000E+00         0.00000E+00         0.14166E+04
 
    0.16520E+06         0.62888E+05         0.00000E+00
    0.62888E+05        -0.15890E+06         0.00000E+00
    0.00000E+00         0.00000E+00         0.12598E+04
 
    0.16279E+06         0.69243E+05         0.00000E+00
    0.69243E+05        -0.15722E+06         0.00000E+00
    0.00000E+00         0.00000E+00         0.11149E+04
 
    0.16029E+06         0.75535E+05         0.00000E+00
    0.75535E+05        -0.15539E+06         0.00000E+00
    0.00000E+00         0.00000E+00         0.98059E+03
 
    0.15770E+06         0.81762E+05         0.00000E+00
    0.81762E+05        -0.15342E+06         0.00000E+00
    0.00000E+00         0.00000E+00         0.85600E+03
 
    0.15502E+06         0.87920E+05         0.00000E+00
    0.87920E+05        -0.15132E+06         0.00000E+00
    0.00000E+00         0.00000E+00         0.74004E+03
 
    0.15224E+06         0.94006E+05         0.00000E+00
    0.94006E+05        -0.14908E+06         0.00000E+00
    0.00000E+00         0.00000E+00         0.63170E+03
 
    0.14937E+06         0.10002E+06         0.00000E+00
    0.10002E+06        -0.14672E+06         0.00000E+00
    0.00000E+00         0.00000E+00         0.52996E+03
 
    0.14641E+06         0.10595E+06         0.00000E+00
    0.10595E+06        -0.14424E+06         0.00000E+00
    0.00000E+00         0.00000E+00         0.43383E+03
 
    0.14336E+06         0.11181E+06         0.00000E+00
    0.11181E+06        -0.14165E+06         0.00000E+00
    0.00000E+00         0.00000E+00         0.34232E+03
 
    0.14021E+06         0.11758E+06         0.00000E+00
    0.11758E+06        -0.13894E+06         0.00000E+00
    0.00000E+00         0.00000E+00         0.25444E+03
 
    0.13697E+06         0.12326E+06         0.00000E+00
    0.12326E+06        -0.13612E+06         0.00000E+00
    0.00000E+00         0.00000E+00         0.16920E+03
 
    0.13363E+06         0.12885E+06         0.00000E+00
    0.12885E+06        -0.13320E+06         0.00000E+00
    0.00000E+00         0.00000E+00         0.85598E+02
 
    0.13020E+06         0.13436E+06         0.00000E+00
    0.13436E+06        -0.13019E+06         0.00000E+00
    0.00000E+00         0.00000E+00         0.26469E+01
 
    0.12667E+06         0.13976E+06         0.00000E+00
    0.13976E+06        -0.12708E+06         0.00000E+00
    0.00000E+00         0.00000E+00        -0.80671E+02
 
    0.12305E+06         0.14507E+06         0.00000E+00
    0.14507E+06        -0.12388E+06         0.00000E+00
    0.00000E+00         0.00000E+00        -0.16539E+03
 
    0.11933E+06         0.15028E+06         0.00000E+00
    0.15028E+06        -0.12060E+06         0.00000E+00
    0.00000E+00         0.00000E+00        -0.25255E+03
 
    0.11552E+06         0.15539E+06         0.00000E+00
    0.15539E+06        -0.11724E+06         0.00000E+00
    0.00000E+00         0.00000E+00        -0.34325E+03
 
    0.11161E+06         0.16039E+06         0.00000E+00
    0.16039E+06        -0.11381E+06         0.00000E+00
    0.00000E+00         0.00000E+00        -0.43859E+03
 
    0.10761E+06         0.16529E+06         0.00000E+00
    0.16529E+06        -0.11031E+06         0.00000E+00
    0.00000E+00         0.00000E+00        -0.53974E+03
 
    0.10351E+06         0.17007E+06         0.00000E+00
    0.17007E+06        -0.10675E+06         0.00000E+00
    0.00000E+00         0.00000E+00        -0.64788E+03
 
    0.99320E+05         0.17475E+06         0.00000E+00
    0.17475E+06        -0.10314E+06         0.00000E+00
    0.00000E+00         0.00000E+00        -0.76426E+03
 
    0.95032E+05         0.17931E+06         0.00000E+00
    0.17931E+06        -0.99483E+05         0.00000E+00
    0.00000E+00         0.00000E+00        -0.89018E+03
 
    0.90648E+05         0.18375E+06         0.00000E+00
    0.18375E+06        -0.95783E+05         0.00000E+00
    0.00000E+00         0.00000E+00        -0.10270E+04
 
    0.86170E+05         0.18807E+06         0.00000E+00
    0.18807E+06        -0.92050E+05         0.00000E+00
    0.00000E+00         0.00000E+00        -0.11761E+04
 
    0.81596E+05         0.19228E+06         0.00000E+00
    0.19228E+06        -0.88291E+05         0.00000E+00
    0.00000E+00         0.00000E+00        -0.13390E+04
 
    0.76927E+05         0.19636E+06         0.00000E+00
    0.19636E+06        -0.84513E+05         0.00000E+00
    0.00000E+00         0.00000E+00        -0.15172E+04
 
    0.72162E+05         0.20032E+06         0.00000E+00
    0.20032E+06        -0.80724E+05         0.00000E+00
    0.00000E+00         0.00000E+00        -0.17124E+04
 
    0.67303E+05         0.20415E+06         0.00000E+00
    0.20415E+06        -0.76934E+05         0.00000E+00
    0.00000E+00         0.00000E+00        -0.19262E+04
 
    0.62348E+05         0.20786E+06         0.00000E+00
    0.20786E+06        -0.73150E+05         0.00000E+00
    0.00000E+00         0.00000E+00        -0.21604E+04
 
    0.57298E+05         0.21144E+06         0.00000E+00
    0.21144E+06        -0.69382E+05         0.00000E+00
    0.00000E+00         0.00000E+00        -0.24169E+04
 
    0.52153E+05         0.21489E+06         0.00000E+00
    0.21489E+06        -0.65640E+05         0.00000E+00
    0.00000E+00         0.00000E+00        -0.26974E+04
 
    0.46912E+05         0.21821E+06         0.00000E+00
    0.21821E+06        -0.61933E+05         0.00000E+00
    0.00000E+00         0.00000E+00        -0.30041E+04
 
    0.41576E+05         0.22140E+06         0.00000E+00
    0.22140E+06        -0.58271E+05         0.00000E+00
    0.00000E+00         0.00000E+00        -0.33388E+04
 
    0.36145E+05         0.22446E+06         0.00000E+00
    0.22446E+06        -0.54664E+05         0.00000E+00
    0.00000E+00         0.00000E+00        -0.37038E+04
 
    0.30618E+05         0.22739E+06         0.00000E+00
    0.22739E+06        -0.51124E+05         0.00000E+00
    0.00000E+00         0.00000E+00        -0.41012E+04
 
    0.24995E+05         0.23018E+06         0.00000E+00
    0.23018E+06        -0.47661E+05         0.00000E+00
    0.00000E+00         0.00000E+00        -0.45332E+04
 
    0.19277E+05         0.23284E+06         0.00000E+00
    0.23284E+06        -0.44288E+05         0.00000E+00
    0.00000E+00         0.00000E+00        -0.50020E+04
 
    0.13464E+05         0.23537E+06         0.00000E+00
    0.23537E+06        -0.41014E+05         0.00000E+00
    0.00000E+00         0.00000E+00        -0.55100E+04
 
    0.75547E+04         0.23777E+06         0.00000E+00
    0.23777E+06        -0.37851E+05         0.00000E+00
    0.00000E+00         0.00000E+00        -0.60594E+04
 
    0.15502E+04         0.24004E+06         0.00000E+00
    0.24004E+06        -0.34813E+05         0.00000E+00
    0.00000E+00         0.00000E+00        -0.66525E+04
 
   -0.45496E+04         0.24217E+06         0.00000E+00
    0.24217E+06        -0.31910E+05         0.00000E+00
    0.00000E+00         0.00000E+00        -0.72918E+04
 
    0.20111E+06         0.35963E+04         0.00000E+00
    0.35963E+04        -0.18356E+06         0.00000E+00
    0.00000E+00         0.00000E+00         0.35106E+04
 
    0.19932E+06         0.10722E+05         0.00000E+00
    0.10722E+05        -0.18336E+06         0.00000E+00
    0.00000E+00         0.00000E+00         0.31936E+04
 
    0.19745E+06         0.17815E+05         0.00000E+00
    0.17815E+05        -0.18295E+06         0.00000E+00
    0.00000E+00         0.00000E+00         0.28993E+04
 
    0.19548E+06         0.24871E+05         0.00000E+00
    0.24871E+05        -0.18235E+06         0.00000E+00
    0.00000E+00         0.00000E+00         0.26263E+04
 
    0.19342E+06         0.31888E+05         0.00000E+00
    0.31888E+05        -0.18156E+06         0.00000E+00
    0.00000E+00         0.00000E+00         0.23734E+04
 
    0.19127E+06         0.38861E+05         0.00000E+00
    0.38861E+05        -0.18058E+06         0.00000E+00
    0.00000E+00         0.00000E+00         0.21394E+04
 
    0.18903E+06         0.45788E+05         0.00000E+00
    0.45788E+05        -0.17942E+06         0.00000E+00
    0.00000E+00         0.00000E+00         0.19230E+04
 
    0.18670E+06         0.52665E+05         0.00000E+00
    0.52665E+05        -0.17808E+06         0.00000E+00
    0.00000E+00         0.00000E+00         0.17231E+04
 
    0.18426E+06         0.59489E+05         0.00000E+00
    0.59489E+05        -0.17657E+06         0.00000E+00
    0.00000E+00         0.00000E+00         0.15384E+04
 
    0.18173E+06         0.66255E+05         0.00000E+00
    0.66255E+05        -0.17489E+06         0.00000E+00
    0.00000E+00         0.00000E+00         0.13676E+04
 
    0.17910E+06         0.72962E+05         0.00000E+00
    0.72962E+05        -0.17306E+06         0.00000E+00
    0.00000E+00         0.00000E+00         0.12097E+04
 
    0.17638E+06         0.79605E+05         0.00000E+00
    0.79605E+05        -0.17106E+06         0.00000E+00
    0.00000E+00         0.00000E+00         0.10634E+04
 
    0.17355E+06         0.86181E+05         0.00000E+00
    0.86181E+05        -0.16891E+06         0.00000E+00
    0.00000E+00         0.00000E+00         0.92767E+03
 
    0.17062E+06         0.92688E+05         0.00000E+00
    0.92688E+05        -0.16662E+06         0.00000E+00
    0.00000E+00         0.00000E+00         0.80130E+03
 
    0.16759E+06         0.99120E+05         0.00000E+00
    0.99120E+05        -0.16418E+06         0.00000E+00
    0.00000E+00         0.00000E+00         0.68318E+03
 
    0.16446E+06         0.10548E+06         0.00000E+00
    0.10548E+06        -0.16160E+06         0.00000E+00
    0.00000E+00         0.00000E+00         0.57221E+03
 
    0.16123E+06         0.11175E+06         0.00000E+00
    0.11175E+06        -0.15889E+06         0.00000E+00
    0.00000E+00         0.00000E+00         0.46729E+03
 
    0.15789E+06         0.11795E+06         0.00000E+00
    0.11795E+06        -0.15605E+06         0.00000E+00
    0.00000E+00         0.00000E+00         0.36735E+03
 
    0.15444E+06         0.12405E+06         0.00000E+00
    0.12405E+06        -0.15309E+06         0.00000E+00
    0.00000E+00         0.00000E+00         0.27129E+03
 
    0.15090E+06         0.13007E+06         0.00000E+00
    0.13007E+06        -0.15001E+06         0.00000E+00
    0.00000E+00         0.00000E+00         0.17803E+03
 
    0.14724E+06         0.13600E+06         0.00000E+00
    0.13600E+06        -0.14681E+06         0.00000E+00
    0.00000E+00         0.00000E+00         0.86475E+02
 
    0.14349E+06         0.14183E+06         0.00000E+00
    0.14183E+06        -0.14351E+06         0.00000E+00
    0.00000E+00         0.00000E+00        -0.44706E+01
 
    0.13962E+06         0.14756E+06         0.00000E+00
    0.14756E+06        -0.14010E+06         0.00000E+00
    0.00000E+00         0.00000E+00        -0.95922E+02
 
    0.13565E+06         0.15319E+06         0.00000E+00
    0.15319E+06        -0.13660E+06         0.00000E+00
    0.00000E+00         0.00000E+00        -0.18901E+03
 
    0.13158E+06         0.15872E+06         0.00000E+00
    0.15872E+06        -0.13300E+06         0.00000E+00
    0.00000E+00         0.00000E+00        -0.28491E+03
 
    0.12740E+06         0.16414E+06         0.00000E+00
    0.16414E+06        -0.12932E+06         0.00000E+00
    0.00000E+00         0.00000E+00        -0.38480E+03
 
    0.12311E+06         0.16945E+06         0.00000E+00
    0.16945E+06        -0.12556E+06         0.00000E+00
    0.00000E+00         0.00000E+00        -0.48990E+03
 
    0.11872E+06         0.17464E+06         0.00000E+00
    0.17464E+06        -0.12172E+06         0.00000E+00
    0.00000E+00         0.00000E+00        -0.60151E+03
 
    0.11422E+06         0.17973E+06         0.00000E+00
    0.17973E+06        -0.11782E+06         0.00000E+00
    0.00000E+00         0.00000E+00        -0.72092E+03
 
    0.10961E+06         0.18470E+06         0.00000E+00
    0.18470E+06        -0.11386E+06         0.00000E+00
    0.00000E+00         0.00000E+00        -0.84953E+03
 
    0.10490E+06         0.18954E+06         0.00000E+00
    0.18954E+06        -0.10984E+06         0.00000E+00
    0.00000E+00         0.00000E+00        -0.98876E+03
 
    0.10008E+06         0.19427E+06         0.00000E+00
    0.19427E+06        -0.10578E+06         0.00000E+00
    0.00000E+00         0.00000E+00        -0.11401E+04
 
    0.95150E+05         0.19887E+06         0.00000E+00
    0.19887E+06        -0.10168E+06         0.00000E+00
    0.00000E+00         0.00000E+00        -0.13051E+04
 
    0.90116E+05         0.20335E+06         0.00000E+00
    0.20335E+06        -0.97544E+05         0.00000E+00
    0.00000E+00         0.00000E+00        -0.14855E+04
 
    0.84976E+05         0.20769E+06         0.00000E+00
    0.20769E+06        -0.93390E+05         0.00000E+00
    0.00000E+00         0.00000E+00        -0.16829E+04
 
    0.79729E+05         0.21191E+06         0.00000E+00
    0.21191E+06        -0.89224E+05         0.00000E+00
    0.00000E+00         0.00000E+00        -0.18990E+04
 
    0.74374E+05         0.21600E+06         0.00000E+00
    0.21600E+06        -0.85054E+05         0.00000E+00
    0.00000E+00         0.00000E+00        -0.21359E+04
 
    0.68913E+05         0.21995E+06         0.00000E+00
    0.21995E+06        -0.80890E+05         0.00000E+00
    0.00000E+00         0.00000E+00        -0.23955E+04
 
    0.63344E+05         0.22377E+06         0.00000E+00
    0.22377E+06        -0.76742E+05         0.00000E+00
    0.00000E+00         0.00000E+00        -0.26796E+04
 
    0.57667E+05         0.22745E+06         0.00000E+00
    0.22745E+06        -0.72620E+05         0.00000E+00
    0.00000E+00         0.00000E+00        -0.29906E+04
 
    0.51883E+05         0.23100E+06         0.00000E+00
    0.23100E+06        -0.68536E+05         0.00000E+00
    0.00000E+00         0.00000E+00        -0.33305E+04
 
    0.45991E+05         0.23440E+06         0.00000E+00
    0.23440E+06        -0.64499E+05         0.00000E+00
    0.00000E+00         0.00000E+00        -0.37016E+04
 
    0.39991E+05         0.23767E+06         0.00000E+00
    0.23767E+06        -0.60522E+05         0.00000E+00
    0.00000E+00         0.00000E+00        -0.41062E+04
 
    0.33883E+05         0.24080E+06         0.00000E+00
    0.24080E+06        -0.56617E+05         0.00000E+00
    0.00000E+00         0.00000E+00        -0.45467E+04
 
    0.27666E+05         0.24379E+06         0.00000E+00
    0.24379E+06        -0.52794E+05         0.00000E+00
    0.00000E+00         0.00000E+00        -0.50256E+04
 
    0.21341E+05         0.24663E+06         0.00000E+00
    0.24663E+06        -0.49068E+05         0.00000E+00
    0.00000E+00         0.00000E+00        -0.55453E+04
 
    0.14908E+05         0.24934E+06         0.00000E+00
    0.24934E+06        -0.45450E+05         0.00000E+00
    0.00000E+00         0.00000E+00        -0.61085E+04
 
    0.83655E+04         0.25191E+06         0.00000E+00
    0.25191E+06        -0.41953E+05         0.00000E+00
    0.00000E+00         0.00000E+00        -0.67175E+04
 
    0.17147E+04         0.25433E+06         0.00000E+00
    0.25433E+06        -0.38590E+05         0.00000E+00
    0.00000E+00         0.00000E+00        -0.73751E+04
 
   -0.50446E+04         0.25661E+06         0.00000E+00
    0.25661E+06        -0.35375E+05         0.00000E+00
    0.00000E+00         0.00000E+00        -0.80839E+04
 
    0.22013E+06         0.37875E+04         0.00000E+00
    0.37875E+04        -0.20121E+06         0.00000E+00
    0.00000E+00         0.00000E+00         0.37838E+04
 
    0.21819E+06         0.11298E+05         0.00000E+00
    0.11298E+05        -0.20099E+06         0.00000E+00
    0.00000E+00         0.00000E+00         0.34415E+04
 
    0.21616E+06         0.18777E+05         0.00000E+00
    0.18777E+05        -0.20055E+06         0.00000E+00
    0.00000E+00         0.00000E+00         0.31236E+04
 
    0.21404E+06         0.26220E+05         0.00000E+00
    0.26220E+05        -0.19990E+06         0.00000E+00
    0.00000E+00         0.00000E+00         0.28288E+04
 
    0.21182E+06         0.33624E+05         0.00000E+00
    0.33624E+05        -0.19904E+06         0.00000E+00
    0.00000E+00         0.00000E+00         0.25558E+04
 
    0.20949E+06         0.40986E+05         0.00000E+00
    0.40986E+05        -0.19798E+06         0.00000E+00
    0.00000E+00         0.00000E+00         0.23032E+04
 
    0.20707E+06         0.48301E+05         0.00000E+00
    0.48301E+05        -0.19672E+06         0.00000E+00
    0.00000E+00         0.00000E+00         0.20696E+04
 
    0.20454E+06         0.55566E+05         0.00000E+00
    0.55566E+05        -0.19527E+06         0.00000E+00
    0.00000E+00         0.00000E+00         0.18538E+04
 
    0.20190E+06         0.62777E+05         0.00000E+00
    0.62777E+05        -0.19363E+06         0.00000E+00
    0.00000E+00         0.00000E+00         0.16544E+04
 
    0.19916E+06         0.69932E+05         0.00000E+00
    0.69932E+05        -0.19181E+06         0.00000E+00
    0.00000E+00         0.00000E+00         0.14701E+04
 
    0.19631E+06         0.77025E+05         0.00000E+00
    0.77025E+05        -0.18981E+06         0.00000E+00
    0.00000E+00         0.00000E+00         0.12996E+04
 
    0.19335E+06         0.84054E+05         0.00000E+00
    0.84054E+05        -0.18765E+06         0.00000E+00
    0.00000E+00         0.00000E+00         0.11417E+04
 
    0.19029E+06         0.91015E+05         0.00000E+00
    0.91015E+05        -0.18531E+06         0.00000E+00
    0.00000E+00         0.00000E+00         0.99504E+03
 
    0.18711E+06         0.97905E+05         0.00000E+00
    0.97905E+05        -0.18281E+06         0.00000E+00
    0.00000E+00         0.00000E+00         0.85849E+03
 
    0.18381E+06         0.10472E+06         0.00000E+00
    0.10472E+06        -0.18016E+06         0.00000E+00
    0.00000E+00         0.00000E+00         0.73080E+03
 
    0.18041E+06         0.11145E+06         0.00000E+00
    0.11145E+06        -0.17735E+06         0.00000E+00
    0.00000E+00         0.00000E+00         0.61076E+03
 
    0.17689E+06         0.11811E+06         0.00000E+00
    0.11811E+06        -0.17440E+06         0.00000E+00
    0.00000E+00         0.00000E+00         0.49718E+03
 
    0.17325E+06         0.12468E+06         0.00000E+00
    0.12468E+06        -0.17131E+06         0.00000E+00
    0.00000E+00         0.00000E+00         0.38889E+03
 
    0.16950E+06         0.13115E+06         0.00000E+00
    0.13115E+06        -0.16808E+06         0.00000E+00
    0.00000E+00         0.00000E+00         0.28468E+03
 
    0.16564E+06         0.13754E+06         0.00000E+00
    0.13754E+06        -0.16472E+06         0.00000E+00
    0.00000E+00         0.00000E+00         0.18339E+03
 
    0.16166E+06         0.14383E+06         0.00000E+00
    0.14383E+06        -0.16124E+06         0.00000E+00
    0.00000E+00         0.00000E+00         0.83813E+02
 
    0.15756E+06         0.15002E+06         0.00000E+00
    0.15002E+06        -0.15763E+06         0.00000E+00
    0.00000E+00         0.00000E+00        -0.15244E+02
 
    0.15334E+06         0.15611E+06         0.00000E+00
    0.15611E+06        -0.15392E+06         0.00000E+00
    0.00000E+00         0.00000E+00        -0.11500E+03
 
    0.14901E+06         0.16210E+06         0.00000E+00
    0.16210E+06        -0.15009E+06         0.00000E+00
    0.00000E+00         0.00000E+00        -0.21670E+03
 
    0.14456E+06         0.16797E+06         0.00000E+00
    0.16797E+06        -0.14617E+06         0.00000E+00
    0.00000E+00         0.00000E+00        -0.32162E+03
 
    0.13999E+06         0.17374E+06         0.00000E+00
    0.17374E+06        -0.14214E+06         0.00000E+00
    0.00000E+00         0.00000E+00        -0.43106E+03
 
    0.13530E+06         0.17939E+06         0.00000E+00
    0.17939E+06        -0.13803E+06         0.00000E+00
    0.00000E+00         0.00000E+00        -0.54636E+03
 
    0.13050E+06         0.18492E+06         0.00000E+00
    0.18492E+06        -0.13384E+06         0.00000E+00
    0.00000E+00         0.00000E+00        -0.66894E+03
 
    0.12557E+06         0.19034E+06         0.00000E+00
    0.19034E+06        -0.12958E+06         0.00000E+00
    0.00000E+00         0.00000E+00        -0.80023E+03
 
    0.12053E+06         0.19563E+06         0.00000E+00
    0.19563E+06        -0.12524E+06         0.00000E+00
    0.00000E+00         0.00000E+00        -0.94175E+03
 
    0.11537E+06         0.20080E+06         0.00000E+00
    0.20080E+06        -0.12085E+06         0.00000E+00
    0.00000E+00         0.00000E+00        -0.10951E+04
 
    0.11009E+06         0.20584E+06         0.00000E+00
    0.20584E+06        -0.11640E+06         0.00000E+00
    0.00000E+00         0.00000E+00        -0.12619E+04
 
    0.10469E+06         0.21075E+06         0.00000E+00
    0.21075E+06        -0.11191E+06         0.00000E+00
    0.00000E+00         0.00000E+00        -0.14438E+04
 
    0.99173E+05         0.21552E+06         0.00000E+00
    0.21552E+06        -0.10739E+06         0.00000E+00
    0.00000E+00         0.00000E+00        -0.16428E+04
 
    0.93535E+05         0.22016E+06         0.00000E+00
    0.22016E+06        -0.10284E+06         0.00000E+00
    0.00000E+00         0.00000E+00        -0.18606E+04
 
    0.87778E+05         0.22467E+06         0.00000E+00
    0.22467E+06        -0.98274E+05         0.00000E+00
    0.00000E+00         0.00000E+00        -0.20992E+04
 
    0.81900E+05         0.22904E+06         0.00000E+00
    0.22904E+06        -0.93703E+05         0.00000E+00
    0.00000E+00         0.00000E+00        -0.23608E+04
 
    0.75902E+05         0.23327E+06         0.00000E+00
    0.23327E+06        -0.89138E+05         0.00000E+00
    0.00000E+00         0.00000E+00        -0.26474E+04
 
    0.69783E+05         0.23735E+06         0.00000E+00
    0.23735E+06        -0.84589E+05         0.00000E+00
    0.00000E+00         0.00000E+00        -0.29612E+04
 
    0.63543E+05         0.24129E+06         0.00000E+00
    0.24129E+06        -0.80067E+05         0.00000E+00
    0.00000E+00         0.00000E+00        -0.33047E+04
 
    0.57182E+05         0.24509E+06         0.00000E+00
    0.24509E+06        -0.75583E+05         0.00000E+00
    0.00000E+00         0.00000E+00        -0.36802E+04
 
    0.50700E+05         0.24874E+06         0.00000E+00
    0.24874E+06        -0.71151E+05         0.00000E+00
    0.00000E+00         0.00000E+00        -0.40903E+04
 
    0.44095E+05         0.25225E+06         0.00000E+00
    0.25225E+06        -0.66782E+05         0.00000E+00
    0.00000E+00         0.00000E+00        -0.45373E+04
 
    0.37368E+05         0.25560E+06         0.00000E+00
    0.25560E+06        -0.62489E+05         0.00000E+00
    0.00000E+00         0.00000E+00        -0.50241E+04
 
    0.30519E+05         0.25881E+06         0.00000E+00
    0.25881E+06        -0.58286E+05         0.00000E+00
    0.00000E+00         0.00000E+00        -0.55533E+04
 
    0.23547E+05         0.26187E+06         0.00000E+00
    0.26187E+06        -0.54185E+05         0.00000E+00
    0.00000E+00         0.00000E+00        -0.61277E+04
 
    0.16451E+05         0.26477E+06         0.00000E+00
    0.26477E+06        -0.50201E+05         0.00000E+00
    0.00000E+00         0.00000E+00        -0.67500E+04
 
    0.92327E+04         0.26753E+06         0.00000E+00
    0.26753E+06        -0.46348E+05         0.00000E+00
    0.00000E+00         0.00000E+00        -0.74230E+04
 
    0.18905E+04         0.27014E+06         0.00000E+00
    0.27014E+06        -0.42639E+05         0.00000E+00
    0.00000E+00         0.00000E+00        -0.81498E+04
 
   -0.55753E+04         0.27260E+06         0.00000E+00
    0.27260E+06        -0.39090E+05         0.00000E+00
    0.00000E+00         0.00000E+00        -0.89330E+04
 
    0.24009E+06         0.39943E+04         0.00000E+00
    0.39943E+04        -0.21990E+06         0.00000E+00
    0.00000E+00         0.00000E+00         0.40371E+04
 
    0.23802E+06         0.11924E+05         0.00000E+00
    0.11924E+05        -0.21967E+06         0.00000E+00
    0.00000E+00         0.00000E+00         0.36710E+04
 
    0.23585E+06         0.19823E+05         0.00000E+00
    0.19823E+05        -0.21919E+06         0.00000E+00
    0.00000E+00         0.00000E+00         0.33310E+04
 
    0.23357E+06         0.27688E+05         0.00000E+00
    0.27688E+05        -0.21849E+06         0.00000E+00
    0.00000E+00         0.00000E+00         0.30159E+04
 
    0.23118E+06         0.35516E+05         0.00000E+00
    0.35516E+05        -0.21756E+06         0.00000E+00
    0.00000E+00         0.00000E+00         0.27240E+04
 
    0.22869E+06         0.43302E+05         0.00000E+00
    0.43302E+05        -0.21642E+06         0.00000E+00
    0.00000E+00         0.00000E+00         0.24540E+04
 
    0.22608E+06         0.51042E+05         0.00000E+00
    0.51042E+05        -0.21506E+06         0.00000E+00
    0.00000E+00         0.00000E+00         0.22043E+04
 
    0.22336E+06         0.58733E+05         0.00000E+00
    0.58733E+05        -0.21349E+06         0.00000E+00
    0.00000E+00         0.00000E+00         0.19736E+04
 
    0.22052E+06         0.66370E+05         0.00000E+00
    0.66370E+05        -0.21172E+06         0.00000E+00
    0.00000E+00         0.00000E+00         0.17604E+04
 
    0.21756E+06         0.73950E+05         0.00000E+00
    0.73950E+05        -0.20975E+06         0.00000E+00
    0.00000E+00         0.00000E+00         0.15634E+04
 
    0.21449E+06         0.81469E+05         0.00000E+00
    0.81469E+05        -0.20758E+06         0.00000E+00
    0.00000E+00         0.00000E+00         0.13811E+04
 
    0.21129E+06         0.88922E+05         0.00000E+00
    0.88922E+05        -0.20523E+06         0.00000E+00
    0.00000E+00         0.00000E+00         0.12122E+04
 
    0.20798E+06         0.96306E+05         0.00000E+00
    0.96306E+05        -0.20270E+06         0.00000E+00
    0.00000E+00         0.00000E+00         0.10553E+04
 
    0.20454E+06         0.10362E+06         0.00000E+00
    0.10362E+06        -0.19999E+06         0.00000E+00
    0.00000E+00         0.00000E+00         0.90911E+03
 
    0.20097E+06         0.11085E+06         0.00000E+00
    0.11085E+06        -0.19711E+06         0.00000E+00
    0.00000E+00         0.00000E+00         0.77232E+03
 
    0.19728E+06         0.11800E+06         0.00000E+00
    0.11800E+06        -0.19407E+06         0.00000E+00
    0.00000E+00         0.00000E+00         0.64362E+03
 
    0.19347E+06         0.12507E+06         0.00000E+00
    0.12507E+06        -0.19086E+06         0.00000E+00
    0.00000E+00         0.00000E+00         0.52172E+03
 
    0.18953E+06         0.13205E+06         0.00000E+00
    0.13205E+06        -0.18750E+06         0.00000E+00
    0.00000E+00         0.00000E+00         0.40534E+03
 
    0.18546E+06         0.13894E+06         0.00000E+00
    0.13894E+06        -0.18399E+06         0.00000E+00
    0.00000E+00         0.00000E+00         0.29320E+03
 
    0.18126E+06         0.14573E+06         0.00000E+00
    0.14573E+06        -0.18034E+06         0.00000E+00
    0.00000E+00         0.00000E+00         0.18402E+03
 
    0.17693E+06         0.15242E+06         0.00000E+00
    0.15242E+06        -0.17655E+06         0.00000E+00
    0.00000E+00         0.00000E+00         0.76500E+02
 
    0.17247E+06         0.15901E+06         0.00000E+00
    0.15901E+06        -0.17263E+06         0.00000E+00
    0.00000E+00         0.00000E+00        -0.30661E+02
 
    0.16789E+06         0.16550E+06         0.00000E+00
    0.16550E+06        -0.16858E+06         0.00000E+00
    0.00000E+00         0.00000E+00        -0.13879E+03
 
    0.16317E+06         0.17187E+06         0.00000E+00
    0.17187E+06        -0.16442E+06         0.00000E+00
    0.00000E+00         0.00000E+00        -0.24924E+03
 
    0.15832E+06         0.17813E+06         0.00000E+00
    0.17813E+06        -0.16014E+06         0.00000E+00
    0.00000E+00         0.00000E+00        -0.36339E+03
 
    0.15335E+06         0.18428E+06         0.00000E+00
    0.18428E+06        -0.15576E+06         0.00000E+00
    0.00000E+00         0.00000E+00        -0.48267E+03
 
    0.14824E+06         0.19030E+06         0.00000E+00
    0.19030E+06        -0.15128E+06         0.00000E+00
    0.00000E+00         0.00000E+00        -0.60855E+03
 
    0.14300E+06         0.19620E+06         0.00000E+00
    0.19620E+06        -0.14671E+06         0.00000E+00
    0.00000E+00         0.00000E+00        -0.74257E+03
 
    0.13763E+06         0.20198E+06         0.00000E+00
    0.20198E+06        -0.14206E+06         0.00000E+00
    0.00000E+00         0.00000E+00        -0.88631E+03
 
    0.13213E+06         0.20763E+06         0.00000E+00
    0.20763E+06        -0.13733E+06         0.00000E+00
    0.00000E+00         0.00000E+00        -0.10414E+04
 
    0.12649E+06         0.21315E+06         0.00000E+00
    0.21315E+06        -0.13254E+06         0.00000E+00
    0.00000E+00         0.00000E+00        -0.12096E+04
 
    0.12073E+06         0.21853E+06         0.00000E+00
    0.21853E+06        -0.12769E+06         0.00000E+00
    0.00000E+00         0.00000E+00        -0.13927E+04
 
    0.11483E+06         0.22378E+06         0.00000E+00
    0.22378E+06        -0.12279E+06         0.00000E+00
    0.00000E+00         0.00000E+00        -0.15927E+04
 
    0.10880E+06         0.22889E+06         0.00000E+00
    0.22889E+06        -0.11785E+06         0.00000E+00
    0.00000E+00         0.00000E+00        -0.18114E+04
 
    0.10263E+06         0.23386E+06         0.00000E+00
    0.23386E+06        -0.11289E+06         0.00000E+00
    0.00000E+00         0.00000E+00        -0.20509E+04
 
    0.96334E+05         0.23868E+06         0.00000E+00
    0.23868E+06        -0.10790E+06         0.00000E+00
    0.00000E+00         0.00000E+00        -0.23135E+04
 
    0.89902E+05         0.24336E+06         0.00000E+00
    0.24336E+06        -0.10291E+06         0.00000E+00
    0.00000E+00         0.00000E+00        -0.26014E+04
 
    0.83336E+05         0.24789E+06         0.00000E+00
    0.24789E+06        -0.97920E+05         0.00000E+00
    0.00000E+00         0.00000E+00        -0.29169E+04
 
    0.76635E+05         0.25227E+06         0.00000E+00
    0.25227E+06        -0.92947E+05         0.00000E+00
    0.00000E+00         0.00000E+00        -0.32625E+04
 
    0.69798E+05         0.25650E+06         0.00000E+00
    0.25650E+06        -0.88002E+05         0.00000E+00
    0.00000E+00         0.00000E+00        -0.36408E+04
 
    0.62825E+05         0.26058E+06         0.00000E+00
    0.26058E+06        -0.83097E+05         0.00000E+00
    0.00000E+00         0.00000E+00        -0.40544E+04
 
    0.55716E+05         0.26451E+06         0.00000E+00
    0.26451E+06        -0.78246E+05         0.00000E+00
    0.00000E+00         0.00000E+00        -0.45060E+04
 
    0.48469E+05         0.26827E+06         0.00000E+00
    0.26827E+06        -0.73462E+05         0.00000E+00
    0.00000E+00         0.00000E+00        -0.49986E+04
 
    0.41085E+05         0.27189E+06         0.00000E+00
    0.27189E+06        -0.68760E+05         0.00000E+00
    0.00000E+00         0.00000E+00        -0.55349E+04
 
    0.33563E+05         0.27534E+06         0.00000E+00
    0.27534E+06        -0.64152E+05         0.00000E+00
    0.00000E+00         0.00000E+00        -0.61180E+04
 
    0.25901E+05         0.27864E+06         0.00000E+00
    0.27864E+06        -0.59655E+05         0.00000E+00
    0.00000E+00         0.00000E+00        -0.67508E+04
 
    0.18100E+05         0.28177E+06         0.00000E+00
    0.28177E+06        -0.55283E+05         0.00000E+00
    0.00000E+00         0.00000E+00        -0.74365E+04
 
    0.10159E+05         0.28475E+06         0.00000E+00
    0.28475E+06        -0.51050E+05         0.00000E+00
    0.00000E+00         0.00000E+00        -0.81782E+04
 
    0.20783E+04         0.28757E+06         0.00000E+00
    0.28757E+06        -0.46973E+05         0.00000E+00
    0.00000E+00         0.00000E+00        -0.89790E+04
 
   -0.61435E+04         0.29023E+06         0.00000E+00
    0.29023E+06        -0.43067E+05         0.00000E+00
    0.00000E+00         0.00000E+00        -0.98421E+04
 
    0.26107E+06         0.42189E+04         0.00000E+00
    0.42189E+04        -0.23977E+06         0.00000E+00
    0.00000E+00         0.00000E+00         0.42591E+04
 
    0.25887E+06         0.12605E+05         0.00000E+00
    0.12605E+05        -0.23951E+06         0.00000E+00
    0.00000E+00         0.00000E+00         0.38717E+04
 
    0.25657E+06         0.20964E+05         0.00000E+00
    0.20964E+05        -0.23901E+06         0.00000E+00
    0.00000E+00         0.00000E+00         0.35121E+04
 
    0.25414E+06         0.29292E+05         0.00000E+00
    0.29292E+05        -0.23825E+06         0.00000E+00
    0.00000E+00         0.00000E+00         0.31788E+04
 
    0.25160E+06         0.37584E+05         0.00000E+00
    0.37584E+05        -0.23725E+06         0.00000E+00
    0.00000E+00         0.00000E+00         0.28701E+04
 
    0.24894E+06         0.45836E+05         0.00000E+00
    0.45836E+05        -0.23602E+06         0.00000E+00
    0.00000E+00         0.00000E+00         0.25846E+04
 
    0.24615E+06         0.54044E+05         0.00000E+00
    0.54044E+05        -0.23455E+06         0.00000E+00
    0.00000E+00         0.00000E+00         0.23206E+04
 
    0.24324E+06         0.62203E+05         0.00000E+00
    0.62203E+05        -0.23285E+06         0.00000E+00
    0.00000E+00         0.00000E+00         0.20766E+04
 
    0.24019E+06         0.70308E+05         0.00000E+00
    0.70308E+05        -0.23094E+06         0.00000E+00
    0.00000E+00         0.00000E+00         0.18512E+04
 
    0.23702E+06         0.78356E+05         0.00000E+00
    0.78356E+05        -0.22881E+06         0.00000E+00
    0.00000E+00         0.00000E+00         0.16428E+04
 
    0.23372E+06         0.86343E+05         0.00000E+00
    0.86343E+05        -0.22647E+06         0.00000E+00
    0.00000E+00         0.00000E+00         0.14499E+04
 
    0.23028E+06         0.94263E+05         0.00000E+00
    0.94263E+05        -0.22392E+06         0.00000E+00
    0.00000E+00         0.00000E+00         0.12712E+04
 
    0.22671E+06         0.10211E+06         0.00000E+00
    0.10211E+06        -0.22118E+06         0.00000E+00
    0.00000E+00         0.00000E+00         0.11050E+04
 
    0.22300E+06         0.10989E+06         0.00000E+00
    0.10989E+06        -0.21825E+06         0.00000E+00
    0.00000E+00         0.00000E+00         0.95015E+03
 
    0.21915E+06         0.11758E+06         0.00000E+00
    0.11758E+06        -0.21512E+06         0.00000E+00
    0.00000E+00         0.00000E+00         0.80507E+03
 
    0.21516E+06         0.12519E+06         0.00000E+00
    0.12519E+06        -0.21182E+06         0.00000E+00
    0.00000E+00         0.00000E+00         0.66842E+03
 
    0.21104E+06         0.13272E+06         0.00000E+00
    0.13272E+06        -0.20834E+06         0.00000E+00
    0.00000E+00         0.00000E+00         0.53882E+03
 
    0.20677E+06         0.14015E+06         0.00000E+00
    0.14015E+06        -0.20470E+06         0.00000E+00
    0.00000E+00         0.00000E+00         0.41489E+03
 
    0.20236E+06         0.14749E+06         0.00000E+00
    0.14749E+06        -0.20089E+06         0.00000E+00
    0.00000E+00         0.00000E+00         0.29525E+03
 
    0.19781E+06         0.15472E+06         0.00000E+00
    0.15472E+06        -0.19692E+06         0.00000E+00
    0.00000E+00         0.00000E+00         0.17852E+03
 
    0.19312E+06         0.16186E+06         0.00000E+00
    0.16186E+06        -0.19281E+06         0.00000E+00
    0.00000E+00         0.00000E+00         0.63313E+02
 
    0.18829E+06         0.16888E+06         0.00000E+00
    0.16888E+06        -0.18855E+06         0.00000E+00
    0.00000E+00         0.00000E+00        -0.51781E+02
 
    0.18331E+06         0.17580E+06         0.00000E+00
    0.17580E+06        -0.18415E+06         0.00000E+00
    0.00000E+00         0.00000E+00        -0.16820E+03
 
    0.17819E+06         0.18259E+06         0.00000E+00
    0.18259E+06        -0.17962E+06         0.00000E+00
    0.00000E+00         0.00000E+00        -0.28739E+03
 
    0.17292E+06         0.18928E+06         0.00000E+00
    0.18928E+06        -0.17498E+06         0.00000E+00
    0.00000E+00         0.00000E+00        -0.41088E+03
 
    0.16751E+06         0.19583E+06         0.00000E+00
    0.19583E+06        -0.17021E+06         0.00000E+00
    0.00000E+00         0.00000E+00        -0.54019E+03
 
    0.16196E+06         0.20227E+06         0.00000E+00
    0.20227E+06        -0.16534E+06         0.00000E+00
    0.00000E+00         0.00000E+00        -0.67694E+03
 
    0.15626E+06         0.20857E+06         0.00000E+00
    0.20857E+06        -0.16037E+06         0.00000E+00
    0.00000E+00         0.00000E+00        -0.82279E+03
 
    0.15041E+06         0.21475E+06         0.00000E+00
    0.21475E+06        -0.15531E+06         0.00000E+00
    0.00000E+00         0.00000E+00        -0.97946E+03
 
    0.14442E+06         0.22079E+06         0.00000E+00
    0.22079E+06        -0.15017E+06         0.00000E+00
    0.00000E+00         0.00000E+00        -0.11488E+04
 
    0.13829E+06         0.22669E+06         0.00000E+00
    0.22669E+06        -0.14495E+06         0.00000E+00
    0.00000E+00         0.00000E+00        -0.13326E+04
 
    0.13201E+06         0.23245E+06         0.00000E+00
    0.23245E+06        -0.13967E+06         0.00000E+00
    0.00000E+00         0.00000E+00        -0.15329E+04
 
    0.12558E+06         0.23807E+06         0.00000E+00
    0.23807E+06        -0.13434E+06         0.00000E+00
    0.00000E+00         0.00000E+00        -0.17518E+04
 
    0.11901E+06         0.24354E+06         0.00000E+00
    0.24354E+06        -0.12896E+06         0.00000E+00
    0.00000E+00         0.00000E+00        -0.19914E+04
 
    0.11228E+06         0.24886E+06         0.00000E+00
    0.24886E+06        -0.12355E+06         0.00000E+00
    0.00000E+00         0.00000E+00        -0.22540E+04
 
    0.10541E+06         0.25403E+06         0.00000E+00
    0.25403E+06        -0.11812E+06         0.00000E+00
    0.00000E+00         0.00000E+00        -0.25419E+04
 
    0.98395E+05         0.25905E+06         0.00000E+00
    0.25905E+06        -0.11268E+06         0.00000E+00
    0.00000E+00         0.00000E+00        -0.28578E+04
 
    0.91227E+05         0.26392E+06         0.00000E+00
    0.26392E+06        -0.10725E+06         0.00000E+00
    0.00000E+00         0.00000E+00        -0.32040E+04
 
    0.83909E+05         0.26863E+06         0.00000E+00
    0.26863E+06        -0.10183E+06         0.00000E+00
    0.00000E+00         0.00000E+00        -0.35834E+04
 
    0.76440E+05         0.27318E+06         0.00000E+00
    0.27318E+06        -0.96434E+05         0.00000E+00
    0.00000E+00         0.00000E+00        -0.39988E+04
 
    0.68819E+05         0.27757E+06         0.00000E+00
    0.27757E+06        -0.91084E+05         0.00000E+00
    0.00000E+00         0.00000E+00        -0.44530E+04
 
    0.61046E+05         0.28179E+06         0.00000E+00
    0.28179E+06        -0.85791E+05         0.00000E+00
    0.00000E+00         0.00000E+00        -0.49490E+04
 
    0.53119E+05         0.28586E+06         0.00000E+00
    0.28586E+06        -0.80569E+05         0.00000E+00
    0.00000E+00         0.00000E+00        -0.54901E+04
 
    0.45037E+05         0.28975E+06         0.00000E+00
    0.28975E+06        -0.75434E+05         0.00000E+00
    0.00000E+00         0.00000E+00        -0.60792E+04
 
    0.36801E+05         0.29348E+06         0.00000E+00
    0.29348E+06        -0.70399E+05         0.00000E+00
    0.00000E+00         0.00000E+00        -0.67198E+04
 
    0.28407E+05         0.29705E+06         0.00000E+00
    0.29705E+06        -0.65482E+05         0.00000E+00
    0.00000E+00         0.00000E+00        -0.74151E+04
 
    0.19856E+05         0.30045E+06         0.00000E+00
    0.30045E+06        -0.60699E+05         0.00000E+00
    0.00000E+00         0.00000E+00        -0.81685E+04
 
    0.11147E+05         0.30367E+06         0.00000E+00
    0.30367E+06        -0.56064E+05         0.00000E+00
    0.00000E+00         0.00000E+00        -0.89834E+04
 
    0.22787E+04         0.30673E+06         0.00000E+00
    0.30673E+06        -0.51596E+05         0.00000E+00
    0.00000E+00         0.00000E+00        -0.98634E+04
 
   -0.67494E+04         0.30962E+06         0.00000E+00
    0.30962E+06        -0.47309E+05         0.00000E+00
    0.00000E+00         0.00000E+00        -0.10812E+05
 
    0.28312E+06         0.44646E+04         0.00000E+00
    0.44646E+04        -0.26094E+06         0.00000E+00
    0.00000E+00         0.00000E+00         0.44360E+04
 
    0.28082E+06         0.13353E+05         0.00000E+00
    0.13353E+05        -0.26067E+06         0.00000E+00
    0.00000E+00         0.00000E+00         0.40312E+04
 
    0.27840E+06         0.22219E+05         0.00000E+00
    0.22219E+05        -0.26012E+06         0.00000E+00
    0.00000E+00         0.00000E+00         0.36556E+04
 
    0.27584E+06         0.31056E+05         0.00000E+00
    0.31056E+05        -0.25931E+06         0.00000E+00
    0.00000E+00         0.00000E+00         0.33073E+04
 
    0.27316E+06         0.39861E+05         0.00000E+00
    0.39861E+05        -0.25823E+06         0.00000E+00
    0.00000E+00         0.00000E+00         0.29849E+04
 
    0.27033E+06         0.48627E+05         0.00000E+00
    0.48627E+05        -0.25690E+06         0.00000E+00
    0.00000E+00         0.00000E+00         0.26867E+04
 
    0.26737E+06         0.57351E+05         0.00000E+00
    0.57351E+05        -0.25531E+06         0.00000E+00
    0.00000E+00         0.00000E+00         0.24110E+04
 
    0.26427E+06         0.66028E+05         0.00000E+00
    0.66028E+05        -0.25348E+06         0.00000E+00
    0.00000E+00         0.00000E+00         0.21562E+04
 
    0.26102E+06         0.74651E+05         0.00000E+00
    0.74651E+05        -0.25141E+06         0.00000E+00
    0.00000E+00         0.00000E+00         0.19207E+04
 
    0.25763E+06         0.83216E+05         0.00000E+00
    0.83216E+05        -0.24911E+06         0.00000E+00
    0.00000E+00         0.00000E+00         0.17029E+04
 
    0.25409E+06         0.91719E+05         0.00000E+00
    0.91719E+05        -0.24658E+06         0.00000E+00
    0.00000E+00         0.00000E+00         0.15013E+04
 
    0.25040E+06         0.10015E+06         0.00000E+00
    0.10015E+06        -0.24382E+06         0.00000E+00
    0.00000E+00         0.00000E+00         0.13144E+04
 
    0.24656E+06         0.10852E+06         0.00000E+00
    0.10852E+06        -0.24085E+06         0.00000E+00
    0.00000E+00         0.00000E+00         0.11405E+04
 
    0.24257E+06         0.11680E+06         0.00000E+00
    0.11680E+06        -0.23767E+06         0.00000E+00
    0.00000E+00         0.00000E+00         0.97823E+03
 
    0.23842E+06         0.12501E+06         0.00000E+00
    0.12501E+06        -0.23429E+06         0.00000E+00
    0.00000E+00         0.00000E+00         0.82607E+03
 
    0.23412E+06         0.13312E+06         0.00000E+00
    0.13312E+06        -0.23071E+06         0.00000E+00
    0.00000E+00         0.00000E+00         0.68254E+03
 
    0.22967E+06         0.14115E+06         0.00000E+00
    0.14115E+06        -0.22694E+06         0.00000E+00
    0.00000E+00         0.00000E+00         0.54618E+03
 
    0.22506E+06         0.14907E+06         0.00000E+00
    0.14907E+06        -0.22298E+06         0.00000E+00
    0.00000E+00         0.00000E+00         0.41551E+03
 
    0.22029E+06         0.15690E+06         0.00000E+00
    0.15690E+06        -0.21884E+06         0.00000E+00
    0.00000E+00         0.00000E+00         0.28908E+03
 
    0.21537E+06         0.16463E+06         0.00000E+00
    0.16463E+06        -0.21454E+06         0.00000E+00
    0.00000E+00         0.00000E+00         0.16540E+03
 
    0.21029E+06         0.17224E+06         0.00000E+00
    0.17224E+06        -0.21007E+06         0.00000E+00
    0.00000E+00         0.00000E+00         0.42993E+02
 
    0.20505E+06         0.17974E+06         0.00000E+00
    0.17974E+06        -0.20545E+06         0.00000E+00
    0.00000E+00         0.00000E+00        -0.79655E+02
 
    0.19965E+06         0.18712E+06         0.00000E+00
    0.18712E+06        -0.20067E+06         0.00000E+00
    0.00000E+00         0.00000E+00        -0.20408E+03
 
    0.19410E+06         0.19439E+06         0.00000E+00
    0.19439E+06        -0.19576E+06         0.00000E+00
    0.00000E+00         0.00000E+00        -0.33186E+03
 
    0.18838E+06         0.20152E+06         0.00000E+00
    0.20152E+06        -0.19071E+06         0.00000E+00
    0.00000E+00         0.00000E+00        -0.46461E+03
 
    0.18251E+06         0.20853E+06         0.00000E+00
    0.20853E+06        -0.18553E+06         0.00000E+00
    0.00000E+00         0.00000E+00        -0.60400E+03
 
    0.17648E+06         0.21541E+06         0.00000E+00
    0.21541E+06        -0.18024E+06         0.00000E+00
    0.00000E+00         0.00000E+00        -0.75177E+03
 
    0.17029E+06         0.22215E+06         0.00000E+00
    0.22215E+06        -0.17484E+06         0.00000E+00
    0.00000E+00         0.00000E+00        -0.90970E+03
 
    0.16394E+06         0.22876E+06         0.00000E+00
    0.22876E+06        -0.16934E+06         0.00000E+00
    0.00000E+00         0.00000E+00        -0.10797E+04
 
    0.15744E+06         0.23522E+06         0.00000E+00
    0.23522E+06        -0.16375E+06         0.00000E+00
    0.00000E+00         0.00000E+00        -0.12637E+04
 
    0.15077E+06         0.24153E+06         0.00000E+00
    0.24153E+06        -0.15809E+06         0.00000E+00
    0.00000E+00         0.00000E+00        -0.14637E+04
 
    0.14394E+06         0.24770E+06         0.00000E+00
    0.24770E+06        -0.15235E+06         0.00000E+00
    0.00000E+00         0.00000E+00        -0.16820E+04
 
    0.13695E+06         0.25372E+06         0.00000E+00
    0.25372E+06        -0.14655E+06         0.00000E+00
    0.00000E+00         0.00000E+00        -0.19207E+04
 
    0.12980E+06         0.25958E+06         0.00000E+00
    0.25958E+06        -0.14071E+06         0.00000E+00
    0.00000E+00         0.00000E+00        -0.21822E+04
 
    0.12249E+06         0.26529E+06         0.00000E+00
    0.26529E+06        -0.13483E+06         0.00000E+00
    0.00000E+00         0.00000E+00        -0.24690E+04
 
    0.11501E+06         0.27084E+06         0.00000E+00
    0.27084E+06        -0.12893E+06         0.00000E+00
    0.00000E+00         0.00000E+00        -0.27838E+04
 
    0.10737E+06         0.27623E+06         0.00000E+00
    0.27623E+06        -0.12302E+06         0.00000E+00
    0.00000E+00         0.00000E+00        -0.31291E+04
 
    0.99567E+05         0.28146E+06         0.00000E+00
    0.28146E+06        -0.11711E+06         0.00000E+00
    0.00000E+00         0.00000E+00        -0.35078E+04
 
    0.91598E+05         0.28652E+06         0.00000E+00
    0.28652E+06        -0.11121E+06         0.00000E+00
    0.00000E+00         0.00000E+00        -0.39230E+04
 
    0.83461E+05         0.29142E+06         0.00000E+00
    0.29142E+06        -0.10535E+06         0.00000E+00
    0.00000E+00         0.00000E+00        -0.43775E+04
 
    0.75156E+05         0.29615E+06         0.00000E+00
    0.29615E+06        -0.99530E+05         0.00000E+00
    0.00000E+00         0.00000E+00        -0.48747E+04
 
    0.66682E+05         0.30070E+06         0.00000E+00
    0.30070E+06        -0.93771E+05         0.00000E+00
    0.00000E+00         0.00000E+00        -0.54178E+04
 
    0.58037E+05         0.30509E+06         0.00000E+00
    0.30509E+06        -0.88088E+05         0.00000E+00
    0.00000E+00         0.00000E+00        -0.60103E+04
 
    0.49219E+05         0.30930E+06         0.00000E+00
    0.30930E+06        -0.82496E+05         0.00000E+00
    0.00000E+00         0.00000E+00        -0.66555E+04
 
    0.40227E+05         0.31334E+06         0.00000E+00
    0.31334E+06        -0.77012E+05         0.00000E+00
    0.00000E+00         0.00000E+00        -0.73570E+04
 
    0.31060E+05         0.31721E+06         0.00000E+00
    0.31721E+06        -0.71653E+05         0.00000E+00
    0.00000E+00         0.00000E+00        -0.81186E+04
 
    0.21716E+05         0.32089E+06         0.00000E+00
    0.32089E+06        -0.66436E+05         0.00000E+00
    0.00000E+00         0.00000E+00        -0.89439E+04
 
    0.12194E+05         0.32440E+06         0.00000E+00
    0.32440E+06        -0.61377E+05         0.00000E+00
    0.00000E+00         0.00000E+00        -0.98366E+04
 
    0.24920E+04         0.32774E+06         0.00000E+00
    0.32774E+06        -0.56495E+05         0.00000E+00
    0.00000E+00         0.00000E+00        -0.10801E+05
 
   -0.73913E+04         0.33089E+06         0.00000E+00
    0.33089E+06        -0.51807E+05         0.00000E+00
    0.00000E+00         0.00000E+00        -0.11840E+05
 
    0.30635E+06         0.47362E+04         0.00000E+00
    0.47362E+04        -0.28358E+06         0.00000E+00
    0.00000E+00         0.00000E+00         0.45530E+04
 
    0.30397E+06         0.14183E+05         0.00000E+00
    0.14183E+05        -0.28329E+06         0.00000E+00
    0.00000E+00         0.00000E+00         0.41360E+04
 
    0.30144E+06         0.23611E+05         0.00000E+00
    0.23611E+05        -0.28270E+06         0.00000E+00
    0.00000E+00         0.00000E+00         0.37491E+04
 
    0.29877E+06         0.33016E+05         0.00000E+00
    0.33016E+05        -0.28182E+06         0.00000E+00
    0.00000E+00         0.00000E+00         0.33905E+04
 
    0.29595E+06         0.42391E+05         0.00000E+00
    0.42391E+05        -0.28066E+06         0.00000E+00
    0.00000E+00         0.00000E+00         0.30584E+04
 
    0.29297E+06         0.51731E+05         0.00000E+00
    0.51731E+05        -0.27922E+06         0.00000E+00
    0.00000E+00         0.00000E+00         0.27513E+04
 
    0.28984E+06         0.61030E+05         0.00000E+00
    0.61030E+05        -0.27750E+06         0.00000E+00
    0.00000E+00         0.00000E+00         0.24674E+04
 
    0.28655E+06         0.70281E+05         0.00000E+00
    0.70281E+05        -0.27552E+06         0.00000E+00
    0.00000E+00         0.00000E+00         0.22049E+04
 
    0.28309E+06         0.79480E+05         0.00000E+00
    0.79480E+05        -0.27328E+06         0.00000E+00
    0.00000E+00         0.00000E+00         0.19623E+04
 
    0.27948E+06         0.88621E+05         0.00000E+00
    0.88621E+05        -0.27079E+06         0.00000E+00
    0.00000E+00         0.00000E+00         0.17379E+04
 
    0.27569E+06         0.97697E+05         0.00000E+00
    0.97697E+05        -0.26804E+06         0.00000E+00
    0.00000E+00         0.00000E+00         0.15300E+04
 
    0.27174E+06         0.10670E+06         0.00000E+00
    0.10670E+06        -0.26505E+06         0.00000E+00
    0.00000E+00         0.00000E+00         0.13371E+04
 
    0.26762E+06         0.11563E+06         0.00000E+00
    0.11563E+06        -0.26183E+06         0.00000E+00
    0.00000E+00         0.00000E+00         0.11575E+04
 
    0.26333E+06         0.12448E+06         0.00000E+00
    0.12448E+06        -0.25838E+06         0.00000E+00
    0.00000E+00         0.00000E+00         0.98974E+03
 
    0.25887E+06         0.13325E+06         0.00000E+00
    0.13325E+06        -0.25471E+06         0.00000E+00
    0.00000E+00         0.00000E+00         0.83215E+03
 
    0.25423E+06         0.14192E+06         0.00000E+00
    0.14192E+06        -0.25082E+06         0.00000E+00
    0.00000E+00         0.00000E+00         0.68323E+03
 
    0.24943E+06         0.15049E+06         0.00000E+00
    0.15049E+06        -0.24672E+06         0.00000E+00
    0.00000E+00         0.00000E+00         0.54142E+03
 
    0.24445E+06         0.15897E+06         0.00000E+00
    0.15897E+06        -0.24242E+06         0.00000E+00
    0.00000E+00         0.00000E+00         0.40519E+03
 
    0.23929E+06         0.16733E+06         0.00000E+00
    0.16733E+06        -0.23793E+06         0.00000E+00
    0.00000E+00         0.00000E+00         0.27298E+03
 
    0.23397E+06         0.17559E+06         0.00000E+00
    0.17559E+06        -0.23325E+06         0.00000E+00
    0.00000E+00         0.00000E+00         0.14324E+03
 
    0.22847E+06         0.18372E+06         0.00000E+00
    0.18372E+06        -0.22840E+06         0.00000E+00
    0.00000E+00         0.00000E+00         0.14384E+02
 
    0.22279E+06         0.19174E+06         0.00000E+00
    0.19174E+06        -0.22337E+06         0.00000E+00
    0.00000E+00         0.00000E+00        -0.11519E+03
 
    0.21695E+06         0.19963E+06         0.00000E+00
    0.19963E+06        -0.21818E+06         0.00000E+00
    0.00000E+00         0.00000E+00        -0.24713E+03
 
    0.21092E+06         0.20740E+06         0.00000E+00
    0.20740E+06        -0.21284E+06         0.00000E+00
    0.00000E+00         0.00000E+00        -0.38310E+03
 
    0.20473E+06         0.21503E+06         0.00000E+00
    0.21503E+06        -0.20735E+06         0.00000E+00
    0.00000E+00         0.00000E+00        -0.52484E+03
 
    0.19836E+06         0.22252E+06         0.00000E+00
    0.22252E+06        -0.20173E+06         0.00000E+00
    0.00000E+00         0.00000E+00        -0.67415E+03
 
    0.19182E+06         0.22988E+06         0.00000E+00
    0.22988E+06        -0.19598E+06         0.00000E+00
    0.00000E+00         0.00000E+00        -0.83288E+03
 
    0.18510E+06         0.23709E+06         0.00000E+00
    0.23709E+06        -0.19012E+06         0.00000E+00
    0.00000E+00         0.00000E+00        -0.10030E+04
 
    0.17822E+06         0.24415E+06         0.00000E+00
    0.24415E+06        -0.18415E+06         0.00000E+00
    0.00000E+00         0.00000E+00        -0.11864E+04
 
    0.17115E+06         0.25106E+06         0.00000E+00
    0.25106E+06        -0.17808E+06         0.00000E+00
    0.00000E+00         0.00000E+00        -0.13854E+04
 
    0.16392E+06         0.25782E+06         0.00000E+00
    0.25782E+06        -0.17193E+06         0.00000E+00
    0.00000E+00         0.00000E+00        -0.16021E+04
 
    0.15650E+06         0.26442E+06         0.00000E+00
    0.26442E+06        -0.16570E+06         0.00000E+00
    0.00000E+00         0.00000E+00        -0.18389E+04
 
    0.14892E+06         0.27087E+06         0.00000E+00
    0.27087E+06        -0.15941E+06         0.00000E+00
    0.00000E+00         0.00000E+00        -0.20981E+04
 
    0.14116E+06         0.27715E+06         0.00000E+00
    0.27715E+06        -0.15307E+06         0.00000E+00
    0.00000E+00         0.00000E+00        -0.23824E+04
 
    0.13322E+06         0.28327E+06         0.00000E+00
    0.28327E+06        -0.14669E+06         0.00000E+00
    0.00000E+00         0.00000E+00        -0.26945E+04
 
    0.12510E+06         0.28922E+06         0.00000E+00
    0.28922E+06        -0.14029E+06         0.00000E+00
    0.00000E+00         0.00000E+00        -0.30371E+04
 
    0.11680E+06         0.29501E+06         0.00000E+00
    0.29501E+06        -0.13387E+06         0.00000E+00
    0.00000E+00         0.00000E+00        -0.34132E+04
 
    0.10833E+06         0.30062E+06         0.00000E+00
    0.30062E+06        -0.12746E+06         0.00000E+00
    0.00000E+00         0.00000E+00        -0.38259E+04
 
    0.99673E+05         0.30607E+06         0.00000E+00
    0.30607E+06        -0.12107E+06         0.00000E+00
    0.00000E+00         0.00000E+00        -0.42784E+04
 
    0.90834E+05         0.31134E+06         0.00000E+00
    0.31134E+06        -0.11470E+06         0.00000E+00
    0.00000E+00         0.00000E+00        -0.47741E+04
 
    0.81810E+05         0.31643E+06         0.00000E+00
    0.31643E+06        -0.10839E+06         0.00000E+00
    0.00000E+00         0.00000E+00        -0.53164E+04
 
    0.72599E+05         0.32135E+06         0.00000E+00
    0.32135E+06        -0.10214E+06         0.00000E+00
    0.00000E+00         0.00000E+00        -0.59089E+04
 
    0.63199E+05         0.32608E+06         0.00000E+00
    0.32608E+06        -0.95975E+05         0.00000E+00
    0.00000E+00         0.00000E+00        -0.65553E+04
 
    0.53609E+05         0.33064E+06         0.00000E+00
    0.33064E+06        -0.89906E+05         0.00000E+00
    0.00000E+00         0.00000E+00        -0.72593E+04
 
    0.43826E+05         0.33502E+06         0.00000E+00
    0.33502E+06        -0.83951E+05         0.00000E+00
    0.00000E+00         0.00000E+00        -0.80250E+04
 
    0.33847E+05         0.33921E+06         0.00000E+00
    0.33921E+06        -0.78129E+05         0.00000E+00
    0.00000E+00         0.00000E+00        -0.88563E+04
 
    0.23671E+05         0.34322E+06         0.00000E+00
    0.34322E+06        -0.72457E+05         0.00000E+00
    0.00000E+00         0.00000E+00        -0.97571E+04
 
    0.13296E+05         0.34705E+06         0.00000E+00
    0.34705E+06        -0.66954E+05         0.00000E+00
    0.00000E+00         0.00000E+00        -0.10732E+05
 
    0.27178E+04         0.35068E+06         0.00000E+00
    0.35068E+06        -0.61638E+05         0.00000E+00
    0.00000E+00         0.00000E+00        -0.11784E+05
 
   -0.80644E+04         0.35414E+06         0.00000E+00
    0.35414E+06        -0.56528E+05         0.00000E+00
    0.00000E+00         0.00000E+00        -0.12919E+05
 
    0.33085E+06         0.50409E+04         0.00000E+00
    0.50409E+04        -0.30788E+06         0.00000E+00
    0.00000E+00         0.00000E+00         0.45945E+04
 
    0.32842E+06         0.15115E+05         0.00000E+00
    0.15115E+05        -0.30756E+06         0.00000E+00
    0.00000E+00         0.00000E+00         0.41720E+04
 
    0.32582E+06         0.25177E+05         0.00000E+00
    0.25177E+05        -0.30692E+06         0.00000E+00
    0.00000E+00         0.00000E+00         0.37800E+04
 
    0.32306E+06         0.35220E+05         0.00000E+00
    0.35220E+05        -0.30597E+06         0.00000E+00
    0.00000E+00         0.00000E+00         0.34167E+04
 
    0.32011E+06         0.45238E+05         0.00000E+00
    0.45238E+05        -0.30471E+06         0.00000E+00
    0.00000E+00         0.00000E+00         0.30804E+04
 
    0.31700E+06         0.55222E+05         0.00000E+00
    0.55222E+05        -0.30315E+06         0.00000E+00
    0.00000E+00         0.00000E+00         0.27692E+04
 
    0.31370E+06         0.65167E+05         0.00000E+00
    0.65167E+05        -0.30129E+06         0.00000E+00
    0.00000E+00         0.00000E+00         0.24815E+04
 
    0.31022E+06         0.75065E+05         0.00000E+00
    0.75065E+05        -0.29914E+06         0.00000E+00
    0.00000E+00         0.00000E+00         0.22155E+04
 
    0.30655E+06         0.84909E+05         0.00000E+00
    0.84909E+05        -0.29670E+06         0.00000E+00
    0.00000E+00         0.00000E+00         0.19696E+04
 
    0.30270E+06         0.94693E+05         0.00000E+00
    0.94693E+05        -0.29399E+06         0.00000E+00
    0.00000E+00         0.00000E+00         0.17419E+04
 
    0.29865E+06         0.10441E+06         0.00000E+00
    0.10441E+06        -0.29100E+06         0.00000E+00
    0.00000E+00         0.00000E+00         0.15309E+04
 
    0.29442E+06         0.11405E+06         0.00000E+00
    0.11405E+06        -0.28775E+06         0.00000E+00
    0.00000E+00         0.00000E+00         0.13349E+04
 
    0.29000E+06         0.12361E+06         0.00000E+00
    0.12361E+06        -0.28424E+06         0.00000E+00
    0.00000E+00         0.00000E+00         0.11522E+04
 
    0.28539E+06         0.13309E+06         0.00000E+00
    0.13309E+06        -0.28048E+06         0.00000E+00
    0.00000E+00         0.00000E+00         0.98123E+03
 
    0.28058E+06         0.14247E+06         0.00000E+00
    0.14247E+06        -0.27648E+06         0.00000E+00
    0.00000E+00         0.00000E+00         0.82034E+03
 
    0.27558E+06         0.15176E+06         0.00000E+00
    0.15176E+06        -0.27224E+06         0.00000E+00
    0.00000E+00         0.00000E+00         0.66793E+03
 
    0.27039E+06         0.16093E+06         0.00000E+00
    0.16093E+06        -0.26778E+06         0.00000E+00
    0.00000E+00         0.00000E+00         0.52239E+03
 
    0.26500E+06         0.17000E+06         0.00000E+00
    0.17000E+06        -0.26309E+06         0.00000E+00
    0.00000E+00         0.00000E+00         0.38212E+03
 
    0.25943E+06         0.17896E+06         0.00000E+00
    0.17896E+06        -0.25820E+06         0.00000E+00
    0.00000E+00         0.00000E+00         0.24550E+03
 
    0.25366E+06         0.18779E+06         0.00000E+00
    0.18779E+06        -0.25311E+06         0.00000E+00
    0.00000E+00         0.00000E+00         0.11089E+03
 
    0.24770E+06         0.19650E+06         0.00000E+00
    0.19650E+06        -0.24782E+06         0.00000E+00
    0.00000E+00         0.00000E+00        -0.23362E+02
 
    0.24155E+06         0.20507E+06         0.00000E+00
    0.20507E+06        -0.24235E+06         0.00000E+00
    0.00000E+00         0.00000E+00        -0.15896E+03
 
    0.23521E+06         0.21351E+06         0.00000E+00
    0.21351E+06        -0.23670E+06         0.00000E+00
    0.00000E+00         0.00000E+00        -0.29762E+03
 
    0.22868E+06         0.22182E+06         0.00000E+00
    0.22182E+06        -0.23089E+06         0.00000E+00
    0.00000E+00         0.00000E+00        -0.44114E+03
 
    0.22196E+06         0.22997E+06         0.00000E+00
    0.22997E+06        -0.22492E+06         0.00000E+00
    0.00000E+00         0.00000E+00        -0.59135E+03
 
    0.21505E+06         0.23799E+06         0.00000E+00
    0.23799E+06        -0.21880E+06         0.00000E+00
    0.00000E+00         0.00000E+00        -0.75016E+03
 
    0.20796E+06         0.24585E+06         0.00000E+00
    0.24585E+06        -0.21255E+06         0.00000E+00
    0.00000E+00         0.00000E+00        -0.91956E+03
 
    0.20067E+06         0.25355E+06         0.00000E+00
    0.25355E+06        -0.20618E+06         0.00000E+00
    0.00000E+00         0.00000E+00        -0.11016E+04
 
    0.19320E+06         0.26110E+06         0.00000E+00
    0.26110E+06        -0.19969E+06         0.00000E+00
    0.00000E+00         0.00000E+00        -0.12985E+04
 
    0.18554E+06         0.26849E+06         0.00000E+00
    0.26849E+06        -0.19310E+06         0.00000E+00
    0.00000E+00         0.00000E+00        -0.15125E+04
 
    0.17769E+06         0.27572E+06         0.00000E+00
    0.27572E+06        -0.18642E+06         0.00000E+00
    0.00000E+00         0.00000E+00        -0.17460E+04
 
    0.16966E+06         0.28278E+06         0.00000E+00
    0.28278E+06        -0.17966E+06         0.00000E+00
    0.00000E+00         0.00000E+00        -0.20015E+04
 
    0.16143E+06         0.28967E+06         0.00000E+00
    0.28967E+06        -0.17284E+06         0.00000E+00
    0.00000E+00         0.00000E+00        -0.22817E+04
 
    0.15302E+06         0.29640E+06         0.00000E+00
    0.29640E+06        -0.16597E+06         0.00000E+00
    0.00000E+00         0.00000E+00        -0.25892E+04
 
    0.14442E+06         0.30295E+06         0.00000E+00
    0.30295E+06        -0.15905E+06         0.00000E+00
    0.00000E+00         0.00000E+00        -0.29271E+04
 
    0.13562E+06         0.30932E+06         0.00000E+00
    0.30932E+06        -0.15211E+06         0.00000E+00
    0.00000E+00         0.00000E+00        -0.32984E+04
 
    0.12664E+06         0.31552E+06         0.00000E+00
    0.31552E+06        -0.14517E+06         0.00000E+00
    0.00000E+00         0.00000E+00        -0.37062E+04
 
    0.11745E+06         0.32154E+06         0.00000E+00
    0.32154E+06        -0.13822E+06         0.00000E+00
    0.00000E+00         0.00000E+00        -0.41539E+04
 
    0.10808E+06         0.32739E+06         0.00000E+00
    0.32739E+06        -0.13130E+06         0.00000E+00
    0.00000E+00         0.00000E+00        -0.46451E+04
 
    0.98502E+05         0.33305E+06         0.00000E+00
    0.33305E+06        -0.12442E+06         0.00000E+00
    0.00000E+00         0.00000E+00        -0.51832E+04
 
    0.88726E+05         0.33853E+06         0.00000E+00
    0.33853E+06        -0.11759E+06         0.00000E+00
    0.00000E+00         0.00000E+00        -0.57721E+04
 
    0.78747E+05         0.34382E+06         0.00000E+00
    0.34382E+06        -0.11083E+06         0.00000E+00
    0.00000E+00         0.00000E+00        -0.64157E+04
 
    0.68562E+05         0.34894E+06         0.00000E+00
    0.34894E+06        -0.10415E+06         0.00000E+00
    0.00000E+00         0.00000E+00        -0.71180E+04
 
    0.58169E+05         0.35386E+06         0.00000E+00
    0.35386E+06        -0.97584E+05         0.00000E+00
    0.00000E+00         0.00000E+00        -0.78832E+04
 
    0.47563E+05         0.35860E+06         0.00000E+00
    0.35860E+06        -0.91140E+05         0.00000E+00
    0.00000E+00         0.00000E+00        -0.87153E+04
 
    0.36742E+05         0.36315E+06         0.00000E+00
    0.36315E+06        -0.84837E+05         0.00000E+00
    0.00000E+00         0.00000E+00        -0.96189E+04
 
    0.25703E+05         0.36751E+06         0.00000E+00
    0.36751E+06        -0.78694E+05         0.00000E+00
    0.00000E+00         0.00000E+00        -0.10598E+05
 
    0.14442E+05         0.37169E+06         0.00000E+00
    0.37169E+06        -0.72731E+05         0.00000E+00
    0.00000E+00         0.00000E+00        -0.11658E+05
 
    0.29552E+04         0.37567E+06         0.00000E+00
    0.37567E+06        -0.66966E+05         0.00000E+00
    0.00000E+00         0.00000E+00        -0.12802E+05
 
   -0.87601E+04         0.37945E+06         0.00000E+00
    0.37945E+06        -0.61418E+05         0.00000E+00
    0.00000E+00         0.00000E+00        -0.14036E+05
 
    0.35680E+06         0.53886E+04         0.00000E+00
    0.53886E+04        -0.33407E+06         0.00000E+00
    0.00000E+00         0.00000E+00         0.45465E+04
 
    0.35436E+06         0.16179E+05         0.00000E+00
    0.16179E+05        -0.33372E+06         0.00000E+00
    0.00000E+00         0.00000E+00         0.41265E+04
 
    0.35171E+06         0.26965E+05         0.00000E+00
    0.26965E+05        -0.33303E+06         0.00000E+00
    0.00000E+00         0.00000E+00         0.37369E+04
 
    0.34887E+06         0.37737E+05         0.00000E+00
    0.37737E+05        -0.33199E+06         0.00000E+00
    0.00000E+00         0.00000E+00         0.33758E+04
 
    0.34582E+06         0.48486E+05         0.00000E+00
    0.48486E+05        -0.33062E+06         0.00000E+00
    0.00000E+00         0.00000E+00         0.30415E+04
 
    0.34257E+06         0.59204E+05         0.00000E+00
    0.59204E+05        -0.32891E+06         0.00000E+00
    0.00000E+00         0.00000E+00         0.27322E+04
 
    0.33911E+06         0.69883E+05         0.00000E+00
    0.69883E+05        -0.32688E+06         0.00000E+00
    0.00000E+00         0.00000E+00         0.24462E+04
 
    0.33543E+06         0.80513E+05         0.00000E+00
    0.80513E+05        -0.32452E+06         0.00000E+00
    0.00000E+00         0.00000E+00         0.21816E+04
 
    0.33154E+06         0.91087E+05         0.00000E+00
    0.91087E+05        -0.32186E+06         0.00000E+00
    0.00000E+00         0.00000E+00         0.19368E+04
 
    0.32744E+06         0.10160E+06         0.00000E+00
    0.10160E+06        -0.31888E+06         0.00000E+00
    0.00000E+00         0.00000E+00         0.17101E+04
 
    0.32311E+06         0.11203E+06         0.00000E+00
    0.11203E+06        -0.31562E+06         0.00000E+00
    0.00000E+00         0.00000E+00         0.14997E+04
 
    0.31858E+06         0.12239E+06         0.00000E+00
    0.12239E+06        -0.31206E+06         0.00000E+00
    0.00000E+00         0.00000E+00         0.13040E+04
 
    0.31382E+06         0.13266E+06         0.00000E+00
    0.13266E+06        -0.30821E+06         0.00000E+00
    0.00000E+00         0.00000E+00         0.11213E+04
 
    0.30885E+06         0.14283E+06         0.00000E+00
    0.14283E+06        -0.30410E+06         0.00000E+00
    0.00000E+00         0.00000E+00         0.94994E+03
 
    0.30366E+06         0.15290E+06         0.00000E+00
    0.15290E+06        -0.29971E+06         0.00000E+00
    0.00000E+00         0.00000E+00         0.78830E+03
 
    0.29825E+06         0.16286E+06         0.00000E+00
    0.16286E+06        -0.29508E+06         0.00000E+00
    0.00000E+00         0.00000E+00         0.63472E+03
 
    0.29263E+06         0.17270E+06         0.00000E+00
    0.17270E+06        -0.29019E+06         0.00000E+00
    0.00000E+00         0.00000E+00         0.48755E+03
 
    0.28679E+06         0.18242E+06         0.00000E+00
    0.18242E+06        -0.28507E+06         0.00000E+00
    0.00000E+00         0.00000E+00         0.34512E+03
 
    0.28074E+06         0.19202E+06         0.00000E+00
    0.19202E+06        -0.27971E+06         0.00000E+00
    0.00000E+00         0.00000E+00         0.20578E+03
 
    0.27448E+06         0.20148E+06         0.00000E+00
    0.20148E+06        -0.27414E+06         0.00000E+00
    0.00000E+00         0.00000E+00         0.67820E+02
 
    0.26801E+06         0.21080E+06         0.00000E+00
    0.21080E+06        -0.26836E+06         0.00000E+00
    0.00000E+00         0.00000E+00        -0.70481E+02
 
    0.26133E+06         0.21998E+06         0.00000E+00
    0.21998E+06        -0.26239E+06         0.00000E+00
    0.00000E+00         0.00000E+00        -0.21089E+03
 
    0.25444E+06         0.22901E+06         0.00000E+00
    0.22901E+06        -0.25622E+06         0.00000E+00
    0.00000E+00         0.00000E+00        -0.35522E+03
 
    0.24735E+06         0.23788E+06         0.00000E+00
    0.23788E+06        -0.24988E+06         0.00000E+00
    0.00000E+00         0.00000E+00        -0.50534E+03
 
    0.24005E+06         0.24660E+06         0.00000E+00
    0.24660E+06        -0.24337E+06         0.00000E+00
    0.00000E+00         0.00000E+00        -0.66319E+03
 
    0.23255E+06         0.25516E+06         0.00000E+00
    0.25516E+06        -0.23670E+06         0.00000E+00
    0.00000E+00         0.00000E+00        -0.83079E+03
 
    0.22484E+06         0.26355E+06         0.00000E+00
    0.26355E+06        -0.22990E+06         0.00000E+00
    0.00000E+00         0.00000E+00        -0.10103E+04
 
    0.21694E+06         0.27178E+06         0.00000E+00
    0.27178E+06        -0.22296E+06         0.00000E+00
    0.00000E+00         0.00000E+00        -0.12038E+04
 
    0.20883E+06         0.27984E+06         0.00000E+00
    0.27984E+06        -0.21590E+06         0.00000E+00
    0.00000E+00         0.00000E+00        -0.14137E+04
 
    0.20053E+06         0.28772E+06         0.00000E+00
    0.28772E+06        -0.20874E+06         0.00000E+00
    0.00000E+00         0.00000E+00        -0.16424E+04
 
    0.19202E+06         0.29543E+06         0.00000E+00
    0.29543E+06        -0.20148E+06         0.00000E+00
    0.00000E+00         0.00000E+00        -0.18924E+04
 
    0.18331E+06         0.30296E+06         0.00000E+00
    0.30296E+06        -0.19415E+06         0.00000E+00
    0.00000E+00         0.00000E+00        -0.21665E+04
 
    0.17441E+06         0.31032E+06         0.00000E+00
    0.31032E+06        -0.18674E+06         0.00000E+00
    0.00000E+00         0.00000E+00        -0.24675E+04
 
    0.16530E+06         0.31749E+06         0.00000E+00
    0.31749E+06        -0.17929E+06         0.00000E+00
    0.00000E+00         0.00000E+00        -0.27983E+04
 
    0.15599E+06         0.32448E+06         0.00000E+00
    0.32448E+06        -0.17180E+06         0.00000E+00
    0.00000E+00         0.00000E+00        -0.31622E+04
 
    0.14648E+06         0.33129E+06         0.00000E+00
    0.33129E+06        -0.16429E+06         0.00000E+00
    0.00000E+00         0.00000E+00        -0.35622E+04
 
    0.13677E+06         0.33792E+06         0.00000E+00
    0.33792E+06        -0.15678E+06         0.00000E+00
    0.00000E+00         0.00000E+00        -0.40020E+04
 
    0.12685E+06         0.34435E+06         0.00000E+00
    0.34435E+06        -0.14927E+06         0.00000E+00
    0.00000E+00         0.00000E+00        -0.44851E+04
 
    0.11672E+06         0.35061E+06         0.00000E+00
    0.35061E+06        -0.14179E+06         0.00000E+00
    0.00000E+00         0.00000E+00        -0.50153E+04
 
    0.10638E+06         0.35667E+06         0.00000E+00
    0.35667E+06        -0.13436E+06         0.00000E+00
    0.00000E+00         0.00000E+00        -0.55965E+04
 
    0.95821E+05         0.36255E+06         0.00000E+00
    0.36255E+06        -0.12698E+06         0.00000E+00
    0.00000E+00         0.00000E+00        -0.62328E+04
 
    0.85048E+05         0.36824E+06         0.00000E+00
    0.36824E+06        -0.11969E+06         0.00000E+00
    0.00000E+00         0.00000E+00        -0.69283E+04
 
    0.74054E+05         0.37374E+06         0.00000E+00
    0.37374E+06        -0.11249E+06         0.00000E+00
    0.00000E+00         0.00000E+00        -0.76874E+04
 
    0.62834E+05         0.37905E+06         0.00000E+00
    0.37905E+06        -0.10541E+06         0.00000E+00
    0.00000E+00         0.00000E+00        -0.85146E+04
 
    0.51386E+05         0.38417E+06         0.00000E+00
    0.38417E+06        -0.98458E+05         0.00000E+00
    0.00000E+00         0.00000E+00        -0.94145E+04
 
    0.39703E+05         0.38911E+06         0.00000E+00
    0.38911E+06        -0.91661E+05         0.00000E+00
    0.00000E+00         0.00000E+00        -0.10392E+05
 
    0.27781E+05         0.39385E+06         0.00000E+00
    0.39385E+06        -0.85036E+05         0.00000E+00
    0.00000E+00         0.00000E+00        -0.11451E+05
 
    0.15616E+05         0.39839E+06         0.00000E+00
    0.39839E+06        -0.78602E+05         0.00000E+00
    0.00000E+00         0.00000E+00        -0.12597E+05
 
    0.32025E+04         0.40275E+06         0.00000E+00
    0.40275E+06        -0.72379E+05         0.00000E+00
    0.00000E+00         0.00000E+00        -0.13835E+05
 
   -0.94647E+04         0.40691E+06         0.00000E+00
    0.40691E+06        -0.66386E+05         0.00000E+00
    0.00000E+00         0.00000E+00        -0.15170E+05
 
    0.38443E+06         0.57928E+04         0.00000E+00
    0.57928E+04        -0.36243E+06         0.00000E+00
    0.00000E+00         0.00000E+00         0.43985E+04
 
    0.38200E+06         0.17415E+05         0.00000E+00
    0.17415E+05        -0.36205E+06         0.00000E+00
    0.00000E+00         0.00000E+00         0.39905E+04
 
    0.37934E+06         0.29040E+05         0.00000E+00
    0.29040E+05        -0.36128E+06         0.00000E+00
    0.00000E+00         0.00000E+00         0.36118E+04
 
    0.37645E+06         0.40654E+05         0.00000E+00
    0.40654E+05        -0.36014E+06         0.00000E+00
    0.00000E+00         0.00000E+00         0.32609E+04
 
    0.37331E+06         0.52249E+05         0.00000E+00
    0.52249E+05        -0.35863E+06         0.00000E+00
    0.00000E+00         0.00000E+00         0.29358E+04
 
    0.36992E+06         0.63812E+05         0.00000E+00
    0.63812E+05        -0.35674E+06         0.00000E+00
    0.00000E+00         0.00000E+00         0.26350E+04
 
    0.36628E+06         0.75334E+05         0.00000E+00
    0.75334E+05        -0.35450E+06         0.00000E+00
    0.00000E+00         0.00000E+00         0.23567E+04
 
    0.36240E+06         0.86803E+05         0.00000E+00
    0.86803E+05        -0.35190E+06         0.00000E+00
    0.00000E+00         0.00000E+00         0.20991E+04
 
    0.35827E+06         0.98210E+05         0.00000E+00
    0.98210E+05        -0.34896E+06         0.00000E+00
    0.00000E+00         0.00000E+00         0.18605E+04
 
    0.35388E+06         0.10954E+06         0.00000E+00
    0.10954E+06        -0.34568E+06         0.00000E+00
    0.00000E+00         0.00000E+00         0.16393E+04
 
    0.34924E+06         0.12080E+06         0.00000E+00
    0.12080E+06        -0.34208E+06         0.00000E+00
    0.00000E+00         0.00000E+00         0.14338E+04
 
    0.34436E+06         0.13196E+06         0.00000E+00
    0.13196E+06        -0.33815E+06         0.00000E+00
    0.00000E+00         0.00000E+00         0.12423E+04
 
    0.33922E+06         0.14302E+06         0.00000E+00
    0.14302E+06        -0.33391E+06         0.00000E+00
    0.00000E+00         0.00000E+00         0.10631E+04
 
    0.33384E+06         0.15397E+06         0.00000E+00
    0.15397E+06        -0.32937E+06         0.00000E+00
    0.00000E+00         0.00000E+00         0.89461E+03
 
    0.32821E+06         0.16480E+06         0.00000E+00
    0.16480E+06        -0.32454E+06         0.00000E+00
    0.00000E+00         0.00000E+00         0.73512E+03
 
    0.32234E+06         0.17551E+06         0.00000E+00
    0.17551E+06        -0.31943E+06         0.00000E+00
    0.00000E+00         0.00000E+00         0.58300E+03
 
    0.31623E+06         0.18609E+06         0.00000E+00
    0.18609E+06        -0.31405E+06         0.00000E+00
    0.00000E+00         0.00000E+00         0.43658E+03
 
    0.30988E+06         0.19653E+06         0.00000E+00
    0.19653E+06        -0.30841E+06         0.00000E+00
    0.00000E+00         0.00000E+00         0.29417E+03
 
    0.30329E+06         0.20682E+06         0.00000E+00
    0.20682E+06        -0.30252E+06         0.00000E+00
    0.00000E+00         0.00000E+00         0.15407E+03
 
    0.29647E+06         0.21696E+06         0.00000E+00
    0.21696E+06        -0.29639E+06         0.00000E+00
    0.00000E+00         0.00000E+00         0.14547E+02
 
    0.28941E+06         0.22694E+06         0.00000E+00
    0.22694E+06        -0.29004E+06         0.00000E+00
    0.00000E+00         0.00000E+00        -0.12617E+03
 
    0.28213E+06         0.23676E+06         0.00000E+00
    0.23676E+06        -0.28348E+06         0.00000E+00
    0.00000E+00         0.00000E+00        -0.26991E+03
 
    0.27463E+06         0.24642E+06         0.00000E+00
    0.24642E+06        -0.27672E+06         0.00000E+00
    0.00000E+00         0.00000E+00        -0.41854E+03
 
    0.26690E+06         0.25590E+06         0.00000E+00
    0.25590E+06        -0.26977E+06         0.00000E+00
    0.00000E+00         0.00000E+00        -0.57402E+03
 
    0.25895E+06         0.26520E+06         0.00000E+00
    0.26520E+06        -0.26264E+06         0.00000E+00
    0.00000E+00         0.00000E+00        -0.73837E+03
 
    0.25079E+06         0.27433E+06         0.00000E+00
    0.27433E+06        -0.25535E+06         0.00000E+00
    0.00000E+00         0.00000E+00        -0.91371E+03
 
    0.24241E+06         0.28328E+06         0.00000E+00
    0.28328E+06        -0.24792E+06         0.00000E+00
    0.00000E+00         0.00000E+00        -0.11023E+04
 
    0.23381E+06         0.29204E+06         0.00000E+00
    0.29204E+06        -0.24035E+06         0.00000E+00
    0.00000E+00         0.00000E+00        -0.13063E+04
 
    0.22501E+06         0.30061E+06         0.00000E+00
    0.30061E+06        -0.23265E+06         0.00000E+00
    0.00000E+00         0.00000E+00        -0.15284E+04
 
    0.21600E+06         0.30900E+06         0.00000E+00
    0.30900E+06        -0.22485E+06         0.00000E+00
    0.00000E+00         0.00000E+00        -0.17709E+04
 
    0.20677E+06         0.31720E+06         0.00000E+00
    0.31720E+06        -0.21696E+06         0.00000E+00
    0.00000E+00         0.00000E+00        -0.20368E+04
 
    0.19734E+06         0.32521E+06         0.00000E+00
    0.32521E+06        -0.20899E+06         0.00000E+00
    0.00000E+00         0.00000E+00        -0.23288E+04
 
    0.18770E+06         0.33302E+06         0.00000E+00
    0.33302E+06        -0.20095E+06         0.00000E+00
    0.00000E+00         0.00000E+00        -0.26499E+04
 
    0.17786E+06         0.34064E+06         0.00000E+00
    0.34064E+06        -0.19287E+06         0.00000E+00
    0.00000E+00         0.00000E+00        -0.30033E+04
 
    0.16780E+06         0.34807E+06         0.00000E+00
    0.34807E+06        -0.18476E+06         0.00000E+00
    0.00000E+00         0.00000E+00        -0.33924E+04
 
    0.15753E+06         0.35531E+06         0.00000E+00
    0.35531E+06        -0.17664E+06         0.00000E+00
    0.00000E+00         0.00000E+00        -0.38206E+04
 
    0.14706E+06         0.36235E+06         0.00000E+00
    0.36235E+06        -0.16851E+06         0.00000E+00
    0.00000E+00         0.00000E+00        -0.42918E+04
 
    0.13636E+06         0.36920E+06         0.00000E+00
    0.36920E+06        -0.16041E+06         0.00000E+00
    0.00000E+00         0.00000E+00        -0.48097E+04
 
    0.12545E+06         0.37586E+06         0.00000E+00
    0.37586E+06        -0.15234E+06         0.00000E+00
    0.00000E+00         0.00000E+00        -0.53783E+04
 
    0.11432E+06         0.38233E+06         0.00000E+00
    0.38233E+06        -0.14433E+06         0.00000E+00
    0.00000E+00         0.00000E+00        -0.60019E+04
 
    0.10297E+06         0.38860E+06         0.00000E+00
    0.38860E+06        -0.13639E+06         0.00000E+00
    0.00000E+00         0.00000E+00        -0.66848E+04
 
    0.91384E+05         0.39469E+06         0.00000E+00
    0.39469E+06        -0.12854E+06         0.00000E+00
    0.00000E+00         0.00000E+00        -0.74317E+04
 
    0.79568E+05         0.40058E+06         0.00000E+00
    0.40058E+06        -0.12080E+06         0.00000E+00
    0.00000E+00         0.00000E+00        -0.82470E+04
 
    0.67513E+05         0.40628E+06         0.00000E+00
    0.40628E+06        -0.11319E+06         0.00000E+00
    0.00000E+00         0.00000E+00        -0.91357E+04
 
    0.55215E+05         0.41179E+06         0.00000E+00
    0.41179E+06        -0.10573E+06         0.00000E+00
    0.00000E+00         0.00000E+00        -0.10103E+05
 
    0.42667E+05         0.41712E+06         0.00000E+00
    0.41712E+06        -0.98432E+05         0.00000E+00
    0.00000E+00         0.00000E+00        -0.11153E+05
 
    0.29862E+05         0.42225E+06         0.00000E+00
    0.42225E+06        -0.91321E+05         0.00000E+00
    0.00000E+00         0.00000E+00        -0.12292E+05
 
    0.16794E+05         0.42719E+06         0.00000E+00
    0.42719E+06        -0.84415E+05         0.00000E+00
    0.00000E+00         0.00000E+00        -0.13524E+05
 
    0.34568E+04         0.43195E+06         0.00000E+00
    0.43195E+06        -0.77734E+05         0.00000E+00
    0.00000E+00         0.00000E+00        -0.14856E+05
 
   -0.10158E+05         0.43651E+06         0.00000E+00
    0.43651E+06        -0.71297E+05         0.00000E+00
    0.00000E+00         0.00000E+00        -0.16291E+05
 
    0.41404E+06         0.62714E+04         0.00000E+00
    0.62714E+04        -0.39330E+06         0.00000E+00
    0.00000E+00         0.00000E+00         0.41486E+04
 
    0.41168E+06         0.18875E+05         0.00000E+00
    0.18875E+05        -0.39287E+06         0.00000E+00
    0.00000E+00         0.00000E+00         0.37622E+04
 
    0.40904E+06         0.31485E+05         0.00000E+00
    0.31485E+05        -0.39202E+06         0.00000E+00
    0.00000E+00         0.00000E+00         0.34036E+04
 
    0.40610E+06         0.44089E+05         0.00000E+00
    0.44089E+05        -0.39074E+06         0.00000E+00
    0.00000E+00         0.00000E+00         0.30711E+04
 
    0.40287E+06         0.56672E+05         0.00000E+00
    0.56672E+05        -0.38905E+06         0.00000E+00
    0.00000E+00         0.00000E+00         0.27629E+04
 
    0.39934E+06         0.69221E+05         0.00000E+00
    0.69221E+05        -0.38695E+06         0.00000E+00
    0.00000E+00         0.00000E+00         0.24776E+04
 
    0.39552E+06         0.81722E+05         0.00000E+00
    0.81722E+05        -0.38445E+06         0.00000E+00
    0.00000E+00         0.00000E+00         0.22133E+04
 
    0.39140E+06         0.94162E+05         0.00000E+00
    0.94162E+05        -0.38155E+06         0.00000E+00
    0.00000E+00         0.00000E+00         0.19685E+04
 
    0.38698E+06         0.10653E+06         0.00000E+00
    0.10653E+06        -0.37827E+06         0.00000E+00
    0.00000E+00         0.00000E+00         0.17415E+04
 
    0.38227E+06         0.11881E+06         0.00000E+00
    0.11881E+06        -0.37462E+06         0.00000E+00
    0.00000E+00         0.00000E+00         0.15307E+04
 
    0.37727E+06         0.13099E+06         0.00000E+00
    0.13099E+06        -0.37060E+06         0.00000E+00
    0.00000E+00         0.00000E+00         0.13344E+04
 
    0.37197E+06         0.14307E+06         0.00000E+00
    0.14307E+06        -0.36622E+06         0.00000E+00
    0.00000E+00         0.00000E+00         0.11511E+04
 
    0.36639E+06         0.15503E+06         0.00000E+00
    0.15503E+06        -0.36150E+06         0.00000E+00
    0.00000E+00         0.00000E+00         0.97902E+03
 
    0.36053E+06         0.16685E+06         0.00000E+00
    0.16685E+06        -0.35645E+06         0.00000E+00
    0.00000E+00         0.00000E+00         0.81665E+03
 
    0.35439E+06         0.17854E+06         0.00000E+00
    0.17854E+06        -0.35108E+06         0.00000E+00
    0.00000E+00         0.00000E+00         0.66233E+03
 
    0.34797E+06         0.19008E+06         0.00000E+00
    0.19008E+06        -0.34540E+06         0.00000E+00
    0.00000E+00         0.00000E+00         0.51441E+03
 
    0.34128E+06         0.20146E+06         0.00000E+00
    0.20146E+06        -0.33942E+06         0.00000E+00
    0.00000E+00         0.00000E+00         0.37125E+03
 
    0.33432E+06         0.21269E+06         0.00000E+00
    0.21269E+06        -0.33317E+06         0.00000E+00
    0.00000E+00         0.00000E+00         0.23115E+03
 
    0.32710E+06         0.22374E+06         0.00000E+00
    0.22374E+06        -0.32664E+06         0.00000E+00
    0.00000E+00         0.00000E+00         0.92416E+02
 
    0.31963E+06         0.23461E+06         0.00000E+00
    0.23461E+06        -0.31986E+06         0.00000E+00
    0.00000E+00         0.00000E+00        -0.46711E+02
 
    0.31190E+06         0.24530E+06         0.00000E+00
    0.24530E+06        -0.31284E+06         0.00000E+00
    0.00000E+00         0.00000E+00        -0.18803E+03
 
    0.30393E+06         0.25580E+06         0.00000E+00
    0.25580E+06        -0.30560E+06         0.00000E+00
    0.00000E+00         0.00000E+00        -0.33339E+03
 
    0.29572E+06         0.26611E+06         0.00000E+00
    0.26611E+06        -0.29814E+06         0.00000E+00
    0.00000E+00         0.00000E+00        -0.48473E+03
 
    0.28726E+06         0.27623E+06         0.00000E+00
    0.27623E+06        -0.29048E+06         0.00000E+00
    0.00000E+00         0.00000E+00        -0.64405E+03
 
    0.27858E+06         0.28614E+06         0.00000E+00
    0.28614E+06        -0.28264E+06         0.00000E+00
    0.00000E+00         0.00000E+00        -0.81344E+03
 
    0.26966E+06         0.29585E+06         0.00000E+00
    0.29585E+06        -0.27464E+06         0.00000E+00
    0.00000E+00         0.00000E+00        -0.99510E+03
 
    0.26053E+06         0.30536E+06         0.00000E+00
    0.30536E+06        -0.26648E+06         0.00000E+00
    0.00000E+00         0.00000E+00        -0.11913E+04
 
    0.25117E+06         0.31466E+06         0.00000E+00
    0.31466E+06        -0.25819E+06         0.00000E+00
    0.00000E+00         0.00000E+00        -0.14046E+04
 
    0.24159E+06         0.32375E+06         0.00000E+00
    0.32375E+06        -0.24977E+06         0.00000E+00
    0.00000E+00         0.00000E+00        -0.16374E+04
 
    0.23179E+06         0.33263E+06         0.00000E+00
    0.33263E+06        -0.24126E+06         0.00000E+00
    0.00000E+00         0.00000E+00        -0.18925E+04
 
    0.22179E+06         0.34131E+06         0.00000E+00
    0.34131E+06        -0.23265E+06         0.00000E+00
    0.00000E+00         0.00000E+00        -0.21727E+04
 
    0.21157E+06         0.34977E+06         0.00000E+00
    0.34977E+06        -0.22397E+06         0.00000E+00
    0.00000E+00         0.00000E+00        -0.24810E+04
 
    0.20114E+06         0.35803E+06         0.00000E+00
    0.35803E+06        -0.21524E+06         0.00000E+00
    0.00000E+00         0.00000E+00        -0.28208E+04
 
    0.19049E+06         0.36608E+06         0.00000E+00
    0.36608E+06        -0.20647E+06         0.00000E+00
    0.00000E+00         0.00000E+00        -0.31952E+04
 
    0.17964E+06         0.37393E+06         0.00000E+00
    0.37393E+06        -0.19768E+06         0.00000E+00
    0.00000E+00         0.00000E+00        -0.36079E+04
 
    0.16858E+06         0.38157E+06         0.00000E+00
    0.38157E+06        -0.18889E+06         0.00000E+00
    0.00000E+00         0.00000E+00        -0.40626E+04
 
    0.15730E+06         0.38901E+06         0.00000E+00
    0.38901E+06        -0.18012E+06         0.00000E+00
    0.00000E+00         0.00000E+00        -0.45632E+04
 
    0.14580E+06         0.39625E+06         0.00000E+00
    0.39625E+06        -0.17137E+06         0.00000E+00
    0.00000E+00         0.00000E+00        -0.51138E+04
 
    0.13409E+06         0.40328E+06         0.00000E+00
    0.40328E+06        -0.16269E+06         0.00000E+00
    0.00000E+00         0.00000E+00        -0.57188E+04
 
    0.12215E+06         0.41013E+06         0.00000E+00
    0.41013E+06        -0.15407E+06         0.00000E+00
    0.00000E+00         0.00000E+00        -0.63826E+04
 
    0.10999E+06         0.41678E+06         0.00000E+00
    0.41678E+06        -0.14554E+06         0.00000E+00
    0.00000E+00         0.00000E+00        -0.71099E+04
 
    0.97593E+05         0.42323E+06         0.00000E+00
    0.42323E+06        -0.13712E+06         0.00000E+00
    0.00000E+00         0.00000E+00        -0.79055E+04
 
    0.84957E+05         0.42950E+06         0.00000E+00
    0.42950E+06        -0.12883E+06         0.00000E+00
    0.00000E+00         0.00000E+00        -0.87744E+04
 
    0.72076E+05         0.43558E+06         0.00000E+00
    0.43558E+06        -0.12068E+06         0.00000E+00
    0.00000E+00         0.00000E+00        -0.97218E+04
 
    0.58942E+05         0.44148E+06         0.00000E+00
    0.44148E+06        -0.11271E+06         0.00000E+00
    0.00000E+00         0.00000E+00        -0.10753E+05
 
    0.45547E+05         0.44719E+06         0.00000E+00
    0.44719E+06        -0.10491E+06         0.00000E+00
    0.00000E+00         0.00000E+00        -0.11873E+05
 
    0.31884E+05         0.45271E+06         0.00000E+00
    0.45271E+06        -0.97323E+05         0.00000E+00
    0.00000E+00         0.00000E+00        -0.13088E+05
 
    0.17942E+05         0.45806E+06         0.00000E+00
    0.45806E+06        -0.89956E+05         0.00000E+00
    0.00000E+00         0.00000E+00        -0.14403E+05
 
    0.37138E+04         0.46323E+06         0.00000E+00
    0.46323E+06        -0.82831E+05         0.00000E+00
    0.00000E+00         0.00000E+00        -0.15824E+05
 
   -0.10812E+05         0.46821E+06         0.00000E+00
    0.46821E+06        -0.75967E+05         0.00000E+00
    0.00000E+00         0.00000E+00        -0.17356E+05
 
    0.44611E+06         0.68476E+04         0.00000E+00
    0.68476E+04        -0.42707E+06         0.00000E+00
    0.00000E+00         0.00000E+00         0.38077E+04
 
    0.44385E+06         0.20623E+05         0.00000E+00
    0.20623E+05        -0.42658E+06         0.00000E+00
    0.00000E+00         0.00000E+00         0.34525E+04
 
    0.44123E+06         0.34409E+05         0.00000E+00
    0.34409E+05        -0.42562E+06         0.00000E+00
    0.00000E+00         0.00000E+00         0.31225E+04
 
    0.43826E+06         0.48188E+05         0.00000E+00
    0.48188E+05        -0.42418E+06         0.00000E+00
    0.00000E+00         0.00000E+00         0.28162E+04
 
    0.43492E+06         0.61940E+05         0.00000E+00
    0.61940E+05        -0.42226E+06         0.00000E+00
    0.00000E+00         0.00000E+00         0.25321E+04
 
    0.43123E+06         0.75650E+05         0.00000E+00
    0.75650E+05        -0.41989E+06         0.00000E+00
    0.00000E+00         0.00000E+00         0.22687E+04
 
    0.42718E+06         0.89299E+05         0.00000E+00
    0.89299E+05        -0.41706E+06         0.00000E+00
    0.00000E+00         0.00000E+00         0.20244E+04
 
    0.42278E+06         0.10287E+06         0.00000E+00
    0.10287E+06        -0.41379E+06         0.00000E+00
    0.00000E+00         0.00000E+00         0.17977E+04
 
    0.41802E+06         0.11635E+06         0.00000E+00
    0.11635E+06        -0.41008E+06         0.00000E+00
    0.00000E+00         0.00000E+00         0.15871E+04
 
    0.41291E+06         0.12973E+06         0.00000E+00
    0.12973E+06        -0.40596E+06         0.00000E+00
    0.00000E+00         0.00000E+00         0.13911E+04
 
    0.40746E+06         0.14298E+06         0.00000E+00
    0.14298E+06        -0.40142E+06         0.00000E+00
    0.00000E+00         0.00000E+00         0.12080E+04
 
    0.40168E+06         0.15610E+06         0.00000E+00
    0.15610E+06        -0.39649E+06         0.00000E+00
    0.00000E+00         0.00000E+00         0.10365E+04
 
    0.39555E+06         0.16908E+06         0.00000E+00
    0.16908E+06        -0.39118E+06         0.00000E+00
    0.00000E+00         0.00000E+00         0.87490E+03
 
    0.38911E+06         0.18189E+06         0.00000E+00
    0.18189E+06        -0.38550E+06         0.00000E+00
    0.00000E+00         0.00000E+00         0.72169E+03
 
    0.38234E+06         0.19453E+06         0.00000E+00
    0.19453E+06        -0.37947E+06         0.00000E+00
    0.00000E+00         0.00000E+00         0.57528E+03
 
    0.37527E+06         0.20700E+06         0.00000E+00
    0.20700E+06        -0.37310E+06         0.00000E+00
    0.00000E+00         0.00000E+00         0.43410E+03
 
    0.36789E+06         0.21927E+06         0.00000E+00
    0.21927E+06        -0.36640E+06         0.00000E+00
    0.00000E+00         0.00000E+00         0.29653E+03
 
    0.36021E+06         0.23135E+06         0.00000E+00
    0.23135E+06        -0.35940E+06         0.00000E+00
    0.00000E+00         0.00000E+00         0.16092E+03
 
    0.35224E+06         0.24323E+06         0.00000E+00
    0.24323E+06        -0.35211E+06         0.00000E+00
    0.00000E+00         0.00000E+00         0.25583E+02
 
    0.34400E+06         0.25489E+06         0.00000E+00
    0.25489E+06        -0.34455E+06         0.00000E+00
    0.00000E+00         0.00000E+00        -0.11123E+03
 
    0.33548E+06         0.26633E+06         0.00000E+00
    0.26633E+06        -0.33673E+06         0.00000E+00
    0.00000E+00         0.00000E+00        -0.25131E+03
 
    0.32669E+06         0.27755E+06         0.00000E+00
    0.27755E+06        -0.32867E+06         0.00000E+00
    0.00000E+00         0.00000E+00        -0.39653E+03
 
    0.31765E+06         0.28854E+06         0.00000E+00
    0.28854E+06        -0.32039E+06         0.00000E+00
    0.00000E+00         0.00000E+00        -0.54883E+03
 
    0.30835E+06         0.29931E+06         0.00000E+00
    0.29931E+06        -0.31191E+06         0.00000E+00
    0.00000E+00         0.00000E+00        -0.71026E+03
 
    0.29882E+06         0.30984E+06         0.00000E+00
    0.30984E+06        -0.30323E+06         0.00000E+00
    0.00000E+00         0.00000E+00        -0.88296E+03
 
    0.28904E+06         0.32013E+06         0.00000E+00
    0.32013E+06        -0.29439E+06         0.00000E+00
    0.00000E+00         0.00000E+00        -0.10692E+04
 
    0.27904E+06         0.33019E+06         0.00000E+00
    0.33019E+06        -0.28540E+06         0.00000E+00
    0.00000E+00         0.00000E+00        -0.12713E+04
 
    0.26881E+06         0.34002E+06         0.00000E+00
    0.34002E+06        -0.27627E+06         0.00000E+00
    0.00000E+00         0.00000E+00        -0.14918E+04
 
    0.25837E+06         0.34961E+06         0.00000E+00
    0.34961E+06        -0.26703E+06         0.00000E+00
    0.00000E+00         0.00000E+00        -0.17334E+04
 
    0.24770E+06         0.35896E+06         0.00000E+00
    0.35896E+06        -0.25770E+06         0.00000E+00
    0.00000E+00         0.00000E+00        -0.19989E+04
 
    0.23683E+06         0.36808E+06         0.00000E+00
    0.36808E+06        -0.24828E+06         0.00000E+00
    0.00000E+00         0.00000E+00        -0.22913E+04
 
    0.22574E+06         0.37697E+06         0.00000E+00
    0.37697E+06        -0.23881E+06         0.00000E+00
    0.00000E+00         0.00000E+00        -0.26137E+04
 
    0.21445E+06         0.38563E+06         0.00000E+00
    0.38563E+06        -0.22930E+06         0.00000E+00
    0.00000E+00         0.00000E+00        -0.29695E+04
 
    0.20296E+06         0.39407E+06         0.00000E+00
    0.39407E+06        -0.21977E+06         0.00000E+00
    0.00000E+00         0.00000E+00        -0.33622E+04
 
    0.19126E+06         0.40228E+06         0.00000E+00
    0.40228E+06        -0.21023E+06         0.00000E+00
    0.00000E+00         0.00000E+00        -0.37955E+04
 
    0.17935E+06         0.41028E+06         0.00000E+00
    0.41028E+06        -0.20072E+06         0.00000E+00
    0.00000E+00         0.00000E+00        -0.42734E+04
 
    0.16724E+06         0.41806E+06         0.00000E+00
    0.41806E+06        -0.19124E+06         0.00000E+00
    0.00000E+00         0.00000E+00        -0.48001E+04
 
    0.15492E+06         0.42563E+06         0.00000E+00
    0.42563E+06        -0.18182E+06         0.00000E+00
    0.00000E+00         0.00000E+00        -0.53798E+04
 
    0.14239E+06         0.43300E+06         0.00000E+00
    0.43300E+06        -0.17247E+06         0.00000E+00
    0.00000E+00         0.00000E+00        -0.60171E+04
 
    0.12964E+06         0.44017E+06         0.00000E+00
    0.44017E+06        -0.16322E+06         0.00000E+00
    0.00000E+00         0.00000E+00        -0.67167E+04
 
    0.11666E+06         0.44715E+06         0.00000E+00
    0.44715E+06        -0.15408E+06         0.00000E+00
    0.00000E+00         0.00000E+00        -0.74836E+04
 
    0.10347E+06         0.45393E+06         0.00000E+00
    0.45393E+06        -0.14508E+06         0.00000E+00
    0.00000E+00         0.00000E+00        -0.83229E+04
 
    0.90031E+05         0.46053E+06         0.00000E+00
    0.46053E+06        -0.13623E+06         0.00000E+00
    0.00000E+00         0.00000E+00        -0.92398E+04
 
    0.76353E+05         0.46695E+06         0.00000E+00
    0.46695E+06        -0.12755E+06         0.00000E+00
    0.00000E+00         0.00000E+00        -0.10240E+05
 
    0.62423E+05         0.47319E+06         0.00000E+00
    0.47319E+06        -0.11907E+06         0.00000E+00
    0.00000E+00         0.00000E+00        -0.11329E+05
 
    0.48231E+05         0.47926E+06         0.00000E+00
    0.47926E+06        -0.11079E+06         0.00000E+00
    0.00000E+00         0.00000E+00        -0.12512E+05
 
    0.33766E+05         0.48517E+06         0.00000E+00
    0.48517E+06        -0.10274E+06         0.00000E+00
    0.00000E+00         0.00000E+00        -0.13796E+05
 
    0.19015E+05         0.49090E+06         0.00000E+00
    0.49090E+06        -0.94942E+05         0.00000E+00
    0.00000E+00         0.00000E+00        -0.15185E+05
 
    0.39678E+04         0.49648E+06         0.00000E+00
    0.49648E+06        -0.87404E+05         0.00000E+00
    0.00000E+00         0.00000E+00        -0.16687E+05
 
   -0.11390E+05         0.50189E+06         0.00000E+00
    0.50189E+06        -0.80147E+05         0.00000E+00
    0.00000E+00         0.00000E+00        -0.18307E+05
 
    0.48125E+06         0.75503E+04         0.00000E+00
    0.75503E+04        -0.46421E+06         0.00000E+00
    0.00000E+00         0.00000E+00         0.34079E+04
 
    0.47910E+06         0.22743E+05         0.00000E+00
    0.22743E+05        -0.46365E+06         0.00000E+00
    0.00000E+00         0.00000E+00         0.30911E+04
 
    0.47652E+06         0.37944E+05         0.00000E+00
    0.37944E+05        -0.46254E+06         0.00000E+00
    0.00000E+00         0.00000E+00         0.27963E+04
 
    0.47349E+06         0.53130E+05         0.00000E+00
    0.53130E+05        -0.46088E+06         0.00000E+00
    0.00000E+00         0.00000E+00         0.25222E+04
 
    0.47002E+06         0.68278E+05         0.00000E+00
    0.68278E+05        -0.45868E+06         0.00000E+00
    0.00000E+00         0.00000E+00         0.22674E+04
 
    0.46611E+06         0.83365E+05         0.00000E+00
    0.83365E+05        -0.45596E+06         0.00000E+00
    0.00000E+00         0.00000E+00         0.20306E+04
 
    0.46177E+06         0.98372E+05         0.00000E+00
    0.98372E+05        -0.45272E+06         0.00000E+00
    0.00000E+00         0.00000E+00         0.18105E+04
 
    0.45700E+06         0.11328E+06         0.00000E+00
    0.11328E+06        -0.44897E+06         0.00000E+00
    0.00000E+00         0.00000E+00         0.16058E+04
 
    0.45181E+06         0.12806E+06         0.00000E+00
    0.12806E+06        -0.44473E+06         0.00000E+00
    0.00000E+00         0.00000E+00         0.14150E+04
 
    0.44620E+06         0.14271E+06         0.00000E+00
    0.14271E+06        -0.44002E+06         0.00000E+00
    0.00000E+00         0.00000E+00         0.12368E+04
 
    0.44019E+06         0.15720E+06         0.00000E+00
    0.15720E+06        -0.43484E+06         0.00000E+00
    0.00000E+00         0.00000E+00         0.10698E+04
 
    0.43378E+06         0.17152E+06         0.00000E+00
    0.17152E+06        -0.42922E+06         0.00000E+00
    0.00000E+00         0.00000E+00         0.91254E+03
 
    0.42699E+06         0.18565E+06         0.00000E+00
    0.18565E+06        -0.42317E+06         0.00000E+00
    0.00000E+00         0.00000E+00         0.76364E+03
 
    0.41982E+06         0.19958E+06         0.00000E+00
    0.19958E+06        -0.41672E+06         0.00000E+00
    0.00000E+00         0.00000E+00         0.62164E+03
 
    0.41229E+06         0.21330E+06         0.00000E+00
    0.21330E+06        -0.40987E+06         0.00000E+00
    0.00000E+00         0.00000E+00         0.48506E+03
 
    0.40441E+06         0.22679E+06         0.00000E+00
    0.22679E+06        -0.40265E+06         0.00000E+00
    0.00000E+00         0.00000E+00         0.35239E+03
 
    0.39619E+06         0.24005E+06         0.00000E+00
    0.24005E+06        -0.39507E+06         0.00000E+00
    0.00000E+00         0.00000E+00         0.22209E+03
 
    0.38763E+06         0.25307E+06         0.00000E+00
    0.25307E+06        -0.38717E+06         0.00000E+00
    0.00000E+00         0.00000E+00         0.92580E+02
 
    0.37876E+06         0.26583E+06         0.00000E+00
    0.26583E+06        -0.37895E+06         0.00000E+00
    0.00000E+00         0.00000E+00        -0.37794E+02
 
    0.36958E+06         0.27833E+06         0.00000E+00
    0.27833E+06        -0.37044E+06         0.00000E+00
    0.00000E+00         0.00000E+00        -0.17073E+03
 
    0.36012E+06         0.29057E+06         0.00000E+00
    0.29057E+06        -0.36166E+06         0.00000E+00
    0.00000E+00         0.00000E+00        -0.30800E+03
 
    0.35036E+06         0.30254E+06         0.00000E+00
    0.30254E+06        -0.35262E+06         0.00000E+00
    0.00000E+00         0.00000E+00        -0.45147E+03
 
    0.34034E+06         0.31423E+06         0.00000E+00
    0.31423E+06        -0.34336E+06         0.00000E+00
    0.00000E+00         0.00000E+00        -0.60306E+03
 
    0.33006E+06         0.32565E+06         0.00000E+00
    0.32565E+06        -0.33388E+06         0.00000E+00
    0.00000E+00         0.00000E+00        -0.76485E+03
 
    0.31953E+06         0.33680E+06         0.00000E+00
    0.33680E+06        -0.32422E+06         0.00000E+00
    0.00000E+00         0.00000E+00        -0.93897E+03
 
    0.30876E+06         0.34766E+06         0.00000E+00
    0.34766E+06        -0.31440E+06         0.00000E+00
    0.00000E+00         0.00000E+00        -0.11277E+04
 
    0.29776E+06         0.35825E+06         0.00000E+00
    0.35825E+06        -0.30443E+06         0.00000E+00
    0.00000E+00         0.00000E+00        -0.13335E+04
 
    0.28654E+06         0.36857E+06         0.00000E+00
    0.36857E+06        -0.29433E+06         0.00000E+00
    0.00000E+00         0.00000E+00        -0.15590E+04
 
    0.27510E+06         0.37861E+06         0.00000E+00
    0.37861E+06        -0.28413E+06         0.00000E+00
    0.00000E+00         0.00000E+00        -0.18068E+04
 
    0.26346E+06         0.38838E+06         0.00000E+00
    0.38838E+06        -0.27386E+06         0.00000E+00
    0.00000E+00         0.00000E+00        -0.20798E+04
 
    0.25162E+06         0.39789E+06         0.00000E+00
    0.39789E+06        -0.26352E+06         0.00000E+00
    0.00000E+00         0.00000E+00        -0.23812E+04
 
    0.23958E+06         0.40714E+06         0.00000E+00
    0.40714E+06        -0.25315E+06         0.00000E+00
    0.00000E+00         0.00000E+00        -0.27142E+04
 
    0.22735E+06         0.41614E+06         0.00000E+00
    0.41614E+06        -0.24276E+06         0.00000E+00
    0.00000E+00         0.00000E+00        -0.30823E+04
 
    0.21493E+06         0.42488E+06         0.00000E+00
    0.42488E+06        -0.23237E+06         0.00000E+00
    0.00000E+00         0.00000E+00        -0.34891E+04
 
    0.20232E+06         0.43339E+06         0.00000E+00
    0.43339E+06        -0.22201E+06         0.00000E+00
    0.00000E+00         0.00000E+00        -0.39386E+04
 
    0.18953E+06         0.44166E+06         0.00000E+00
    0.44166E+06        -0.21170E+06         0.00000E+00
    0.00000E+00         0.00000E+00        -0.44347E+04
 
    0.17655E+06         0.44970E+06         0.00000E+00
    0.44970E+06        -0.20146E+06         0.00000E+00
    0.00000E+00         0.00000E+00        -0.49820E+04
 
    0.16338E+06         0.45752E+06         0.00000E+00
    0.45752E+06        -0.19131E+06         0.00000E+00
    0.00000E+00         0.00000E+00        -0.55847E+04
 
    0.15002E+06         0.46514E+06         0.00000E+00
    0.46514E+06        -0.18126E+06         0.00000E+00
    0.00000E+00         0.00000E+00        -0.62479E+04
 
    0.13646E+06         0.47255E+06         0.00000E+00
    0.47255E+06        -0.17135E+06         0.00000E+00
    0.00000E+00         0.00000E+00        -0.69762E+04
 
    0.12270E+06         0.47976E+06         0.00000E+00
    0.47976E+06        -0.16158E+06         0.00000E+00
    0.00000E+00         0.00000E+00        -0.77751E+04
 
    0.10873E+06         0.48679E+06         0.00000E+00
    0.48679E+06        -0.15198E+06         0.00000E+00
    0.00000E+00         0.00000E+00        -0.86497E+04
 
    0.94548E+05         0.49365E+06         0.00000E+00
    0.49365E+06        -0.14258E+06         0.00000E+00
    0.00000E+00         0.00000E+00        -0.96057E+04
 
    0.80132E+05         0.50033E+06         0.00000E+00
    0.50033E+06        -0.13338E+06         0.00000E+00
    0.00000E+00         0.00000E+00        -0.10649E+05
 
    0.65479E+05         0.50685E+06         0.00000E+00
    0.50685E+06        -0.12440E+06         0.00000E+00
    0.00000E+00         0.00000E+00        -0.11785E+05
 
    0.50574E+05         0.51322E+06         0.00000E+00
    0.51322E+06        -0.11567E+06         0.00000E+00
    0.00000E+00         0.00000E+00        -0.13020E+05
 
    0.35404E+05         0.51944E+06         0.00000E+00
    0.51944E+06        -0.10720E+06         0.00000E+00
    0.00000E+00         0.00000E+00        -0.14360E+05
 
    0.19955E+05         0.52553E+06         0.00000E+00
    0.52553E+06        -0.99013E+05         0.00000E+00
    0.00000E+00         0.00000E+00        -0.15812E+05
 
    0.42114E+04         0.53148E+06         0.00000E+00
    0.53148E+06        -0.91115E+05         0.00000E+00
    0.00000E+00         0.00000E+00        -0.17381E+05
 
   -0.11844E+05         0.53730E+06         0.00000E+00
    0.53730E+06        -0.83525E+05         0.00000E+00
    0.00000E+00         0.00000E+00        -0.19074E+05
 
    0.52031E+06         0.84150E+04         0.00000E+00
    0.84150E+04        -0.50526E+06         0.00000E+00
    0.00000E+00         0.00000E+00         0.30114E+04
 
    0.51828E+06         0.25333E+05         0.00000E+00
    0.25333E+05        -0.50460E+06         0.00000E+00
    0.00000E+00         0.00000E+00         0.27358E+04
 
    0.51570E+06         0.42249E+05         0.00000E+00
    0.42249E+05        -0.50330E+06         0.00000E+00
    0.00000E+00         0.00000E+00         0.24784E+04
 
    0.51256E+06         0.59132E+05         0.00000E+00
    0.59132E+05        -0.50137E+06         0.00000E+00
    0.00000E+00         0.00000E+00         0.22382E+04
 
    0.50888E+06         0.75953E+05         0.00000E+00
    0.75953E+05        -0.49881E+06         0.00000E+00
    0.00000E+00         0.00000E+00         0.20141E+04
 
    0.50466E+06         0.92687E+05         0.00000E+00
    0.92687E+05        -0.49564E+06         0.00000E+00
    0.00000E+00         0.00000E+00         0.18052E+04
 
    0.49992E+06         0.10930E+06         0.00000E+00
    0.10930E+06        -0.49187E+06         0.00000E+00
    0.00000E+00         0.00000E+00         0.16102E+04
 
    0.49466E+06         0.12578E+06         0.00000E+00
    0.12578E+06        -0.48752E+06         0.00000E+00
    0.00000E+00         0.00000E+00         0.14280E+04
 
    0.48889E+06         0.14210E+06         0.00000E+00
    0.14210E+06        -0.48261E+06         0.00000E+00
    0.00000E+00         0.00000E+00         0.12575E+04
 
    0.48264E+06         0.15823E+06         0.00000E+00
    0.15823E+06        -0.47715E+06         0.00000E+00
    0.00000E+00         0.00000E+00         0.10975E+04
 
    0.47590E+06         0.17415E+06         0.00000E+00
    0.17415E+06        -0.47117E+06         0.00000E+00
    0.00000E+00         0.00000E+00         0.94674E+03
 
    0.46871E+06         0.18985E+06         0.00000E+00
    0.18985E+06        -0.46469E+06         0.00000E+00
    0.00000E+00         0.00000E+00         0.80398E+03
 
    0.46107E+06         0.20531E+06         0.00000E+00
    0.20531E+06        -0.45773E+06         0.00000E+00
    0.00000E+00         0.00000E+00         0.66794E+03
 
    0.45299E+06         0.22051E+06         0.00000E+00
    0.22051E+06        -0.45031E+06         0.00000E+00
    0.00000E+00         0.00000E+00         0.53731E+03
 
    0.44450E+06         0.23543E+06         0.00000E+00
    0.23543E+06        -0.44245E+06         0.00000E+00
    0.00000E+00         0.00000E+00         0.41073E+03
 
    0.43562E+06         0.25007E+06         0.00000E+00
    0.25007E+06        -0.43418E+06         0.00000E+00
    0.00000E+00         0.00000E+00         0.28681E+03
 
    0.42635E+06         0.26441E+06         0.00000E+00
    0.26441E+06        -0.42553E+06         0.00000E+00
    0.00000E+00         0.00000E+00         0.16410E+03
 
    0.41672E+06         0.27845E+06         0.00000E+00
    0.27845E+06        -0.41651E+06         0.00000E+00
    0.00000E+00         0.00000E+00         0.41099E+02
 
    0.40674E+06         0.29216E+06         0.00000E+00
    0.29216E+06        -0.40716E+06         0.00000E+00
    0.00000E+00         0.00000E+00        -0.83767E+02
 
    0.39643E+06         0.30556E+06         0.00000E+00
    0.30556E+06        -0.39750E+06         0.00000E+00
    0.00000E+00         0.00000E+00        -0.21214E+03
 
    0.38582E+06         0.31863E+06         0.00000E+00
    0.31863E+06        -0.38755E+06         0.00000E+00
    0.00000E+00         0.00000E+00        -0.34573E+03
 
    0.37490E+06         0.33137E+06         0.00000E+00
    0.33137E+06        -0.37733E+06         0.00000E+00
    0.00000E+00         0.00000E+00        -0.48637E+03
 
    0.36371E+06         0.34377E+06         0.00000E+00
    0.34377E+06        -0.36689E+06         0.00000E+00
    0.00000E+00         0.00000E+00        -0.63598E+03
 
    0.35225E+06         0.35584E+06         0.00000E+00
    0.35584E+06        -0.35624E+06         0.00000E+00
    0.00000E+00         0.00000E+00        -0.79657E+03
 
    0.34055E+06         0.36758E+06         0.00000E+00
    0.36758E+06        -0.34540E+06         0.00000E+00
    0.00000E+00         0.00000E+00        -0.97031E+03
 
    0.32861E+06         0.37898E+06         0.00000E+00
    0.37898E+06        -0.33440E+06         0.00000E+00
    0.00000E+00         0.00000E+00        -0.11595E+04
 
    0.31645E+06         0.39006E+06         0.00000E+00
    0.39006E+06        -0.32328E+06         0.00000E+00
    0.00000E+00         0.00000E+00        -0.13666E+04
 
    0.30408E+06         0.40081E+06         0.00000E+00
    0.40081E+06        -0.31205E+06         0.00000E+00
    0.00000E+00         0.00000E+00        -0.15941E+04
 
    0.29151E+06         0.41123E+06         0.00000E+00
    0.41123E+06        -0.30073E+06         0.00000E+00
    0.00000E+00         0.00000E+00        -0.18449E+04
 
    0.27875E+06         0.42135E+06         0.00000E+00
    0.42135E+06        -0.28936E+06         0.00000E+00
    0.00000E+00         0.00000E+00        -0.21218E+04
 
    0.26582E+06         0.43116E+06         0.00000E+00
    0.43116E+06        -0.27796E+06         0.00000E+00
    0.00000E+00         0.00000E+00        -0.24281E+04
 
    0.25272E+06         0.44067E+06         0.00000E+00
    0.44067E+06        -0.26656E+06         0.00000E+00
    0.00000E+00         0.00000E+00        -0.27671E+04
 
    0.23946E+06         0.44989E+06         0.00000E+00
    0.44989E+06        -0.25517E+06         0.00000E+00
    0.00000E+00         0.00000E+00        -0.31423E+04
 
    0.22603E+06         0.45884E+06         0.00000E+00
    0.45884E+06        -0.24382E+06         0.00000E+00
    0.00000E+00         0.00000E+00        -0.35575E+04
 
    0.21246E+06         0.46751E+06         0.00000E+00
    0.46751E+06        -0.23254E+06         0.00000E+00
    0.00000E+00         0.00000E+00        -0.40166E+04
 
    0.19873E+06         0.47593E+06         0.00000E+00
    0.47593E+06        -0.22135E+06         0.00000E+00
    0.00000E+00         0.00000E+00        -0.45240E+04
 
    0.18485E+06         0.48411E+06         0.00000E+00
    0.48411E+06        -0.21027E+06         0.00000E+00
    0.00000E+00         0.00000E+00        -0.50839E+04
 
    0.17082E+06         0.49205E+06         0.00000E+00
    0.49205E+06        -0.19932E+06         0.00000E+00
    0.00000E+00         0.00000E+00        -0.57012E+04
 
    0.15663E+06         0.49978E+06         0.00000E+00
    0.49978E+06        -0.18853E+06         0.00000E+00
    0.00000E+00         0.00000E+00        -0.63807E+04
 
    0.14228E+06         0.50730E+06         0.00000E+00
    0.50730E+06        -0.17792E+06         0.00000E+00
    0.00000E+00         0.00000E+00        -0.71275E+04
 
    0.12777E+06         0.51462E+06         0.00000E+00
    0.51462E+06        -0.16751E+06         0.00000E+00
    0.00000E+00         0.00000E+00        -0.79469E+04
 
    0.11309E+06         0.52177E+06         0.00000E+00
    0.52177E+06        -0.15731E+06         0.00000E+00
    0.00000E+00         0.00000E+00        -0.88446E+04
 
    0.98218E+05         0.52875E+06         0.00000E+00
    0.52875E+06        -0.14735E+06         0.00000E+00
    0.00000E+00         0.00000E+00        -0.98263E+04
 
    0.83157E+05         0.53558E+06         0.00000E+00
    0.53558E+06        -0.13765E+06         0.00000E+00
    0.00000E+00         0.00000E+00        -0.10898E+05
 
    0.67889E+05         0.54227E+06         0.00000E+00
    0.54227E+06        -0.12822E+06         0.00000E+00
    0.00000E+00         0.00000E+00        -0.12065E+05
 
    0.52400E+05         0.54883E+06         0.00000E+00
    0.54883E+06        -0.11908E+06         0.00000E+00
    0.00000E+00         0.00000E+00        -0.13335E+05
 
    0.36674E+05         0.55528E+06         0.00000E+00
    0.55528E+06        -0.11024E+06         0.00000E+00
    0.00000E+00         0.00000E+00        -0.14714E+05
 
    0.20692E+05         0.56163E+06         0.00000E+00
    0.56163E+06        -0.10173E+06         0.00000E+00
    0.00000E+00         0.00000E+00        -0.16207E+05
 
    0.44352E+04         0.56788E+06         0.00000E+00
    0.56788E+06        -0.93550E+05         0.00000E+00
    0.00000E+00         0.00000E+00        -0.17823E+05
 
   -0.12118E+05         0.57405E+06         0.00000E+00
    0.57405E+06        -0.85715E+05         0.00000E+00
    0.00000E+00         0.00000E+00        -0.19567E+05
 
    0.56444E+06         0.94837E+04         0.00000E+00
    0.94837E+04        -0.55083E+06         0.00000E+00
    0.00000E+00         0.00000E+00         0.27225E+04
 
    0.56247E+06         0.28509E+05         0.00000E+00
    0.28509E+05        -0.55005E+06         0.00000E+00
    0.00000E+00         0.00000E+00         0.24827E+04
 
    0.55980E+06         0.47507E+05         0.00000E+00
    0.47507E+05        -0.54851E+06         0.00000E+00
    0.00000E+00         0.00000E+00         0.22574E+04
 
    0.55645E+06         0.66442E+05         0.00000E+00
    0.66442E+05        -0.54622E+06         0.00000E+00
    0.00000E+00         0.00000E+00         0.20458E+04
 
    0.55243E+06         0.85277E+05         0.00000E+00
    0.85277E+05        -0.54319E+06         0.00000E+00
    0.00000E+00         0.00000E+00         0.18473E+04
 
    0.54776E+06         0.10398E+06         0.00000E+00
    0.10398E+06        -0.53945E+06         0.00000E+00
    0.00000E+00         0.00000E+00         0.16610E+04
 
    0.54245E+06         0.12251E+06         0.00000E+00
    0.12251E+06        -0.53502E+06         0.00000E+00
    0.00000E+00         0.00000E+00         0.14862E+04
 
    0.53652E+06         0.14085E+06         0.00000E+00
    0.14085E+06        -0.52991E+06         0.00000E+00
    0.00000E+00         0.00000E+00         0.13219E+04
 
    0.52998E+06         0.15896E+06         0.00000E+00
    0.15896E+06        -0.52415E+06         0.00000E+00
    0.00000E+00         0.00000E+00         0.11671E+04
 
    0.52287E+06         0.17683E+06         0.00000E+00
    0.17683E+06        -0.51776E+06         0.00000E+00
    0.00000E+00         0.00000E+00         0.10210E+04
 
    0.51519E+06         0.19441E+06         0.00000E+00
    0.19441E+06        -0.51078E+06         0.00000E+00
    0.00000E+00         0.00000E+00         0.88248E+03
 
    0.50697E+06         0.21170E+06         0.00000E+00
    0.21170E+06        -0.50322E+06         0.00000E+00
    0.00000E+00         0.00000E+00         0.75048E+03
 
    0.49824E+06         0.22867E+06         0.00000E+00
    0.22867E+06        -0.49512E+06         0.00000E+00
    0.00000E+00         0.00000E+00         0.62389E+03
 
    0.48901E+06         0.24530E+06         0.00000E+00
    0.24530E+06        -0.48650E+06         0.00000E+00
    0.00000E+00         0.00000E+00         0.50154E+03
 
    0.47931E+06         0.26158E+06         0.00000E+00
    0.26158E+06        -0.47740E+06         0.00000E+00
    0.00000E+00         0.00000E+00         0.38221E+03
 
    0.46917E+06         0.27750E+06         0.00000E+00
    0.27750E+06        -0.46785E+06         0.00000E+00
    0.00000E+00         0.00000E+00         0.26462E+03
 
    0.45860E+06         0.29303E+06         0.00000E+00
    0.29303E+06        -0.45787E+06         0.00000E+00
    0.00000E+00         0.00000E+00         0.14745E+03
 
    0.44764E+06         0.30817E+06         0.00000E+00
    0.30817E+06        -0.44749E+06         0.00000E+00
    0.00000E+00         0.00000E+00         0.29279E+02
 
    0.43630E+06         0.32292E+06         0.00000E+00
    0.32292E+06        -0.43676E+06         0.00000E+00
    0.00000E+00         0.00000E+00        -0.91370E+02
 
    0.42461E+06         0.33726E+06         0.00000E+00
    0.33726E+06        -0.42569E+06         0.00000E+00
    0.00000E+00         0.00000E+00        -0.21606E+03
 
    0.41260E+06         0.35119E+06         0.00000E+00
    0.35119E+06        -0.41433E+06         0.00000E+00
    0.00000E+00         0.00000E+00        -0.34646E+03
 
    0.40028E+06         0.36471E+06         0.00000E+00
    0.36471E+06        -0.40270E+06         0.00000E+00
    0.00000E+00         0.00000E+00        -0.48432E+03
 
    0.38767E+06         0.37782E+06         0.00000E+00
    0.37782E+06        -0.39083E+06         0.00000E+00
    0.00000E+00         0.00000E+00        -0.63151E+03
 
    0.37481E+06         0.39051E+06         0.00000E+00
    0.39051E+06        -0.37876E+06         0.00000E+00
    0.00000E+00         0.00000E+00        -0.79002E+03
 
    0.36171E+06         0.40280E+06         0.00000E+00
    0.40280E+06        -0.36652E+06         0.00000E+00
    0.00000E+00         0.00000E+00        -0.96199E+03
 
    0.34839E+06         0.41469E+06         0.00000E+00
    0.41469E+06        -0.35414E+06         0.00000E+00
    0.00000E+00         0.00000E+00        -0.11497E+04
 
    0.33486E+06         0.42617E+06         0.00000E+00
    0.42617E+06        -0.34164E+06         0.00000E+00
    0.00000E+00         0.00000E+00        -0.13555E+04
 
    0.32116E+06         0.43727E+06         0.00000E+00
    0.43727E+06        -0.32907E+06         0.00000E+00
    0.00000E+00         0.00000E+00        -0.15820E+04
 
    0.30728E+06         0.44798E+06         0.00000E+00
    0.44798E+06        -0.31644E+06         0.00000E+00
    0.00000E+00         0.00000E+00        -0.18321E+04
 
    0.29326E+06         0.45832E+06         0.00000E+00
    0.45832E+06        -0.30380E+06         0.00000E+00
    0.00000E+00         0.00000E+00        -0.21086E+04
 
    0.27909E+06         0.46831E+06         0.00000E+00
    0.46831E+06        -0.29116E+06         0.00000E+00
    0.00000E+00         0.00000E+00        -0.24147E+04
 
    0.26480E+06         0.47794E+06         0.00000E+00
    0.47794E+06        -0.27856E+06         0.00000E+00
    0.00000E+00         0.00000E+00        -0.27538E+04
 
    0.25038E+06         0.48725E+06         0.00000E+00
    0.48725E+06        -0.26603E+06         0.00000E+00
    0.00000E+00         0.00000E+00        -0.31295E+04
 
    0.23586E+06         0.49623E+06         0.00000E+00
    0.49623E+06        -0.25359E+06         0.00000E+00
    0.00000E+00         0.00000E+00        -0.35454E+04
 
    0.22124E+06         0.50491E+06         0.00000E+00
    0.50491E+06        -0.24127E+06         0.00000E+00
    0.00000E+00         0.00000E+00        -0.40058E+04
 
    0.20652E+06         0.51331E+06         0.00000E+00
    0.51331E+06        -0.22909E+06         0.00000E+00
    0.00000E+00         0.00000E+00        -0.45148E+04
 
    0.19170E+06         0.52145E+06         0.00000E+00
    0.52145E+06        -0.21709E+06         0.00000E+00
    0.00000E+00         0.00000E+00        -0.50770E+04
 
    0.17680E+06         0.52933E+06         0.00000E+00
    0.52933E+06        -0.20528E+06         0.00000E+00
    0.00000E+00         0.00000E+00        -0.56971E+04
 
    0.16179E+06         0.53698E+06         0.00000E+00
    0.53698E+06        -0.19369E+06         0.00000E+00
    0.00000E+00         0.00000E+00        -0.63801E+04
 
    0.14669E+06         0.54443E+06         0.00000E+00
    0.54443E+06        -0.18234E+06         0.00000E+00
    0.00000E+00         0.00000E+00        -0.71311E+04
 
    0.13148E+06         0.55168E+06         0.00000E+00
    0.55168E+06        -0.17126E+06         0.00000E+00
    0.00000E+00         0.00000E+00        -0.79557E+04
 
    0.11616E+06         0.55876E+06         0.00000E+00
    0.55876E+06        -0.16045E+06         0.00000E+00
    0.00000E+00         0.00000E+00        -0.88595E+04
 
    0.10071E+06         0.56569E+06         0.00000E+00
    0.56569E+06        -0.14995E+06         0.00000E+00
    0.00000E+00         0.00000E+00        -0.98484E+04
 
    0.85132E+05         0.57249E+06         0.00000E+00
    0.57249E+06        -0.13977E+06         0.00000E+00
    0.00000E+00         0.00000E+00        -0.10928E+05
 
    0.69404E+05         0.57918E+06         0.00000E+00
    0.57918E+06        -0.12993E+06         0.00000E+00
    0.00000E+00         0.00000E+00        -0.12106E+05
 
    0.53510E+05         0.58577E+06         0.00000E+00
    0.58577E+06        -0.12044E+06         0.00000E+00
    0.00000E+00         0.00000E+00        -0.13387E+05
 
    0.37430E+05         0.59229E+06         0.00000E+00
    0.59229E+06        -0.11132E+06         0.00000E+00
    0.00000E+00         0.00000E+00        -0.14778E+05
 
    0.21144E+05         0.59876E+06         0.00000E+00
    0.59876E+06        -0.10258E+06         0.00000E+00
    0.00000E+00         0.00000E+00        -0.16287E+05
 
    0.46281E+04         0.60518E+06         0.00000E+00
    0.60518E+06        -0.94224E+05         0.00000E+00
    0.00000E+00         0.00000E+00        -0.17919E+05
 
   -0.12144E+05         0.61159E+06         0.00000E+00
    0.61159E+06        -0.86267E+05         0.00000E+00
    0.00000E+00         0.00000E+00        -0.19682E+05
 
    0.61511E+06         0.10804E+05         0.00000E+00
    0.10804E+05        -0.60160E+06         0.00000E+00
    0.00000E+00         0.00000E+00         0.27022E+04
 
    0.61306E+06         0.32400E+05         0.00000E+00
    0.32400E+05        -0.60066E+06         0.00000E+00
    0.00000E+00         0.00000E+00         0.24800E+04
 
    0.61016E+06         0.53927E+05         0.00000E+00
    0.53927E+05        -0.59881E+06         0.00000E+00
    0.00000E+00         0.00000E+00         0.22694E+04
 
    0.60642E+06         0.75338E+05         0.00000E+00
    0.75338E+05        -0.59607E+06         0.00000E+00
    0.00000E+00         0.00000E+00         0.20699E+04
 
    0.60186E+06         0.96589E+05         0.00000E+00
    0.96589E+05        -0.59245E+06         0.00000E+00
    0.00000E+00         0.00000E+00         0.18811E+04
 
    0.59651E+06         0.11764E+06         0.00000E+00
    0.11764E+06        -0.58800E+06         0.00000E+00
    0.00000E+00         0.00000E+00         0.17026E+04
 
    0.59039E+06         0.13845E+06         0.00000E+00
    0.13845E+06        -0.58272E+06         0.00000E+00
    0.00000E+00         0.00000E+00         0.15339E+04
 
    0.58353E+06         0.15898E+06         0.00000E+00
    0.15898E+06        -0.57666E+06         0.00000E+00
    0.00000E+00         0.00000E+00         0.13742E+04
 
    0.57595E+06         0.17920E+06         0.00000E+00
    0.17920E+06        -0.56984E+06         0.00000E+00
    0.00000E+00         0.00000E+00         0.12229E+04
 
    0.56769E+06         0.19909E+06         0.00000E+00
    0.19909E+06        -0.56229E+06         0.00000E+00
    0.00000E+00         0.00000E+00         0.10792E+04
 
    0.55877E+06         0.21860E+06         0.00000E+00
    0.21860E+06        -0.55406E+06         0.00000E+00
    0.00000E+00         0.00000E+00         0.94230E+03
 
    0.54923E+06         0.23771E+06         0.00000E+00
    0.23771E+06        -0.54517E+06         0.00000E+00
    0.00000E+00         0.00000E+00         0.81128E+03
 
    0.53909E+06         0.25641E+06         0.00000E+00
    0.25641E+06        -0.53567E+06         0.00000E+00
    0.00000E+00         0.00000E+00         0.68516E+03
 
    0.52840E+06         0.27466E+06         0.00000E+00
    0.27466E+06        -0.52558E+06         0.00000E+00
    0.00000E+00         0.00000E+00         0.56294E+03
 
    0.51717E+06         0.29246E+06         0.00000E+00
    0.29246E+06        -0.51495E+06         0.00000E+00
    0.00000E+00         0.00000E+00         0.44352E+03
 
    0.50545E+06         0.30979E+06         0.00000E+00
    0.30979E+06        -0.50382E+06         0.00000E+00
    0.00000E+00         0.00000E+00         0.32572E+03
 
    0.49326E+06         0.32662E+06         0.00000E+00
    0.32662E+06        -0.49222E+06         0.00000E+00
    0.00000E+00         0.00000E+00         0.20831E+03
 
    0.48064E+06         0.34297E+06         0.00000E+00
    0.34297E+06        -0.48019E+06         0.00000E+00
    0.00000E+00         0.00000E+00         0.89976E+02
 
    0.46762E+06         0.35880E+06         0.00000E+00
    0.35880E+06        -0.46778E+06         0.00000E+00
    0.00000E+00         0.00000E+00        -0.30687E+02
 
    0.45424E+06         0.37413E+06         0.00000E+00
    0.37413E+06        -0.45501E+06         0.00000E+00
    0.00000E+00         0.00000E+00        -0.15517E+03
 
    0.44052E+06         0.38895E+06         0.00000E+00
    0.38895E+06        -0.44194E+06         0.00000E+00
    0.00000E+00         0.00000E+00        -0.28507E+03
 
    0.42649E+06         0.40325E+06         0.00000E+00
    0.40325E+06        -0.42860E+06         0.00000E+00
    0.00000E+00         0.00000E+00        -0.42208E+03
 
    0.41219E+06         0.41704E+06         0.00000E+00
    0.41704E+06        -0.41503E+06         0.00000E+00
    0.00000E+00         0.00000E+00        -0.56801E+03
 
    0.39764E+06         0.43032E+06         0.00000E+00
    0.43032E+06        -0.40127E+06         0.00000E+00
    0.00000E+00         0.00000E+00        -0.72482E+03
 
    0.38287E+06         0.44309E+06         0.00000E+00
    0.44309E+06        -0.38735E+06         0.00000E+00
    0.00000E+00         0.00000E+00        -0.89457E+03
 
    0.36791E+06         0.45538E+06         0.00000E+00
    0.45538E+06        -0.37331E+06         0.00000E+00
    0.00000E+00         0.00000E+00        -0.10795E+04
 
    0.35279E+06         0.46717E+06         0.00000E+00
    0.46717E+06        -0.35920E+06         0.00000E+00
    0.00000E+00         0.00000E+00        -0.12820E+04
 
    0.33752E+06         0.47850E+06         0.00000E+00
    0.47850E+06        -0.34504E+06         0.00000E+00
    0.00000E+00         0.00000E+00        -0.15045E+04
 
    0.32212E+06         0.48936E+06         0.00000E+00
    0.48936E+06        -0.33087E+06         0.00000E+00
    0.00000E+00         0.00000E+00        -0.17499E+04
 
    0.30663E+06         0.49978E+06         0.00000E+00
    0.49978E+06        -0.31674E+06         0.00000E+00
    0.00000E+00         0.00000E+00        -0.20211E+04
 
    0.29105E+06         0.50977E+06         0.00000E+00
    0.50977E+06        -0.30266E+06         0.00000E+00
    0.00000E+00         0.00000E+00        -0.23211E+04
 
    0.27541E+06         0.51935E+06         0.00000E+00
    0.51935E+06        -0.28868E+06         0.00000E+00
    0.00000E+00         0.00000E+00        -0.26533E+04
 
    0.25972E+06         0.52854E+06         0.00000E+00
    0.52854E+06        -0.27483E+06         0.00000E+00
    0.00000E+00         0.00000E+00        -0.30212E+04
 
    0.24399E+06         0.53736E+06         0.00000E+00
    0.53736E+06        -0.26113E+06         0.00000E+00
    0.00000E+00         0.00000E+00        -0.34286E+04
 
    0.22823E+06         0.54584E+06         0.00000E+00
    0.54584E+06        -0.24763E+06         0.00000E+00
    0.00000E+00         0.00000E+00        -0.38796E+04
 
    0.21246E+06         0.55399E+06         0.00000E+00
    0.55399E+06        -0.23435E+06         0.00000E+00
    0.00000E+00         0.00000E+00        -0.43783E+04
 
    0.19667E+06         0.56185E+06         0.00000E+00
    0.56185E+06        -0.22132E+06         0.00000E+00
    0.00000E+00         0.00000E+00        -0.49293E+04
 
    0.18087E+06         0.56943E+06         0.00000E+00
    0.56943E+06        -0.20856E+06         0.00000E+00
    0.00000E+00         0.00000E+00        -0.55372E+04
 
    0.16506E+06         0.57677E+06         0.00000E+00
    0.57677E+06        -0.19610E+06         0.00000E+00
    0.00000E+00         0.00000E+00        -0.62070E+04
 
    0.14924E+06         0.58389E+06         0.00000E+00
    0.58389E+06        -0.18396E+06         0.00000E+00
    0.00000E+00         0.00000E+00        -0.69440E+04
 
    0.13341E+06         0.59082E+06         0.00000E+00
    0.59082E+06        -0.17218E+06         0.00000E+00
    0.00000E+00         0.00000E+00        -0.77535E+04
 
    0.11756E+06         0.59758E+06         0.00000E+00
    0.59758E+06        -0.16076E+06         0.00000E+00
    0.00000E+00         0.00000E+00        -0.86413E+04
 
    0.10167E+06         0.60421E+06         0.00000E+00
    0.60421E+06        -0.14974E+06         0.00000E+00
    0.00000E+00         0.00000E+00        -0.96132E+04
 
    0.85741E+05         0.61074E+06         0.00000E+00
    0.61074E+06        -0.13912E+06         0.00000E+00
    0.00000E+00         0.00000E+00        -0.10675E+05
 
    0.69750E+05         0.61718E+06         0.00000E+00
    0.61718E+06        -0.12892E+06         0.00000E+00
    0.00000E+00         0.00000E+00        -0.11834E+05
 
    0.53682E+05         0.62357E+06         0.00000E+00
    0.62357E+06        -0.11916E+06         0.00000E+00
    0.00000E+00         0.00000E+00        -0.13096E+05
 
    0.37513E+05         0.62994E+06         0.00000E+00
    0.62994E+06        -0.10985E+06         0.00000E+00
    0.00000E+00         0.00000E+00        -0.14467E+05
 
    0.21221E+05         0.63631E+06         0.00000E+00
    0.63631E+06        -0.10099E+06         0.00000E+00
    0.00000E+00         0.00000E+00        -0.15954E+05
 
    0.47775E+04         0.64271E+06         0.00000E+00
    0.64271E+06        -0.92601E+05         0.00000E+00
    0.00000E+00         0.00000E+00        -0.17565E+05
 
   -0.11847E+05         0.64917E+06         0.00000E+00
    0.64917E+06        -0.84680E+05         0.00000E+00
    0.00000E+00         0.00000E+00        -0.19305E+05
 
    0.67420E+06         0.12428E+05         0.00000E+00
    0.12428E+05        -0.65828E+06         0.00000E+00
    0.00000E+00         0.00000E+00         0.31838E+04
 
    0.67185E+06         0.37145E+05         0.00000E+00
    0.37145E+05        -0.65714E+06         0.00000E+00
    0.00000E+00         0.00000E+00         0.29423E+04
 
    0.66845E+06         0.61724E+05         0.00000E+00
    0.61724E+05        -0.65490E+06         0.00000E+00
    0.00000E+00         0.00000E+00         0.27111E+04
 
    0.66404E+06         0.86108E+05         0.00000E+00
    0.86108E+05        -0.65158E+06         0.00000E+00
    0.00000E+00         0.00000E+00         0.24905E+04
 
    0.65864E+06         0.11024E+06         0.00000E+00
    0.11024E+06        -0.64723E+06         0.00000E+00
    0.00000E+00         0.00000E+00         0.22803E+04
 
    0.65228E+06         0.13408E+06         0.00000E+00
    0.13408E+06        -0.64188E+06         0.00000E+00
    0.00000E+00         0.00000E+00         0.20803E+04
 
    0.64501E+06         0.15758E+06         0.00000E+00
    0.15758E+06        -0.63556E+06         0.00000E+00
    0.00000E+00         0.00000E+00         0.18902E+04
 
    0.63686E+06         0.18069E+06         0.00000E+00
    0.18069E+06        -0.62832E+06         0.00000E+00
    0.00000E+00         0.00000E+00         0.17096E+04
 
    0.62788E+06         0.20337E+06         0.00000E+00
    0.20337E+06        -0.62019E+06         0.00000E+00
    0.00000E+00         0.00000E+00         0.15380E+04
 
    0.61809E+06         0.22559E+06         0.00000E+00
    0.22559E+06        -0.61122E+06         0.00000E+00
    0.00000E+00         0.00000E+00         0.13747E+04
 
    0.60754E+06         0.24732E+06         0.00000E+00
    0.24732E+06        -0.60145E+06         0.00000E+00
    0.00000E+00         0.00000E+00         0.12191E+04
 
    0.59628E+06         0.26852E+06         0.00000E+00
    0.26852E+06        -0.59093E+06         0.00000E+00
    0.00000E+00         0.00000E+00         0.10704E+04
 
    0.58435E+06         0.28918E+06         0.00000E+00
    0.28918E+06        -0.57971E+06         0.00000E+00
    0.00000E+00         0.00000E+00         0.92769E+03
 
    0.57178E+06         0.30926E+06         0.00000E+00
    0.30926E+06        -0.56783E+06         0.00000E+00
    0.00000E+00         0.00000E+00         0.79006E+03
 
    0.55862E+06         0.32875E+06         0.00000E+00
    0.32875E+06        -0.55534E+06         0.00000E+00
    0.00000E+00         0.00000E+00         0.65647E+03
 
    0.54492E+06         0.34763E+06         0.00000E+00
    0.34763E+06        -0.54229E+06         0.00000E+00
    0.00000E+00         0.00000E+00         0.52581E+03
 
    0.53072E+06         0.36589E+06         0.00000E+00
    0.36589E+06        -0.52874E+06         0.00000E+00
    0.00000E+00         0.00000E+00         0.39692E+03
 
    0.51606E+06         0.38352E+06         0.00000E+00
    0.38352E+06        -0.51472E+06         0.00000E+00
    0.00000E+00         0.00000E+00         0.26850E+03
 
    0.50098E+06         0.40051E+06         0.00000E+00
    0.40051E+06        -0.50028E+06         0.00000E+00
    0.00000E+00         0.00000E+00         0.13920E+03
 
    0.48552E+06         0.41686E+06         0.00000E+00
    0.41686E+06        -0.48548E+06         0.00000E+00
    0.00000E+00         0.00000E+00         0.75759E+01
 
    0.46973E+06         0.43257E+06         0.00000E+00
    0.43257E+06        -0.47037E+06         0.00000E+00
    0.00000E+00         0.00000E+00        -0.12794E+03
 
    0.45364E+06         0.44764E+06         0.00000E+00
    0.44764E+06        -0.45498E+06         0.00000E+00
    0.00000E+00         0.00000E+00        -0.26899E+03
 
    0.43729E+06         0.46207E+06         0.00000E+00
    0.46207E+06        -0.43938E+06         0.00000E+00
    0.00000E+00         0.00000E+00        -0.41737E+03
 
    0.42072E+06         0.47587E+06         0.00000E+00
    0.47587E+06        -0.42360E+06         0.00000E+00
    0.00000E+00         0.00000E+00        -0.57495E+03
 
    0.40397E+06         0.48905E+06         0.00000E+00
    0.48905E+06        -0.40769E+06         0.00000E+00
    0.00000E+00         0.00000E+00        -0.74378E+03
 
    0.38707E+06         0.50162E+06         0.00000E+00
    0.50162E+06        -0.39170E+06         0.00000E+00
    0.00000E+00         0.00000E+00        -0.92601E+03
 
    0.37005E+06         0.51359E+06         0.00000E+00
    0.51359E+06        -0.37567E+06         0.00000E+00
    0.00000E+00         0.00000E+00        -0.11240E+04
 
    0.35295E+06         0.52499E+06         0.00000E+00
    0.52499E+06        -0.35965E+06         0.00000E+00
    0.00000E+00         0.00000E+00        -0.13402E+04
 
    0.33579E+06         0.53583E+06         0.00000E+00
    0.53583E+06        -0.34367E+06         0.00000E+00
    0.00000E+00         0.00000E+00        -0.15772E+04
 
    0.31860E+06         0.54614E+06         0.00000E+00
    0.54614E+06        -0.32779E+06         0.00000E+00
    0.00000E+00         0.00000E+00        -0.18379E+04
 
    0.30141E+06         0.55593E+06         0.00000E+00
    0.55593E+06        -0.31204E+06         0.00000E+00
    0.00000E+00         0.00000E+00        -0.21254E+04
 
    0.28424E+06         0.56523E+06         0.00000E+00
    0.56523E+06        -0.29645E+06         0.00000E+00
    0.00000E+00         0.00000E+00        -0.24429E+04
 
    0.26711E+06         0.57407E+06         0.00000E+00
    0.57407E+06        -0.28108E+06         0.00000E+00
    0.00000E+00         0.00000E+00        -0.27937E+04
 
    0.25004E+06         0.58247E+06         0.00000E+00
    0.58247E+06        -0.26594E+06         0.00000E+00
    0.00000E+00         0.00000E+00        -0.31817E+04
 
    0.23304E+06         0.59047E+06         0.00000E+00
    0.59047E+06        -0.25109E+06         0.00000E+00
    0.00000E+00         0.00000E+00        -0.36105E+04
 
    0.21613E+06         0.59810E+06         0.00000E+00
    0.59810E+06        -0.23655E+06         0.00000E+00
    0.00000E+00         0.00000E+00        -0.40845E+04
 
    0.19932E+06         0.60539E+06         0.00000E+00
    0.60539E+06        -0.22236E+06         0.00000E+00
    0.00000E+00         0.00000E+00        -0.46080E+04
 
    0.18262E+06         0.61237E+06         0.00000E+00
    0.61237E+06        -0.20855E+06         0.00000E+00
    0.00000E+00         0.00000E+00        -0.51854E+04
 
    0.16603E+06         0.61908E+06         0.00000E+00
    0.61908E+06        -0.19514E+06         0.00000E+00
    0.00000E+00         0.00000E+00        -0.58218E+04
 
    0.14955E+06         0.62556E+06         0.00000E+00
    0.62556E+06        -0.18216E+06         0.00000E+00
    0.00000E+00         0.00000E+00        -0.65221E+04
 
    0.13318E+06         0.63184E+06         0.00000E+00
    0.63184E+06        -0.16964E+06         0.00000E+00
    0.00000E+00         0.00000E+00        -0.72917E+04
 
    0.11691E+06         0.63796E+06         0.00000E+00
    0.63796E+06        -0.15759E+06         0.00000E+00
    0.00000E+00         0.00000E+00        -0.81360E+04
 
    0.10075E+06         0.64396E+06         0.00000E+00
    0.64396E+06        -0.14605E+06         0.00000E+00
    0.00000E+00         0.00000E+00        -0.90610E+04
 
    0.84664E+05         0.64988E+06         0.00000E+00
    0.64988E+06        -0.13503E+06         0.00000E+00
    0.00000E+00         0.00000E+00        -0.10072E+05
 
    0.68653E+05         0.65576E+06         0.00000E+00
    0.65576E+06        -0.12454E+06         0.00000E+00
    0.00000E+00         0.00000E+00        -0.11177E+05
 
    0.52692E+05         0.66163E+06         0.00000E+00
    0.66163E+06        -0.11459E+06         0.00000E+00
    0.00000E+00         0.00000E+00        -0.12380E+05
 
    0.36759E+05         0.66754E+06         0.00000E+00
    0.66754E+06        -0.10520E+06         0.00000E+00
    0.00000E+00         0.00000E+00        -0.13689E+05
 
    0.20829E+05         0.67352E+06         0.00000E+00
    0.67352E+06        -0.96380E+05         0.00000E+00
    0.00000E+00         0.00000E+00        -0.15110E+05
 
    0.48697E+04         0.67960E+06         0.00000E+00
    0.67960E+06        -0.88122E+05         0.00000E+00
    0.00000E+00         0.00000E+00        -0.16651E+05
 
   -0.11152E+05         0.68584E+06         0.00000E+00
    0.68584E+06        -0.80433E+05         0.00000E+00
    0.00000E+00         0.00000E+00        -0.18317E+05
 
    0.74403E+06         0.14410E+05         0.00000E+00
    0.14410E+05        -0.72157E+06         0.00000E+00
    0.00000E+00         0.00000E+00         0.44919E+04
 
    0.74101E+06         0.42883E+05         0.00000E+00
    0.42883E+05        -0.72017E+06         0.00000E+00
    0.00000E+00         0.00000E+00         0.41669E+04
 
    0.73672E+06         0.71114E+05         0.00000E+00
    0.71114E+05        -0.71745E+06         0.00000E+00
    0.00000E+00         0.00000E+00         0.38551E+04
 
    0.73122E+06         0.99036E+05         0.00000E+00
    0.99036E+05        -0.71343E+06         0.00000E+00
    0.00000E+00         0.00000E+00         0.35567E+04
 
    0.72454E+06         0.12659E+06         0.00000E+00
    0.12659E+06        -0.70818E+06         0.00000E+00
    0.00000E+00         0.00000E+00         0.32721E+04
 
    0.71673E+06         0.15371E+06         0.00000E+00
    0.15371E+06        -0.70172E+06         0.00000E+00
    0.00000E+00         0.00000E+00         0.30010E+04
 
    0.70785E+06         0.18035E+06         0.00000E+00
    0.18035E+06        -0.69413E+06         0.00000E+00
    0.00000E+00         0.00000E+00         0.27435E+04
 
    0.69794E+06         0.20645E+06         0.00000E+00
    0.20645E+06        -0.68544E+06         0.00000E+00
    0.00000E+00         0.00000E+00         0.24991E+04
 
    0.68705E+06         0.23198E+06         0.00000E+00
    0.23198E+06        -0.67572E+06         0.00000E+00
    0.00000E+00         0.00000E+00         0.22674E+04
 
    0.67525E+06         0.25689E+06         0.00000E+00
    0.25689E+06        -0.66501E+06         0.00000E+00
    0.00000E+00         0.00000E+00         0.20478E+04
 
    0.66259E+06         0.28115E+06         0.00000E+00
    0.28115E+06        -0.65339E+06         0.00000E+00
    0.00000E+00         0.00000E+00         0.18397E+04
 
    0.64911E+06         0.30472E+06         0.00000E+00
    0.30472E+06        -0.64090E+06         0.00000E+00
    0.00000E+00         0.00000E+00         0.16423E+04
 
    0.63489E+06         0.32757E+06         0.00000E+00
    0.32757E+06        -0.62761E+06         0.00000E+00
    0.00000E+00         0.00000E+00         0.14546E+04
 
    0.61996E+06         0.34969E+06         0.00000E+00
    0.34969E+06        -0.61358E+06         0.00000E+00
    0.00000E+00         0.00000E+00         0.12756E+04
 
    0.60439E+06         0.37105E+06         0.00000E+00
    0.37105E+06        -0.59887E+06         0.00000E+00
    0.00000E+00         0.00000E+00         0.11044E+04
 
    0.58823E+06         0.39163E+06         0.00000E+00
    0.39163E+06        -0.58353E+06         0.00000E+00
    0.00000E+00         0.00000E+00         0.93976E+03
 
    0.57154E+06         0.41143E+06         0.00000E+00
    0.41143E+06        -0.56763E+06         0.00000E+00
    0.00000E+00         0.00000E+00         0.78040E+03
 
    0.55436E+06         0.43043E+06         0.00000E+00
    0.43043E+06        -0.55124E+06         0.00000E+00
    0.00000E+00         0.00000E+00         0.62503E+03
 
    0.53676E+06         0.44863E+06         0.00000E+00
    0.44863E+06        -0.53440E+06         0.00000E+00
    0.00000E+00         0.00000E+00         0.47224E+03
 
    0.51879E+06         0.46603E+06         0.00000E+00
    0.46603E+06        -0.51719E+06         0.00000E+00
    0.00000E+00         0.00000E+00         0.32055E+03
 
    0.50049E+06         0.48262E+06         0.00000E+00
    0.48262E+06        -0.49965E+06         0.00000E+00
    0.00000E+00         0.00000E+00         0.16836E+03
 
    0.48192E+06         0.49842E+06         0.00000E+00
    0.49842E+06        -0.48185E+06         0.00000E+00
    0.00000E+00         0.00000E+00         0.14002E+02
 
    0.46313E+06         0.51343E+06         0.00000E+00
    0.51343E+06        -0.46385E+06         0.00000E+00
    0.00000E+00         0.00000E+00        -0.14431E+03
 
    0.44415E+06         0.52767E+06         0.00000E+00
    0.52767E+06        -0.44570E+06         0.00000E+00
    0.00000E+00         0.00000E+00        -0.30845E+03
 
    0.42505E+06         0.54114E+06         0.00000E+00
    0.54114E+06        -0.42745E+06         0.00000E+00
    0.00000E+00         0.00000E+00        -0.48044E+03
 
    0.40586E+06         0.55386E+06         0.00000E+00
    0.55386E+06        -0.40917E+06         0.00000E+00
    0.00000E+00         0.00000E+00        -0.66239E+03
 
    0.38662E+06         0.56586E+06         0.00000E+00
    0.56586E+06        -0.39090E+06         0.00000E+00
    0.00000E+00         0.00000E+00        -0.85657E+03
 
    0.36737E+06         0.57715E+06         0.00000E+00
    0.57715E+06        -0.37270E+06         0.00000E+00
    0.00000E+00         0.00000E+00        -0.10654E+04
 
    0.34816E+06         0.58777E+06         0.00000E+00
    0.58777E+06        -0.35462E+06         0.00000E+00
    0.00000E+00         0.00000E+00        -0.12914E+04
 
    0.32901E+06         0.59773E+06         0.00000E+00
    0.59773E+06        -0.33670E+06         0.00000E+00
    0.00000E+00         0.00000E+00        -0.15373E+04
 
    0.30997E+06         0.60708E+06         0.00000E+00
    0.60708E+06        -0.31900E+06         0.00000E+00
    0.00000E+00         0.00000E+00        -0.18060E+04
 
    0.29106E+06         0.61583E+06         0.00000E+00
    0.61583E+06        -0.30156E+06         0.00000E+00
    0.00000E+00         0.00000E+00        -0.21006E+04
 
    0.27230E+06         0.62403E+06         0.00000E+00
    0.62403E+06        -0.28442E+06         0.00000E+00
    0.00000E+00         0.00000E+00        -0.24244E+04
 
    0.25373E+06         0.63171E+06         0.00000E+00
    0.63171E+06        -0.26764E+06         0.00000E+00
    0.00000E+00         0.00000E+00        -0.27808E+04
 
    0.23537E+06         0.63892E+06         0.00000E+00
    0.63892E+06        -0.25124E+06         0.00000E+00
    0.00000E+00         0.00000E+00        -0.31735E+04
 
    0.21724E+06         0.64568E+06         0.00000E+00
    0.64568E+06        -0.23527E+06         0.00000E+00
    0.00000E+00         0.00000E+00        -0.36064E+04
 
    0.19935E+06         0.65205E+06         0.00000E+00
    0.65205E+06        -0.21977E+06         0.00000E+00
    0.00000E+00         0.00000E+00        -0.40836E+04
 
    0.18172E+06         0.65806E+06         0.00000E+00
    0.65806E+06        -0.20476E+06         0.00000E+00
    0.00000E+00         0.00000E+00        -0.46096E+04
 
    0.16435E+06         0.66377E+06         0.00000E+00
    0.66377E+06        -0.19030E+06         0.00000E+00
    0.00000E+00         0.00000E+00        -0.51887E+04
 
    0.14726E+06         0.66922E+06         0.00000E+00
    0.66922E+06        -0.17639E+06         0.00000E+00
    0.00000E+00         0.00000E+00        -0.58259E+04
 
    0.13045E+06         0.67446E+06         0.00000E+00
    0.67446E+06        -0.16308E+06         0.00000E+00
    0.00000E+00         0.00000E+00        -0.65263E+04
 
    0.11391E+06         0.67953E+06         0.00000E+00
    0.67953E+06        -0.15038E+06         0.00000E+00
    0.00000E+00         0.00000E+00        -0.72949E+04
 
    0.97638E+05         0.68449E+06         0.00000E+00
    0.68449E+06        -0.13832E+06         0.00000E+00
    0.00000E+00         0.00000E+00        -0.81374E+04
 
    0.81630E+05         0.68939E+06         0.00000E+00
    0.68939E+06        -0.12693E+06         0.00000E+00
    0.00000E+00         0.00000E+00        -0.90595E+04
 
    0.65871E+05         0.69428E+06         0.00000E+00
    0.69428E+06        -0.11621E+06         0.00000E+00
    0.00000E+00         0.00000E+00        -0.10067E+05
 
    0.50341E+05         0.69922E+06         0.00000E+00
    0.69922E+06        -0.10617E+06         0.00000E+00
    0.00000E+00         0.00000E+00        -0.11166E+05
 
    0.35020E+05         0.70425E+06         0.00000E+00
    0.70425E+06        -0.96835E+05         0.00000E+00
    0.00000E+00         0.00000E+00        -0.12363E+05
 
    0.19881E+05         0.70942E+06         0.00000E+00
    0.70942E+06        -0.88201E+05         0.00000E+00
    0.00000E+00         0.00000E+00        -0.13664E+05
 
    0.48906E+04         0.71480E+06         0.00000E+00
    0.71480E+06        -0.80271E+05         0.00000E+00
    0.00000E+00         0.00000E+00        -0.15076E+05
 
   -0.99860E+04         0.72043E+06         0.00000E+00
    0.72043E+06        -0.73042E+05         0.00000E+00
    0.00000E+00         0.00000E+00        -0.16606E+05
 
    0.82742E+06         0.16797E+05         0.00000E+00
    0.16797E+05        -0.79212E+06         0.00000E+00
    0.00000E+00         0.00000E+00         0.70596E+04
 
    0.82317E+06         0.49735E+05         0.00000E+00
    0.49735E+05        -0.79042E+06         0.00000E+00
    0.00000E+00         0.00000E+00         0.65508E+04
 
    0.81742E+06         0.82281E+05         0.00000E+00
    0.82281E+05        -0.78710E+06         0.00000E+00
    0.00000E+00         0.00000E+00         0.60641E+04
 
    0.81023E+06         0.11436E+06         0.00000E+00
    0.11436E+06        -0.78224E+06         0.00000E+00
    0.00000E+00         0.00000E+00         0.55998E+04
 
    0.80167E+06         0.14590E+06         0.00000E+00
    0.14590E+06        -0.77588E+06         0.00000E+00
    0.00000E+00         0.00000E+00         0.51583E+04
 
    0.79180E+06         0.17683E+06         0.00000E+00
    0.17683E+06        -0.76810E+06         0.00000E+00
    0.00000E+00         0.00000E+00         0.47395E+04
 
    0.78068E+06         0.20710E+06         0.00000E+00
    0.20710E+06        -0.75897E+06         0.00000E+00
    0.00000E+00         0.00000E+00         0.43432E+04
 
    0.76840E+06         0.23664E+06         0.00000E+00
    0.23664E+06        -0.74855E+06         0.00000E+00
    0.00000E+00         0.00000E+00         0.39688E+04
 
    0.75500E+06         0.26542E+06         0.00000E+00
    0.26542E+06        -0.73692E+06         0.00000E+00
    0.00000E+00         0.00000E+00         0.36159E+04
 
    0.74057E+06         0.29338E+06         0.00000E+00
    0.29338E+06        -0.72415E+06         0.00000E+00
    0.00000E+00         0.00000E+00         0.32836E+04
 
    0.72517E+06         0.32049E+06         0.00000E+00
    0.32049E+06        -0.71032E+06         0.00000E+00
    0.00000E+00         0.00000E+00         0.29710E+04
 
    0.70888E+06         0.34670E+06         0.00000E+00
    0.34670E+06        -0.69550E+06         0.00000E+00
    0.00000E+00         0.00000E+00         0.26771E+04
 
    0.69177E+06         0.37201E+06         0.00000E+00
    0.37201E+06        -0.67976E+06         0.00000E+00
    0.00000E+00         0.00000E+00         0.24008E+04
 
    0.67389E+06         0.39636E+06         0.00000E+00
    0.39636E+06        -0.66319E+06         0.00000E+00
    0.00000E+00         0.00000E+00         0.21408E+04
 
    0.65533E+06         0.41976E+06         0.00000E+00
    0.41976E+06        -0.64585E+06         0.00000E+00
    0.00000E+00         0.00000E+00         0.18959E+04
 
    0.63615E+06         0.44219E+06         0.00000E+00
    0.44219E+06        -0.62782E+06         0.00000E+00
    0.00000E+00         0.00000E+00         0.16645E+04
 
    0.61641E+06         0.46362E+06         0.00000E+00
    0.46362E+06        -0.60919E+06         0.00000E+00
    0.00000E+00         0.00000E+00         0.14453E+04
 
    0.59619E+06         0.48406E+06         0.00000E+00
    0.48406E+06        -0.59001E+06         0.00000E+00
    0.00000E+00         0.00000E+00         0.12367E+04
 
    0.57556E+06         0.50351E+06         0.00000E+00
    0.50351E+06        -0.57037E+06         0.00000E+00
    0.00000E+00         0.00000E+00         0.10371E+04
 
    0.55456E+06         0.52196E+06         0.00000E+00
    0.52196E+06        -0.55034E+06         0.00000E+00
    0.00000E+00         0.00000E+00         0.84472E+03
 
    0.53327E+06         0.53942E+06         0.00000E+00
    0.53942E+06        -0.52998E+06         0.00000E+00
    0.00000E+00         0.00000E+00         0.65793E+03
 
    0.51175E+06         0.55590E+06         0.00000E+00
    0.55590E+06        -0.50938E+06         0.00000E+00
    0.00000E+00         0.00000E+00         0.47489E+03
 
    0.49006E+06         0.57141E+06         0.00000E+00
    0.57141E+06        -0.48859E+06         0.00000E+00
    0.00000E+00         0.00000E+00         0.29370E+03
 
    0.46825E+06         0.58597E+06         0.00000E+00
    0.58597E+06        -0.46768E+06         0.00000E+00
    0.00000E+00         0.00000E+00         0.11240E+03
 
    0.44638E+06         0.59960E+06         0.00000E+00
    0.59960E+06        -0.44673E+06         0.00000E+00
    0.00000E+00         0.00000E+00        -0.71047E+02
 
    0.42450E+06         0.61233E+06         0.00000E+00
    0.61233E+06        -0.42580E+06         0.00000E+00
    0.00000E+00         0.00000E+00        -0.25878E+03
 
    0.40268E+06         0.62416E+06         0.00000E+00
    0.62416E+06        -0.40494E+06         0.00000E+00
    0.00000E+00         0.00000E+00        -0.45304E+03
 
    0.38095E+06         0.63515E+06         0.00000E+00
    0.63515E+06        -0.38423E+06         0.00000E+00
    0.00000E+00         0.00000E+00        -0.65616E+03
 
    0.35936E+06         0.64531E+06         0.00000E+00
    0.64531E+06        -0.36371E+06         0.00000E+00
    0.00000E+00         0.00000E+00        -0.87062E+03
 
    0.33796E+06         0.65468E+06         0.00000E+00
    0.65468E+06        -0.34345E+06         0.00000E+00
    0.00000E+00         0.00000E+00        -0.10990E+04
 
    0.31679E+06         0.66330E+06         0.00000E+00
    0.66330E+06        -0.32351E+06         0.00000E+00
    0.00000E+00         0.00000E+00        -0.13440E+04
 
    0.29589E+06         0.67121E+06         0.00000E+00
    0.67121E+06        -0.30393E+06         0.00000E+00
    0.00000E+00         0.00000E+00        -0.16085E+04
 
    0.27530E+06         0.67845E+06         0.00000E+00
    0.67845E+06        -0.28478E+06         0.00000E+00
    0.00000E+00         0.00000E+00        -0.18956E+04
 
    0.25505E+06         0.68507E+06         0.00000E+00
    0.68507E+06        -0.26609E+06         0.00000E+00
    0.00000E+00         0.00000E+00        -0.22085E+04
 
    0.23517E+06         0.69112E+06         0.00000E+00
    0.69112E+06        -0.24792E+06         0.00000E+00
    0.00000E+00         0.00000E+00        -0.25504E+04
 
    0.21569E+06         0.69664E+06         0.00000E+00
    0.69664E+06        -0.23032E+06         0.00000E+00
    0.00000E+00         0.00000E+00        -0.29251E+04
 
    0.19664E+06         0.70168E+06         0.00000E+00
    0.70168E+06        -0.21332E+06         0.00000E+00
    0.00000E+00         0.00000E+00        -0.33363E+04
 
    0.17804E+06         0.70631E+06         0.00000E+00
    0.70631E+06        -0.19698E+06         0.00000E+00
    0.00000E+00         0.00000E+00        -0.37878E+04
 
    0.15990E+06         0.71058E+06         0.00000E+00
    0.71058E+06        -0.18132E+06         0.00000E+00
    0.00000E+00         0.00000E+00        -0.42840E+04
 
    0.14223E+06         0.71454E+06         0.00000E+00
    0.71454E+06        -0.16638E+06         0.00000E+00
    0.00000E+00         0.00000E+00        -0.48292E+04
 
    0.12505E+06         0.71826E+06         0.00000E+00
    0.71826E+06        -0.15219E+06         0.00000E+00
    0.00000E+00         0.00000E+00        -0.54279E+04
 
    0.10837E+06         0.72181E+06         0.00000E+00
    0.72181E+06        -0.13879E+06         0.00000E+00
    0.00000E+00         0.00000E+00        -0.60850E+04
 
    0.92175E+05         0.72523E+06         0.00000E+00
    0.72523E+06        -0.12620E+06         0.00000E+00
    0.00000E+00         0.00000E+00        -0.68055E+04
 
    0.76472E+05         0.72861E+06         0.00000E+00
    0.72861E+06        -0.11445E+06         0.00000E+00
    0.00000E+00         0.00000E+00        -0.75947E+04
 
    0.61251E+05         0.73200E+06         0.00000E+00
    0.73200E+06        -0.10354E+06         0.00000E+00
    0.00000E+00         0.00000E+00        -0.84579E+04
 
    0.46497E+05         0.73547E+06         0.00000E+00
    0.73547E+06        -0.93502E+05         0.00000E+00
    0.00000E+00         0.00000E+00        -0.94010E+04
 
    0.32192E+05         0.73910E+06         0.00000E+00
    0.73910E+06        -0.84340E+05         0.00000E+00
    0.00000E+00         0.00000E+00        -0.10430E+05
 
    0.18312E+05         0.74295E+06         0.00000E+00
    0.74295E+06        -0.76061E+05         0.00000E+00
    0.00000E+00         0.00000E+00        -0.11550E+05
 
    0.48270E+04         0.74709E+06         0.00000E+00
    0.74709E+06        -0.68666E+05         0.00000E+00
    0.00000E+00         0.00000E+00        -0.12768E+05
 
   -0.82996E+04         0.75160E+06         0.00000E+00
    0.75160E+06        -0.62151E+05         0.00000E+00
    0.00000E+00         0.00000E+00        -0.14090E+05
 
    0.92766E+06         0.19630E+05         0.00000E+00
    0.19630E+05        -0.87044E+06         0.00000E+00
    0.00000E+00         0.00000E+00         0.11445E+05
 
    0.92139E+06         0.57787E+05         0.00000E+00
    0.57787E+05        -0.86836E+06         0.00000E+00
    0.00000E+00         0.00000E+00         0.10605E+05
 
    0.91337E+06         0.95349E+05         0.00000E+00
    0.95349E+05        -0.86434E+06         0.00000E+00
    0.00000E+00         0.00000E+00         0.98048E+04
 
    0.90369E+06         0.13223E+06         0.00000E+00
    0.13223E+06        -0.85846E+06         0.00000E+00
    0.00000E+00         0.00000E+00         0.90453E+04
 
    0.89244E+06         0.16835E+06         0.00000E+00
    0.16835E+06        -0.85081E+06         0.00000E+00
    0.00000E+00         0.00000E+00         0.83264E+04
 
    0.87970E+06         0.20363E+06         0.00000E+00
    0.20363E+06        -0.84146E+06         0.00000E+00
    0.00000E+00         0.00000E+00         0.76477E+04
 
    0.86556E+06         0.23801E+06         0.00000E+00
    0.23801E+06        -0.83052E+06         0.00000E+00
    0.00000E+00         0.00000E+00         0.70085E+04
 
    0.85011E+06         0.27144E+06         0.00000E+00
    0.27144E+06        -0.81807E+06         0.00000E+00
    0.00000E+00         0.00000E+00         0.64078E+04
 
    0.83344E+06         0.30385E+06         0.00000E+00
    0.30385E+06        -0.80421E+06         0.00000E+00
    0.00000E+00         0.00000E+00         0.58446E+04
 
    0.81562E+06         0.33521E+06         0.00000E+00
    0.33521E+06        -0.78903E+06         0.00000E+00
    0.00000E+00         0.00000E+00         0.53175E+04
 
    0.79676E+06         0.36547E+06         0.00000E+00
    0.36547E+06        -0.77263E+06         0.00000E+00
    0.00000E+00         0.00000E+00         0.48250E+04
 
    0.77692E+06         0.39459E+06         0.00000E+00
    0.39459E+06        -0.75510E+06         0.00000E+00
    0.00000E+00         0.00000E+00         0.43655E+04
 
    0.75621E+06         0.42256E+06         0.00000E+00
    0.42256E+06        -0.73653E+06         0.00000E+00
    0.00000E+00         0.00000E+00         0.39373E+04
 
    0.73471E+06         0.44935E+06         0.00000E+00
    0.44935E+06        -0.71702E+06         0.00000E+00
    0.00000E+00         0.00000E+00         0.35385E+04
 
    0.71249E+06         0.47493E+06         0.00000E+00
    0.47493E+06        -0.69666E+06         0.00000E+00
    0.00000E+00         0.00000E+00         0.31673E+04
 
    0.68965E+06         0.49930E+06         0.00000E+00
    0.49930E+06        -0.67554E+06         0.00000E+00
    0.00000E+00         0.00000E+00         0.28216E+04
 
    0.66625E+06         0.52245E+06         0.00000E+00
    0.52245E+06        -0.65376E+06         0.00000E+00
    0.00000E+00         0.00000E+00         0.24995E+04
 
    0.64239E+06         0.54438E+06         0.00000E+00
    0.54438E+06        -0.63140E+06         0.00000E+00
    0.00000E+00         0.00000E+00         0.21990E+04
 
    0.61814E+06         0.56508E+06         0.00000E+00
    0.56508E+06        -0.60855E+06         0.00000E+00
    0.00000E+00         0.00000E+00         0.19179E+04
 
    0.59357E+06         0.58457E+06         0.00000E+00
    0.58457E+06        -0.58530E+06         0.00000E+00
    0.00000E+00         0.00000E+00         0.16542E+04
 
    0.56876E+06         0.60286E+06         0.00000E+00
    0.60286E+06        -0.56173E+06         0.00000E+00
    0.00000E+00         0.00000E+00         0.14056E+04
 
    0.54378E+06         0.61995E+06         0.00000E+00
    0.61995E+06        -0.53793E+06         0.00000E+00
    0.00000E+00         0.00000E+00         0.11702E+04
 
    0.51870E+06         0.63587E+06         0.00000E+00
    0.63587E+06        -0.51398E+06         0.00000E+00
    0.00000E+00         0.00000E+00         0.94569E+03
 
    0.49360E+06         0.65064E+06         0.00000E+00
    0.65064E+06        -0.48995E+06         0.00000E+00
    0.00000E+00         0.00000E+00         0.72990E+03
 
    0.46853E+06         0.66429E+06         0.00000E+00
    0.66429E+06        -0.46592E+06         0.00000E+00
    0.00000E+00         0.00000E+00         0.52062E+03
 
    0.44356E+06         0.67683E+06         0.00000E+00
    0.67683E+06        -0.44198E+06         0.00000E+00
    0.00000E+00         0.00000E+00         0.31559E+03
 
    0.41875E+06         0.68832E+06         0.00000E+00
    0.68832E+06        -0.41819E+06         0.00000E+00
    0.00000E+00         0.00000E+00         0.11252E+03
 
    0.39417E+06         0.69877E+06         0.00000E+00
    0.69877E+06        -0.39462E+06         0.00000E+00
    0.00000E+00         0.00000E+00        -0.90934E+02
 
    0.36986E+06         0.70824E+06         0.00000E+00
    0.70824E+06        -0.37134E+06         0.00000E+00
    0.00000E+00         0.00000E+00        -0.29718E+03
 
    0.34589E+06         0.71675E+06         0.00000E+00
    0.71675E+06        -0.34843E+06         0.00000E+00
    0.00000E+00         0.00000E+00        -0.50869E+03
 
    0.32230E+06         0.72437E+06         0.00000E+00
    0.72437E+06        -0.32594E+06         0.00000E+00
    0.00000E+00         0.00000E+00        -0.72802E+03
 
    0.29915E+06         0.73113E+06         0.00000E+00
    0.73113E+06        -0.30394E+06         0.00000E+00
    0.00000E+00         0.00000E+00        -0.95783E+03
 
    0.27648E+06         0.73708E+06         0.00000E+00
    0.73708E+06        -0.28248E+06         0.00000E+00
    0.00000E+00         0.00000E+00        -0.12009E+04
 
    0.25434E+06         0.74228E+06         0.00000E+00
    0.74228E+06        -0.26164E+06         0.00000E+00
    0.00000E+00         0.00000E+00        -0.14600E+04
 
    0.23276E+06         0.74679E+06         0.00000E+00
    0.74679E+06        -0.24145E+06         0.00000E+00
    0.00000E+00         0.00000E+00        -0.17382E+04
 
    0.21179E+06         0.75066E+06         0.00000E+00
    0.75066E+06        -0.22199E+06         0.00000E+00
    0.00000E+00         0.00000E+00        -0.20387E+04
 
    0.19147E+06         0.75396E+06         0.00000E+00
    0.75396E+06        -0.20329E+06         0.00000E+00
    0.00000E+00         0.00000E+00        -0.23647E+04
 
    0.17181E+06         0.75675E+06         0.00000E+00
    0.75675E+06        -0.18541E+06         0.00000E+00
    0.00000E+00         0.00000E+00        -0.27197E+04
 
    0.15285E+06         0.75910E+06         0.00000E+00
    0.75910E+06        -0.16839E+06         0.00000E+00
    0.00000E+00         0.00000E+00        -0.31073E+04
 
    0.13462E+06         0.76108E+06         0.00000E+00
    0.76108E+06        -0.15227E+06         0.00000E+00
    0.00000E+00         0.00000E+00        -0.35313E+04
 
    0.11712E+06         0.76276E+06         0.00000E+00
    0.76276E+06        -0.13710E+06         0.00000E+00
    0.00000E+00         0.00000E+00        -0.39956E+04
 
    0.10039E+06         0.76422E+06         0.00000E+00
    0.76422E+06        -0.12291E+06         0.00000E+00
    0.00000E+00         0.00000E+00        -0.45046E+04
 
    0.84418E+05         0.76555E+06         0.00000E+00
    0.76555E+06        -0.10973E+06         0.00000E+00
    0.00000E+00         0.00000E+00        -0.50624E+04
 
    0.69223E+05         0.76680E+06         0.00000E+00
    0.76680E+06        -0.97593E+05         0.00000E+00
    0.00000E+00         0.00000E+00        -0.56738E+04
 
    0.54803E+05         0.76808E+06         0.00000E+00
    0.76808E+06        -0.86521E+05         0.00000E+00
    0.00000E+00         0.00000E+00        -0.63436E+04
 
    0.41152E+05         0.76947E+06         0.00000E+00
    0.76947E+06        -0.76535E+05         0.00000E+00
    0.00000E+00         0.00000E+00        -0.70766E+04
 
    0.28258E+05         0.77105E+06         0.00000E+00
    0.77105E+06        -0.67649E+05         0.00000E+00
    0.00000E+00         0.00000E+00        -0.78782E+04
 
    0.16105E+05         0.77292E+06         0.00000E+00
    0.77292E+06        -0.59874E+05         0.00000E+00
    0.00000E+00         0.00000E+00        -0.87537E+04
 
    0.46681E+04         0.77516E+06         0.00000E+00
    0.77516E+06        -0.53212E+05         0.00000E+00
    0.00000E+00         0.00000E+00        -0.97088E+04
 
   -0.60831E+04         0.77788E+06         0.00000E+00
    0.77788E+06        -0.47664E+05         0.00000E+00
    0.00000E+00         0.00000E+00        -0.10749E+05
 
    0.10485E+07         0.22925E+05         0.00000E+00
    0.22925E+05        -0.95676E+06         0.00000E+00
    0.00000E+00         0.00000E+00         0.18345E+05
 
    0.10391E+07         0.67061E+05         0.00000E+00
    0.67061E+05        -0.95425E+06         0.00000E+00
    0.00000E+00         0.00000E+00         0.16965E+05
 
    0.10277E+07         0.11033E+06         0.00000E+00
    0.11033E+06        -0.94941E+06         0.00000E+00
    0.00000E+00         0.00000E+00         0.15657E+05
 
    0.10145E+07         0.15264E+06         0.00000E+00
    0.15264E+06        -0.94236E+06         0.00000E+00
    0.00000E+00         0.00000E+00         0.14421E+05
 
    0.99948E+06         0.19390E+06         0.00000E+00
    0.19390E+06        -0.93320E+06         0.00000E+00
    0.00000E+00         0.00000E+00         0.13256E+05
 
    0.98285E+06         0.23404E+06         0.00000E+00
    0.23404E+06        -0.92205E+06         0.00000E+00
    0.00000E+00         0.00000E+00         0.12161E+05
 
    0.96470E+06         0.27298E+06         0.00000E+00
    0.27298E+06        -0.90903E+06         0.00000E+00
    0.00000E+00         0.00000E+00         0.11134E+05
 
    0.94512E+06         0.31068E+06         0.00000E+00
    0.31068E+06        -0.89425E+06         0.00000E+00
    0.00000E+00         0.00000E+00         0.10173E+05
 
    0.92423E+06         0.34708E+06         0.00000E+00
    0.34708E+06        -0.87785E+06         0.00000E+00
    0.00000E+00         0.00000E+00         0.92754E+04
 
    0.90212E+06         0.38212E+06         0.00000E+00
    0.38212E+06        -0.85993E+06         0.00000E+00
    0.00000E+00         0.00000E+00         0.84394E+04
 
    0.87892E+06         0.41578E+06         0.00000E+00
    0.41578E+06        -0.84061E+06         0.00000E+00
    0.00000E+00         0.00000E+00         0.76621E+04
 
    0.85471E+06         0.44802E+06         0.00000E+00
    0.44802E+06        -0.82001E+06         0.00000E+00
    0.00000E+00         0.00000E+00         0.69408E+04
 
    0.82961E+06         0.47882E+06         0.00000E+00
    0.47882E+06        -0.79825E+06         0.00000E+00
    0.00000E+00         0.00000E+00         0.62727E+04
 
    0.80371E+06         0.50816E+06         0.00000E+00
    0.50816E+06        -0.77543E+06         0.00000E+00
    0.00000E+00         0.00000E+00         0.56547E+04
 
    0.77710E+06         0.53602E+06         0.00000E+00
    0.53602E+06        -0.75168E+06         0.00000E+00
    0.00000E+00         0.00000E+00         0.50840E+04
 
    0.74989E+06         0.56240E+06         0.00000E+00
    0.56240E+06        -0.72710E+06         0.00000E+00
    0.00000E+00         0.00000E+00         0.45576E+04
 
    0.72217E+06         0.58730E+06         0.00000E+00
    0.58730E+06        -0.70181E+06         0.00000E+00
    0.00000E+00         0.00000E+00         0.40724E+04
 
    0.69403E+06         0.61072E+06         0.00000E+00
    0.61072E+06        -0.67590E+06         0.00000E+00
    0.00000E+00         0.00000E+00         0.36256E+04
 
    0.66556E+06         0.63266E+06         0.00000E+00
    0.63266E+06        -0.64949E+06         0.00000E+00
    0.00000E+00         0.00000E+00         0.32141E+04
 
    0.63685E+06         0.65315E+06         0.00000E+00
    0.65315E+06        -0.62267E+06         0.00000E+00
    0.00000E+00         0.00000E+00         0.28351E+04
 
    0.60797E+06         0.67219E+06         0.00000E+00
    0.67219E+06        -0.59554E+06         0.00000E+00
    0.00000E+00         0.00000E+00         0.24858E+04
 
    0.57902E+06         0.68981E+06         0.00000E+00
    0.68981E+06        -0.56821E+06         0.00000E+00
    0.00000E+00         0.00000E+00         0.21633E+04
 
    0.55008E+06         0.70603E+06         0.00000E+00
    0.70603E+06        -0.54075E+06         0.00000E+00
    0.00000E+00         0.00000E+00         0.18650E+04
 
    0.52121E+06         0.72088E+06         0.00000E+00
    0.72088E+06        -0.51327E+06         0.00000E+00
    0.00000E+00         0.00000E+00         0.15882E+04
 
    0.49250E+06         0.73439E+06         0.00000E+00
    0.73439E+06        -0.48585E+06         0.00000E+00
    0.00000E+00         0.00000E+00         0.13302E+04
 
    0.46402E+06         0.74660E+06         0.00000E+00
    0.74660E+06        -0.45858E+06         0.00000E+00
    0.00000E+00         0.00000E+00         0.10886E+04
 
    0.43585E+06         0.75754E+06         0.00000E+00
    0.75754E+06        -0.43154E+06         0.00000E+00
    0.00000E+00         0.00000E+00         0.86079E+03
 
    0.40804E+06         0.76726E+06         0.00000E+00
    0.76726E+06        -0.40482E+06         0.00000E+00
    0.00000E+00         0.00000E+00         0.64430E+03
 
    0.38067E+06         0.77581E+06         0.00000E+00
    0.77581E+06        -0.37849E+06         0.00000E+00
    0.00000E+00         0.00000E+00         0.43669E+03
 
    0.35380E+06         0.78323E+06         0.00000E+00
    0.78323E+06        -0.35263E+06         0.00000E+00
    0.00000E+00         0.00000E+00         0.23551E+03
 
    0.32750E+06         0.78957E+06         0.00000E+00
    0.78957E+06        -0.32731E+06         0.00000E+00
    0.00000E+00         0.00000E+00         0.38317E+02
 
    0.30181E+06         0.79489E+06         0.00000E+00
    0.79489E+06        -0.30260E+06         0.00000E+00
    0.00000E+00         0.00000E+00        -0.15733E+03
 
    0.27681E+06         0.79924E+06         0.00000E+00
    0.79924E+06        -0.27858E+06         0.00000E+00
    0.00000E+00         0.00000E+00        -0.35391E+03
 
    0.25254E+06         0.80269E+06         0.00000E+00
    0.80269E+06        -0.25531E+06         0.00000E+00
    0.00000E+00         0.00000E+00        -0.55395E+03
 
    0.22906E+06         0.80530E+06         0.00000E+00
    0.80530E+06        -0.23286E+06         0.00000E+00
    0.00000E+00         0.00000E+00        -0.76001E+03
 
    0.20641E+06         0.80714E+06         0.00000E+00
    0.80714E+06        -0.21128E+06         0.00000E+00
    0.00000E+00         0.00000E+00        -0.97475E+03
 
    0.18465E+06         0.80827E+06         0.00000E+00
    0.80827E+06        -0.19065E+06         0.00000E+00
    0.00000E+00         0.00000E+00        -0.12009E+04
 
    0.16381E+06         0.80878E+06         0.00000E+00
    0.80878E+06        -0.17102E+06         0.00000E+00
    0.00000E+00         0.00000E+00        -0.14413E+04
 
    0.14394E+06         0.80874E+06         0.00000E+00
    0.80874E+06        -0.15243E+06         0.00000E+00
    0.00000E+00         0.00000E+00        -0.16988E+04
 
    0.12507E+06         0.80822E+06         0.00000E+00
    0.80822E+06        -0.13496E+06         0.00000E+00
    0.00000E+00         0.00000E+00        -0.19766E+04
 
    0.10724E+06         0.80733E+06         0.00000E+00
    0.80733E+06        -0.11863E+06         0.00000E+00
    0.00000E+00         0.00000E+00        -0.22780E+04
 
    0.90481E+05         0.80614E+06         0.00000E+00
    0.80614E+06        -0.10351E+06         0.00000E+00
    0.00000E+00         0.00000E+00        -0.26062E+04
 
    0.74809E+05         0.80474E+06         0.00000E+00
    0.80474E+06        -0.89633E+05         0.00000E+00
    0.00000E+00         0.00000E+00        -0.29648E+04
 
    0.60247E+05         0.80324E+06         0.00000E+00
    0.80324E+06        -0.77036E+05         0.00000E+00
    0.00000E+00         0.00000E+00        -0.33577E+04
 
    0.46812E+05         0.80173E+06         0.00000E+00
    0.80173E+06        -0.65755E+05         0.00000E+00
    0.00000E+00         0.00000E+00        -0.37886E+04
 
    0.34510E+05         0.80031E+06         0.00000E+00
    0.80031E+06        -0.55819E+05         0.00000E+00
    0.00000E+00         0.00000E+00        -0.42619E+04
 
    0.23346E+05         0.79910E+06         0.00000E+00
    0.79910E+06        -0.47255E+05         0.00000E+00
    0.00000E+00         0.00000E+00        -0.47818E+04
 
    0.13315E+05         0.79821E+06         0.00000E+00
    0.79821E+06        -0.40080E+05         0.00000E+00
    0.00000E+00         0.00000E+00        -0.53529E+04
 
    0.44066E+04         0.79774E+06         0.00000E+00
    0.79774E+06        -0.34307E+05         0.00000E+00
    0.00000E+00         0.00000E+00        -0.59801E+04
 
   -0.33988E+04         0.79783E+06         0.00000E+00
    0.79783E+06        -0.29944E+05         0.00000E+00
    0.00000E+00         0.00000E+00        -0.66685E+04
 
    0.11939E+07         0.26667E+05         0.00000E+00
    0.26667E+05        -0.10509E+07         0.00000E+00
    0.00000E+00         0.00000E+00         0.28596E+05
 
    0.11799E+07         0.77478E+05         0.00000E+00
    0.77478E+05        -0.10479E+07         0.00000E+00
    0.00000E+00         0.00000E+00         0.26395E+05
 
    0.11637E+07         0.12707E+06         0.00000E+00
    0.12707E+06        -0.10421E+07         0.00000E+00
    0.00000E+00         0.00000E+00         0.24318E+05
 
    0.11456E+07         0.17534E+06         0.00000E+00
    0.17534E+06        -0.10338E+07         0.00000E+00
    0.00000E+00         0.00000E+00         0.22361E+05
 
    0.11255E+07         0.22222E+06         0.00000E+00
    0.22222E+06        -0.10229E+07         0.00000E+00
    0.00000E+00         0.00000E+00         0.20524E+05
 
    0.11037E+07         0.26762E+06         0.00000E+00
    0.26762E+06        -0.10097E+07         0.00000E+00
    0.00000E+00         0.00000E+00         0.18801E+05
 
    0.10804E+07         0.31147E+06         0.00000E+00
    0.31147E+06        -0.99440E+06         0.00000E+00
    0.00000E+00         0.00000E+00         0.17191E+05
 
    0.10555E+07         0.35373E+06         0.00000E+00
    0.35373E+06        -0.97704E+06         0.00000E+00
    0.00000E+00         0.00000E+00         0.15689E+05
 
    0.10293E+07         0.39434E+06         0.00000E+00
    0.39434E+06        -0.95782E+06         0.00000E+00
    0.00000E+00         0.00000E+00         0.14292E+05
 
    0.10018E+07         0.43326E+06         0.00000E+00
    0.43326E+06        -0.93687E+06         0.00000E+00
    0.00000E+00         0.00000E+00         0.12994E+05
 
    0.97330E+06         0.47046E+06         0.00000E+00
    0.47046E+06        -0.91435E+06         0.00000E+00
    0.00000E+00         0.00000E+00         0.11791E+05
 
    0.94378E+06         0.50592E+06         0.00000E+00
    0.50592E+06        -0.89039E+06         0.00000E+00
    0.00000E+00         0.00000E+00         0.10679E+05
 
    0.91341E+06         0.53962E+06         0.00000E+00
    0.53962E+06        -0.86514E+06         0.00000E+00
    0.00000E+00         0.00000E+00         0.96528E+04
 
    0.88228E+06         0.57154E+06         0.00000E+00
    0.57154E+06        -0.83874E+06         0.00000E+00
    0.00000E+00         0.00000E+00         0.87078E+04
 
    0.85051E+06         0.60169E+06         0.00000E+00
    0.60169E+06        -0.81131E+06         0.00000E+00
    0.00000E+00         0.00000E+00         0.78393E+04
 
    0.81821E+06         0.63007E+06         0.00000E+00
    0.63007E+06        -0.78300E+06         0.00000E+00
    0.00000E+00         0.00000E+00         0.70424E+04
 
    0.78549E+06         0.65667E+06         0.00000E+00
    0.65667E+06        -0.75392E+06         0.00000E+00
    0.00000E+00         0.00000E+00         0.63128E+04
 
    0.75244E+06         0.68152E+06         0.00000E+00
    0.68152E+06        -0.72421E+06         0.00000E+00
    0.00000E+00         0.00000E+00         0.56458E+04
 
    0.71916E+06         0.70463E+06         0.00000E+00
    0.70463E+06        -0.69397E+06         0.00000E+00
    0.00000E+00         0.00000E+00         0.50371E+04
 
    0.68575E+06         0.72602E+06         0.00000E+00
    0.72602E+06        -0.66334E+06         0.00000E+00
    0.00000E+00         0.00000E+00         0.44826E+04
 
    0.65230E+06         0.74572E+06         0.00000E+00
    0.74572E+06        -0.63241E+06         0.00000E+00
    0.00000E+00         0.00000E+00         0.39783E+04
 
    0.61891E+06         0.76375E+06         0.00000E+00
    0.76375E+06        -0.60130E+06         0.00000E+00
    0.00000E+00         0.00000E+00         0.35201E+04
 
    0.58565E+06         0.78015E+06         0.00000E+00
    0.78015E+06        -0.57012E+06         0.00000E+00
    0.00000E+00         0.00000E+00         0.31045E+04
 
    0.55261E+06         0.79495E+06         0.00000E+00
    0.79495E+06        -0.53897E+06         0.00000E+00
    0.00000E+00         0.00000E+00         0.27280E+04
 
    0.51987E+06         0.80819E+06         0.00000E+00
    0.80819E+06        -0.50794E+06         0.00000E+00
    0.00000E+00         0.00000E+00         0.23871E+04
 
    0.48752E+06         0.81992E+06         0.00000E+00
    0.81992E+06        -0.47713E+06         0.00000E+00
    0.00000E+00         0.00000E+00         0.20788E+04
 
    0.45563E+06         0.83017E+06         0.00000E+00
    0.83017E+06        -0.44663E+06         0.00000E+00
    0.00000E+00         0.00000E+00         0.18000E+04
 
    0.42428E+06         0.83900E+06         0.00000E+00
    0.83900E+06        -0.41654E+06         0.00000E+00
    0.00000E+00         0.00000E+00         0.15480E+04
 
    0.39354E+06         0.84646E+06         0.00000E+00
    0.84646E+06        -0.38694E+06         0.00000E+00
    0.00000E+00         0.00000E+00         0.13199E+04
 
    0.36348E+06         0.85259E+06         0.00000E+00
    0.85259E+06        -0.35791E+06         0.00000E+00
    0.00000E+00         0.00000E+00         0.11132E+04
 
    0.33417E+06         0.85747E+06         0.00000E+00
    0.85747E+06        -0.32954E+06         0.00000E+00
    0.00000E+00         0.00000E+00         0.92552E+03
 
    0.30568E+06         0.86113E+06         0.00000E+00
    0.86113E+06        -0.30191E+06         0.00000E+00
    0.00000E+00         0.00000E+00         0.75443E+03
 
    0.27808E+06         0.86365E+06         0.00000E+00
    0.86365E+06        -0.27510E+06         0.00000E+00
    0.00000E+00         0.00000E+00         0.59768E+03
 
    0.25144E+06         0.86510E+06         0.00000E+00
    0.86510E+06        -0.24917E+06         0.00000E+00
    0.00000E+00         0.00000E+00         0.45303E+03
 
    0.22581E+06         0.86553E+06         0.00000E+00
    0.86553E+06        -0.22422E+06         0.00000E+00
    0.00000E+00         0.00000E+00         0.31834E+03
 
    0.20126E+06         0.86503E+06         0.00000E+00
    0.86503E+06        -0.20030E+06         0.00000E+00
    0.00000E+00         0.00000E+00         0.19144E+03
 
    0.17784E+06         0.86366E+06         0.00000E+00
    0.86366E+06        -0.17749E+06         0.00000E+00
    0.00000E+00         0.00000E+00         0.70182E+02
 
    0.15563E+06         0.86152E+06         0.00000E+00
    0.86152E+06        -0.15586E+06         0.00000E+00
    0.00000E+00         0.00000E+00        -0.47591E+02
 
    0.13466E+06         0.85867E+06         0.00000E+00
    0.85867E+06        -0.13548E+06         0.00000E+00
    0.00000E+00         0.00000E+00        -0.16410E+03
 
    0.11500E+06         0.85521E+06         0.00000E+00
    0.85521E+06        -0.11641E+06         0.00000E+00
    0.00000E+00         0.00000E+00        -0.28161E+03
 
    0.96704E+05         0.85124E+06         0.00000E+00
    0.85124E+06        -0.98717E+05         0.00000E+00
    0.00000E+00         0.00000E+00        -0.40249E+03
 
    0.79809E+05         0.84685E+06         0.00000E+00
    0.84685E+06        -0.82455E+05         0.00000E+00
    0.00000E+00         0.00000E+00        -0.52922E+03
 
    0.64364E+05         0.84214E+06         0.00000E+00
    0.84214E+06        -0.67686E+05         0.00000E+00
    0.00000E+00         0.00000E+00        -0.66440E+03
 
    0.50408E+05         0.83722E+06         0.00000E+00
    0.83722E+06        -0.54462E+05         0.00000E+00
    0.00000E+00         0.00000E+00        -0.81080E+03
 
    0.37978E+05         0.83222E+06         0.00000E+00
    0.83222E+06        -0.42835E+05         0.00000E+00
    0.00000E+00         0.00000E+00        -0.97136E+03
 
    0.27104E+05         0.82724E+06         0.00000E+00
    0.82724E+06        -0.32850E+05         0.00000E+00
    0.00000E+00         0.00000E+00        -0.11492E+04
 
    0.17812E+05         0.82242E+06         0.00000E+00
    0.82242E+06        -0.24551E+05         0.00000E+00
    0.00000E+00         0.00000E+00        -0.13477E+04
 
    0.10121E+05         0.81788E+06         0.00000E+00
    0.81788E+06        -0.17973E+05         0.00000E+00
    0.00000E+00         0.00000E+00        -0.15705E+04
 
    0.40404E+04         0.81378E+06         0.00000E+00
    0.81378E+06        -0.13148E+05         0.00000E+00
    0.00000E+00         0.00000E+00        -0.18214E+04
 
   -0.42543E+03         0.81025E+06         0.00000E+00
    0.81025E+06        -0.10098E+05         0.00000E+00
    0.00000E+00         0.00000E+00        -0.21046E+04
 
    0.13680E+07         0.30792E+05         0.00000E+00
    0.30792E+05        -0.11521E+07         0.00000E+00
    0.00000E+00         0.00000E+00         0.43171E+05
 
    0.13475E+07         0.88815E+05         0.00000E+00
    0.88815E+05        -0.11486E+07         0.00000E+00
    0.00000E+00         0.00000E+00         0.39783E+05
 
    0.13248E+07         0.14518E+06         0.00000E+00
    0.14518E+06        -0.11418E+07         0.00000E+00
    0.00000E+00         0.00000E+00         0.36593E+05
 
    0.13000E+07         0.19979E+06         0.00000E+00
    0.19979E+06        -0.11320E+07         0.00000E+00
    0.00000E+00         0.00000E+00         0.33598E+05
 
    0.12732E+07         0.25256E+06         0.00000E+00
    0.25256E+06        -0.11193E+07         0.00000E+00
    0.00000E+00         0.00000E+00         0.30792E+05
 
    0.12448E+07         0.30344E+06         0.00000E+00
    0.30344E+06        -0.11039E+07         0.00000E+00
    0.00000E+00         0.00000E+00         0.28169E+05
 
    0.12147E+07         0.35236E+06         0.00000E+00
    0.35236E+06        -0.10861E+07         0.00000E+00
    0.00000E+00         0.00000E+00         0.25723E+05
 
    0.11832E+07         0.39927E+06         0.00000E+00
    0.39927E+06        -0.10659E+07         0.00000E+00
    0.00000E+00         0.00000E+00         0.23446E+05
 
    0.11504E+07         0.44414E+06         0.00000E+00
    0.44414E+06        -0.10437E+07         0.00000E+00
    0.00000E+00         0.00000E+00         0.21332E+05
 
    0.11164E+07         0.48694E+06         0.00000E+00
    0.48694E+06        -0.10195E+07         0.00000E+00
    0.00000E+00         0.00000E+00         0.19374E+05
 
    0.10814E+07         0.52764E+06         0.00000E+00
    0.52764E+06        -0.99363E+06         0.00000E+00
    0.00000E+00         0.00000E+00         0.17563E+05
 
    0.10456E+07         0.56625E+06         0.00000E+00
    0.56625E+06        -0.96615E+06         0.00000E+00
    0.00000E+00         0.00000E+00         0.15893E+05
 
    0.10090E+07         0.60274E+06         0.00000E+00
    0.60274E+06        -0.93725E+06         0.00000E+00
    0.00000E+00         0.00000E+00         0.14355E+05
 
    0.97182E+06         0.63714E+06         0.00000E+00
    0.63714E+06        -0.90711E+06         0.00000E+00
    0.00000E+00         0.00000E+00         0.12943E+05
 
    0.93412E+06         0.66944E+06         0.00000E+00
    0.66944E+06        -0.87588E+06         0.00000E+00
    0.00000E+00         0.00000E+00         0.11648E+05
 
    0.89603E+06         0.69966E+06         0.00000E+00
    0.69966E+06        -0.84372E+06         0.00000E+00
    0.00000E+00         0.00000E+00         0.10464E+05
 
    0.85767E+06         0.72781E+06         0.00000E+00
    0.72781E+06        -0.81076E+06         0.00000E+00
    0.00000E+00         0.00000E+00         0.93826E+04
 
    0.81914E+06         0.75394E+06         0.00000E+00
    0.75394E+06        -0.77715E+06         0.00000E+00
    0.00000E+00         0.00000E+00         0.83982E+04
 
    0.78055E+06         0.77806E+06         0.00000E+00
    0.77806E+06        -0.74303E+06         0.00000E+00
    0.00000E+00         0.00000E+00         0.75039E+04
 
    0.74199E+06         0.80020E+06         0.00000E+00
    0.80020E+06        -0.70853E+06         0.00000E+00
    0.00000E+00         0.00000E+00         0.66935E+04
 
    0.70356E+06         0.82041E+06         0.00000E+00
    0.82041E+06        -0.67376E+06         0.00000E+00
    0.00000E+00         0.00000E+00         0.59610E+04
 
    0.66536E+06         0.83872E+06         0.00000E+00
    0.83872E+06        -0.63885E+06         0.00000E+00
    0.00000E+00         0.00000E+00         0.53008E+04
 
    0.62746E+06         0.85517E+06         0.00000E+00
    0.85517E+06        -0.60392E+06         0.00000E+00
    0.00000E+00         0.00000E+00         0.47078E+04
 
    0.58995E+06         0.86981E+06         0.00000E+00
    0.86981E+06        -0.56906E+06         0.00000E+00
    0.00000E+00         0.00000E+00         0.41770E+04
 
    0.55292E+06         0.88268E+06         0.00000E+00
    0.88268E+06        -0.53440E+06         0.00000E+00
    0.00000E+00         0.00000E+00         0.37039E+04
 
    0.51645E+06         0.89383E+06         0.00000E+00
    0.89383E+06        -0.50003E+06         0.00000E+00
    0.00000E+00         0.00000E+00         0.32842E+04
 
    0.48061E+06         0.90332E+06         0.00000E+00
    0.90332E+06        -0.46604E+06         0.00000E+00
    0.00000E+00         0.00000E+00         0.29141E+04
 
    0.44549E+06         0.91118E+06         0.00000E+00
    0.91118E+06        -0.43254E+06         0.00000E+00
    0.00000E+00         0.00000E+00         0.25899E+04
 
    0.41116E+06         0.91748E+06         0.00000E+00
    0.91748E+06        -0.39962E+06         0.00000E+00
    0.00000E+00         0.00000E+00         0.23083E+04
 
    0.37769E+06         0.92227E+06         0.00000E+00
    0.92227E+06        -0.36736E+06         0.00000E+00
    0.00000E+00         0.00000E+00         0.20664E+04
 
    0.34517E+06         0.92561E+06         0.00000E+00
    0.92561E+06        -0.33586E+06         0.00000E+00
    0.00000E+00         0.00000E+00         0.18615E+04
 
    0.31365E+06         0.92756E+06         0.00000E+00
    0.92756E+06        -0.30520E+06         0.00000E+00
    0.00000E+00         0.00000E+00         0.16909E+04
 
    0.28323E+06         0.92818E+06         0.00000E+00
    0.92818E+06        -0.27546E+06         0.00000E+00
    0.00000E+00         0.00000E+00         0.15525E+04
 
    0.25396E+06         0.92753E+06         0.00000E+00
    0.92753E+06        -0.24674E+06         0.00000E+00
    0.00000E+00         0.00000E+00         0.14442E+04
 
    0.22593E+06         0.92568E+06         0.00000E+00
    0.92568E+06        -0.21911E+06         0.00000E+00
    0.00000E+00         0.00000E+00         0.13640E+04
 
    0.19920E+06         0.92271E+06         0.00000E+00
    0.92271E+06        -0.19265E+06         0.00000E+00
    0.00000E+00         0.00000E+00         0.13103E+04
 
    0.17386E+06         0.91868E+06         0.00000E+00
    0.91868E+06        -0.16746E+06         0.00000E+00
    0.00000E+00         0.00000E+00         0.12813E+04
 
    0.14997E+06         0.91367E+06         0.00000E+00
    0.91367E+06        -0.14360E+06         0.00000E+00
    0.00000E+00         0.00000E+00         0.12755E+04
 
    0.12762E+06         0.90778E+06         0.00000E+00
    0.90778E+06        -0.12116E+06         0.00000E+00
    0.00000E+00         0.00000E+00         0.12914E+04
 
    0.10686E+06         0.90108E+06         0.00000E+00
    0.90108E+06        -0.10022E+06         0.00000E+00
    0.00000E+00         0.00000E+00         0.13275E+04
 
    0.87778E+05         0.89368E+06         0.00000E+00
    0.89368E+06        -0.80867E+05         0.00000E+00
    0.00000E+00         0.00000E+00         0.13823E+04
 
    0.70443E+05         0.88567E+06         0.00000E+00
    0.88567E+06        -0.63172E+05         0.00000E+00
    0.00000E+00         0.00000E+00         0.14543E+04
 
    0.54925E+05         0.87717E+06         0.00000E+00
    0.87717E+06        -0.47216E+05         0.00000E+00
    0.00000E+00         0.00000E+00         0.15419E+04
 
    0.41292E+05         0.86828E+06         0.00000E+00
    0.86828E+06        -0.33076E+05         0.00000E+00
    0.00000E+00         0.00000E+00         0.16433E+04
 
    0.29610E+05         0.85914E+06         0.00000E+00
    0.85914E+06        -0.20827E+05         0.00000E+00
    0.00000E+00         0.00000E+00         0.17567E+04
 
    0.19942E+05         0.84987E+06         0.00000E+00
    0.84987E+06        -0.10542E+05         0.00000E+00
    0.00000E+00         0.00000E+00         0.18800E+04
 
    0.12345E+05         0.84062E+06         0.00000E+00
    0.84062E+06        -0.22896E+04         0.00000E+00
    0.00000E+00         0.00000E+00         0.20111E+04
 
    0.68724E+04         0.83154E+06         0.00000E+00
    0.83154E+06         0.38640E+04         0.00000E+00
    0.00000E+00         0.00000E+00         0.21473E+04
 
    0.35710E+04         0.82278E+06         0.00000E+00
    0.82278E+06         0.78582E+04         0.00000E+00
    0.00000E+00         0.00000E+00         0.22858E+04
 
    0.24803E+04         0.81453E+06         0.00000E+00
    0.81453E+06         0.96382E+04         0.00000E+00
    0.00000E+00         0.00000E+00         0.24237E+04
 
    0.15746E+07         0.35174E+05         0.00000E+00
    0.35174E+05        -0.12588E+07         0.00000E+00
    0.00000E+00         0.00000E+00         0.63159E+05
 
    0.15453E+07         0.10067E+06         0.00000E+00
    0.10067E+06        -0.12547E+07         0.00000E+00
    0.00000E+00         0.00000E+00         0.58119E+05
 
    0.15138E+07         0.16396E+06         0.00000E+00
    0.16396E+06        -0.12469E+07         0.00000E+00
    0.00000E+00         0.00000E+00         0.53386E+05
 
    0.14802E+07         0.22497E+06         0.00000E+00
    0.22497E+06        -0.12355E+07         0.00000E+00
    0.00000E+00         0.00000E+00         0.48950E+05
 
    0.14449E+07         0.28364E+06         0.00000E+00
    0.28364E+06        -0.12209E+07         0.00000E+00
    0.00000E+00         0.00000E+00         0.44802E+05
 
    0.14079E+07         0.33991E+06         0.00000E+00
    0.33991E+06        -0.12032E+07         0.00000E+00
    0.00000E+00         0.00000E+00         0.40932E+05
 
    0.13694E+07         0.39374E+06         0.00000E+00
    0.39374E+06        -0.11828E+07         0.00000E+00
    0.00000E+00         0.00000E+00         0.37329E+05
 
    0.13297E+07         0.44511E+06         0.00000E+00
    0.44511E+06        -0.11598E+07         0.00000E+00
    0.00000E+00         0.00000E+00         0.33982E+05
 
    0.12889E+07         0.49399E+06         0.00000E+00
    0.49399E+06        -0.11345E+07         0.00000E+00
    0.00000E+00         0.00000E+00         0.30880E+05
 
    0.12471E+07         0.54037E+06         0.00000E+00
    0.54037E+06        -0.11071E+07         0.00000E+00
    0.00000E+00         0.00000E+00         0.28010E+05
 
    0.12046E+07         0.58427E+06         0.00000E+00
    0.58427E+06        -0.10778E+07         0.00000E+00
    0.00000E+00         0.00000E+00         0.25361E+05
 
    0.11614E+07         0.62568E+06         0.00000E+00
    0.62568E+06        -0.10468E+07         0.00000E+00
    0.00000E+00         0.00000E+00         0.22920E+05
 
    0.11177E+07         0.66463E+06         0.00000E+00
    0.66463E+06        -0.10143E+07         0.00000E+00
    0.00000E+00         0.00000E+00         0.20676E+05
 
    0.10736E+07         0.70113E+06         0.00000E+00
    0.70113E+06        -0.98050E+06         0.00000E+00
    0.00000E+00         0.00000E+00         0.18618E+05
 
    0.10292E+07         0.73523E+06         0.00000E+00
    0.73523E+06        -0.94558E+06         0.00000E+00
    0.00000E+00         0.00000E+00         0.16734E+05
 
    0.98477E+06         0.76695E+06         0.00000E+00
    0.76695E+06        -0.90971E+06         0.00000E+00
    0.00000E+00         0.00000E+00         0.15012E+05
 
    0.94027E+06         0.79634E+06         0.00000E+00
    0.79634E+06        -0.87305E+06         0.00000E+00
    0.00000E+00         0.00000E+00         0.13443E+05
 
    0.89584E+06         0.82344E+06         0.00000E+00
    0.82344E+06        -0.83576E+06         0.00000E+00
    0.00000E+00         0.00000E+00         0.12017E+05
 
    0.85159E+06         0.84829E+06         0.00000E+00
    0.84829E+06        -0.79798E+06         0.00000E+00
    0.00000E+00         0.00000E+00         0.10722E+05
 
    0.80762E+06         0.87094E+06         0.00000E+00
    0.87094E+06        -0.75986E+06         0.00000E+00
    0.00000E+00         0.00000E+00         0.95510E+04
 
    0.76400E+06         0.89145E+06         0.00000E+00
    0.89145E+06        -0.72153E+06         0.00000E+00
    0.00000E+00         0.00000E+00         0.84944E+04
 
    0.72082E+06         0.90987E+06         0.00000E+00
    0.90987E+06        -0.68310E+06         0.00000E+00
    0.00000E+00         0.00000E+00         0.75441E+04
 
    0.67817E+06         0.92624E+06         0.00000E+00
    0.92624E+06        -0.64471E+06         0.00000E+00
    0.00000E+00         0.00000E+00         0.66927E+04
 
    0.63612E+06         0.94063E+06         0.00000E+00
    0.94063E+06        -0.60645E+06         0.00000E+00
    0.00000E+00         0.00000E+00         0.59330E+04
 
    0.59474E+06         0.95309E+06         0.00000E+00
    0.95309E+06        -0.56845E+06         0.00000E+00
    0.00000E+00         0.00000E+00         0.52585E+04
 
    0.55412E+06         0.96366E+06         0.00000E+00
    0.96366E+06        -0.53080E+06         0.00000E+00
    0.00000E+00         0.00000E+00         0.46634E+04
 
    0.51431E+06         0.97241E+06         0.00000E+00
    0.97241E+06        -0.49360E+06         0.00000E+00
    0.00000E+00         0.00000E+00         0.41421E+04
 
    0.47539E+06         0.97938E+06         0.00000E+00
    0.97938E+06        -0.45694E+06         0.00000E+00
    0.00000E+00         0.00000E+00         0.36898E+04
 
    0.43743E+06         0.98463E+06         0.00000E+00
    0.98463E+06        -0.42092E+06         0.00000E+00
    0.00000E+00         0.00000E+00         0.33021E+04
 
    0.40050E+06         0.98822E+06         0.00000E+00
    0.98822E+06        -0.38562E+06         0.00000E+00
    0.00000E+00         0.00000E+00         0.29750E+04
 
    0.36467E+06         0.99019E+06         0.00000E+00
    0.99019E+06        -0.35114E+06         0.00000E+00
    0.00000E+00         0.00000E+00         0.27051E+04
 
    0.33001E+06         0.99060E+06         0.00000E+00
    0.99060E+06        -0.31757E+06         0.00000E+00
    0.00000E+00         0.00000E+00         0.24893E+04
 
    0.29661E+06         0.98950E+06         0.00000E+00
    0.98950E+06        -0.28498E+06         0.00000E+00
    0.00000E+00         0.00000E+00         0.23250E+04
 
    0.26452E+06         0.98695E+06         0.00000E+00
    0.98695E+06        -0.25348E+06         0.00000E+00
    0.00000E+00         0.00000E+00         0.22099E+04
 
    0.23385E+06         0.98301E+06         0.00000E+00
    0.98301E+06        -0.22314E+06         0.00000E+00
    0.00000E+00         0.00000E+00         0.21420E+04
 
    0.20465E+06         0.97774E+06         0.00000E+00
    0.97774E+06        -0.19406E+06         0.00000E+00
    0.00000E+00         0.00000E+00         0.21196E+04
 
    0.17703E+06         0.97120E+06         0.00000E+00
    0.97120E+06        -0.16633E+06         0.00000E+00
    0.00000E+00         0.00000E+00         0.21414E+04
 
    0.15107E+06         0.96346E+06         0.00000E+00
    0.96346E+06        -0.14004E+06         0.00000E+00
    0.00000E+00         0.00000E+00         0.22061E+04
 
    0.12686E+06         0.95459E+06         0.00000E+00
    0.95459E+06        -0.11530E+06         0.00000E+00
    0.00000E+00         0.00000E+00         0.23128E+04
 
    0.10449E+06         0.94467E+06         0.00000E+00
    0.94467E+06        -0.92192E+05         0.00000E+00
    0.00000E+00         0.00000E+00         0.24605E+04
 
    0.84073E+05         0.93379E+06         0.00000E+00
    0.93379E+06        -0.70830E+05         0.00000E+00
    0.00000E+00         0.00000E+00         0.26486E+04
 
    0.65694E+05         0.92204E+06         0.00000E+00
    0.92204E+06        -0.51313E+05         0.00000E+00
    0.00000E+00         0.00000E+00         0.28762E+04
 
    0.49462E+05         0.90951E+06         0.00000E+00
    0.90951E+06        -0.33748E+05         0.00000E+00
    0.00000E+00         0.00000E+00         0.31427E+04
 
    0.35480E+05         0.89633E+06         0.00000E+00
    0.89633E+06        -0.18244E+05         0.00000E+00
    0.00000E+00         0.00000E+00         0.34472E+04
 
    0.23854E+05         0.88261E+06         0.00000E+00
    0.88261E+06        -0.49090E+04         0.00000E+00
    0.00000E+00         0.00000E+00         0.37890E+04
 
    0.14689E+05         0.86849E+06         0.00000E+00
    0.86849E+06         0.61458E+04         0.00000E+00
    0.00000E+00         0.00000E+00         0.41670E+04
 
    0.80906E+04         0.85411E+06         0.00000E+00
    0.85411E+06         0.14810E+05         0.00000E+00
    0.00000E+00         0.00000E+00         0.45801E+04
 
    0.41604E+04         0.83964E+06         0.00000E+00
    0.83964E+06         0.20974E+05         0.00000E+00
    0.00000E+00         0.00000E+00         0.50268E+04
 
    0.29980E+04         0.82525E+06         0.00000E+00
    0.82525E+06         0.24529E+05         0.00000E+00
    0.00000E+00         0.00000E+00         0.55054E+04
 
    0.46982E+04         0.81114E+06         0.00000E+00
    0.81114E+06         0.25371E+05         0.00000E+00
    0.00000E+00         0.00000E+00         0.60139E+04
 
    0.18171E+07         0.39609E+05         0.00000E+00
    0.39609E+05        -0.13684E+07         0.00000E+00
    0.00000E+00         0.00000E+00         0.89740E+05
 
    0.17760E+07         0.11240E+06         0.00000E+00
    0.11240E+06        -0.13636E+07         0.00000E+00
    0.00000E+00         0.00000E+00         0.82476E+05
 
    0.17330E+07         0.18234E+06         0.00000E+00
    0.18234E+06        -0.13547E+07         0.00000E+00
    0.00000E+00         0.00000E+00         0.75665E+05
 
    0.16882E+07         0.24939E+06         0.00000E+00
    0.24939E+06        -0.13417E+07         0.00000E+00
    0.00000E+00         0.00000E+00         0.69292E+05
 
    0.16419E+07         0.31349E+06         0.00000E+00
    0.31349E+06        -0.13252E+07         0.00000E+00
    0.00000E+00         0.00000E+00         0.63342E+05
 
    0.15943E+07         0.37462E+06         0.00000E+00
    0.37462E+06        -0.13053E+07         0.00000E+00
    0.00000E+00         0.00000E+00         0.57799E+05
 
    0.15455E+07         0.43277E+06         0.00000E+00
    0.43277E+06        -0.12823E+07         0.00000E+00
    0.00000E+00         0.00000E+00         0.52646E+05
 
    0.14959E+07         0.48794E+06         0.00000E+00
    0.48794E+06        -0.12566E+07         0.00000E+00
    0.00000E+00         0.00000E+00         0.47864E+05
 
    0.14455E+07         0.54015E+06         0.00000E+00
    0.54015E+06        -0.12283E+07         0.00000E+00
    0.00000E+00         0.00000E+00         0.43436E+05
 
    0.13946E+07         0.58942E+06         0.00000E+00
    0.58942E+06        -0.11979E+07         0.00000E+00
    0.00000E+00         0.00000E+00         0.39345E+05
 
    0.13433E+07         0.63577E+06         0.00000E+00
    0.63577E+06        -0.11654E+07         0.00000E+00
    0.00000E+00         0.00000E+00         0.35571E+05
 
    0.12917E+07         0.67927E+06         0.00000E+00
    0.67927E+06        -0.11312E+07         0.00000E+00
    0.00000E+00         0.00000E+00         0.32098E+05
 
    0.12400E+07         0.71995E+06         0.00000E+00
    0.71995E+06        -0.10955E+07         0.00000E+00
    0.00000E+00         0.00000E+00         0.28907E+05
 
    0.11883E+07         0.75787E+06         0.00000E+00
    0.75787E+06        -0.10584E+07         0.00000E+00
    0.00000E+00         0.00000E+00         0.25981E+05
 
    0.11368E+07         0.79310E+06         0.00000E+00
    0.79310E+06        -0.10203E+07         0.00000E+00
    0.00000E+00         0.00000E+00         0.23303E+05
 
    0.10856E+07         0.82570E+06         0.00000E+00
    0.82570E+06        -0.98128E+06         0.00000E+00
    0.00000E+00         0.00000E+00         0.20858E+05
 
    0.10347E+07         0.85574E+06         0.00000E+00
    0.85574E+06        -0.94151E+06         0.00000E+00
    0.00000E+00         0.00000E+00         0.18629E+05
 
    0.98418E+06         0.88329E+06         0.00000E+00
    0.88329E+06        -0.90118E+06         0.00000E+00
    0.00000E+00         0.00000E+00         0.16602E+05
 
    0.93423E+06         0.90842E+06         0.00000E+00
    0.90842E+06        -0.86042E+06         0.00000E+00
    0.00000E+00         0.00000E+00         0.14762E+05
 
    0.88488E+06         0.93121E+06         0.00000E+00
    0.93121E+06        -0.81940E+06         0.00000E+00
    0.00000E+00         0.00000E+00         0.13096E+05
 
    0.83620E+06         0.95172E+06         0.00000E+00
    0.95172E+06        -0.77824E+06         0.00000E+00
    0.00000E+00         0.00000E+00         0.11591E+05
 
    0.78825E+06         0.97003E+06         0.00000E+00
    0.97003E+06        -0.73707E+06         0.00000E+00
    0.00000E+00         0.00000E+00         0.10236E+05
 
    0.74108E+06         0.98619E+06         0.00000E+00
    0.98619E+06        -0.69599E+06         0.00000E+00
    0.00000E+00         0.00000E+00         0.90187E+04
 
    0.69476E+06         0.10003E+07         0.00000E+00
    0.10003E+07        -0.65512E+06         0.00000E+00
    0.00000E+00         0.00000E+00         0.79298E+04
 
    0.64934E+06         0.10124E+07         0.00000E+00
    0.10124E+07        -0.61454E+06         0.00000E+00
    0.00000E+00         0.00000E+00         0.69597E+04
 
    0.60487E+06         0.10225E+07         0.00000E+00
    0.10225E+07        -0.57437E+06         0.00000E+00
    0.00000E+00         0.00000E+00         0.60996E+04
 
    0.56139E+06         0.10307E+07         0.00000E+00
    0.10307E+07        -0.53468E+06         0.00000E+00
    0.00000E+00         0.00000E+00         0.53419E+04
 
    0.51896E+06         0.10371E+07         0.00000E+00
    0.10371E+07        -0.49556E+06         0.00000E+00
    0.00000E+00         0.00000E+00         0.46793E+04
 
    0.47762E+06         0.10417E+07         0.00000E+00
    0.10417E+07        -0.45710E+06         0.00000E+00
    0.00000E+00         0.00000E+00         0.41057E+04
 
    0.43744E+06         0.10445E+07         0.00000E+00
    0.10445E+07        -0.41936E+06         0.00000E+00
    0.00000E+00         0.00000E+00         0.36153E+04
 
    0.39846E+06         0.10456E+07         0.00000E+00
    0.10456E+07        -0.38244E+06         0.00000E+00
    0.00000E+00         0.00000E+00         0.32032E+04
 
    0.36074E+06         0.10450E+07         0.00000E+00
    0.10450E+07        -0.34641E+06         0.00000E+00
    0.00000E+00         0.00000E+00         0.28651E+04
 
    0.32435E+06         0.10428E+07         0.00000E+00
    0.10428E+07        -0.31137E+06         0.00000E+00
    0.00000E+00         0.00000E+00         0.25973E+04
 
    0.28936E+06         0.10390E+07         0.00000E+00
    0.10390E+07        -0.27738E+06         0.00000E+00
    0.00000E+00         0.00000E+00         0.23966E+04
 
    0.25585E+06         0.10336E+07         0.00000E+00
    0.10336E+07        -0.24454E+06         0.00000E+00
    0.00000E+00         0.00000E+00         0.22606E+04
 
    0.22389E+06         0.10267E+07         0.00000E+00
    0.10267E+07        -0.21295E+06         0.00000E+00
    0.00000E+00         0.00000E+00         0.21869E+04
 
    0.19358E+06         0.10183E+07         0.00000E+00
    0.10183E+07        -0.18271E+06         0.00000E+00
    0.00000E+00         0.00000E+00         0.21739E+04
 
    0.16501E+06         0.10084E+07         0.00000E+00
    0.10084E+07        -0.15391E+06         0.00000E+00
    0.00000E+00         0.00000E+00         0.22202E+04
 
    0.13830E+06         0.99718E+06         0.00000E+00
    0.99718E+06        -0.12668E+06         0.00000E+00
    0.00000E+00         0.00000E+00         0.23250E+04
 
    0.11355E+06         0.98458E+06         0.00000E+00
    0.98458E+06        -0.10112E+06         0.00000E+00
    0.00000E+00         0.00000E+00         0.24875E+04
 
    0.90900E+05         0.97068E+06         0.00000E+00
    0.97068E+06        -0.77365E+05         0.00000E+00
    0.00000E+00         0.00000E+00         0.27071E+04
 
    0.70468E+05         0.95555E+06         0.00000E+00
    0.95555E+06        -0.55550E+05         0.00000E+00
    0.00000E+00         0.00000E+00         0.29836E+04
 
    0.52398E+05         0.93926E+06         0.00000E+00
    0.93926E+06        -0.35814E+05         0.00000E+00
    0.00000E+00         0.00000E+00         0.33169E+04
 
    0.36838E+05         0.92192E+06         0.00000E+00
    0.92192E+06        -0.18305E+05         0.00000E+00
    0.00000E+00         0.00000E+00         0.37067E+04
 
    0.23943E+05         0.90360E+06         0.00000E+00
    0.90360E+06        -0.31782E+04         0.00000E+00
    0.00000E+00         0.00000E+00         0.41529E+04
 
    0.13873E+05         0.88445E+06         0.00000E+00
    0.88445E+06         0.94037E+04         0.00000E+00
    0.00000E+00         0.00000E+00         0.46553E+04
 
    0.67952E+04         0.86458E+06         0.00000E+00
    0.86458E+06         0.19273E+05         0.00000E+00
    0.00000E+00         0.00000E+00         0.52137E+04
 
    0.28799E+04         0.84415E+06         0.00000E+00
    0.84415E+06         0.26257E+05         0.00000E+00
    0.00000E+00         0.00000E+00         0.58273E+04
 
    0.22997E+04         0.82334E+06         0.00000E+00
    0.82334E+06         0.30178E+05         0.00000E+00
    0.00000E+00         0.00000E+00         0.64956E+04
 
    0.52283E+04         0.80234E+06         0.00000E+00
    0.80234E+06         0.30859E+05         0.00000E+00
    0.00000E+00         0.00000E+00         0.72174E+04
 
    0.20973E+07         0.43812E+05         0.00000E+00
    0.43812E+05        -0.14766E+07         0.00000E+00
    0.00000E+00         0.00000E+00         0.12415E+06
 
    0.20411E+07         0.12313E+06         0.00000E+00
    0.12313E+06        -0.14713E+07         0.00000E+00
    0.00000E+00         0.00000E+00         0.11397E+06
 
    0.19834E+07         0.19883E+06         0.00000E+00
    0.19883E+06        -0.14612E+07         0.00000E+00
    0.00000E+00         0.00000E+00         0.10443E+06
 
    0.19244E+07         0.27091E+06         0.00000E+00
    0.27091E+06        -0.14468E+07         0.00000E+00
    0.00000E+00         0.00000E+00         0.95526E+05
 
    0.18645E+07         0.33936E+06         0.00000E+00
    0.33936E+06        -0.14284E+07         0.00000E+00
    0.00000E+00         0.00000E+00         0.87218E+05
 
    0.18038E+07         0.40419E+06         0.00000E+00
    0.40419E+06        -0.14064E+07         0.00000E+00
    0.00000E+00         0.00000E+00         0.79485E+05
 
    0.17426E+07         0.46544E+06         0.00000E+00
    0.46544E+06        -0.13811E+07         0.00000E+00
    0.00000E+00         0.00000E+00         0.72301E+05
 
    0.16812E+07         0.52315E+06         0.00000E+00
    0.52315E+06        -0.13530E+07         0.00000E+00
    0.00000E+00         0.00000E+00         0.65642E+05
 
    0.16196E+07         0.57739E+06         0.00000E+00
    0.57739E+06        -0.13222E+07         0.00000E+00
    0.00000E+00         0.00000E+00         0.59479E+05
 
    0.15581E+07         0.62822E+06         0.00000E+00
    0.62822E+06        -0.12892E+07         0.00000E+00
    0.00000E+00         0.00000E+00         0.53788E+05
 
    0.14969E+07         0.67575E+06         0.00000E+00
    0.67575E+06        -0.12542E+07         0.00000E+00
    0.00000E+00         0.00000E+00         0.48541E+05
 
    0.14360E+07         0.72005E+06         0.00000E+00
    0.72005E+06        -0.12175E+07         0.00000E+00
    0.00000E+00         0.00000E+00         0.43713E+05
 
    0.13757E+07         0.76123E+06         0.00000E+00
    0.76123E+06        -0.11793E+07         0.00000E+00
    0.00000E+00         0.00000E+00         0.39278E+05
 
    0.13160E+07         0.79939E+06         0.00000E+00
    0.79939E+06        -0.11400E+07         0.00000E+00
    0.00000E+00         0.00000E+00         0.35211E+05
 
    0.12571E+07         0.83464E+06         0.00000E+00
    0.83464E+06        -0.10997E+07         0.00000E+00
    0.00000E+00         0.00000E+00         0.31489E+05
 
    0.11990E+07         0.86710E+06         0.00000E+00
    0.86710E+06        -0.10585E+07         0.00000E+00
    0.00000E+00         0.00000E+00         0.28088E+05
 
    0.11418E+07         0.89687E+06         0.00000E+00
    0.89687E+06        -0.10168E+07         0.00000E+00
    0.00000E+00         0.00000E+00         0.24986E+05
 
    0.10855E+07         0.92407E+06         0.00000E+00
    0.92407E+06        -0.97470E+06         0.00000E+00
    0.00000E+00         0.00000E+00         0.22161E+05
 
    0.10303E+07         0.94879E+06         0.00000E+00
    0.94879E+06        -0.93229E+06         0.00000E+00
    0.00000E+00         0.00000E+00         0.19593E+05
 
    0.97605E+06         0.97115E+06         0.00000E+00
    0.97115E+06        -0.88974E+06         0.00000E+00
    0.00000E+00         0.00000E+00         0.17262E+05
 
    0.92292E+06         0.99124E+06         0.00000E+00
    0.99124E+06        -0.84717E+06         0.00000E+00
    0.00000E+00         0.00000E+00         0.15151E+05
 
    0.87090E+06         0.10092E+07         0.00000E+00
    0.10092E+07        -0.80468E+06         0.00000E+00
    0.00000E+00         0.00000E+00         0.13243E+05
 
    0.81999E+06         0.10250E+07         0.00000E+00
    0.10250E+07        -0.76238E+06         0.00000E+00
    0.00000E+00         0.00000E+00         0.11521E+05
 
    0.77021E+06         0.10388E+07         0.00000E+00
    0.10388E+07        -0.72035E+06         0.00000E+00
    0.00000E+00         0.00000E+00         0.99708E+04
 
    0.72156E+06         0.10507E+07         0.00000E+00
    0.10507E+07        -0.67867E+06         0.00000E+00
    0.00000E+00         0.00000E+00         0.85786E+04
 
    0.67406E+06         0.10606E+07         0.00000E+00
    0.10606E+07        -0.63740E+06         0.00000E+00
    0.00000E+00         0.00000E+00         0.73318E+04
 
    0.62771E+06         0.10688E+07         0.00000E+00
    0.10688E+07        -0.59662E+06         0.00000E+00
    0.00000E+00         0.00000E+00         0.62190E+04
 
    0.58253E+06         0.10752E+07         0.00000E+00
    0.10752E+07        -0.55638E+06         0.00000E+00
    0.00000E+00         0.00000E+00         0.52297E+04
 
    0.53851E+06         0.10798E+07         0.00000E+00
    0.10798E+07        -0.51674E+06         0.00000E+00
    0.00000E+00         0.00000E+00         0.43544E+04
 
    0.49568E+06         0.10827E+07         0.00000E+00
    0.10827E+07        -0.47775E+06         0.00000E+00
    0.00000E+00         0.00000E+00         0.35845E+04
 
    0.45405E+06         0.10839E+07         0.00000E+00
    0.10839E+07        -0.43949E+06         0.00000E+00
    0.00000E+00         0.00000E+00         0.29127E+04
 
    0.41366E+06         0.10835E+07         0.00000E+00
    0.10835E+07        -0.40200E+06         0.00000E+00
    0.00000E+00         0.00000E+00         0.23321E+04
 
    0.37454E+06         0.10813E+07         0.00000E+00
    0.10813E+07        -0.36536E+06         0.00000E+00
    0.00000E+00         0.00000E+00         0.18369E+04
 
    0.33674E+06         0.10775E+07         0.00000E+00
    0.10775E+07        -0.32963E+06         0.00000E+00
    0.00000E+00         0.00000E+00         0.14222E+04
 
    0.30032E+06         0.10720E+07         0.00000E+00
    0.10720E+07        -0.29490E+06         0.00000E+00
    0.00000E+00         0.00000E+00         0.10835E+04
 
    0.26534E+06         0.10648E+07         0.00000E+00
    0.10648E+07        -0.26126E+06         0.00000E+00
    0.00000E+00         0.00000E+00         0.81736E+03
 
    0.23190E+06         0.10559E+07         0.00000E+00
    0.10559E+07        -0.22879E+06         0.00000E+00
    0.00000E+00         0.00000E+00         0.62076E+03
 
    0.20008E+06         0.10454E+07         0.00000E+00
    0.10454E+07        -0.19762E+06         0.00000E+00
    0.00000E+00         0.00000E+00         0.49130E+03
 
    0.17000E+06         0.10331E+07         0.00000E+00
    0.10331E+07        -0.16786E+06         0.00000E+00
    0.00000E+00         0.00000E+00         0.42712E+03
 
    0.14179E+06         0.10192E+07         0.00000E+00
    0.10192E+07        -0.13965E+06         0.00000E+00
    0.00000E+00         0.00000E+00         0.42682E+03
 
    0.11559E+06         0.10035E+07         0.00000E+00
    0.10035E+07        -0.11314E+06         0.00000E+00
    0.00000E+00         0.00000E+00         0.48940E+03
 
    0.91569E+05         0.98618E+06         0.00000E+00
    0.98618E+06        -0.88499E+05         0.00000E+00
    0.00000E+00         0.00000E+00         0.61420E+03
 
    0.69902E+05         0.96718E+06         0.00000E+00
    0.96718E+06        -0.65898E+05         0.00000E+00
    0.00000E+00         0.00000E+00         0.80081E+03
 
    0.50784E+05         0.94657E+06         0.00000E+00
    0.94657E+06        -0.45538E+05         0.00000E+00
    0.00000E+00         0.00000E+00         0.10491E+04
 
    0.34426E+05         0.92438E+06         0.00000E+00
    0.92438E+06        -0.27632E+05         0.00000E+00
    0.00000E+00         0.00000E+00         0.13589E+04
 
    0.21058E+05         0.90070E+06         0.00000E+00
    0.90070E+06        -0.12406E+05         0.00000E+00
    0.00000E+00         0.00000E+00         0.17303E+04
 
    0.10921E+05         0.87560E+06         0.00000E+00
    0.87560E+06        -0.10475E+03         0.00000E+00
    0.00000E+00         0.00000E+00         0.21632E+04
 
    0.42730E+04         0.84921E+06         0.00000E+00
    0.84921E+06         0.90156E+04         0.00000E+00
    0.00000E+00         0.00000E+00         0.26577E+04
 
    0.13837E+04         0.82167E+06         0.00000E+00
    0.82167E+06         0.14684E+05         0.00000E+00
    0.00000E+00         0.00000E+00         0.32135E+04
 
    0.25334E+04         0.79315E+06         0.00000E+00
    0.79315E+06         0.16618E+05         0.00000E+00
    0.00000E+00         0.00000E+00         0.38302E+04
 
    0.24158E+07         0.47420E+05         0.00000E+00
    0.47420E+05        -0.15777E+07         0.00000E+00
    0.00000E+00         0.00000E+00         0.16764E+06
 
    0.23403E+07         0.13170E+06         0.00000E+00
    0.13170E+06        -0.15718E+07         0.00000E+00
    0.00000E+00         0.00000E+00         0.15371E+06
 
    0.22641E+07         0.21146E+06         0.00000E+00
    0.21146E+06        -0.15607E+07         0.00000E+00
    0.00000E+00         0.00000E+00         0.14069E+06
 
    0.21876E+07         0.28675E+06         0.00000E+00
    0.28675E+06        -0.15450E+07         0.00000E+00
    0.00000E+00         0.00000E+00         0.12852E+06
 
    0.21109E+07         0.35760E+06         0.00000E+00
    0.35760E+06        -0.15250E+07         0.00000E+00
    0.00000E+00         0.00000E+00         0.11718E+06
 
    0.20344E+07         0.42411E+06         0.00000E+00
    0.42411E+06        -0.15013E+07         0.00000E+00
    0.00000E+00         0.00000E+00         0.10663E+06
 
    0.19584E+07         0.48637E+06         0.00000E+00
    0.48637E+06        -0.14742E+07         0.00000E+00
    0.00000E+00         0.00000E+00         0.96840E+05
 
    0.18831E+07         0.54450E+06         0.00000E+00
    0.54450E+06        -0.14443E+07         0.00000E+00
    0.00000E+00         0.00000E+00         0.87764E+05
 
    0.18086E+07         0.59864E+06         0.00000E+00
    0.59864E+06        -0.14118E+07         0.00000E+00
    0.00000E+00         0.00000E+00         0.79368E+05
 
    0.17353E+07         0.64893E+06         0.00000E+00
    0.64893E+06        -0.13772E+07         0.00000E+00
    0.00000E+00         0.00000E+00         0.71615E+05
 
    0.16631E+07         0.69554E+06         0.00000E+00
    0.69554E+06        -0.13408E+07         0.00000E+00
    0.00000E+00         0.00000E+00         0.64468E+05
 
    0.15923E+07         0.73863E+06         0.00000E+00
    0.73863E+06        -0.13028E+07         0.00000E+00
    0.00000E+00         0.00000E+00         0.57891E+05
 
    0.15229E+07         0.77838E+06         0.00000E+00
    0.77838E+06        -0.12637E+07         0.00000E+00
    0.00000E+00         0.00000E+00         0.51849E+05
 
    0.14551E+07         0.81496E+06         0.00000E+00
    0.81496E+06        -0.12236E+07         0.00000E+00
    0.00000E+00         0.00000E+00         0.46306E+05
 
    0.13889E+07         0.84855E+06         0.00000E+00
    0.84855E+06        -0.11828E+07         0.00000E+00
    0.00000E+00         0.00000E+00         0.41229E+05
 
    0.13244E+07         0.87933E+06         0.00000E+00
    0.87933E+06        -0.11415E+07         0.00000E+00
    0.00000E+00         0.00000E+00         0.36586E+05
 
    0.12615E+07         0.90746E+06         0.00000E+00
    0.90746E+06        -0.10998E+07         0.00000E+00
    0.00000E+00         0.00000E+00         0.32345E+05
 
    0.12003E+07         0.93311E+06         0.00000E+00
    0.93311E+06        -0.10580E+07         0.00000E+00
    0.00000E+00         0.00000E+00         0.28476E+05
 
    0.11408E+07         0.95644E+06         0.00000E+00
    0.95644E+06        -0.10161E+07         0.00000E+00
    0.00000E+00         0.00000E+00         0.24951E+05
 
    0.10830E+07         0.97758E+06         0.00000E+00
    0.97758E+06        -0.97425E+06         0.00000E+00
    0.00000E+00         0.00000E+00         0.21743E+05
 
    0.10267E+07         0.99668E+06         0.00000E+00
    0.99668E+06        -0.93258E+06         0.00000E+00
    0.00000E+00         0.00000E+00         0.18826E+05
 
    0.97203E+06         0.10139E+07         0.00000E+00
    0.10139E+07        -0.89115E+06         0.00000E+00
    0.00000E+00         0.00000E+00         0.16176E+05
 
    0.91885E+06         0.10292E+07         0.00000E+00
    0.10292E+07        -0.85000E+06         0.00000E+00
    0.00000E+00         0.00000E+00         0.13770E+05
 
    0.86714E+06         0.10428E+07         0.00000E+00
    0.10428E+07        -0.80920E+06         0.00000E+00
    0.00000E+00         0.00000E+00         0.11587E+05
 
    0.81681E+06         0.10548E+07         0.00000E+00
    0.10548E+07        -0.76877E+06         0.00000E+00
    0.00000E+00         0.00000E+00         0.96067E+04
 
    0.76780E+06         0.10653E+07         0.00000E+00
    0.10653E+07        -0.72875E+06         0.00000E+00
    0.00000E+00         0.00000E+00         0.78113E+04
 
    0.72006E+06         0.10742E+07         0.00000E+00
    0.10742E+07        -0.68914E+06         0.00000E+00
    0.00000E+00         0.00000E+00         0.61835E+04
 
    0.67352E+06         0.10815E+07         0.00000E+00
    0.10815E+07        -0.64998E+06         0.00000E+00
    0.00000E+00         0.00000E+00         0.47077E+04
 
    0.62812E+06         0.10875E+07         0.00000E+00
    0.10875E+07        -0.61127E+06         0.00000E+00
    0.00000E+00         0.00000E+00         0.33694E+04
 
    0.58381E+06         0.10919E+07         0.00000E+00
    0.10919E+07        -0.57304E+06         0.00000E+00
    0.00000E+00         0.00000E+00         0.21557E+04
 
    0.54056E+06         0.10948E+07         0.00000E+00
    0.10948E+07        -0.53529E+06         0.00000E+00
    0.00000E+00         0.00000E+00         0.10546E+04
 
    0.49833E+06         0.10963E+07         0.00000E+00
    0.10963E+07        -0.49806E+06         0.00000E+00
    0.00000E+00         0.00000E+00         0.55261E+02
 
    0.45712E+06         0.10962E+07         0.00000E+00
    0.10962E+07        -0.46137E+06         0.00000E+00
    0.00000E+00         0.00000E+00        -0.85183E+03
 
    0.41690E+06         0.10944E+07         0.00000E+00
    0.10944E+07        -0.42528E+06         0.00000E+00
    0.00000E+00         0.00000E+00        -0.16753E+04
 
    0.37771E+06         0.10911E+07         0.00000E+00
    0.10911E+07        -0.38983E+06         0.00000E+00
    0.00000E+00         0.00000E+00        -0.24228E+04
 
    0.33958E+06         0.10860E+07         0.00000E+00
    0.10860E+07        -0.35509E+06         0.00000E+00
    0.00000E+00         0.00000E+00        -0.31010E+04
 
    0.30257E+06         0.10790E+07         0.00000E+00
    0.10790E+07        -0.32114E+06         0.00000E+00
    0.00000E+00         0.00000E+00        -0.37156E+04
 
    0.26674E+06         0.10702E+07         0.00000E+00
    0.10702E+07        -0.28810E+06         0.00000E+00
    0.00000E+00         0.00000E+00        -0.42718E+04
 
    0.23221E+06         0.10594E+07         0.00000E+00
    0.10594E+07        -0.25608E+06         0.00000E+00
    0.00000E+00         0.00000E+00        -0.47736E+04
 
    0.19910E+06         0.10466E+07         0.00000E+00
    0.10466E+07        -0.22522E+06         0.00000E+00
    0.00000E+00         0.00000E+00        -0.52248E+04
 
    0.16757E+06         0.10316E+07         0.00000E+00
    0.10316E+07        -0.19571E+06         0.00000E+00
    0.00000E+00         0.00000E+00        -0.56282E+04
 
    0.13779E+06         0.10144E+07         0.00000E+00
    0.10144E+07        -0.16772E+06         0.00000E+00
    0.00000E+00         0.00000E+00        -0.59862E+04
 
    0.10998E+06         0.99497E+06         0.00000E+00
    0.99497E+06        -0.14148E+06         0.00000E+00
    0.00000E+00         0.00000E+00        -0.63007E+04
 
    0.84376E+05         0.97316E+06         0.00000E+00
    0.97316E+06        -0.11724E+06         0.00000E+00
    0.00000E+00         0.00000E+00        -0.65731E+04
 
    0.61251E+05         0.94897E+06         0.00000E+00
    0.94897E+06        -0.95274E+05         0.00000E+00
    0.00000E+00         0.00000E+00        -0.68046E+04
 
    0.40903E+05         0.92239E+06         0.00000E+00
    0.92239E+06        -0.75882E+05         0.00000E+00
    0.00000E+00         0.00000E+00        -0.69959E+04
 
    0.23663E+05         0.89341E+06         0.00000E+00
    0.89341E+06        -0.59401E+05         0.00000E+00
    0.00000E+00         0.00000E+00        -0.71476E+04
 
    0.98896E+04         0.86206E+06         0.00000E+00
    0.86206E+06        -0.46190E+05         0.00000E+00
    0.00000E+00         0.00000E+00        -0.72601E+04
 
   -0.28226E+02         0.82840E+06         0.00000E+00
    0.82840E+06        -0.36641E+05         0.00000E+00
    0.00000E+00         0.00000E+00        -0.73339E+04
 
   -0.56752E+04         0.79254E+06         0.00000E+00
    0.79254E+06        -0.31171E+05         0.00000E+00
    0.00000E+00         0.00000E+00        -0.73693E+04
 
    0.27708E+07         0.50003E+05         0.00000E+00
    0.50003E+05        -0.16637E+07         0.00000E+00
    0.00000E+00         0.00000E+00         0.22143E+06
 
    0.26710E+07         0.13668E+06         0.00000E+00
    0.13668E+06        -0.16572E+07         0.00000E+00
    0.00000E+00         0.00000E+00         0.20275E+06
 
    0.25718E+07         0.21774E+06         0.00000E+00
    0.21774E+06        -0.16453E+07         0.00000E+00
    0.00000E+00         0.00000E+00         0.18529E+06
 
    0.24735E+07         0.29330E+06         0.00000E+00
    0.29330E+06        -0.16286E+07         0.00000E+00
    0.00000E+00         0.00000E+00         0.16898E+06
 
    0.23764E+07         0.36350E+06         0.00000E+00
    0.36350E+06        -0.16075E+07         0.00000E+00
    0.00000E+00         0.00000E+00         0.15379E+06
 
    0.22810E+07         0.42851E+06         0.00000E+00
    0.42851E+06        -0.15827E+07         0.00000E+00
    0.00000E+00         0.00000E+00         0.13965E+06
 
    0.21875E+07         0.48856E+06         0.00000E+00
    0.48856E+06        -0.15548E+07         0.00000E+00
    0.00000E+00         0.00000E+00         0.12653E+06
 
    0.20961E+07         0.54385E+06         0.00000E+00
    0.54385E+06        -0.15242E+07         0.00000E+00
    0.00000E+00         0.00000E+00         0.11437E+06
 
    0.20070E+07         0.59465E+06         0.00000E+00
    0.59465E+06        -0.14914E+07         0.00000E+00
    0.00000E+00         0.00000E+00         0.10312E+06
 
    0.19204E+07         0.64121E+06         0.00000E+00
    0.64121E+06        -0.14568E+07         0.00000E+00
    0.00000E+00         0.00000E+00         0.92737E+05
 
    0.18366E+07         0.68381E+06         0.00000E+00
    0.68381E+06        -0.14208E+07         0.00000E+00
    0.00000E+00         0.00000E+00         0.83158E+05
 
    0.17554E+07         0.72273E+06         0.00000E+00
    0.72273E+06        -0.13837E+07         0.00000E+00
    0.00000E+00         0.00000E+00         0.74341E+05
 
    0.16771E+07         0.75824E+06         0.00000E+00
    0.75824E+06        -0.13459E+07         0.00000E+00
    0.00000E+00         0.00000E+00         0.66237E+05
 
    0.16016E+07         0.79062E+06         0.00000E+00
    0.79062E+06        -0.13076E+07         0.00000E+00
    0.00000E+00         0.00000E+00         0.58798E+05
 
    0.15289E+07         0.82015E+06         0.00000E+00
    0.82015E+06        -0.12691E+07         0.00000E+00
    0.00000E+00         0.00000E+00         0.51979E+05
 
    0.14591E+07         0.84708E+06         0.00000E+00
    0.84708E+06        -0.12304E+07         0.00000E+00
    0.00000E+00         0.00000E+00         0.45735E+05
 
    0.13920E+07         0.87167E+06         0.00000E+00
    0.87167E+06        -0.11919E+07         0.00000E+00
    0.00000E+00         0.00000E+00         0.40025E+05
 
    0.13276E+07         0.89416E+06         0.00000E+00
    0.89416E+06        -0.11535E+07         0.00000E+00
    0.00000E+00         0.00000E+00         0.34806E+05
 
    0.12657E+07         0.91476E+06         0.00000E+00
    0.91476E+06        -0.11155E+07         0.00000E+00
    0.00000E+00         0.00000E+00         0.30039E+05
 
    0.12062E+07         0.93367E+06         0.00000E+00
    0.93367E+06        -0.10778E+07         0.00000E+00
    0.00000E+00         0.00000E+00         0.25687E+05
 
    0.11491E+07         0.95108E+06         0.00000E+00
    0.95108E+06        -0.10405E+07         0.00000E+00
    0.00000E+00         0.00000E+00         0.21714E+05
 
    0.10941E+07         0.96713E+06         0.00000E+00
    0.96713E+06        -0.10037E+07         0.00000E+00
    0.00000E+00         0.00000E+00         0.18085E+05
 
    0.10411E+07         0.98198E+06         0.00000E+00
    0.98198E+06        -0.96721E+06         0.00000E+00
    0.00000E+00         0.00000E+00         0.14770E+05
 
    0.98985E+06         0.99573E+06         0.00000E+00
    0.99573E+06        -0.93117E+06         0.00000E+00
    0.00000E+00         0.00000E+00         0.11736E+05
 
    0.94028E+06         0.10085E+07         0.00000E+00
    0.10085E+07        -0.89550E+06         0.00000E+00
    0.00000E+00         0.00000E+00         0.89570E+04
 
    0.89218E+06         0.10202E+07         0.00000E+00
    0.10202E+07        -0.86016E+06         0.00000E+00
    0.00000E+00         0.00000E+00         0.64047E+04
 
    0.84537E+06         0.10311E+07         0.00000E+00
    0.10311E+07        -0.82510E+06         0.00000E+00
    0.00000E+00         0.00000E+00         0.40543E+04
 
    0.79970E+06         0.10411E+07         0.00000E+00
    0.10411E+07        -0.79029E+06         0.00000E+00
    0.00000E+00         0.00000E+00         0.18824E+04
 
    0.75499E+06         0.10502E+07         0.00000E+00
    0.10502E+07        -0.75565E+06         0.00000E+00
    0.00000E+00         0.00000E+00        -0.13284E+03
 
    0.71110E+06         0.10583E+07         0.00000E+00
    0.10583E+07        -0.72116E+06         0.00000E+00
    0.00000E+00         0.00000E+00        -0.20116E+04
 
    0.66790E+06         0.10654E+07         0.00000E+00
    0.10654E+07        -0.68676E+06         0.00000E+00
    0.00000E+00         0.00000E+00        -0.37728E+04
 
    0.62525E+06         0.10715E+07         0.00000E+00
    0.10715E+07        -0.65242E+06         0.00000E+00
    0.00000E+00         0.00000E+00        -0.54336E+04
 
    0.58307E+06         0.10763E+07         0.00000E+00
    0.10763E+07        -0.61812E+06         0.00000E+00
    0.00000E+00         0.00000E+00        -0.70101E+04
 
    0.54126E+06         0.10799E+07         0.00000E+00
    0.10799E+07        -0.58384E+06         0.00000E+00
    0.00000E+00         0.00000E+00        -0.85170E+04
 
    0.49977E+06         0.10820E+07         0.00000E+00
    0.10820E+07        -0.54960E+06         0.00000E+00
    0.00000E+00         0.00000E+00        -0.99676E+04
 
    0.45856E+06         0.10825E+07         0.00000E+00
    0.10825E+07        -0.51543E+06         0.00000E+00
    0.00000E+00         0.00000E+00        -0.11374E+05
 
    0.41763E+06         0.10813E+07         0.00000E+00
    0.10813E+07        -0.48137E+06         0.00000E+00
    0.00000E+00         0.00000E+00        -0.12748E+05
 
    0.37702E+06         0.10781E+07         0.00000E+00
    0.10781E+07        -0.44751E+06         0.00000E+00
    0.00000E+00         0.00000E+00        -0.14099E+05
 
    0.33677E+06         0.10727E+07         0.00000E+00
    0.10727E+07        -0.41395E+06         0.00000E+00
    0.00000E+00         0.00000E+00        -0.15436E+05
 
    0.29700E+06         0.10650E+07         0.00000E+00
    0.10650E+07        -0.38083E+06         0.00000E+00
    0.00000E+00         0.00000E+00        -0.16767E+05
 
    0.25783E+06         0.10547E+07         0.00000E+00
    0.10547E+07        -0.34833E+06         0.00000E+00
    0.00000E+00         0.00000E+00        -0.18100E+05
 
    0.21944E+06         0.10416E+07         0.00000E+00
    0.10416E+07        -0.31664E+06         0.00000E+00
    0.00000E+00         0.00000E+00        -0.19440E+05
 
    0.18207E+06         0.10256E+07         0.00000E+00
    0.10256E+07        -0.28603E+06         0.00000E+00
    0.00000E+00         0.00000E+00        -0.20793E+05
 
    0.14596E+06         0.10063E+07         0.00000E+00
    0.10063E+07        -0.25678E+06         0.00000E+00
    0.00000E+00         0.00000E+00        -0.22163E+05
 
    0.11145E+06         0.98369E+06         0.00000E+00
    0.98369E+06        -0.22923E+06         0.00000E+00
    0.00000E+00         0.00000E+00        -0.23555E+05
 
    0.78892E+05         0.95753E+06         0.00000E+00
    0.95753E+06        -0.20376E+06         0.00000E+00
    0.00000E+00         0.00000E+00        -0.24973E+05
 
    0.48702E+05         0.92767E+06         0.00000E+00
    0.92767E+06        -0.18079E+06         0.00000E+00
    0.00000E+00         0.00000E+00        -0.26417E+05
 
    0.21347E+05         0.89399E+06         0.00000E+00
    0.89399E+06        -0.16081E+06         0.00000E+00
    0.00000E+00         0.00000E+00        -0.27892E+05
 
   -0.26537E+04         0.85639E+06         0.00000E+00
    0.85639E+06        -0.14434E+06         0.00000E+00
    0.00000E+00         0.00000E+00        -0.29398E+05
 
   -0.22731E+05         0.81483E+06         0.00000E+00
    0.81483E+06        -0.13195E+06         0.00000E+00
    0.00000E+00         0.00000E+00        -0.30936E+05
 
    0.31569E+07         0.51079E+05         0.00000E+00
    0.51079E+05        -0.17246E+07         0.00000E+00
    0.00000E+00         0.00000E+00         0.28646E+06
 
    0.30265E+07         0.13630E+06         0.00000E+00
    0.13630E+06        -0.17177E+07         0.00000E+00
    0.00000E+00         0.00000E+00         0.26176E+06
 
    0.28985E+07         0.21451E+06         0.00000E+00
    0.21451E+06        -0.17053E+07         0.00000E+00
    0.00000E+00         0.00000E+00         0.23865E+06
 
    0.27734E+07         0.28595E+06         0.00000E+00
    0.28595E+06        -0.16880E+07         0.00000E+00
    0.00000E+00         0.00000E+00         0.21707E+06
 
    0.26516E+07         0.35092E+06         0.00000E+00
    0.35092E+06        -0.16668E+07         0.00000E+00
    0.00000E+00         0.00000E+00         0.19696E+06
 
    0.25334E+07         0.40976E+06         0.00000E+00
    0.40976E+06        -0.16422E+07         0.00000E+00
    0.00000E+00         0.00000E+00         0.17825E+06
 
    0.24193E+07         0.46285E+06         0.00000E+00
    0.46285E+06        -0.16149E+07         0.00000E+00
    0.00000E+00         0.00000E+00         0.16088E+06
 
    0.23095E+07         0.51059E+06         0.00000E+00
    0.51059E+06        -0.15856E+07         0.00000E+00
    0.00000E+00         0.00000E+00         0.14478E+06
 
    0.22041E+07         0.55340E+06         0.00000E+00
    0.55340E+06        -0.15547E+07         0.00000E+00
    0.00000E+00         0.00000E+00         0.12988E+06
 
    0.21033E+07         0.59171E+06         0.00000E+00
    0.59171E+06        -0.15227E+07         0.00000E+00
    0.00000E+00         0.00000E+00         0.11612E+06
 
    0.20073E+07         0.62597E+06         0.00000E+00
    0.62597E+06        -0.14901E+07         0.00000E+00
    0.00000E+00         0.00000E+00         0.10343E+06
 
    0.19160E+07         0.65661E+06         0.00000E+00
    0.65661E+06        -0.14572E+07         0.00000E+00
    0.00000E+00         0.00000E+00         0.91745E+05
 
    0.18294E+07         0.68406E+06         0.00000E+00
    0.68406E+06        -0.14244E+07         0.00000E+00
    0.00000E+00         0.00000E+00         0.81000E+05
 
    0.17474E+07         0.70874E+06         0.00000E+00
    0.70874E+06        -0.13917E+07         0.00000E+00
    0.00000E+00         0.00000E+00         0.71133E+05
 
    0.16699E+07         0.73104E+06         0.00000E+00
    0.73104E+06        -0.13595E+07         0.00000E+00
    0.00000E+00         0.00000E+00         0.62083E+05
 
    0.15968E+07         0.75134E+06         0.00000E+00
    0.75134E+06        -0.13279E+07         0.00000E+00
    0.00000E+00         0.00000E+00         0.53790E+05
 
    0.15279E+07         0.76999E+06         0.00000E+00
    0.76999E+06        -0.12969E+07         0.00000E+00
    0.00000E+00         0.00000E+00         0.46196E+05
 
    0.14629E+07         0.78732E+06         0.00000E+00
    0.78732E+06        -0.12667E+07         0.00000E+00
    0.00000E+00         0.00000E+00         0.39245E+05
 
    0.14016E+07         0.80362E+06         0.00000E+00
    0.80362E+06        -0.12372E+07         0.00000E+00
    0.00000E+00         0.00000E+00         0.32884E+05
 
    0.13437E+07         0.81915E+06         0.00000E+00
    0.81915E+06        -0.12084E+07         0.00000E+00
    0.00000E+00         0.00000E+00         0.27061E+05
 
    0.12890E+07         0.83416E+06         0.00000E+00
    0.83416E+06        -0.11804E+07         0.00000E+00
    0.00000E+00         0.00000E+00         0.21726E+05
 
    0.12371E+07         0.84883E+06         0.00000E+00
    0.84883E+06        -0.11530E+07         0.00000E+00
    0.00000E+00         0.00000E+00         0.16831E+05
 
    0.11877E+07         0.86333E+06         0.00000E+00
    0.86333E+06        -0.11261E+07         0.00000E+00
    0.00000E+00         0.00000E+00         0.12332E+05
 
    0.11405E+07         0.87778E+06         0.00000E+00
    0.87778E+06        -0.10996E+07         0.00000E+00
    0.00000E+00         0.00000E+00         0.81861E+04
 
    0.10952E+07         0.89228E+06         0.00000E+00
    0.89228E+06        -0.10735E+07         0.00000E+00
    0.00000E+00         0.00000E+00         0.43512E+04
 
    0.10514E+07         0.90688E+06         0.00000E+00
    0.90688E+06        -0.10475E+07         0.00000E+00
    0.00000E+00         0.00000E+00         0.78911E+03
 
    0.10089E+07         0.92160E+06         0.00000E+00
    0.92160E+06        -0.10215E+07         0.00000E+00
    0.00000E+00         0.00000E+00        -0.25371E+04
 
    0.96720E+06         0.93643E+06         0.00000E+00
    0.93643E+06        -0.99551E+06         0.00000E+00
    0.00000E+00         0.00000E+00        -0.56623E+04
 
    0.92613E+06         0.95131E+06         0.00000E+00
    0.95131E+06        -0.96923E+06         0.00000E+00
    0.00000E+00         0.00000E+00        -0.86193E+04
 
    0.88538E+06         0.96618E+06         0.00000E+00
    0.96618E+06        -0.94257E+06         0.00000E+00
    0.00000E+00         0.00000E+00        -0.11439E+05
 
    0.84465E+06         0.98090E+06         0.00000E+00
    0.98090E+06        -0.91541E+06         0.00000E+00
    0.00000E+00         0.00000E+00        -0.14152E+05
 
    0.80371E+06         0.99533E+06         0.00000E+00
    0.99533E+06        -0.88763E+06         0.00000E+00
    0.00000E+00         0.00000E+00        -0.16784E+05
 
    0.76231E+06         0.10093E+07         0.00000E+00
    0.10093E+07        -0.85912E+06         0.00000E+00
    0.00000E+00         0.00000E+00        -0.19361E+05
 
    0.72026E+06         0.10226E+07         0.00000E+00
    0.10226E+07        -0.82981E+06         0.00000E+00
    0.00000E+00         0.00000E+00        -0.21909E+05
 
    0.67737E+06         0.10349E+07         0.00000E+00
    0.10349E+07        -0.79962E+06         0.00000E+00
    0.00000E+00         0.00000E+00        -0.24451E+05
 
    0.63350E+06         0.10461E+07         0.00000E+00
    0.10461E+07        -0.76853E+06         0.00000E+00
    0.00000E+00         0.00000E+00        -0.27006E+05
 
    0.58855E+06         0.10558E+07         0.00000E+00
    0.10558E+07        -0.73653E+06         0.00000E+00
    0.00000E+00         0.00000E+00        -0.29596E+05
 
    0.54245E+06         0.10636E+07         0.00000E+00
    0.10636E+07        -0.70364E+06         0.00000E+00
    0.00000E+00         0.00000E+00        -0.32240E+05
 
    0.49517E+06         0.10694E+07         0.00000E+00
    0.10694E+07        -0.66993E+06         0.00000E+00
    0.00000E+00         0.00000E+00        -0.34953E+05
 
    0.44674E+06         0.10726E+07         0.00000E+00
    0.10726E+07        -0.63551E+06         0.00000E+00
    0.00000E+00         0.00000E+00        -0.37753E+05
 
    0.39723E+06         0.10729E+07         0.00000E+00
    0.10729E+07        -0.60051E+06         0.00000E+00
    0.00000E+00         0.00000E+00        -0.40655E+05
 
    0.34679E+06         0.10700E+07         0.00000E+00
    0.10700E+07        -0.56514E+06         0.00000E+00
    0.00000E+00         0.00000E+00        -0.43671E+05
 
    0.29559E+06         0.10634E+07         0.00000E+00
    0.10634E+07        -0.52965E+06         0.00000E+00
    0.00000E+00         0.00000E+00        -0.46813E+05
 
    0.24389E+06         0.10527E+07         0.00000E+00
    0.10527E+07        -0.49436E+06         0.00000E+00
    0.00000E+00         0.00000E+00        -0.50094E+05
 
    0.19202E+06         0.10375E+07         0.00000E+00
    0.10375E+07        -0.45962E+06         0.00000E+00
    0.00000E+00         0.00000E+00        -0.53521E+05
 
    0.14036E+06         0.10175E+07         0.00000E+00
    0.10175E+07        -0.42589E+06         0.00000E+00
    0.00000E+00         0.00000E+00        -0.57105E+05
 
    0.89400E+05         0.99215E+06         0.00000E+00
    0.99215E+06        -0.39365E+06         0.00000E+00
    0.00000E+00         0.00000E+00        -0.60851E+05
 
    0.39679E+05         0.96119E+06         0.00000E+00
    0.96119E+06        -0.36351E+06         0.00000E+00
    0.00000E+00         0.00000E+00        -0.64766E+05
 
   -0.81667E+04         0.92423E+06         0.00000E+00
    0.92423E+06        -0.33610E+06         0.00000E+00
    0.00000E+00         0.00000E+00        -0.68854E+05
 
   -0.53416E+05         0.88098E+06         0.00000E+00
    0.88098E+06        -0.31218E+06         0.00000E+00
    0.00000E+00         0.00000E+00        -0.73119E+05
 
    0.35625E+07         0.50059E+05         0.00000E+00
    0.50059E+05        -0.17497E+07         0.00000E+00
    0.00000E+00         0.00000E+00         0.36256E+06
 
    0.33931E+07         0.12824E+06         0.00000E+00
    0.12824E+06        -0.17427E+07         0.00000E+00
    0.00000E+00         0.00000E+00         0.33009E+06
 
    0.32288E+07         0.19755E+06         0.00000E+00
    0.19755E+06        -0.17304E+07         0.00000E+00
    0.00000E+00         0.00000E+00         0.29970E+06
 
    0.30704E+07         0.25850E+06         0.00000E+00
    0.25850E+06        -0.17138E+07         0.00000E+00
    0.00000E+00         0.00000E+00         0.27132E+06
 
    0.29183E+07         0.31167E+06         0.00000E+00
    0.31167E+06        -0.16940E+07         0.00000E+00
    0.00000E+00         0.00000E+00         0.24486E+06
 
    0.27730E+07         0.35766E+06         0.00000E+00
    0.35766E+06        -0.16718E+07         0.00000E+00
    0.00000E+00         0.00000E+00         0.22024E+06
 
    0.26348E+07         0.39714E+06         0.00000E+00
    0.39714E+06        -0.16479E+07         0.00000E+00
    0.00000E+00         0.00000E+00         0.19738E+06
 
    0.25041E+07         0.43079E+06         0.00000E+00
    0.43079E+06        -0.16231E+07         0.00000E+00
    0.00000E+00         0.00000E+00         0.17620E+06
 
    0.23809E+07         0.45930E+06         0.00000E+00
    0.45930E+06        -0.15979E+07         0.00000E+00
    0.00000E+00         0.00000E+00         0.15659E+06
 
    0.22653E+07         0.48335E+06         0.00000E+00
    0.48335E+06        -0.15729E+07         0.00000E+00
    0.00000E+00         0.00000E+00         0.13849E+06
 
    0.21573E+07         0.50361E+06         0.00000E+00
    0.50361E+06        -0.15483E+07         0.00000E+00
    0.00000E+00         0.00000E+00         0.12179E+06
 
    0.20567E+07         0.52073E+06         0.00000E+00
    0.52073E+06        -0.15246E+07         0.00000E+00
    0.00000E+00         0.00000E+00         0.10642E+06
 
    0.19634E+07         0.53534E+06         0.00000E+00
    0.53534E+06        -0.15020E+07         0.00000E+00
    0.00000E+00         0.00000E+00         0.92295E+05
 
    0.18772E+07         0.54803E+06         0.00000E+00
    0.54803E+06        -0.14806E+07         0.00000E+00
    0.00000E+00         0.00000E+00         0.79324E+05
 
    0.17977E+07         0.55934E+06         0.00000E+00
    0.55934E+06        -0.14605E+07         0.00000E+00
    0.00000E+00         0.00000E+00         0.67430E+05
 
    0.17245E+07         0.56980E+06         0.00000E+00
    0.56980E+06        -0.14419E+07         0.00000E+00
    0.00000E+00         0.00000E+00         0.56531E+05
 
    0.16574E+07         0.57985E+06         0.00000E+00
    0.57985E+06        -0.14246E+07         0.00000E+00
    0.00000E+00         0.00000E+00         0.46550E+05
 
    0.15958E+07         0.58993E+06         0.00000E+00
    0.58993E+06        -0.14087E+07         0.00000E+00
    0.00000E+00         0.00000E+00         0.37410E+05
 
    0.15393E+07         0.60040E+06         0.00000E+00
    0.60040E+06        -0.13941E+07         0.00000E+00
    0.00000E+00         0.00000E+00         0.29039E+05
 
    0.14874E+07         0.61159E+06         0.00000E+00
    0.61159E+06        -0.13806E+07         0.00000E+00
    0.00000E+00         0.00000E+00         0.21364E+05
 
    0.14396E+07         0.62378E+06         0.00000E+00
    0.62378E+06        -0.13680E+07         0.00000E+00
    0.00000E+00         0.00000E+00         0.14318E+05
 
    0.13954E+07         0.63718E+06         0.00000E+00
    0.63718E+06        -0.13562E+07         0.00000E+00
    0.00000E+00         0.00000E+00         0.78335E+04
 
    0.13543E+07         0.65197E+06         0.00000E+00
    0.65197E+06        -0.13450E+07         0.00000E+00
    0.00000E+00         0.00000E+00         0.18479E+04
 
    0.13157E+07         0.66829E+06         0.00000E+00
    0.66829E+06        -0.13342E+07         0.00000E+00
    0.00000E+00         0.00000E+00        -0.37000E+04
 
    0.12791E+07         0.68622E+06         0.00000E+00
    0.68622E+06        -0.13235E+07         0.00000E+00
    0.00000E+00         0.00000E+00        -0.88686E+04
 
    0.12441E+07         0.70580E+06         0.00000E+00
    0.70580E+06        -0.13126E+07         0.00000E+00
    0.00000E+00         0.00000E+00        -0.13714E+05
 
    0.12100E+07         0.72700E+06         0.00000E+00
    0.72700E+06        -0.13014E+07         0.00000E+00
    0.00000E+00         0.00000E+00        -0.18290E+05
 
    0.11764E+07         0.74980E+06         0.00000E+00
    0.74980E+06        -0.12896E+07         0.00000E+00
    0.00000E+00         0.00000E+00        -0.22647E+05
 
    0.11428E+07         0.77407E+06         0.00000E+00
    0.77407E+06        -0.12769E+07         0.00000E+00
    0.00000E+00         0.00000E+00        -0.26835E+05
 
    0.11087E+07         0.79968E+06         0.00000E+00
    0.79968E+06        -0.12632E+07         0.00000E+00
    0.00000E+00         0.00000E+00        -0.30900E+05
 
    0.10736E+07         0.82646E+06         0.00000E+00
    0.82646E+06        -0.12481E+07         0.00000E+00
    0.00000E+00         0.00000E+00        -0.34888E+05
 
    0.10372E+07         0.85416E+06         0.00000E+00
    0.85416E+06        -0.12314E+07         0.00000E+00
    0.00000E+00         0.00000E+00        -0.38841E+05
 
    0.99905E+06         0.88252E+06         0.00000E+00
    0.88252E+06        -0.12130E+07         0.00000E+00
    0.00000E+00         0.00000E+00        -0.42800E+05
 
    0.95872E+06         0.91122E+06         0.00000E+00
    0.91122E+06        -0.11927E+07         0.00000E+00
    0.00000E+00         0.00000E+00        -0.46804E+05
 
    0.91591E+06         0.93993E+06         0.00000E+00
    0.93993E+06        -0.11704E+07         0.00000E+00
    0.00000E+00         0.00000E+00        -0.50891E+05
 
    0.87029E+06         0.96825E+06         0.00000E+00
    0.96825E+06        -0.11458E+07         0.00000E+00
    0.00000E+00         0.00000E+00        -0.55097E+05
 
    0.82161E+06         0.99574E+06         0.00000E+00
    0.99574E+06        -0.11189E+07         0.00000E+00
    0.00000E+00         0.00000E+00        -0.59455E+05
 
    0.76964E+06         0.10219E+07         0.00000E+00
    0.10219E+07        -0.10896E+07         0.00000E+00
    0.00000E+00         0.00000E+00        -0.63997E+05
 
    0.71422E+06         0.10463E+07         0.00000E+00
    0.10463E+07        -0.10580E+07         0.00000E+00
    0.00000E+00         0.00000E+00        -0.68755E+05
 
    0.65523E+06         0.10684E+07         0.00000E+00
    0.10684E+07        -0.10240E+07         0.00000E+00
    0.00000E+00         0.00000E+00        -0.73757E+05
 
    0.59261E+06         0.10875E+07         0.00000E+00
    0.10875E+07        -0.98776E+06         0.00000E+00
    0.00000E+00         0.00000E+00        -0.79030E+05
 
    0.52638E+06         0.11031E+07         0.00000E+00
    0.11031E+07        -0.94938E+06         0.00000E+00
    0.00000E+00         0.00000E+00        -0.84600E+05
 
    0.45662E+06         0.11145E+07         0.00000E+00
    0.11145E+07        -0.90907E+06         0.00000E+00
    0.00000E+00         0.00000E+00        -0.90490E+05
 
    0.38349E+06         0.11211E+07         0.00000E+00
    0.11211E+07        -0.86710E+06         0.00000E+00
    0.00000E+00         0.00000E+00        -0.96723E+05
 
    0.30726E+06         0.11222E+07         0.00000E+00
    0.11222E+07        -0.82384E+06         0.00000E+00
    0.00000E+00         0.00000E+00        -0.10332E+06
 
    0.22826E+06         0.11170E+07         0.00000E+00
    0.11170E+07        -0.77971E+06         0.00000E+00
    0.00000E+00         0.00000E+00        -0.11029E+06
 
    0.14696E+06         0.11048E+07         0.00000E+00
    0.11048E+07        -0.73524E+06         0.00000E+00
    0.00000E+00         0.00000E+00        -0.11766E+06
 
    0.63921E+05         0.10850E+07         0.00000E+00
    0.10850E+07        -0.69106E+06         0.00000E+00
    0.00000E+00         0.00000E+00        -0.12543E+06
 
   -0.20180E+05         0.10567E+07         0.00000E+00
    0.10567E+07        -0.64791E+06         0.00000E+00
    0.00000E+00         0.00000E+00        -0.13362E+06
 
   -0.10452E+06         0.10194E+07         0.00000E+00
    0.10194E+07        -0.60664E+06         0.00000E+00
    0.00000E+00         0.00000E+00        -0.14223E+06
 
    0.39619E+07         0.46010E+05         0.00000E+00
    0.46010E+05        -0.17323E+07         0.00000E+00
    0.00000E+00         0.00000E+00         0.44592E+06
 
    0.37418E+07         0.10896E+06         0.00000E+00
    0.10896E+06        -0.17258E+07         0.00000E+00
    0.00000E+00         0.00000E+00         0.40320E+06
 
    0.35313E+07         0.16061E+06         0.00000E+00
    0.16061E+06        -0.17151E+07         0.00000E+00
    0.00000E+00         0.00000E+00         0.36323E+06
 
    0.33312E+07         0.20197E+06         0.00000E+00
    0.20197E+06        -0.17017E+07         0.00000E+00
    0.00000E+00         0.00000E+00         0.32590E+06
 
    0.31421E+07         0.23410E+06         0.00000E+00
    0.23410E+06        -0.16865E+07         0.00000E+00
    0.00000E+00         0.00000E+00         0.29111E+06
 
    0.29645E+07         0.25810E+06         0.00000E+00
    0.25810E+06        -0.16707E+07         0.00000E+00
    0.00000E+00         0.00000E+00         0.25876E+06
 
    0.27987E+07         0.27508E+06         0.00000E+00
    0.27508E+06        -0.16551E+07         0.00000E+00
    0.00000E+00         0.00000E+00         0.22873E+06
 
    0.26449E+07         0.28614E+06         0.00000E+00
    0.28614E+06        -0.16403E+07         0.00000E+00
    0.00000E+00         0.00000E+00         0.20092E+06
 
    0.25029E+07         0.29234E+06         0.00000E+00
    0.29234E+06        -0.16269E+07         0.00000E+00
    0.00000E+00         0.00000E+00         0.17522E+06
 
    0.23728E+07         0.29472E+06         0.00000E+00
    0.29472E+06        -0.16153E+07         0.00000E+00
    0.00000E+00         0.00000E+00         0.15150E+06
 
    0.22541E+07         0.29424E+06         0.00000E+00
    0.29424E+06        -0.16058E+07         0.00000E+00
    0.00000E+00         0.00000E+00         0.12967E+06
 
    0.21465E+07         0.29182E+06         0.00000E+00
    0.29182E+06        -0.15985E+07         0.00000E+00
    0.00000E+00         0.00000E+00         0.10960E+06
 
    0.20496E+07         0.28831E+06         0.00000E+00
    0.28831E+06        -0.15937E+07         0.00000E+00
    0.00000E+00         0.00000E+00         0.91178E+05
 
    0.19628E+07         0.28449E+06         0.00000E+00
    0.28449E+06        -0.15913E+07         0.00000E+00
    0.00000E+00         0.00000E+00         0.74296E+05
 
    0.18855E+07         0.28107E+06         0.00000E+00
    0.28107E+06        -0.15912E+07         0.00000E+00
    0.00000E+00         0.00000E+00         0.58842E+05
 
    0.18170E+07         0.27867E+06         0.00000E+00
    0.27867E+06        -0.15934E+07         0.00000E+00
    0.00000E+00         0.00000E+00         0.44707E+05
 
    0.17566E+07         0.27787E+06         0.00000E+00
    0.27787E+06        -0.15977E+07         0.00000E+00
    0.00000E+00         0.00000E+00         0.31783E+05
 
    0.17037E+07         0.27915E+06         0.00000E+00
    0.27915E+06        -0.16038E+07         0.00000E+00
    0.00000E+00         0.00000E+00         0.19968E+05
 
    0.16574E+07         0.28292E+06         0.00000E+00
    0.28292E+06        -0.16116E+07         0.00000E+00
    0.00000E+00         0.00000E+00         0.91585E+04
 
    0.16170E+07         0.28955E+06         0.00000E+00
    0.28955E+06        -0.16208E+07         0.00000E+00
    0.00000E+00         0.00000E+00        -0.74285E+03
 
    0.15818E+07         0.29932E+06         0.00000E+00
    0.29932E+06        -0.16309E+07         0.00000E+00
    0.00000E+00         0.00000E+00        -0.98318E+04
 
    0.15509E+07         0.31245E+06         0.00000E+00
    0.31245E+06        -0.16419E+07         0.00000E+00
    0.00000E+00         0.00000E+00        -0.18201E+05
 
    0.15236E+07         0.32911E+06         0.00000E+00
    0.32911E+06        -0.16532E+07         0.00000E+00
    0.00000E+00         0.00000E+00        -0.25938E+05
 
    0.14990E+07         0.34940E+06         0.00000E+00
    0.34940E+06        -0.16647E+07         0.00000E+00
    0.00000E+00         0.00000E+00        -0.33131E+05
 
    0.14765E+07         0.37337E+06         0.00000E+00
    0.37337E+06        -0.16758E+07         0.00000E+00
    0.00000E+00         0.00000E+00        -0.39862E+05
 
    0.14553E+07         0.40101E+06         0.00000E+00
    0.40101E+06        -0.16864E+07         0.00000E+00
    0.00000E+00         0.00000E+00        -0.46211E+05
 
    0.14347E+07         0.43228E+06         0.00000E+00
    0.43228E+06        -0.16959E+07         0.00000E+00
    0.00000E+00         0.00000E+00        -0.52255E+05
 
    0.14138E+07         0.46706E+06         0.00000E+00
    0.46706E+06        -0.17042E+07         0.00000E+00
    0.00000E+00         0.00000E+00        -0.58067E+05
 
    0.13921E+07         0.50520E+06         0.00000E+00
    0.50520E+06        -0.17107E+07         0.00000E+00
    0.00000E+00         0.00000E+00        -0.63721E+05
 
    0.13689E+07         0.54650E+06         0.00000E+00
    0.54650E+06        -0.17153E+07         0.00000E+00
    0.00000E+00         0.00000E+00        -0.69284E+05
 
    0.13434E+07         0.59069E+06         0.00000E+00
    0.59069E+06        -0.17175E+07         0.00000E+00
    0.00000E+00         0.00000E+00        -0.74825E+05
 
    0.13150E+07         0.63749E+06         0.00000E+00
    0.63749E+06        -0.17170E+07         0.00000E+00
    0.00000E+00         0.00000E+00        -0.80406E+05
 
    0.12831E+07         0.68653E+06         0.00000E+00
    0.68653E+06        -0.17136E+07         0.00000E+00
    0.00000E+00         0.00000E+00        -0.86090E+05
 
    0.12472E+07         0.73742E+06         0.00000E+00
    0.73742E+06        -0.17069E+07         0.00000E+00
    0.00000E+00         0.00000E+00        -0.91939E+05
 
    0.12066E+07         0.78970E+06         0.00000E+00
    0.78970E+06        -0.16967E+07         0.00000E+00
    0.00000E+00         0.00000E+00        -0.98009E+05
 
    0.11609E+07         0.84288E+06         0.00000E+00
    0.84288E+06        -0.16827E+07         0.00000E+00
    0.00000E+00         0.00000E+00        -0.10436E+06
 
    0.11095E+07         0.89639E+06         0.00000E+00
    0.89639E+06        -0.16648E+07         0.00000E+00
    0.00000E+00         0.00000E+00        -0.11104E+06
 
    0.10521E+07         0.94962E+06         0.00000E+00
    0.94962E+06        -0.16426E+07         0.00000E+00
    0.00000E+00         0.00000E+00        -0.11811E+06
 
    0.98814E+06         0.10019E+07         0.00000E+00
    0.10019E+07        -0.16162E+07         0.00000E+00
    0.00000E+00         0.00000E+00        -0.12561E+06
 
    0.91737E+06         0.10525E+07         0.00000E+00
    0.10525E+07        -0.15854E+07         0.00000E+00
    0.00000E+00         0.00000E+00        -0.13360E+06
 
    0.83948E+06         0.11007E+07         0.00000E+00
    0.11007E+07        -0.15501E+07         0.00000E+00
    0.00000E+00         0.00000E+00        -0.14212E+06
 
    0.75426E+06         0.11455E+07         0.00000E+00
    0.11455E+07        -0.15104E+07         0.00000E+00
    0.00000E+00         0.00000E+00        -0.15122E+06
 
    0.66159E+06         0.11862E+07         0.00000E+00
    0.11862E+07        -0.14662E+07         0.00000E+00
    0.00000E+00         0.00000E+00        -0.16093E+06
 
    0.56141E+06         0.12217E+07         0.00000E+00
    0.12217E+07        -0.14179E+07         0.00000E+00
    0.00000E+00         0.00000E+00        -0.17130E+06
 
    0.45378E+06         0.12510E+07         0.00000E+00
    0.12510E+07        -0.13656E+07         0.00000E+00
    0.00000E+00         0.00000E+00        -0.18236E+06
 
    0.33887E+06         0.12730E+07         0.00000E+00
    0.12730E+07        -0.13095E+07         0.00000E+00
    0.00000E+00         0.00000E+00        -0.19413E+06
 
    0.21696E+06         0.12867E+07         0.00000E+00
    0.12867E+07        -0.12503E+07         0.00000E+00
    0.00000E+00         0.00000E+00        -0.20666E+06
 
    0.88494E+05         0.12907E+07         0.00000E+00
    0.12907E+07        -0.11883E+07         0.00000E+00
    0.00000E+00         0.00000E+00        -0.21997E+06
 
   -0.45950E+05         0.12840E+07         0.00000E+00
    0.12840E+07        -0.11244E+07         0.00000E+00
    0.00000E+00         0.00000E+00        -0.23407E+06
 
   -0.18561E+06         0.12652E+07         0.00000E+00
    0.12652E+07        -0.10593E+07         0.00000E+00
    0.00000E+00         0.00000E+00        -0.24898E+06
 
    0.42971E+07         0.37050E+05         0.00000E+00
    0.37050E+05        -0.16820E+07         0.00000E+00
    0.00000E+00         0.00000E+00         0.52301E+06
 
    0.40107E+07         0.72442E+05         0.00000E+00
    0.72442E+05        -0.16777E+07         0.00000E+00
    0.00000E+00         0.00000E+00         0.46660E+06
 
    0.37412E+07         0.93681E+05         0.00000E+00
    0.93681E+05        -0.16718E+07         0.00000E+00
    0.00000E+00         0.00000E+00         0.41388E+06
 
    0.34896E+07         0.10268E+06         0.00000E+00
    0.10268E+06        -0.16660E+07         0.00000E+00
    0.00000E+00         0.00000E+00         0.36471E+06
 
    0.32563E+07         0.10131E+06         0.00000E+00
    0.10131E+06        -0.16615E+07         0.00000E+00
    0.00000E+00         0.00000E+00         0.31896E+06
 
    0.30416E+07         0.91436E+05         0.00000E+00
    0.91436E+05        -0.16591E+07         0.00000E+00
    0.00000E+00         0.00000E+00         0.27650E+06
 
    0.28455E+07         0.74813E+05         0.00000E+00
    0.74813E+05        -0.16596E+07         0.00000E+00
    0.00000E+00         0.00000E+00         0.23718E+06
 
    0.26678E+07         0.53114E+05         0.00000E+00
    0.53114E+05        -0.16635E+07         0.00000E+00
    0.00000E+00         0.00000E+00         0.20087E+06
 
    0.25080E+07         0.27894E+05         0.00000E+00
    0.27894E+05        -0.16711E+07         0.00000E+00
    0.00000E+00         0.00000E+00         0.16739E+06
 
    0.23656E+07         0.58648E+03         0.00000E+00
    0.58648E+03        -0.16825E+07         0.00000E+00
    0.00000E+00         0.00000E+00         0.13661E+06
 
    0.22397E+07        -0.27501E+05         0.00000E+00
   -0.27501E+05        -0.16979E+07         0.00000E+00
    0.00000E+00         0.00000E+00         0.10836E+06
 
    0.21295E+07        -0.55191E+05         0.00000E+00
   -0.55191E+05        -0.17171E+07         0.00000E+00
    0.00000E+00         0.00000E+00         0.82490E+05
 
    0.20341E+07        -0.81435E+05         0.00000E+00
   -0.81435E+05        -0.17399E+07         0.00000E+00
    0.00000E+00         0.00000E+00         0.58841E+05
 
    0.19524E+07        -0.10531E+06         0.00000E+00
   -0.10531E+06        -0.17661E+07         0.00000E+00
    0.00000E+00         0.00000E+00         0.37257E+05
 
    0.18833E+07        -0.12600E+06         0.00000E+00
   -0.12600E+06        -0.17954E+07         0.00000E+00
    0.00000E+00         0.00000E+00         0.17584E+05
 
    0.18259E+07        -0.14284E+06         0.00000E+00
   -0.14284E+06        -0.18275E+07         0.00000E+00
    0.00000E+00         0.00000E+00        -0.32985E+03
 
    0.17788E+07        -0.15522E+06         0.00000E+00
   -0.15522E+06        -0.18620E+07         0.00000E+00
    0.00000E+00         0.00000E+00        -0.16633E+05
 
    0.17412E+07        -0.16266E+06         0.00000E+00
   -0.16266E+06        -0.18985E+07         0.00000E+00
    0.00000E+00         0.00000E+00        -0.31471E+05
 
    0.17117E+07        -0.16478E+06         0.00000E+00
   -0.16478E+06        -0.19366E+07         0.00000E+00
    0.00000E+00         0.00000E+00        -0.44985E+05
 
    0.16893E+07        -0.16127E+06         0.00000E+00
   -0.16127E+06        -0.19759E+07         0.00000E+00
    0.00000E+00         0.00000E+00        -0.57312E+05
 
    0.16730E+07        -0.15188E+06         0.00000E+00
   -0.15188E+06        -0.20159E+07         0.00000E+00
    0.00000E+00         0.00000E+00        -0.68586E+05
 
    0.16615E+07        -0.13648E+06         0.00000E+00
   -0.13648E+06        -0.20562E+07         0.00000E+00
    0.00000E+00         0.00000E+00        -0.78936E+05
 
    0.16540E+07        -0.11495E+06         0.00000E+00
   -0.11495E+06        -0.20964E+07         0.00000E+00
    0.00000E+00         0.00000E+00        -0.88485E+05
 
    0.16493E+07        -0.87278E+05         0.00000E+00
   -0.87278E+05        -0.21360E+07         0.00000E+00
    0.00000E+00         0.00000E+00        -0.97353E+05
 
    0.16464E+07        -0.53469E+05         0.00000E+00
   -0.53469E+05        -0.21747E+07         0.00000E+00
    0.00000E+00         0.00000E+00        -0.10566E+06
 
    0.16444E+07        -0.13600E+05         0.00000E+00
   -0.13600E+05        -0.22119E+07         0.00000E+00
    0.00000E+00         0.00000E+00        -0.11351E+06
 
    0.16422E+07         0.32207E+05         0.00000E+00
    0.32207E+05        -0.22473E+07         0.00000E+00
    0.00000E+00         0.00000E+00        -0.12102E+06
 
    0.16391E+07         0.83785E+05         0.00000E+00
    0.83785E+05        -0.22805E+07         0.00000E+00
    0.00000E+00         0.00000E+00        -0.12829E+06
 
    0.16339E+07         0.14092E+06         0.00000E+00
    0.14092E+06        -0.23110E+07         0.00000E+00
    0.00000E+00         0.00000E+00        -0.13542E+06
 
    0.16259E+07         0.20336E+06         0.00000E+00
    0.20336E+06        -0.23384E+07         0.00000E+00
    0.00000E+00         0.00000E+00        -0.14251E+06
 
    0.16142E+07         0.27079E+06         0.00000E+00
    0.27079E+06        -0.23624E+07         0.00000E+00
    0.00000E+00         0.00000E+00        -0.14966E+06
 
    0.15978E+07         0.34287E+06         0.00000E+00
    0.34287E+06        -0.23826E+07         0.00000E+00
    0.00000E+00         0.00000E+00        -0.15695E+06
 
    0.15760E+07         0.41919E+06         0.00000E+00
    0.41919E+06        -0.23985E+07         0.00000E+00
    0.00000E+00         0.00000E+00        -0.16449E+06
 
    0.15479E+07         0.49931E+06         0.00000E+00
    0.49931E+06        -0.24097E+07         0.00000E+00
    0.00000E+00         0.00000E+00        -0.17236E+06
 
    0.15127E+07         0.58271E+06         0.00000E+00
    0.58271E+06        -0.24159E+07         0.00000E+00
    0.00000E+00         0.00000E+00        -0.18064E+06
 
    0.14697E+07         0.66884E+06         0.00000E+00
    0.66884E+06        -0.24168E+07         0.00000E+00
    0.00000E+00         0.00000E+00        -0.18943E+06
 
    0.14180E+07         0.75705E+06         0.00000E+00
    0.75705E+06        -0.24119E+07         0.00000E+00
    0.00000E+00         0.00000E+00        -0.19880E+06
 
    0.13569E+07         0.84666E+06         0.00000E+00
    0.84666E+06        -0.24010E+07         0.00000E+00
    0.00000E+00         0.00000E+00        -0.20883E+06
 
    0.12857E+07         0.93688E+06         0.00000E+00
    0.93688E+06        -0.23837E+07         0.00000E+00
    0.00000E+00         0.00000E+00        -0.21960E+06
 
    0.12037E+07         0.10269E+07         0.00000E+00
    0.10269E+07        -0.23597E+07         0.00000E+00
    0.00000E+00         0.00000E+00        -0.23120E+06
 
    0.11103E+07         0.11157E+07         0.00000E+00
    0.11157E+07        -0.23287E+07         0.00000E+00
    0.00000E+00         0.00000E+00        -0.24368E+06
 
    0.10050E+07         0.12022E+07         0.00000E+00
    0.12022E+07        -0.22906E+07         0.00000E+00
    0.00000E+00         0.00000E+00        -0.25713E+06
 
    0.88710E+06         0.12855E+07         0.00000E+00
    0.12855E+07        -0.22452E+07         0.00000E+00
    0.00000E+00         0.00000E+00        -0.27161E+06
 
    0.75633E+06         0.13641E+07         0.00000E+00
    0.13641E+07        -0.21923E+07         0.00000E+00
    0.00000E+00         0.00000E+00        -0.28719E+06
 
    0.61229E+06         0.14369E+07         0.00000E+00
    0.14369E+07        -0.21319E+07         0.00000E+00
    0.00000E+00         0.00000E+00        -0.30392E+06
 
    0.45476E+06         0.15022E+07         0.00000E+00
    0.15022E+07        -0.20641E+07         0.00000E+00
    0.00000E+00         0.00000E+00        -0.32186E+06
 
    0.28364E+06         0.15586E+07         0.00000E+00
    0.15586E+07        -0.19889E+07         0.00000E+00
    0.00000E+00         0.00000E+00        -0.34106E+06
 
    0.98973E+05         0.16042E+07         0.00000E+00
    0.16042E+07        -0.19068E+07         0.00000E+00
    0.00000E+00         0.00000E+00        -0.36156E+06
 
   -0.99026E+05         0.16374E+07         0.00000E+00
    0.16374E+07        -0.18180E+07         0.00000E+00
    0.00000E+00         0.00000E+00        -0.38340E+06
 
   -0.30993E+06         0.16562E+07         0.00000E+00
    0.16562E+07        -0.17231E+07         0.00000E+00
    0.00000E+00         0.00000E+00        -0.40660E+06
 
    0.44416E+07         0.19218E+05         0.00000E+00
    0.19218E+05        -0.16500E+07         0.00000E+00
    0.00000E+00         0.00000E+00         0.55832E+06
 
    0.40710E+07         0.82959E+04         0.00000E+00
    0.82959E+04        -0.16510E+07         0.00000E+00
    0.00000E+00         0.00000E+00         0.48398E+06
 
    0.37296E+07        -0.19106E+05         0.00000E+00
   -0.19106E+05        -0.16559E+07         0.00000E+00
    0.00000E+00         0.00000E+00         0.41474E+06
 
    0.34178E+07        -0.59692E+05         0.00000E+00
   -0.59692E+05        -0.16657E+07         0.00000E+00
    0.00000E+00         0.00000E+00         0.35041E+06
 
    0.31355E+07        -0.11036E+06         0.00000E+00
   -0.11036E+06        -0.16814E+07         0.00000E+00
    0.00000E+00         0.00000E+00         0.29082E+06
 
    0.28822E+07        -0.16825E+06         0.00000E+00
   -0.16825E+06        -0.17033E+07         0.00000E+00
    0.00000E+00         0.00000E+00         0.23577E+06
 
    0.26570E+07        -0.23081E+06         0.00000E+00
   -0.23081E+06        -0.17317E+07         0.00000E+00
    0.00000E+00         0.00000E+00         0.18505E+06
 
    0.24588E+07        -0.29572E+06         0.00000E+00
   -0.29572E+06        -0.17665E+07         0.00000E+00
    0.00000E+00         0.00000E+00         0.13846E+06
 
    0.22863E+07        -0.36093E+06         0.00000E+00
   -0.36093E+06        -0.18075E+07         0.00000E+00
    0.00000E+00         0.00000E+00         0.95759E+05
 
    0.21380E+07        -0.42464E+06         0.00000E+00
   -0.42464E+06        -0.18543E+07         0.00000E+00
    0.00000E+00         0.00000E+00         0.56736E+05
 
    0.20123E+07        -0.48532E+06         0.00000E+00
   -0.48532E+06        -0.19064E+07         0.00000E+00
    0.00000E+00         0.00000E+00         0.21163E+05
 
    0.19075E+07        -0.54163E+06         0.00000E+00
   -0.54163E+06        -0.19634E+07         0.00000E+00
    0.00000E+00         0.00000E+00        -0.11188E+05
 
    0.18220E+07        -0.59249E+06         0.00000E+00
   -0.59249E+06        -0.20247E+07         0.00000E+00
    0.00000E+00         0.00000E+00        -0.40544E+05
 
    0.17540E+07        -0.63696E+06         0.00000E+00
   -0.63696E+06        -0.20896E+07         0.00000E+00
    0.00000E+00         0.00000E+00        -0.67129E+05
 
    0.17018E+07        -0.67431E+06         0.00000E+00
   -0.67431E+06        -0.21576E+07         0.00000E+00
    0.00000E+00         0.00000E+00        -0.91163E+05
 
    0.16637E+07        -0.70396E+06         0.00000E+00
   -0.70396E+06        -0.22280E+07         0.00000E+00
    0.00000E+00         0.00000E+00        -0.11286E+06
 
    0.16381E+07        -0.72545E+06         0.00000E+00
   -0.72545E+06        -0.23002E+07         0.00000E+00
    0.00000E+00         0.00000E+00        -0.13244E+06
 
    0.16233E+07        -0.73845E+06         0.00000E+00
   -0.73845E+06        -0.23738E+07         0.00000E+00
    0.00000E+00         0.00000E+00        -0.15009E+06
 
    0.16179E+07        -0.74275E+06         0.00000E+00
   -0.74275E+06        -0.24481E+07         0.00000E+00
    0.00000E+00         0.00000E+00        -0.16602E+06
 
    0.16204E+07        -0.73819E+06         0.00000E+00
   -0.73819E+06        -0.25225E+07         0.00000E+00
    0.00000E+00         0.00000E+00        -0.18042E+06
 
    0.16294E+07        -0.72472E+06         0.00000E+00
   -0.72472E+06        -0.25967E+07         0.00000E+00
    0.00000E+00         0.00000E+00        -0.19347E+06
 
    0.16434E+07        -0.70234E+06         0.00000E+00
   -0.70234E+06        -0.26702E+07         0.00000E+00
    0.00000E+00         0.00000E+00        -0.20535E+06
 
    0.16612E+07        -0.67110E+06         0.00000E+00
   -0.67110E+06        -0.27424E+07         0.00000E+00
    0.00000E+00         0.00000E+00        -0.21623E+06
 
    0.16815E+07        -0.63110E+06         0.00000E+00
   -0.63110E+06        -0.28129E+07         0.00000E+00
    0.00000E+00         0.00000E+00        -0.22627E+06
 
    0.17032E+07        -0.58247E+06         0.00000E+00
   -0.58247E+06        -0.28814E+07         0.00000E+00
    0.00000E+00         0.00000E+00        -0.23563E+06
 
    0.17251E+07        -0.52540E+06         0.00000E+00
   -0.52540E+06        -0.29474E+07         0.00000E+00
    0.00000E+00         0.00000E+00        -0.24446E+06
 
    0.17460E+07        -0.46006E+06         0.00000E+00
   -0.46006E+06        -0.30105E+07         0.00000E+00
    0.00000E+00         0.00000E+00        -0.25291E+06
 
    0.17648E+07        -0.38670E+06         0.00000E+00
   -0.38670E+06        -0.30704E+07         0.00000E+00
    0.00000E+00         0.00000E+00        -0.26112E+06
 
    0.17805E+07        -0.30556E+06         0.00000E+00
   -0.30556E+06        -0.31266E+07         0.00000E+00
    0.00000E+00         0.00000E+00        -0.26922E+06
 
    0.17920E+07        -0.21691E+06         0.00000E+00
   -0.21691E+06        -0.31788E+07         0.00000E+00
    0.00000E+00         0.00000E+00        -0.27735E+06
 
    0.17983E+07        -0.12106E+06         0.00000E+00
   -0.12106E+06        -0.32265E+07         0.00000E+00
    0.00000E+00         0.00000E+00        -0.28564E+06
 
    0.17982E+07        -0.18351E+05         0.00000E+00
   -0.18351E+05        -0.32693E+07         0.00000E+00
    0.00000E+00         0.00000E+00        -0.29422E+06
 
    0.17908E+07         0.90847E+05         0.00000E+00
    0.90847E+05        -0.33069E+07         0.00000E+00
    0.00000E+00         0.00000E+00        -0.30321E+06
 
    0.17751E+07         0.20612E+06         0.00000E+00
    0.20612E+06        -0.33387E+07         0.00000E+00
    0.00000E+00         0.00000E+00        -0.31274E+06
 
    0.17498E+07         0.32699E+06         0.00000E+00
    0.32699E+06        -0.33644E+07         0.00000E+00
    0.00000E+00         0.00000E+00        -0.32292E+06
 
    0.17140E+07         0.45295E+06         0.00000E+00
    0.45295E+06        -0.33834E+07         0.00000E+00
    0.00000E+00         0.00000E+00        -0.33388E+06
 
    0.16665E+07         0.58340E+06         0.00000E+00
    0.58340E+06        -0.33952E+07         0.00000E+00
    0.00000E+00         0.00000E+00        -0.34574E+06
 
    0.16064E+07         0.71767E+06         0.00000E+00
    0.71767E+06        -0.33994E+07         0.00000E+00
    0.00000E+00         0.00000E+00        -0.35860E+06
 
    0.15323E+07         0.85502E+06         0.00000E+00
    0.85502E+06        -0.33953E+07         0.00000E+00
    0.00000E+00         0.00000E+00        -0.37260E+06
 
    0.14434E+07         0.99458E+06         0.00000E+00
    0.99458E+06        -0.33825E+07         0.00000E+00
    0.00000E+00         0.00000E+00        -0.38783E+06
 
    0.13383E+07         0.11354E+07         0.00000E+00
    0.11354E+07        -0.33604E+07         0.00000E+00
    0.00000E+00         0.00000E+00        -0.40442E+06
 
    0.12162E+07         0.12763E+07         0.00000E+00
    0.12763E+07        -0.33285E+07         0.00000E+00
    0.00000E+00         0.00000E+00        -0.42246E+06
 
    0.10757E+07         0.14162E+07         0.00000E+00
    0.14162E+07        -0.32861E+07         0.00000E+00
    0.00000E+00         0.00000E+00        -0.44206E+06
 
    0.91608E+06         0.15536E+07         0.00000E+00
    0.15536E+07        -0.32327E+07         0.00000E+00
    0.00000E+00         0.00000E+00        -0.46333E+06
 
    0.73615E+06         0.16870E+07         0.00000E+00
    0.16870E+07        -0.31679E+07         0.00000E+00
    0.00000E+00         0.00000E+00        -0.48635E+06
 
    0.53506E+06         0.18145E+07         0.00000E+00
    0.18145E+07        -0.30911E+07         0.00000E+00
    0.00000E+00         0.00000E+00        -0.51122E+06
 
    0.31199E+06         0.19343E+07         0.00000E+00
    0.19343E+07        -0.30020E+07         0.00000E+00
    0.00000E+00         0.00000E+00        -0.53801E+06
 
    0.66217E+05         0.20443E+07         0.00000E+00
    0.20443E+07        -0.29002E+07         0.00000E+00
    0.00000E+00         0.00000E+00        -0.56680E+06
 
   -0.20279E+06         0.21419E+07         0.00000E+00
    0.21419E+07        -0.27855E+07         0.00000E+00
    0.00000E+00         0.00000E+00        -0.59765E+06
 
   -0.49540E+06         0.22245E+07         0.00000E+00
    0.22245E+07        -0.26577E+07         0.00000E+00
    0.00000E+00         0.00000E+00        -0.63062E+06
 
    0.41435E+07        -0.14891E+05         0.00000E+00
   -0.14891E+05        -0.17703E+07         0.00000E+00
    0.00000E+00         0.00000E+00         0.47464E+06
 
    0.36764E+07        -0.99787E+05         0.00000E+00
   -0.99787E+05        -0.17823E+07         0.00000E+00
    0.00000E+00         0.00000E+00         0.37883E+06
 
    0.32578E+07        -0.20054E+06         0.00000E+00
   -0.20054E+06        -0.18068E+07         0.00000E+00
    0.00000E+00         0.00000E+00         0.29020E+06
 
    0.28862E+07        -0.31200E+06         0.00000E+00
   -0.31200E+06        -0.18437E+07         0.00000E+00
    0.00000E+00         0.00000E+00         0.20850E+06
 
    0.25598E+07        -0.42977E+06         0.00000E+00
   -0.42977E+06        -0.18926E+07         0.00000E+00
    0.00000E+00         0.00000E+00         0.13344E+06
 
    0.22761E+07        -0.55001E+06         0.00000E+00
   -0.55001E+06        -0.19527E+07         0.00000E+00
    0.00000E+00         0.00000E+00         0.64676E+05
 
    0.20327E+07        -0.66944E+06         0.00000E+00
   -0.66944E+06        -0.20232E+07         0.00000E+00
    0.00000E+00         0.00000E+00         0.19047E+04
 
    0.18267E+07        -0.78530E+06         0.00000E+00
   -0.78530E+06        -0.21027E+07         0.00000E+00
    0.00000E+00         0.00000E+00        -0.55213E+05
 
    0.16552E+07        -0.89529E+06         0.00000E+00
   -0.89529E+06        -0.21903E+07         0.00000E+00
    0.00000E+00         0.00000E+00        -0.10702E+06
 
    0.15153E+07        -0.99757E+06         0.00000E+00
   -0.99757E+06        -0.22846E+07         0.00000E+00
    0.00000E+00         0.00000E+00        -0.15386E+06
 
    0.14042E+07        -0.10907E+07         0.00000E+00
   -0.10907E+07        -0.23845E+07         0.00000E+00
    0.00000E+00         0.00000E+00        -0.19607E+06
 
    0.13189E+07        -0.11735E+07         0.00000E+00
   -0.11735E+07        -0.24889E+07         0.00000E+00
    0.00000E+00         0.00000E+00        -0.23400E+06
 
    0.12567E+07        -0.12452E+07         0.00000E+00
   -0.12452E+07        -0.25966E+07         0.00000E+00
    0.00000E+00         0.00000E+00        -0.26799E+06
 
    0.12150E+07        -0.13052E+07         0.00000E+00
   -0.13052E+07        -0.27067E+07         0.00000E+00
    0.00000E+00         0.00000E+00        -0.29835E+06
 
    0.11912E+07        -0.13530E+07         0.00000E+00
   -0.13530E+07        -0.28183E+07         0.00000E+00
    0.00000E+00         0.00000E+00        -0.32542E+06
 
    0.11831E+07        -0.13886E+07         0.00000E+00
   -0.13886E+07        -0.29305E+07         0.00000E+00
    0.00000E+00         0.00000E+00        -0.34948E+06
 
    0.11884E+07        -0.14119E+07         0.00000E+00
   -0.14119E+07        -0.30426E+07         0.00000E+00
    0.00000E+00         0.00000E+00        -0.37085E+06
 
    0.12050E+07        -0.14228E+07         0.00000E+00
   -0.14228E+07        -0.31540E+07         0.00000E+00
    0.00000E+00         0.00000E+00        -0.38979E+06
 
    0.12311E+07        -0.14216E+07         0.00000E+00
   -0.14216E+07        -0.32641E+07         0.00000E+00
    0.00000E+00         0.00000E+00        -0.40659E+06
 
    0.12649E+07        -0.14084E+07         0.00000E+00
   -0.14084E+07        -0.33724E+07         0.00000E+00
    0.00000E+00         0.00000E+00        -0.42150E+06
 
    0.13047E+07        -0.13835E+07         0.00000E+00
   -0.13835E+07        -0.34785E+07         0.00000E+00
    0.00000E+00         0.00000E+00        -0.43477E+06
 
    0.13489E+07        -0.13471E+07         0.00000E+00
   -0.13471E+07        -0.35821E+07         0.00000E+00
    0.00000E+00         0.00000E+00        -0.44663E+06
 
    0.13963E+07        -0.12997E+07         0.00000E+00
   -0.12997E+07        -0.36827E+07         0.00000E+00
    0.00000E+00         0.00000E+00        -0.45729E+06
 
    0.14453E+07        -0.12413E+07         0.00000E+00
   -0.12413E+07        -0.37802E+07         0.00000E+00
    0.00000E+00         0.00000E+00        -0.46697E+06
 
    0.14949E+07        -0.11724E+07         0.00000E+00
   -0.11724E+07        -0.38743E+07         0.00000E+00
    0.00000E+00         0.00000E+00        -0.47588E+06
 
    0.15437E+07        -0.10932E+07         0.00000E+00
   -0.10932E+07        -0.39647E+07         0.00000E+00
    0.00000E+00         0.00000E+00        -0.48420E+06
 
    0.15906E+07        -0.10040E+07         0.00000E+00
   -0.10040E+07        -0.40512E+07         0.00000E+00
    0.00000E+00         0.00000E+00        -0.49212E+06
 
    0.16346E+07        -0.90499E+06         0.00000E+00
   -0.90499E+06        -0.41336E+07         0.00000E+00
    0.00000E+00         0.00000E+00        -0.49981E+06
 
    0.16744E+07        -0.79644E+06         0.00000E+00
   -0.79644E+06        -0.42117E+07         0.00000E+00
    0.00000E+00         0.00000E+00        -0.50745E+06
 
    0.17091E+07        -0.67856E+06         0.00000E+00
   -0.67856E+06        -0.42851E+07         0.00000E+00
    0.00000E+00         0.00000E+00        -0.51520E+06
 
    0.17374E+07        -0.55158E+06         0.00000E+00
   -0.55158E+06        -0.43536E+07         0.00000E+00
    0.00000E+00         0.00000E+00        -0.52323E+06
 
    0.17583E+07        -0.41571E+06         0.00000E+00
   -0.41571E+06        -0.44168E+07         0.00000E+00
    0.00000E+00         0.00000E+00        -0.53170E+06
 
    0.17705E+07        -0.27116E+06         0.00000E+00
   -0.27116E+06        -0.44744E+07         0.00000E+00
    0.00000E+00         0.00000E+00        -0.54078E+06
 
    0.17729E+07        -0.11819E+06         0.00000E+00
   -0.11819E+06        -0.45260E+07         0.00000E+00
    0.00000E+00         0.00000E+00        -0.55061E+06
 
    0.17643E+07         0.42951E+05         0.00000E+00
    0.42951E+05        -0.45711E+07         0.00000E+00
    0.00000E+00         0.00000E+00        -0.56136E+06
 
    0.17431E+07         0.21195E+06         0.00000E+00
    0.21195E+06        -0.46091E+07         0.00000E+00
    0.00000E+00         0.00000E+00        -0.57319E+06
 
    0.17082E+07         0.38846E+06         0.00000E+00
    0.38846E+06        -0.46394E+07         0.00000E+00
    0.00000E+00         0.00000E+00        -0.58625E+06
 
    0.16579E+07         0.57203E+06         0.00000E+00
    0.57203E+06        -0.46614E+07         0.00000E+00
    0.00000E+00         0.00000E+00        -0.60070E+06
 
    0.15908E+07         0.76214E+06         0.00000E+00
    0.76214E+06        -0.46743E+07         0.00000E+00
    0.00000E+00         0.00000E+00        -0.61670E+06
 
    0.15052E+07         0.95818E+06         0.00000E+00
    0.95818E+06        -0.46773E+07         0.00000E+00
    0.00000E+00         0.00000E+00        -0.63441E+06
 
    0.13995E+07         0.11594E+07         0.00000E+00
    0.11594E+07        -0.46694E+07         0.00000E+00
    0.00000E+00         0.00000E+00        -0.65398E+06
 
    0.12718E+07         0.13648E+07         0.00000E+00
    0.13648E+07        -0.46496E+07         0.00000E+00
    0.00000E+00         0.00000E+00        -0.67556E+06
 
    0.11203E+07         0.15734E+07         0.00000E+00
    0.15734E+07        -0.46169E+07         0.00000E+00
    0.00000E+00         0.00000E+00        -0.69932E+06
 
    0.94322E+06         0.17839E+07         0.00000E+00
    0.17839E+07        -0.45702E+07         0.00000E+00
    0.00000E+00         0.00000E+00        -0.72539E+06
 
    0.73855E+06         0.19947E+07         0.00000E+00
    0.19947E+07        -0.45082E+07         0.00000E+00
    0.00000E+00         0.00000E+00        -0.75392E+06
 
    0.50439E+06         0.22041E+07         0.00000E+00
    0.22041E+07        -0.44296E+07         0.00000E+00
    0.00000E+00         0.00000E+00        -0.78505E+06
 
    0.23882E+06         0.24100E+07         0.00000E+00
    0.24100E+07        -0.43333E+07         0.00000E+00
    0.00000E+00         0.00000E+00        -0.81890E+06
 
   -0.60068E+05         0.26100E+07         0.00000E+00
    0.26100E+07        -0.42179E+07         0.00000E+00
    0.00000E+00         0.00000E+00        -0.85559E+06
 
   -0.39415E+06         0.28015E+07         0.00000E+00
    0.28015E+07        -0.40821E+07         0.00000E+00
    0.00000E+00         0.00000E+00        -0.89525E+06
 
   -0.76513E+06         0.29811E+07         0.00000E+00
    0.29811E+07        -0.39246E+07         0.00000E+00
    0.00000E+00         0.00000E+00        -0.93794E+06
 
    0.29615E+07        -0.76536E+05         0.00000E+00
   -0.76536E+05        -0.23101E+07         0.00000E+00
    0.00000E+00         0.00000E+00         0.13027E+06
 
    0.24100E+07        -0.27273E+06         0.00000E+00
   -0.27273E+06        -0.23401E+07         0.00000E+00
    0.00000E+00         0.00000E+00         0.13971E+05
 
    0.19334E+07        -0.47637E+06         0.00000E+00
   -0.47637E+06        -0.23943E+07         0.00000E+00
    0.00000E+00         0.00000E+00        -0.92171E+05
 
    0.15264E+07        -0.68136E+06         0.00000E+00
   -0.68136E+06        -0.24703E+07         0.00000E+00
    0.00000E+00         0.00000E+00        -0.18879E+06
 
    0.11835E+07        -0.88229E+06         0.00000E+00
   -0.88229E+06        -0.25652E+07         0.00000E+00
    0.00000E+00         0.00000E+00        -0.27634E+06
 
    0.89920E+06        -0.10749E+07         0.00000E+00
   -0.10749E+07        -0.26759E+07         0.00000E+00
    0.00000E+00         0.00000E+00        -0.35533E+06
 
    0.66786E+06        -0.12559E+07         0.00000E+00
   -0.12559E+07        -0.27994E+07         0.00000E+00
    0.00000E+00         0.00000E+00        -0.42631E+06
 
    0.48404E+06        -0.14228E+07         0.00000E+00
   -0.14228E+07        -0.29332E+07         0.00000E+00
    0.00000E+00         0.00000E+00        -0.48983E+06
 
    0.34252E+06        -0.15740E+07         0.00000E+00
   -0.15740E+07        -0.30747E+07         0.00000E+00
    0.00000E+00         0.00000E+00        -0.54644E+06
 
    0.23837E+06        -0.17080E+07         0.00000E+00
   -0.17080E+07        -0.32217E+07         0.00000E+00
    0.00000E+00         0.00000E+00        -0.59666E+06
 
    0.16697E+06        -0.18243E+07         0.00000E+00
   -0.18243E+07        -0.33720E+07         0.00000E+00
    0.00000E+00         0.00000E+00        -0.64101E+06
 
    0.12401E+06        -0.19225E+07         0.00000E+00
   -0.19225E+07        -0.35241E+07         0.00000E+00
    0.00000E+00         0.00000E+00        -0.68002E+06
 
    0.10554E+06        -0.20025E+07         0.00000E+00
   -0.20025E+07        -0.36763E+07         0.00000E+00
    0.00000E+00         0.00000E+00        -0.71415E+06
 
    0.10795E+06        -0.20647E+07         0.00000E+00
   -0.20647E+07        -0.38273E+07         0.00000E+00
    0.00000E+00         0.00000E+00        -0.74388E+06
 
    0.12796E+06        -0.21095E+07         0.00000E+00
   -0.21095E+07        -0.39762E+07         0.00000E+00
    0.00000E+00         0.00000E+00        -0.76965E+06
 
    0.16263E+06        -0.21375E+07         0.00000E+00
   -0.21375E+07        -0.41220E+07         0.00000E+00
    0.00000E+00         0.00000E+00        -0.79188E+06
 
    0.20935E+06        -0.21492E+07         0.00000E+00
   -0.21492E+07        -0.42642E+07         0.00000E+00
    0.00000E+00         0.00000E+00        -0.81097E+06
 
    0.26579E+06        -0.21456E+07         0.00000E+00
   -0.21456E+07        -0.44023E+07         0.00000E+00
    0.00000E+00         0.00000E+00        -0.82730E+06
 
    0.32988E+06        -0.21272E+07         0.00000E+00
   -0.21272E+07        -0.45359E+07         0.00000E+00
    0.00000E+00         0.00000E+00        -0.84121E+06
 
    0.39981E+06        -0.20948E+07         0.00000E+00
   -0.20948E+07        -0.46649E+07         0.00000E+00
    0.00000E+00         0.00000E+00        -0.85302E+06
 
    0.47395E+06        -0.20491E+07         0.00000E+00
   -0.20491E+07        -0.47891E+07         0.00000E+00
    0.00000E+00         0.00000E+00        -0.86303E+06
 
    0.55088E+06        -0.19906E+07         0.00000E+00
   -0.19906E+07        -0.49085E+07         0.00000E+00
    0.00000E+00         0.00000E+00        -0.87153E+06
 
    0.62932E+06        -0.19201E+07         0.00000E+00
   -0.19201E+07        -0.50232E+07         0.00000E+00
    0.00000E+00         0.00000E+00        -0.87878E+06
 
    0.70811E+06        -0.18379E+07         0.00000E+00
   -0.18379E+07        -0.51332E+07         0.00000E+00
    0.00000E+00         0.00000E+00        -0.88502E+06
 
    0.78620E+06        -0.17445E+07         0.00000E+00
   -0.17445E+07        -0.52386E+07         0.00000E+00
    0.00000E+00         0.00000E+00        -0.89047E+06
 
    0.86260E+06        -0.16403E+07         0.00000E+00
   -0.16403E+07        -0.53394E+07         0.00000E+00
    0.00000E+00         0.00000E+00        -0.89537E+06
 
    0.93637E+06        -0.15254E+07         0.00000E+00
   -0.15254E+07        -0.54359E+07         0.00000E+00
    0.00000E+00         0.00000E+00        -0.89991E+06
 
    0.10066E+07        -0.14003E+07         0.00000E+00
   -0.14003E+07        -0.55280E+07         0.00000E+00
    0.00000E+00         0.00000E+00        -0.90429E+06
 
    0.10724E+07        -0.12648E+07         0.00000E+00
   -0.12648E+07        -0.56159E+07         0.00000E+00
    0.00000E+00         0.00000E+00        -0.90869E+06
 
    0.11328E+07        -0.11192E+07         0.00000E+00
   -0.11192E+07        -0.56994E+07         0.00000E+00
    0.00000E+00         0.00000E+00        -0.91332E+06
 
    0.11869E+07        -0.96335E+06         0.00000E+00
   -0.96335E+06        -0.57786E+07         0.00000E+00
    0.00000E+00         0.00000E+00        -0.91835E+06
 
    0.12336E+07        -0.79727E+06         0.00000E+00
   -0.79727E+06        -0.58534E+07         0.00000E+00
    0.00000E+00         0.00000E+00        -0.92395E+06
 
    0.12719E+07        -0.62084E+06         0.00000E+00
   -0.62084E+06        -0.59235E+07         0.00000E+00
    0.00000E+00         0.00000E+00        -0.93033E+06
 
    0.13004E+07        -0.43393E+06         0.00000E+00
   -0.43393E+06        -0.59887E+07         0.00000E+00
    0.00000E+00         0.00000E+00        -0.93765E+06
 
    0.13180E+07        -0.23638E+06         0.00000E+00
   -0.23638E+06        -0.60485E+07         0.00000E+00
    0.00000E+00         0.00000E+00        -0.94610E+06
 
    0.13231E+07        -0.28055E+05         0.00000E+00
   -0.28055E+05        -0.61024E+07         0.00000E+00
    0.00000E+00         0.00000E+00        -0.95588E+06
 
    0.13140E+07         0.19119E+06         0.00000E+00
    0.19119E+06        -0.61499E+07         0.00000E+00
    0.00000E+00         0.00000E+00        -0.96717E+06
 
    0.12892E+07         0.42145E+06         0.00000E+00
    0.42145E+06        -0.61901E+07         0.00000E+00
    0.00000E+00         0.00000E+00        -0.98019E+06
 
    0.12464E+07         0.66275E+06         0.00000E+00
    0.66275E+06        -0.62220E+07         0.00000E+00
    0.00000E+00         0.00000E+00        -0.99512E+06
 
    0.11838E+07         0.91503E+06         0.00000E+00
    0.91503E+06        -0.62446E+07         0.00000E+00
    0.00000E+00         0.00000E+00        -0.10122E+07
 
    0.10988E+07         0.11781E+07         0.00000E+00
    0.11781E+07        -0.62565E+07         0.00000E+00
    0.00000E+00         0.00000E+00        -0.10315E+07
 
    0.98900E+06         0.14516E+07         0.00000E+00
    0.14516E+07        -0.62563E+07         0.00000E+00
    0.00000E+00         0.00000E+00        -0.10535E+07
 
    0.85168E+06         0.17350E+07         0.00000E+00
    0.17350E+07        -0.62423E+07         0.00000E+00
    0.00000E+00         0.00000E+00        -0.10781E+07
 
    0.68392E+06         0.20275E+07         0.00000E+00
    0.20275E+07        -0.62127E+07         0.00000E+00
    0.00000E+00         0.00000E+00        -0.11058E+07
 
    0.48263E+06         0.23282E+07         0.00000E+00
    0.23282E+07        -0.61654E+07         0.00000E+00
    0.00000E+00         0.00000E+00        -0.11365E+07
 
    0.24451E+06         0.26357E+07         0.00000E+00
    0.26357E+07        -0.60981E+07         0.00000E+00
    0.00000E+00         0.00000E+00        -0.11707E+07
 
   -0.33906E+05         0.29483E+07         0.00000E+00
    0.29483E+07        -0.60084E+07         0.00000E+00
    0.00000E+00         0.00000E+00        -0.12085E+07
 
   -0.35617E+06         0.32639E+07         0.00000E+00
    0.32639E+07        -0.58936E+07         0.00000E+00
    0.00000E+00         0.00000E+00        -0.12500E+07
 
   -0.72583E+06         0.35797E+07         0.00000E+00
    0.35797E+07        -0.57508E+07         0.00000E+00
    0.00000E+00         0.00000E+00        -0.12953E+07
 
   -0.11469E+07         0.38930E+07         0.00000E+00
    0.38930E+07        -0.55776E+07         0.00000E+00
    0.00000E+00         0.00000E+00        -0.13449E+07
 
    0.23966E+06        -0.17800E+06         0.00000E+00
   -0.17800E+06        -0.36959E+07         0.00000E+00
    0.00000E+00         0.00000E+00        -0.69125E+06
 
   -0.32873E+06        -0.52750E+06         0.00000E+00
   -0.52750E+06        -0.37480E+07         0.00000E+00
    0.00000E+00         0.00000E+00        -0.81535E+06
 
   -0.79319E+06        -0.86360E+06         0.00000E+00
   -0.86360E+06        -0.38391E+07         0.00000E+00
    0.00000E+00         0.00000E+00        -0.92647E+06
 
   -0.11646E+07        -0.11789E+07         0.00000E+00
   -0.11789E+07        -0.39599E+07         0.00000E+00
    0.00000E+00         0.00000E+00        -0.10249E+07
 
   -0.14546E+07        -0.14696E+07         0.00000E+00
   -0.14696E+07        -0.41038E+07         0.00000E+00
    0.00000E+00         0.00000E+00        -0.11117E+07
 
   -0.16737E+07        -0.17329E+07         0.00000E+00
   -0.17329E+07        -0.42652E+07         0.00000E+00
    0.00000E+00         0.00000E+00        -0.11878E+07
 
   -0.18314E+07        -0.19674E+07         0.00000E+00
   -0.19674E+07        -0.44391E+07         0.00000E+00
    0.00000E+00         0.00000E+00        -0.12541E+07
 
   -0.19364E+07        -0.21720E+07         0.00000E+00
   -0.21720E+07        -0.46208E+07         0.00000E+00
    0.00000E+00         0.00000E+00        -0.13115E+07
 
   -0.19969E+07        -0.23468E+07         0.00000E+00
   -0.23468E+07        -0.48065E+07         0.00000E+00
    0.00000E+00         0.00000E+00        -0.13607E+07
 
   -0.20199E+07        -0.24922E+07         0.00000E+00
   -0.24922E+07        -0.49927E+07         0.00000E+00
    0.00000E+00         0.00000E+00        -0.14025E+07
 
   -0.20121E+07        -0.26095E+07         0.00000E+00
   -0.26095E+07        -0.51768E+07         0.00000E+00
    0.00000E+00         0.00000E+00        -0.14378E+07
 
   -0.19790E+07        -0.27000E+07         0.00000E+00
   -0.27000E+07        -0.53566E+07         0.00000E+00
    0.00000E+00         0.00000E+00        -0.14671E+07
 
   -0.19258E+07        -0.27654E+07         0.00000E+00
   -0.27654E+07        -0.55306E+07         0.00000E+00
    0.00000E+00         0.00000E+00        -0.14913E+07
 
   -0.18565E+07        -0.28075E+07         0.00000E+00
   -0.28075E+07        -0.56976E+07         0.00000E+00
    0.00000E+00         0.00000E+00        -0.15108E+07
 
   -0.17749E+07        -0.28280E+07         0.00000E+00
   -0.28280E+07        -0.58570E+07         0.00000E+00
    0.00000E+00         0.00000E+00        -0.15264E+07
 
   -0.16839E+07        -0.28289E+07         0.00000E+00
   -0.28289E+07        -0.60084E+07         0.00000E+00
    0.00000E+00         0.00000E+00        -0.15385E+07
 
   -0.15859E+07        -0.28118E+07         0.00000E+00
   -0.28118E+07        -0.61517E+07         0.00000E+00
    0.00000E+00         0.00000E+00        -0.15475E+07
 
   -0.14831E+07        -0.27782E+07         0.00000E+00
   -0.27782E+07        -0.62869E+07         0.00000E+00
    0.00000E+00         0.00000E+00        -0.15540E+07
 
   -0.13771E+07        -0.27296E+07         0.00000E+00
   -0.27296E+07        -0.64143E+07         0.00000E+00
    0.00000E+00         0.00000E+00        -0.15583E+07
 
   -0.12693E+07        -0.26672E+07         0.00000E+00
   -0.26672E+07        -0.65344E+07         0.00000E+00
    0.00000E+00         0.00000E+00        -0.15607E+07
 
   -0.11608E+07        -0.25923E+07         0.00000E+00
   -0.25923E+07        -0.66475E+07         0.00000E+00
    0.00000E+00         0.00000E+00        -0.15617E+07
 
   -0.10524E+07        -0.25056E+07         0.00000E+00
   -0.25056E+07        -0.67541E+07         0.00000E+00
    0.00000E+00         0.00000E+00        -0.15613E+07
 
   -0.94496E+06        -0.24079E+07         0.00000E+00
   -0.24079E+07        -0.68549E+07         0.00000E+00
    0.00000E+00         0.00000E+00        -0.15600E+07
 
   -0.83898E+06        -0.23000E+07         0.00000E+00
   -0.23000E+07        -0.69504E+07         0.00000E+00
    0.00000E+00         0.00000E+00        -0.15579E+07
 
   -0.73500E+06        -0.21823E+07         0.00000E+00
   -0.21823E+07        -0.70411E+07         0.00000E+00
    0.00000E+00         0.00000E+00        -0.15552E+07
 
   -0.63346E+06        -0.20551E+07         0.00000E+00
   -0.20551E+07        -0.71276E+07         0.00000E+00
    0.00000E+00         0.00000E+00        -0.15522E+07
 
   -0.53476E+06        -0.19185E+07         0.00000E+00
   -0.19185E+07        -0.72103E+07         0.00000E+00
    0.00000E+00         0.00000E+00        -0.15490E+07
 
   -0.43932E+06        -0.17727E+07         0.00000E+00
   -0.17727E+07        -0.72899E+07         0.00000E+00
    0.00000E+00         0.00000E+00        -0.15458E+07
 
   -0.34755E+06        -0.16175E+07         0.00000E+00
   -0.16175E+07        -0.73665E+07         0.00000E+00
    0.00000E+00         0.00000E+00        -0.15428E+07
 
   -0.25993E+06        -0.14527E+07         0.00000E+00
   -0.14527E+07        -0.74407E+07         0.00000E+00
    0.00000E+00         0.00000E+00        -0.15401E+07
 
   -0.17699E+06        -0.12779E+07         0.00000E+00
   -0.12779E+07        -0.75127E+07         0.00000E+00
    0.00000E+00         0.00000E+00        -0.15379E+07
 
   -0.99369E+05        -0.10928E+07         0.00000E+00
   -0.10928E+07        -0.75827E+07         0.00000E+00
    0.00000E+00         0.00000E+00        -0.15364E+07
 
   -0.27816E+05        -0.89663E+06         0.00000E+00
   -0.89663E+06        -0.76508E+07         0.00000E+00
    0.00000E+00         0.00000E+00        -0.15357E+07
 
    0.36758E+05        -0.68882E+06         0.00000E+00
   -0.68882E+06        -0.77169E+07         0.00000E+00
    0.00000E+00         0.00000E+00        -0.15360E+07
 
    0.93264E+05        -0.46857E+06         0.00000E+00
   -0.46857E+06        -0.77808E+07         0.00000E+00
    0.00000E+00         0.00000E+00        -0.15375E+07
 
    0.14040E+06        -0.23501E+06         0.00000E+00
   -0.23501E+06        -0.78423E+07         0.00000E+00
    0.00000E+00         0.00000E+00        -0.15404E+07
 
    0.17660E+06         0.12777E+05         0.00000E+00
    0.12777E+05        -0.79009E+07         0.00000E+00
    0.00000E+00         0.00000E+00        -0.15449E+07
 
    0.20004E+06         0.27577E+06         0.00000E+00
    0.27577E+06        -0.79558E+07         0.00000E+00
    0.00000E+00         0.00000E+00        -0.15511E+07
 
    0.20857E+06         0.55495E+06         0.00000E+00
    0.55495E+06        -0.80060E+07         0.00000E+00
    0.00000E+00         0.00000E+00        -0.15595E+07
 
    0.19968E+06         0.85129E+06         0.00000E+00
    0.85129E+06        -0.80504E+07         0.00000E+00
    0.00000E+00         0.00000E+00        -0.15701E+07
 
    0.17052E+06         0.11657E+07         0.00000E+00
    0.11657E+07        -0.80872E+07         0.00000E+00
    0.00000E+00         0.00000E+00        -0.15833E+07
 
    0.11781E+06         0.14989E+07         0.00000E+00
    0.14989E+07        -0.81148E+07         0.00000E+00
    0.00000E+00         0.00000E+00        -0.15994E+07
 
    0.37929E+05         0.18516E+07         0.00000E+00
    0.18516E+07        -0.81307E+07         0.00000E+00
    0.00000E+00         0.00000E+00        -0.16186E+07
 
   -0.73155E+05         0.22241E+07         0.00000E+00
    0.22241E+07        -0.81324E+07         0.00000E+00
    0.00000E+00         0.00000E+00        -0.16411E+07
 
   -0.21982E+06         0.26165E+07         0.00000E+00
    0.26165E+07        -0.81168E+07         0.00000E+00
    0.00000E+00         0.00000E+00        -0.16673E+07
 
   -0.40684E+06         0.30286E+07         0.00000E+00
    0.30286E+07        -0.80807E+07         0.00000E+00
    0.00000E+00         0.00000E+00        -0.16975E+07
 
   -0.63942E+06         0.34599E+07         0.00000E+00
    0.34599E+07        -0.80204E+07         0.00000E+00
    0.00000E+00         0.00000E+00        -0.17320E+07
 
   -0.92342E+06         0.39095E+07         0.00000E+00
    0.39095E+07        -0.79319E+07         0.00000E+00
    0.00000E+00         0.00000E+00        -0.17711E+07
 
   -0.12653E+07         0.43762E+07         0.00000E+00
    0.43762E+07        -0.78106E+07         0.00000E+00
    0.00000E+00         0.00000E+00        -0.18152E+07
 
   -0.16705E+07         0.48563E+07         0.00000E+00
    0.48563E+07        -0.76495E+07         0.00000E+00
    0.00000E+00         0.00000E+00        -0.18640E+07
 
   -0.48016E+07        -0.32565E+06         0.00000E+00
   -0.32565E+06        -0.64598E+07         0.00000E+00
    0.00000E+00         0.00000E+00        -0.22523E+07
 
   -0.52263E+07        -0.86478E+06         0.00000E+00
   -0.86478E+06        -0.65379E+07         0.00000E+00
    0.00000E+00         0.00000E+00        -0.23528E+07
 
   -0.55252E+07        -0.13449E+07         0.00000E+00
   -0.13449E+07        -0.66548E+07         0.00000E+00
    0.00000E+00         0.00000E+00        -0.24360E+07
 
   -0.57216E+07        -0.17696E+07         0.00000E+00
   -0.17696E+07        -0.68055E+07         0.00000E+00
    0.00000E+00         0.00000E+00        -0.25054E+07
 
   -0.58315E+07        -0.21383E+07         0.00000E+00
   -0.21383E+07        -0.69802E+07         0.00000E+00
    0.00000E+00         0.00000E+00        -0.25623E+07
 
   -0.58699E+07        -0.24511E+07         0.00000E+00
   -0.24511E+07        -0.71689E+07         0.00000E+00
    0.00000E+00         0.00000E+00        -0.26078E+07
 
   -0.58509E+07        -0.27098E+07         0.00000E+00
   -0.27098E+07        -0.73633E+07         0.00000E+00
    0.00000E+00         0.00000E+00        -0.26428E+07
 
   -0.57874E+07        -0.29174E+07         0.00000E+00
   -0.29174E+07        -0.75567E+07         0.00000E+00
    0.00000E+00         0.00000E+00        -0.26688E+07
 
   -0.56906E+07        -0.30783E+07         0.00000E+00
   -0.30783E+07        -0.77442E+07         0.00000E+00
    0.00000E+00         0.00000E+00        -0.26870E+07
 
   -0.55697E+07        -0.31969E+07         0.00000E+00
   -0.31969E+07        -0.79224E+07         0.00000E+00
    0.00000E+00         0.00000E+00        -0.26984E+07
 
   -0.54321E+07        -0.32779E+07         0.00000E+00
   -0.32779E+07        -0.80891E+07         0.00000E+00
    0.00000E+00         0.00000E+00        -0.27042E+07
 
   -0.52837E+07        -0.33260E+07         0.00000E+00
   -0.33260E+07        -0.82431E+07         0.00000E+00
    0.00000E+00         0.00000E+00        -0.27054E+07
 
   -0.51292E+07        -0.33453E+07         0.00000E+00
   -0.33453E+07        -0.83840E+07         0.00000E+00
    0.00000E+00         0.00000E+00        -0.27026E+07
 
   -0.49718E+07        -0.33397E+07         0.00000E+00
   -0.33397E+07        -0.85117E+07         0.00000E+00
    0.00000E+00         0.00000E+00        -0.26967E+07
 
   -0.48141E+07        -0.33127E+07         0.00000E+00
   -0.33127E+07        -0.86269E+07         0.00000E+00
    0.00000E+00         0.00000E+00        -0.26882E+07
 
   -0.46579E+07        -0.32674E+07         0.00000E+00
   -0.32674E+07        -0.87300E+07         0.00000E+00
    0.00000E+00         0.00000E+00        -0.26776E+07
 
   -0.45044E+07        -0.32062E+07         0.00000E+00
   -0.32062E+07        -0.88222E+07         0.00000E+00
    0.00000E+00         0.00000E+00        -0.26653E+07
 
   -0.43544E+07        -0.31315E+07         0.00000E+00
   -0.31315E+07        -0.89043E+07         0.00000E+00
    0.00000E+00         0.00000E+00        -0.26517E+07
 
   -0.42083E+07        -0.30451E+07         0.00000E+00
   -0.30451E+07        -0.89776E+07         0.00000E+00
    0.00000E+00         0.00000E+00        -0.26372E+07
 
   -0.40662E+07        -0.29485E+07         0.00000E+00
   -0.29485E+07        -0.90429E+07         0.00000E+00
    0.00000E+00         0.00000E+00        -0.26218E+07
 
   -0.39282E+07        -0.28430E+07         0.00000E+00
   -0.28430E+07        -0.91015E+07         0.00000E+00
    0.00000E+00         0.00000E+00        -0.26059E+07
 
   -0.37941E+07        -0.27296E+07         0.00000E+00
   -0.27296E+07        -0.91544E+07         0.00000E+00
    0.00000E+00         0.00000E+00        -0.25897E+07
 
   -0.36637E+07        -0.26090E+07         0.00000E+00
   -0.26090E+07        -0.92026E+07         0.00000E+00
    0.00000E+00         0.00000E+00        -0.25733E+07
 
   -0.35366E+07        -0.24817E+07         0.00000E+00
   -0.24817E+07        -0.92471E+07         0.00000E+00
    0.00000E+00         0.00000E+00        -0.25567E+07
 
   -0.34124E+07        -0.23481E+07         0.00000E+00
   -0.23481E+07        -0.92888E+07         0.00000E+00
    0.00000E+00         0.00000E+00        -0.25402E+07
 
   -0.32908E+07        -0.22082E+07         0.00000E+00
   -0.22082E+07        -0.93286E+07         0.00000E+00
    0.00000E+00         0.00000E+00        -0.25239E+07
 
   -0.31714E+07        -0.20621E+07         0.00000E+00
   -0.20621E+07        -0.93673E+07         0.00000E+00
    0.00000E+00         0.00000E+00        -0.25077E+07
 
   -0.30539E+07        -0.19095E+07         0.00000E+00
   -0.19095E+07        -0.94056E+07         0.00000E+00
    0.00000E+00         0.00000E+00        -0.24919E+07
 
   -0.29378E+07        -0.17501E+07         0.00000E+00
   -0.17501E+07        -0.94444E+07         0.00000E+00
    0.00000E+00         0.00000E+00        -0.24764E+07
 
   -0.28231E+07        -0.15833E+07         0.00000E+00
   -0.15833E+07        -0.94841E+07         0.00000E+00
    0.00000E+00         0.00000E+00        -0.24614E+07
 
   -0.27094E+07        -0.14083E+07         0.00000E+00
   -0.14083E+07        -0.95253E+07         0.00000E+00
    0.00000E+00         0.00000E+00        -0.24469E+07
 
   -0.25967E+07        -0.12244E+07         0.00000E+00
   -0.12244E+07        -0.95687E+07         0.00000E+00
    0.00000E+00         0.00000E+00        -0.24331E+07
 
   -0.24849E+07        -0.10304E+07         0.00000E+00
   -0.10304E+07        -0.96145E+07         0.00000E+00
    0.00000E+00         0.00000E+00        -0.24199E+07
 
   -0.23744E+07        -0.82503E+06         0.00000E+00
   -0.82503E+06        -0.96632E+07         0.00000E+00
    0.00000E+00         0.00000E+00        -0.24075E+07
 
   -0.22655E+07        -0.60696E+06         0.00000E+00
   -0.60696E+06        -0.97148E+07         0.00000E+00
    0.00000E+00         0.00000E+00        -0.23961E+07
 
   -0.21587E+07        -0.37449E+06         0.00000E+00
   -0.37449E+06        -0.97696E+07         0.00000E+00
    0.00000E+00         0.00000E+00        -0.23857E+07
 
   -0.20550E+07        -0.12575E+06         0.00000E+00
   -0.12575E+06        -0.98274E+07         0.00000E+00
    0.00000E+00         0.00000E+00        -0.23765E+07
 
   -0.19556E+07         0.14134E+06         0.00000E+00
    0.14134E+06        -0.98880E+07         0.00000E+00
    0.00000E+00         0.00000E+00        -0.23687E+07
 
   -0.18621E+07         0.42907E+06         0.00000E+00
    0.42907E+06        -0.99507E+07         0.00000E+00
    0.00000E+00         0.00000E+00        -0.23626E+07
 
   -0.17768E+07         0.73995E+06         0.00000E+00
    0.73995E+06        -0.10015E+08         0.00000E+00
    0.00000E+00         0.00000E+00        -0.23583E+07
 
   -0.17025E+07         0.10766E+07         0.00000E+00
    0.10766E+07        -0.10079E+08         0.00000E+00
    0.00000E+00         0.00000E+00        -0.23563E+07
 
   -0.16426E+07         0.14419E+07         0.00000E+00
    0.14419E+07        -0.10141E+08         0.00000E+00
    0.00000E+00         0.00000E+00        -0.23567E+07
 
   -0.16015E+07         0.18386E+07         0.00000E+00
    0.18386E+07        -0.10199E+08         0.00000E+00
    0.00000E+00         0.00000E+00        -0.23602E+07
 
   -0.15844E+07         0.22694E+07         0.00000E+00
    0.22694E+07        -0.10250E+08         0.00000E+00
    0.00000E+00         0.00000E+00        -0.23670E+07
 
   -0.15973E+07         0.27367E+07         0.00000E+00
    0.27367E+07        -0.10290E+08         0.00000E+00
    0.00000E+00         0.00000E+00        -0.23775E+07
 
   -0.16469E+07         0.32422E+07         0.00000E+00
    0.32422E+07        -0.10314E+08         0.00000E+00
    0.00000E+00         0.00000E+00        -0.23923E+07
 
   -0.17403E+07         0.37872E+07         0.00000E+00
    0.37872E+07        -0.10317E+08         0.00000E+00
    0.00000E+00         0.00000E+00        -0.24114E+07
 
   -0.18847E+07         0.43720E+07         0.00000E+00
    0.43720E+07        -0.10292E+08         0.00000E+00
    0.00000E+00         0.00000E+00        -0.24353E+07
 
   -0.20879E+07         0.49978E+07         0.00000E+00
    0.49978E+07        -0.10234E+08         0.00000E+00
    0.00000E+00         0.00000E+00        -0.24643E+07
 
   -0.23634E+07         0.56690E+07         0.00000E+00
    0.56690E+07        -0.10141E+08         0.00000E+00
    0.00000E+00         0.00000E+00        -0.25009E+07
 
   -0.12792E+08        -0.50987E+06         0.00000E+00
   -0.50987E+06        -0.11072E+08         0.00000E+00
    0.00000E+00         0.00000E+00        -0.47729E+07
 
   -0.12792E+08        -0.12318E+07         0.00000E+00
   -0.12318E+07        -0.11137E+08         0.00000E+00
    0.00000E+00         0.00000E+00        -0.47858E+07
 
   -0.12681E+08        -0.18514E+07         0.00000E+00
   -0.18514E+07        -0.11267E+08         0.00000E+00
    0.00000E+00         0.00000E+00        -0.47895E+07
 
   -0.12473E+08        -0.23558E+07         0.00000E+00
   -0.23558E+07        -0.11422E+08         0.00000E+00
    0.00000E+00         0.00000E+00        -0.47791E+07
 
   -0.12197E+08        -0.27500E+07         0.00000E+00
   -0.27500E+07        -0.11581E+08         0.00000E+00
    0.00000E+00         0.00000E+00        -0.47557E+07
 
   -0.11881E+08        -0.30458E+07         0.00000E+00
   -0.30458E+07        -0.11731E+08         0.00000E+00
    0.00000E+00         0.00000E+00        -0.47224E+07
 
   -0.11546E+08        -0.32578E+07         0.00000E+00
   -0.32578E+07        -0.11863E+08         0.00000E+00
    0.00000E+00         0.00000E+00        -0.46819E+07
 
   -0.11207E+08        -0.33999E+07         0.00000E+00
   -0.33999E+07        -0.11976E+08         0.00000E+00
    0.00000E+00         0.00000E+00        -0.46366E+07
 
   -0.10875E+08        -0.34848E+07         0.00000E+00
   -0.34848E+07        -0.12067E+08         0.00000E+00
    0.00000E+00         0.00000E+00        -0.45883E+07
 
   -0.10554E+08        -0.35235E+07         0.00000E+00
   -0.35235E+07        -0.12137E+08         0.00000E+00
    0.00000E+00         0.00000E+00        -0.45384E+07
 
   -0.10250E+08        -0.35251E+07         0.00000E+00
   -0.35251E+07        -0.12188E+08         0.00000E+00
    0.00000E+00         0.00000E+00        -0.44877E+07
 
   -0.99644E+07        -0.34972E+07         0.00000E+00
   -0.34972E+07        -0.12221E+08         0.00000E+00
    0.00000E+00         0.00000E+00        -0.44372E+07
 
   -0.96968E+07        -0.34460E+07         0.00000E+00
   -0.34460E+07        -0.12239E+08         0.00000E+00
    0.00000E+00         0.00000E+00        -0.43871E+07
 
   -0.94473E+07        -0.33766E+07         0.00000E+00
   -0.33766E+07        -0.12243E+08         0.00000E+00
    0.00000E+00         0.00000E+00        -0.43380E+07
 
   -0.92151E+07        -0.32929E+07         0.00000E+00
   -0.32929E+07        -0.12235E+08         0.00000E+00
    0.00000E+00         0.00000E+00        -0.42901E+07
 
   -0.89989E+07        -0.31982E+07         0.00000E+00
   -0.31982E+07        -0.12218E+08         0.00000E+00
    0.00000E+00         0.00000E+00        -0.42434E+07
 
   -0.87974E+07        -0.30950E+07         0.00000E+00
   -0.30950E+07        -0.12193E+08         0.00000E+00
    0.00000E+00         0.00000E+00        -0.41981E+07
 
   -0.86090E+07        -0.29854E+07         0.00000E+00
   -0.29854E+07        -0.12162E+08         0.00000E+00
    0.00000E+00         0.00000E+00        -0.41542E+07
 
   -0.84322E+07        -0.28707E+07         0.00000E+00
   -0.28707E+07        -0.12126E+08         0.00000E+00
    0.00000E+00         0.00000E+00        -0.41116E+07
 
   -0.82654E+07        -0.27522E+07         0.00000E+00
   -0.27522E+07        -0.12087E+08         0.00000E+00
    0.00000E+00         0.00000E+00        -0.40704E+07
 
   -0.81073E+07        -0.26307E+07         0.00000E+00
   -0.26307E+07        -0.12046E+08         0.00000E+00
    0.00000E+00         0.00000E+00        -0.40306E+07
 
   -0.79562E+07        -0.25068E+07         0.00000E+00
   -0.25068E+07        -0.12004E+08         0.00000E+00
    0.00000E+00         0.00000E+00        -0.39919E+07
 
   -0.78107E+07        -0.23808E+07         0.00000E+00
   -0.23808E+07        -0.11962E+08         0.00000E+00
    0.00000E+00         0.00000E+00        -0.39545E+07
 
   -0.76697E+07        -0.22529E+07         0.00000E+00
   -0.22529E+07        -0.11921E+08         0.00000E+00
    0.00000E+00         0.00000E+00        -0.39181E+07
 
   -0.75316E+07        -0.21231E+07         0.00000E+00
   -0.21231E+07        -0.11882E+08         0.00000E+00
    0.00000E+00         0.00000E+00        -0.38828E+07
 
   -0.73953E+07        -0.19911E+07         0.00000E+00
   -0.19911E+07        -0.11846E+08         0.00000E+00
    0.00000E+00         0.00000E+00        -0.38483E+07
 
   -0.72597E+07        -0.18567E+07         0.00000E+00
   -0.18567E+07        -0.11814E+08         0.00000E+00
    0.00000E+00         0.00000E+00        -0.38147E+07
 
   -0.71234E+07        -0.17195E+07         0.00000E+00
   -0.17195E+07        -0.11786E+08         0.00000E+00
    0.00000E+00         0.00000E+00        -0.37818E+07
 
   -0.69854E+07        -0.15788E+07         0.00000E+00
   -0.15788E+07        -0.11763E+08         0.00000E+00
    0.00000E+00         0.00000E+00        -0.37496E+07
 
   -0.68445E+07        -0.14339E+07         0.00000E+00
   -0.14339E+07        -0.11745E+08         0.00000E+00
    0.00000E+00         0.00000E+00        -0.37179E+07
 
   -0.66999E+07        -0.12838E+07         0.00000E+00
   -0.12838E+07        -0.11734E+08         0.00000E+00
    0.00000E+00         0.00000E+00        -0.36868E+07
 
   -0.65503E+07        -0.11276E+07         0.00000E+00
   -0.11276E+07        -0.11730E+08         0.00000E+00
    0.00000E+00         0.00000E+00        -0.36560E+07
 
   -0.63948E+07        -0.96378E+06         0.00000E+00
   -0.96378E+06        -0.11733E+08         0.00000E+00
    0.00000E+00         0.00000E+00        -0.36256E+07
 
   -0.62325E+07        -0.79099E+06         0.00000E+00
   -0.79099E+06        -0.11745E+08         0.00000E+00
    0.00000E+00         0.00000E+00        -0.35954E+07
 
   -0.60624E+07        -0.60742E+06         0.00000E+00
   -0.60742E+06        -0.11765E+08         0.00000E+00
    0.00000E+00         0.00000E+00        -0.35655E+07
 
   -0.58840E+07        -0.41100E+06         0.00000E+00
   -0.41100E+06        -0.11795E+08         0.00000E+00
    0.00000E+00         0.00000E+00        -0.35358E+07
 
   -0.56964E+07        -0.19929E+06         0.00000E+00
   -0.19929E+06        -0.11835E+08         0.00000E+00
    0.00000E+00         0.00000E+00        -0.35062E+07
 
   -0.54993E+07         0.30540E+05         0.00000E+00
    0.30540E+05        -0.11885E+08         0.00000E+00
    0.00000E+00         0.00000E+00        -0.34768E+07
 
   -0.52925E+07         0.28183E+06         0.00000E+00
    0.28183E+06        -0.11946E+08         0.00000E+00
    0.00000E+00         0.00000E+00        -0.34477E+07
 
   -0.50763E+07         0.55846E+06         0.00000E+00
    0.55846E+06        -0.12018E+08         0.00000E+00
    0.00000E+00         0.00000E+00        -0.34189E+07
 
   -0.48515E+07         0.86499E+06         0.00000E+00
    0.86499E+06        -0.12102E+08         0.00000E+00
    0.00000E+00         0.00000E+00        -0.33907E+07
 
   -0.46196E+07         0.12067E+07         0.00000E+00
    0.12067E+07        -0.12197E+08         0.00000E+00
    0.00000E+00         0.00000E+00        -0.33633E+07
 
   -0.43835E+07         0.15896E+07         0.00000E+00
    0.15896E+07        -0.12302E+08         0.00000E+00
    0.00000E+00         0.00000E+00        -0.33371E+07
 
   -0.41475E+07         0.20207E+07         0.00000E+00
    0.20207E+07        -0.12416E+08         0.00000E+00
    0.00000E+00         0.00000E+00        -0.33127E+07
 
   -0.39180E+07         0.25074E+07         0.00000E+00
    0.25074E+07        -0.12536E+08         0.00000E+00
    0.00000E+00         0.00000E+00        -0.32908E+07
 
   -0.37040E+07         0.30579E+07         0.00000E+00
    0.30579E+07        -0.12659E+08         0.00000E+00
    0.00000E+00         0.00000E+00        -0.32725E+07
 
   -0.35176E+07         0.36796E+07         0.00000E+00
    0.36796E+07        -0.12777E+08         0.00000E+00
    0.00000E+00         0.00000E+00        -0.32590E+07
 
   -0.33734E+07         0.43780E+07         0.00000E+00
    0.43780E+07        -0.12882E+08         0.00000E+00
    0.00000E+00         0.00000E+00        -0.32511E+07
 
   -0.32846E+07         0.51535E+07         0.00000E+00
    0.51535E+07        -0.12958E+08         0.00000E+00
    0.00000E+00         0.00000E+00        -0.32485E+07
 
   -0.32498E+07         0.59945E+07         0.00000E+00
    0.59945E+07        -0.12982E+08         0.00000E+00
    0.00000E+00         0.00000E+00        -0.32463E+07
 
   -0.23845E+08        -0.71305E+06         0.00000E+00
   -0.71305E+06        -0.17629E+08         0.00000E+00
    0.00000E+00         0.00000E+00        -0.82948E+07
 
   -0.22971E+08        -0.16278E+07         0.00000E+00
   -0.16278E+07        -0.17793E+08         0.00000E+00
    0.00000E+00         0.00000E+00        -0.81530E+07
 
   -0.21995E+08        -0.22438E+07         0.00000E+00
   -0.22438E+07        -0.17882E+08         0.00000E+00
    0.00000E+00         0.00000E+00        -0.79753E+07
 
   -0.21034E+08        -0.26441E+07         0.00000E+00
   -0.26441E+07        -0.17904E+08         0.00000E+00
    0.00000E+00         0.00000E+00        -0.77876E+07
 
   -0.20139E+08        -0.28904E+07         0.00000E+00
   -0.28904E+07        -0.17871E+08         0.00000E+00
    0.00000E+00         0.00000E+00        -0.76019E+07
 
   -0.19327E+08        -0.30270E+07         0.00000E+00
   -0.30270E+07        -0.17792E+08         0.00000E+00
    0.00000E+00         0.00000E+00        -0.74237E+07
 
   -0.18600E+08        -0.30859E+07         0.00000E+00
   -0.30859E+07        -0.17677E+08         0.00000E+00
    0.00000E+00         0.00000E+00        -0.72554E+07
 
   -0.17954E+08        -0.30898E+07         0.00000E+00
   -0.30898E+07        -0.17535E+08         0.00000E+00
    0.00000E+00         0.00000E+00        -0.70978E+07
 
   -0.17382E+08        -0.30551E+07         0.00000E+00
   -0.30551E+07        -0.17372E+08         0.00000E+00
    0.00000E+00         0.00000E+00        -0.69510E+07
 
   -0.16876E+08        -0.29934E+07         0.00000E+00
   -0.29934E+07        -0.17196E+08         0.00000E+00
    0.00000E+00         0.00000E+00        -0.68144E+07
 
   -0.16428E+08        -0.29132E+07         0.00000E+00
   -0.29132E+07        -0.17009E+08         0.00000E+00
    0.00000E+00         0.00000E+00        -0.66874E+07
 
   -0.16031E+08        -0.28207E+07         0.00000E+00
   -0.28207E+07        -0.16816E+08         0.00000E+00
    0.00000E+00         0.00000E+00        -0.65693E+07
 
   -0.15677E+08        -0.27202E+07         0.00000E+00
   -0.27202E+07        -0.16621E+08         0.00000E+00
    0.00000E+00         0.00000E+00        -0.64595E+07
 
   -0.15361E+08        -0.26149E+07         0.00000E+00
   -0.26149E+07        -0.16425E+08         0.00000E+00
    0.00000E+00         0.00000E+00        -0.63571E+07
 
   -0.15077E+08        -0.25070E+07         0.00000E+00
   -0.25070E+07        -0.16230E+08         0.00000E+00
    0.00000E+00         0.00000E+00        -0.62615E+07
 
   -0.14822E+08        -0.23983E+07         0.00000E+00
   -0.23983E+07        -0.16038E+08         0.00000E+00
    0.00000E+00         0.00000E+00        -0.61720E+07
 
   -0.14590E+08        -0.22897E+07         0.00000E+00
   -0.22897E+07        -0.15851E+08         0.00000E+00
    0.00000E+00         0.00000E+00        -0.60881E+07
 
   -0.14377E+08        -0.21821E+07         0.00000E+00
   -0.21821E+07        -0.15669E+08         0.00000E+00
    0.00000E+00         0.00000E+00        -0.60092E+07
 
   -0.14181E+08        -0.20759E+07         0.00000E+00
   -0.20759E+07        -0.15493E+08         0.00000E+00
    0.00000E+00         0.00000E+00        -0.59349E+07
 
   -0.13999E+08        -0.19713E+07         0.00000E+00
   -0.19713E+07        -0.15324E+08         0.00000E+00
    0.00000E+00         0.00000E+00        -0.58645E+07
 
   -0.13828E+08        -0.18685E+07         0.00000E+00
   -0.18685E+07        -0.15161E+08         0.00000E+00
    0.00000E+00         0.00000E+00        -0.57978E+07
 
   -0.13665E+08        -0.17675E+07         0.00000E+00
   -0.17675E+07        -0.15007E+08         0.00000E+00
    0.00000E+00         0.00000E+00        -0.57343E+07
 
   -0.13508E+08        -0.16681E+07         0.00000E+00
   -0.16681E+07        -0.14860E+08         0.00000E+00
    0.00000E+00         0.00000E+00        -0.56736E+07
 
   -0.13355E+08        -0.15700E+07         0.00000E+00
   -0.15700E+07        -0.14722E+08         0.00000E+00
    0.00000E+00         0.00000E+00        -0.56154E+07
 
   -0.13205E+08        -0.14731E+07         0.00000E+00
   -0.14731E+07        -0.14592E+08         0.00000E+00
    0.00000E+00         0.00000E+00        -0.55593E+07
 
   -0.13054E+08        -0.13769E+07         0.00000E+00
   -0.13769E+07        -0.14471E+08         0.00000E+00
    0.00000E+00         0.00000E+00        -0.55051E+07
 
   -0.12903E+08        -0.12810E+07         0.00000E+00
   -0.12810E+07        -0.14359E+08         0.00000E+00
    0.00000E+00         0.00000E+00        -0.54524E+07
 
   -0.12748E+08        -0.11849E+07         0.00000E+00
   -0.11849E+07        -0.14257E+08         0.00000E+00
    0.00000E+00         0.00000E+00        -0.54010E+07
 
   -0.12588E+08        -0.10880E+07         0.00000E+00
   -0.10880E+07        -0.14164E+08         0.00000E+00
    0.00000E+00         0.00000E+00        -0.53505E+07
 
   -0.12422E+08        -0.98973E+06         0.00000E+00
   -0.98973E+06        -0.14082E+08         0.00000E+00
    0.00000E+00         0.00000E+00        -0.53008E+07
 
   -0.12247E+08        -0.88924E+06         0.00000E+00
   -0.88924E+06        -0.14011E+08         0.00000E+00
    0.00000E+00         0.00000E+00        -0.52514E+07
 
   -0.12061E+08        -0.78566E+06         0.00000E+00
   -0.78566E+06        -0.13950E+08         0.00000E+00
    0.00000E+00         0.00000E+00        -0.52023E+07
 
   -0.11863E+08        -0.67795E+06         0.00000E+00
   -0.67795E+06        -0.13901E+08         0.00000E+00
    0.00000E+00         0.00000E+00        -0.51529E+07
 
   -0.11651E+08        -0.56492E+06         0.00000E+00
   -0.56492E+06        -0.13865E+08         0.00000E+00
    0.00000E+00         0.00000E+00        -0.51032E+07
 
   -0.11422E+08        -0.44513E+06         0.00000E+00
   -0.44513E+06        -0.13842E+08         0.00000E+00
    0.00000E+00         0.00000E+00        -0.50528E+07
 
   -0.11174E+08        -0.31688E+06         0.00000E+00
   -0.31688E+06        -0.13833E+08         0.00000E+00
    0.00000E+00         0.00000E+00        -0.50013E+07
 
   -0.10904E+08        -0.17813E+06         0.00000E+00
   -0.17813E+06        -0.13839E+08         0.00000E+00
    0.00000E+00         0.00000E+00        -0.49485E+07
 
   -0.10609E+08        -0.26405E+05         0.00000E+00
   -0.26405E+05        -0.13861E+08         0.00000E+00
    0.00000E+00         0.00000E+00        -0.48941E+07
 
   -0.10287E+08         0.14132E+06         0.00000E+00
    0.14132E+06        -0.13902E+08         0.00000E+00
    0.00000E+00         0.00000E+00        -0.48377E+07
 
   -0.99333E+07         0.32876E+06         0.00000E+00
    0.32876E+06        -0.13961E+08         0.00000E+00
    0.00000E+00         0.00000E+00        -0.47789E+07
 
   -0.95448E+07         0.54055E+06         0.00000E+00
    0.54055E+06        -0.14043E+08         0.00000E+00
    0.00000E+00         0.00000E+00        -0.47175E+07
 
   -0.91176E+07         0.78251E+06         0.00000E+00
    0.78251E+06        -0.14148E+08         0.00000E+00
    0.00000E+00         0.00000E+00        -0.46531E+07
 
   -0.86478E+07         0.10620E+07         0.00000E+00
    0.10620E+07        -0.14279E+08         0.00000E+00
    0.00000E+00         0.00000E+00        -0.45854E+07
 
   -0.81321E+07         0.13885E+07         0.00000E+00
    0.13885E+07        -0.14439E+08         0.00000E+00
    0.00000E+00         0.00000E+00        -0.45142E+07
 
   -0.75677E+07         0.17741E+07         0.00000E+00
    0.17741E+07        -0.14631E+08         0.00000E+00
    0.00000E+00         0.00000E+00        -0.44398E+07
 
   -0.69545E+07         0.22349E+07         0.00000E+00
    0.22349E+07        -0.14858E+08         0.00000E+00
    0.00000E+00         0.00000E+00        -0.43625E+07
 
   -0.62972E+07         0.27918E+07         0.00000E+00
    0.27918E+07        -0.15122E+08         0.00000E+00
    0.00000E+00         0.00000E+00        -0.42838E+07
 
   -0.56108E+07         0.34725E+07         0.00000E+00
    0.34725E+07        -0.15425E+08         0.00000E+00
    0.00000E+00         0.00000E+00        -0.42071E+07
 
   -0.49317E+07         0.43131E+07         0.00000E+00
    0.43131E+07        -0.15766E+08         0.00000E+00
    0.00000E+00         0.00000E+00        -0.41395E+07
 
   -0.43421E+07         0.53599E+07         0.00000E+00
    0.53599E+07        -0.16141E+08         0.00000E+00
    0.00000E+00         0.00000E+00        -0.40965E+07
 
   -0.36660E+08        -0.10495E+07         0.00000E+00
   -0.10495E+07        -0.25890E+08         0.00000E+00
    0.00000E+00         0.00000E+00        -0.12510E+08
 
   -0.33912E+08        -0.13407E+07         0.00000E+00
   -0.13407E+07        -0.25530E+08         0.00000E+00
    0.00000E+00         0.00000E+00        -0.11889E+08
 
   -0.31762E+08        -0.14670E+07         0.00000E+00
   -0.14670E+07        -0.25092E+08         0.00000E+00
    0.00000E+00         0.00000E+00        -0.11371E+08
 
   -0.30040E+08        -0.15056E+07         0.00000E+00
   -0.15056E+07        -0.24611E+08         0.00000E+00
    0.00000E+00         0.00000E+00        -0.10930E+08
 
   -0.28637E+08        -0.14961E+07         0.00000E+00
   -0.14961E+07        -0.24110E+08         0.00000E+00
    0.00000E+00         0.00000E+00        -0.10549E+08
 
   -0.27477E+08        -0.14603E+07         0.00000E+00
   -0.14603E+07        -0.23606E+08         0.00000E+00
    0.00000E+00         0.00000E+00        -0.10217E+08
 
   -0.26507E+08        -0.14100E+07         0.00000E+00
   -0.14100E+07        -0.23107E+08         0.00000E+00
    0.00000E+00         0.00000E+00        -0.99227E+07
 
   -0.25687E+08        -0.13523E+07         0.00000E+00
   -0.13523E+07        -0.22620E+08         0.00000E+00
    0.00000E+00         0.00000E+00        -0.96614E+07
 
   -0.24989E+08        -0.12913E+07         0.00000E+00
   -0.12913E+07        -0.22149E+08         0.00000E+00
    0.00000E+00         0.00000E+00        -0.94276E+07
 
   -0.24389E+08        -0.12294E+07         0.00000E+00
   -0.12294E+07        -0.21696E+08         0.00000E+00
    0.00000E+00         0.00000E+00        -0.92170E+07
 
   -0.23870E+08        -0.11680E+07         0.00000E+00
   -0.11680E+07        -0.21262E+08         0.00000E+00
    0.00000E+00         0.00000E+00        -0.90264E+07
 
   -0.23417E+08        -0.11081E+07         0.00000E+00
   -0.11081E+07        -0.20848E+08         0.00000E+00
    0.00000E+00         0.00000E+00        -0.88531E+07
 
   -0.23020E+08        -0.10501E+07         0.00000E+00
   -0.10501E+07        -0.20455E+08         0.00000E+00
    0.00000E+00         0.00000E+00        -0.86948E+07
 
   -0.22668E+08        -0.99433E+06         0.00000E+00
   -0.99433E+06        -0.20080E+08         0.00000E+00
    0.00000E+00         0.00000E+00        -0.85496E+07
 
   -0.22354E+08        -0.94087E+06         0.00000E+00
   -0.94087E+06        -0.19725E+08         0.00000E+00
    0.00000E+00         0.00000E+00        -0.84159E+07
 
   -0.22073E+08        -0.88972E+06         0.00000E+00
   -0.88972E+06        -0.19388E+08         0.00000E+00
    0.00000E+00         0.00000E+00        -0.82922E+07
 
   -0.21817E+08        -0.84084E+06         0.00000E+00
   -0.84084E+06        -0.19070E+08         0.00000E+00
    0.00000E+00         0.00000E+00        -0.81773E+07
 
   -0.21583E+08        -0.79411E+06         0.00000E+00
   -0.79411E+06        -0.18768E+08         0.00000E+00
    0.00000E+00         0.00000E+00        -0.80703E+07
 
   -0.21367E+08        -0.74940E+06         0.00000E+00
   -0.74940E+06        -0.18484E+08         0.00000E+00
    0.00000E+00         0.00000E+00        -0.79701E+07
 
   -0.21165E+08        -0.70658E+06         0.00000E+00
   -0.70658E+06        -0.18215E+08         0.00000E+00
    0.00000E+00         0.00000E+00        -0.78760E+07
 
   -0.20974E+08        -0.66547E+06         0.00000E+00
   -0.66547E+06        -0.17963E+08         0.00000E+00
    0.00000E+00         0.00000E+00        -0.77872E+07
 
   -0.20791E+08        -0.62590E+06         0.00000E+00
   -0.62590E+06        -0.17725E+08         0.00000E+00
    0.00000E+00         0.00000E+00        -0.77031E+07
 
   -0.20614E+08        -0.58770E+06         0.00000E+00
   -0.58770E+06        -0.17501E+08         0.00000E+00
    0.00000E+00         0.00000E+00        -0.76231E+07
 
   -0.20441E+08        -0.55067E+06         0.00000E+00
   -0.55067E+06        -0.17292E+08         0.00000E+00
    0.00000E+00         0.00000E+00        -0.75466E+07
 
   -0.20269E+08        -0.51464E+06         0.00000E+00
   -0.51464E+06        -0.17096E+08         0.00000E+00
    0.00000E+00         0.00000E+00        -0.74731E+07
 
   -0.20097E+08        -0.47939E+06         0.00000E+00
   -0.47939E+06        -0.16914E+08         0.00000E+00
    0.00000E+00         0.00000E+00        -0.74022E+07
 
   -0.19922E+08        -0.44472E+06         0.00000E+00
   -0.44472E+06        -0.16745E+08         0.00000E+00
    0.00000E+00         0.00000E+00        -0.73335E+07
 
   -0.19742E+08        -0.41040E+06         0.00000E+00
   -0.41040E+06        -0.16590E+08         0.00000E+00
    0.00000E+00         0.00000E+00        -0.72664E+07
 
   -0.19556E+08        -0.37619E+06         0.00000E+00
   -0.37619E+06        -0.16447E+08         0.00000E+00
    0.00000E+00         0.00000E+00        -0.72006E+07
 
   -0.19361E+08        -0.34182E+06         0.00000E+00
   -0.34182E+06        -0.16318E+08         0.00000E+00
    0.00000E+00         0.00000E+00        -0.71357E+07
 
   -0.19155E+08        -0.30699E+06         0.00000E+00
   -0.30699E+06        -0.16201E+08         0.00000E+00
    0.00000E+00         0.00000E+00        -0.70713E+07
 
   -0.18936E+08        -0.27138E+06         0.00000E+00
   -0.27138E+06        -0.16098E+08         0.00000E+00
    0.00000E+00         0.00000E+00        -0.70069E+07
 
   -0.18701E+08        -0.23458E+06         0.00000E+00
   -0.23458E+06        -0.16010E+08         0.00000E+00
    0.00000E+00         0.00000E+00        -0.69422E+07
 
   -0.18448E+08        -0.19616E+06         0.00000E+00
   -0.19616E+06        -0.15935E+08         0.00000E+00
    0.00000E+00         0.00000E+00        -0.68766E+07
 
   -0.18173E+08        -0.15558E+06         0.00000E+00
   -0.15558E+06        -0.15876E+08         0.00000E+00
    0.00000E+00         0.00000E+00        -0.68098E+07
 
   -0.17873E+08        -0.11221E+06         0.00000E+00
   -0.11221E+06        -0.15833E+08         0.00000E+00
    0.00000E+00         0.00000E+00        -0.67411E+07
 
   -0.17543E+08        -0.65262E+05         0.00000E+00
   -0.65262E+05        -0.15807E+08         0.00000E+00
    0.00000E+00         0.00000E+00        -0.66701E+07
 
   -0.17180E+08        -0.13786E+05         0.00000E+00
   -0.13786E+05        -0.15800E+08         0.00000E+00
    0.00000E+00         0.00000E+00        -0.65960E+07
 
   -0.16777E+08         0.43415E+05         0.00000E+00
    0.43415E+05        -0.15815E+08         0.00000E+00
    0.00000E+00         0.00000E+00        -0.65182E+07
 
   -0.16328E+08         0.10786E+06         0.00000E+00
    0.10786E+06        -0.15852E+08         0.00000E+00
    0.00000E+00         0.00000E+00        -0.64359E+07
 
   -0.15825E+08         0.18151E+06         0.00000E+00
    0.18151E+06        -0.15916E+08         0.00000E+00
    0.00000E+00         0.00000E+00        -0.63480E+07
 
   -0.15258E+08         0.26694E+06         0.00000E+00
    0.26694E+06        -0.16009E+08         0.00000E+00
    0.00000E+00         0.00000E+00        -0.62535E+07
 
   -0.14617E+08         0.36759E+06         0.00000E+00
    0.36759E+06        -0.16138E+08         0.00000E+00
    0.00000E+00         0.00000E+00        -0.61510E+07
 
   -0.13885E+08         0.48817E+06         0.00000E+00
    0.48817E+06        -0.16308E+08         0.00000E+00
    0.00000E+00         0.00000E+00        -0.60387E+07
 
   -0.13045E+08         0.63530E+06         0.00000E+00
    0.63530E+06        -0.16527E+08         0.00000E+00
    0.00000E+00         0.00000E+00        -0.59145E+07
 
   -0.12072E+08         0.81855E+06         0.00000E+00
    0.81855E+06        -0.16806E+08         0.00000E+00
    0.00000E+00         0.00000E+00        -0.57755E+07
 
   -0.10932E+08         0.10523E+07         0.00000E+00
    0.10523E+07        -0.17158E+08         0.00000E+00
    0.00000E+00         0.00000E+00        -0.56179E+07
 
   -0.95794E+07         0.13591E+07         0.00000E+00
    0.13591E+07        -0.17602E+08         0.00000E+00
    0.00000E+00         0.00000E+00        -0.54363E+07
 
   -0.79482E+07         0.17761E+07         0.00000E+00
    0.17761E+07        -0.18163E+08         0.00000E+00
    0.00000E+00         0.00000E+00        -0.52223E+07
 
   -0.59360E+07         0.23681E+07         0.00000E+00
    0.23681E+07        -0.18877E+08         0.00000E+00
    0.00000E+00         0.00000E+00        -0.49625E+07
 
TENSORS stresstot double 
   -0.44934E+08        -0.41437E+06         0.00000E+00
   -0.41437E+06        -0.49707E+08         0.00000E+00
    0.00000E+00         0.00000E+00        -0.55138E+08
 
   -0.45745E+08        -0.61059E+06         0.00000E+00
   -0.61059E+06        -0.49940E+08         0.00000E+00
    0.00000E+00         0.00000E+00        -0.56183E+08
 
   -0.46524E+08        -0.74629E+06         0.00000E+00
   -0.74629E+06        -0.50195E+08         0.00000E+00
    0.00000E+00         0.00000E+00        -0.57164E+08
 
   -0.47237E+08        -0.83515E+06         0.00000E+00
   -0.83515E+06        -0.50470E+08         0.00000E+00
    0.00000E+00         0.00000E+00        -0.58061E+08
 
   -0.47874E+08        -0.89175E+06         0.00000E+00
   -0.89175E+06        -0.50761E+08         0.00000E+00
    0.00000E+00         0.00000E+00        -0.58872E+08
 
   -0.48430E+08        -0.92977E+06         0.00000E+00
   -0.92977E+06        -0.51063E+08         0.00000E+00
    0.00000E+00         0.00000E+00        -0.59598E+08
 
   -0.48988E+08        -0.95837E+06         0.00000E+00
   -0.95837E+06        -0.51394E+08         0.00000E+00
    0.00000E+00         0.00000E+00        -0.60171E+08
 
   -0.49576E+08        -0.96835E+06         0.00000E+00
   -0.96835E+06        -0.51750E+08         0.00000E+00
    0.00000E+00         0.00000E+00        -0.60555E+08
 
   -0.50170E+08        -0.94061E+06         0.00000E+00
   -0.94061E+06        -0.52092E+08         0.00000E+00
    0.00000E+00         0.00000E+00        -0.60759E+08
 
   -0.50668E+08        -0.90016E+06         0.00000E+00
   -0.90016E+06        -0.52426E+08         0.00000E+00
    0.00000E+00         0.00000E+00        -0.60932E+08
 
   -0.51088E+08        -0.85504E+06         0.00000E+00
   -0.85504E+06        -0.52748E+08         0.00000E+00
    0.00000E+00         0.00000E+00        -0.61088E+08
 
   -0.51447E+08        -0.80886E+06         0.00000E+00
   -0.80886E+06        -0.53056E+08         0.00000E+00
    0.00000E+00         0.00000E+00        -0.61229E+08
 
   -0.51759E+08        -0.76343E+06         0.00000E+00
   -0.76343E+06        -0.53351E+08         0.00000E+00
    0.00000E+00         0.00000E+00        -0.61358E+08
 
   -0.52031E+08        -0.71963E+06         0.00000E+00
   -0.71963E+06        -0.53631E+08         0.00000E+00
    0.00000E+00         0.00000E+00        -0.61477E+08
 
   -0.52273E+08        -0.67785E+06         0.00000E+00
   -0.67785E+06        -0.53898E+08         0.00000E+00
    0.00000E+00         0.00000E+00        -0.61586E+08
 
   -0.52489E+08        -0.63821E+06         0.00000E+00
   -0.63821E+06        -0.54150E+08         0.00000E+00
    0.00000E+00         0.00000E+00        -0.61687E+08
 
   -0.52684E+08        -0.60067E+06         0.00000E+00
   -0.60067E+06        -0.54389E+08         0.00000E+00
    0.00000E+00         0.00000E+00        -0.61782E+08
 
   -0.52862E+08        -0.56515E+06         0.00000E+00
   -0.56515E+06        -0.54615E+08         0.00000E+00
    0.00000E+00         0.00000E+00        -0.61870E+08
 
   -0.53026E+08        -0.53149E+06         0.00000E+00
   -0.53149E+06        -0.54829E+08         0.00000E+00
    0.00000E+00         0.00000E+00        -0.61953E+08
 
   -0.53179E+08        -0.49955E+06         0.00000E+00
   -0.49955E+06        -0.55030E+08         0.00000E+00
    0.00000E+00         0.00000E+00        -0.62031E+08
 
   -0.53323E+08        -0.46916E+06         0.00000E+00
   -0.46916E+06        -0.55221E+08         0.00000E+00
    0.00000E+00         0.00000E+00        -0.62105E+08
 
   -0.53461E+08        -0.44015E+06         0.00000E+00
   -0.44015E+06        -0.55400E+08         0.00000E+00
    0.00000E+00         0.00000E+00        -0.62176E+08
 
   -0.53593E+08        -0.41236E+06         0.00000E+00
   -0.41236E+06        -0.55568E+08         0.00000E+00
    0.00000E+00         0.00000E+00        -0.62243E+08
 
   -0.53723E+08        -0.38563E+06         0.00000E+00
   -0.38563E+06        -0.55726E+08         0.00000E+00
    0.00000E+00         0.00000E+00        -0.62307E+08
 
   -0.53850E+08        -0.35978E+06         0.00000E+00
   -0.35978E+06        -0.55873E+08         0.00000E+00
    0.00000E+00         0.00000E+00        -0.62369E+08
 
   -0.53978E+08        -0.33466E+06         0.00000E+00
   -0.33466E+06        -0.56012E+08         0.00000E+00
    0.00000E+00         0.00000E+00        -0.62429E+08
 
   -0.54107E+08        -0.31011E+06         0.00000E+00
   -0.31011E+06        -0.56140E+08         0.00000E+00
    0.00000E+00         0.00000E+00        -0.62486E+08
 
   -0.54238E+08        -0.28594E+06         0.00000E+00
   -0.28594E+06        -0.56259E+08         0.00000E+00
    0.00000E+00         0.00000E+00        -0.62543E+08
 
   -0.54373E+08        -0.26198E+06         0.00000E+00
   -0.26198E+06        -0.56368E+08         0.00000E+00
    0.00000E+00         0.00000E+00        -0.62598E+08
 
   -0.54514E+08        -0.23804E+06         0.00000E+00
   -0.23804E+06        -0.56468E+08         0.00000E+00
    0.00000E+00         0.00000E+00        -0.62652E+08
 
   -0.54661E+08        -0.21389E+06         0.00000E+00
   -0.21389E+06        -0.56559E+08         0.00000E+00
    0.00000E+00         0.00000E+00        -0.62705E+08
 
   -0.54817E+08        -0.18931E+06         0.00000E+00
   -0.18931E+06        -0.56640E+08         0.00000E+00
    0.00000E+00         0.00000E+00        -0.62758E+08
 
   -0.54983E+08        -0.16403E+06         0.00000E+00
   -0.16403E+06        -0.56711E+08         0.00000E+00
    0.00000E+00         0.00000E+00        -0.62811E+08
 
   -0.55160E+08        -0.13774E+06         0.00000E+00
   -0.13774E+06        -0.56772E+08         0.00000E+00
    0.00000E+00         0.00000E+00        -0.62864E+08
 
   -0.55352E+08        -0.11008E+06         0.00000E+00
   -0.11008E+06        -0.56822E+08         0.00000E+00
    0.00000E+00         0.00000E+00        -0.62917E+08
 
   -0.55560E+08        -0.80611E+05         0.00000E+00
   -0.80611E+05        -0.56861E+08         0.00000E+00
    0.00000E+00         0.00000E+00        -0.62971E+08
 
   -0.55787E+08        -0.48815E+05         0.00000E+00
   -0.48815E+05        -0.56888E+08         0.00000E+00
    0.00000E+00         0.00000E+00        -0.63026E+08
 
   -0.56036E+08        -0.14049E+05         0.00000E+00
   -0.14049E+05        -0.56902E+08         0.00000E+00
    0.00000E+00         0.00000E+00        -0.63083E+08
 
   -0.56312E+08         0.24490E+05         0.00000E+00
    0.24490E+05        -0.56901E+08         0.00000E+00
    0.00000E+00         0.00000E+00        -0.63142E+08
 
   -0.56617E+08         0.67821E+05         0.00000E+00
    0.67821E+05        -0.56883E+08         0.00000E+00
    0.00000E+00         0.00000E+00        -0.63203E+08
 
   -0.56957E+08         0.11725E+06         0.00000E+00
    0.11725E+06        -0.56848E+08         0.00000E+00
    0.00000E+00         0.00000E+00        -0.63268E+08
 
   -0.57339E+08         0.17451E+06         0.00000E+00
    0.17451E+06        -0.56792E+08         0.00000E+00
    0.00000E+00         0.00000E+00        -0.63336E+08
 
   -0.57771E+08         0.24188E+06         0.00000E+00
    0.24188E+06        -0.56712E+08         0.00000E+00
    0.00000E+00         0.00000E+00        -0.63409E+08
 
   -0.58262E+08         0.32253E+06         0.00000E+00
    0.32253E+06        -0.56604E+08         0.00000E+00
    0.00000E+00         0.00000E+00        -0.63488E+08
 
   -0.58824E+08         0.42086E+06         0.00000E+00
    0.42086E+06        -0.56462E+08         0.00000E+00
    0.00000E+00         0.00000E+00        -0.63574E+08
 
   -0.59475E+08         0.54328E+06         0.00000E+00
    0.54328E+06        -0.56280E+08         0.00000E+00
    0.00000E+00         0.00000E+00        -0.63669E+08
 
   -0.60236E+08         0.69940E+06         0.00000E+00
    0.69940E+06        -0.56048E+08         0.00000E+00
    0.00000E+00         0.00000E+00        -0.63776E+08
 
   -0.61137E+08         0.90427E+06         0.00000E+00
    0.90427E+06        -0.55754E+08         0.00000E+00
    0.00000E+00         0.00000E+00        -0.63898E+08
 
   -0.62225E+08         0.11827E+07         0.00000E+00
    0.11827E+07        -0.55380E+08         0.00000E+00
    0.00000E+00         0.00000E+00        -0.64041E+08
 
   -0.63566E+08         0.15780E+07         0.00000E+00
    0.15780E+07        -0.54905E+08         0.00000E+00
    0.00000E+00         0.00000E+00        -0.64214E+08
 
   -0.47082E+08        -0.24759E+06         0.00000E+00
   -0.24759E+06        -0.50244E+08         0.00000E+00
    0.00000E+00         0.00000E+00        -0.56522E+08
 
   -0.47324E+08        -0.77592E+06         0.00000E+00
   -0.77592E+06        -0.50091E+08         0.00000E+00
    0.00000E+00         0.00000E+00        -0.56543E+08
 
   -0.47684E+08        -0.11689E+07         0.00000E+00
   -0.11689E+07        -0.50022E+08         0.00000E+00
    0.00000E+00         0.00000E+00        -0.56608E+08
 
   -0.48088E+08        -0.14607E+07         0.00000E+00
   -0.14607E+07        -0.50013E+08         0.00000E+00
    0.00000E+00         0.00000E+00        -0.56697E+08
 
   -0.48506E+08        -0.16765E+07         0.00000E+00
   -0.16765E+07        -0.50050E+08         0.00000E+00
    0.00000E+00         0.00000E+00        -0.56801E+08
 
   -0.48926E+08        -0.18363E+07         0.00000E+00
   -0.18363E+07        -0.50123E+08         0.00000E+00
    0.00000E+00         0.00000E+00        -0.56915E+08
 
   -0.49342E+08        -0.19537E+07         0.00000E+00
   -0.19537E+07        -0.50199E+08         0.00000E+00
    0.00000E+00         0.00000E+00        -0.57030E+08
 
   -0.49750E+08        -0.20256E+07         0.00000E+00
   -0.20256E+07        -0.50270E+08         0.00000E+00
    0.00000E+00         0.00000E+00        -0.57144E+08
 
   -0.50152E+08        -0.20524E+07         0.00000E+00
   -0.20524E+07        -0.50375E+08         0.00000E+00
    0.00000E+00         0.00000E+00        -0.57264E+08
 
   -0.50530E+08        -0.20423E+07         0.00000E+00
   -0.20423E+07        -0.50497E+08         0.00000E+00
    0.00000E+00         0.00000E+00        -0.57383E+08
 
   -0.50879E+08        -0.20070E+07         0.00000E+00
   -0.20070E+07        -0.50633E+08         0.00000E+00
    0.00000E+00         0.00000E+00        -0.57500E+08
 
   -0.51197E+08        -0.19549E+07         0.00000E+00
   -0.19549E+07        -0.50778E+08         0.00000E+00
    0.00000E+00         0.00000E+00        -0.57612E+08
 
   -0.51485E+08        -0.18919E+07         0.00000E+00
   -0.18919E+07        -0.50929E+08         0.00000E+00
    0.00000E+00         0.00000E+00        -0.57720E+08
 
   -0.51747E+08        -0.18221E+07         0.00000E+00
   -0.18221E+07        -0.51085E+08         0.00000E+00
    0.00000E+00         0.00000E+00        -0.57823E+08
 
   -0.51984E+08        -0.17483E+07         0.00000E+00
   -0.17483E+07        -0.51241E+08         0.00000E+00
    0.00000E+00         0.00000E+00        -0.57922E+08
 
   -0.52202E+08        -0.16727E+07         0.00000E+00
   -0.16727E+07        -0.51398E+08         0.00000E+00
    0.00000E+00         0.00000E+00        -0.58017E+08
 
   -0.52401E+08        -0.15963E+07         0.00000E+00
   -0.15963E+07        -0.51553E+08         0.00000E+00
    0.00000E+00         0.00000E+00        -0.58107E+08
 
   -0.52585E+08        -0.15203E+07         0.00000E+00
   -0.15203E+07        -0.51706E+08         0.00000E+00
    0.00000E+00         0.00000E+00        -0.58193E+08
 
   -0.52756E+08        -0.14450E+07         0.00000E+00
   -0.14450E+07        -0.51854E+08         0.00000E+00
    0.00000E+00         0.00000E+00        -0.58276E+08
 
   -0.52916E+08        -0.13709E+07         0.00000E+00
   -0.13709E+07        -0.51999E+08         0.00000E+00
    0.00000E+00         0.00000E+00        -0.58356E+08
 
   -0.53067E+08        -0.12982E+07         0.00000E+00
   -0.12982E+07        -0.52139E+08         0.00000E+00
    0.00000E+00         0.00000E+00        -0.58432E+08
 
   -0.53211E+08        -0.12268E+07         0.00000E+00
   -0.12268E+07        -0.52273E+08         0.00000E+00
    0.00000E+00         0.00000E+00        -0.58506E+08
 
   -0.53350E+08        -0.11567E+07         0.00000E+00
   -0.11567E+07        -0.52402E+08         0.00000E+00
    0.00000E+00         0.00000E+00        -0.58577E+08
 
   -0.53485E+08        -0.10878E+07         0.00000E+00
   -0.10878E+07        -0.52524E+08         0.00000E+00
    0.00000E+00         0.00000E+00        -0.58646E+08
 
   -0.53617E+08        -0.10199E+07         0.00000E+00
   -0.10199E+07        -0.52641E+08         0.00000E+00
    0.00000E+00         0.00000E+00        -0.58712E+08
 
   -0.53747E+08        -0.95270E+06         0.00000E+00
   -0.95270E+06        -0.52751E+08         0.00000E+00
    0.00000E+00         0.00000E+00        -0.58777E+08
 
   -0.53878E+08        -0.88596E+06         0.00000E+00
   -0.88596E+06        -0.52854E+08         0.00000E+00
    0.00000E+00         0.00000E+00        -0.58840E+08
 
   -0.54009E+08        -0.81930E+06         0.00000E+00
   -0.81930E+06        -0.52951E+08         0.00000E+00
    0.00000E+00         0.00000E+00        -0.58901E+08
 
   -0.54143E+08        -0.75234E+06         0.00000E+00
   -0.75234E+06        -0.53040E+08         0.00000E+00
    0.00000E+00         0.00000E+00        -0.58961E+08
 
   -0.54281E+08        -0.68462E+06         0.00000E+00
   -0.68462E+06        -0.53121E+08         0.00000E+00
    0.00000E+00         0.00000E+00        -0.59020E+08
 
   -0.54424E+08        -0.61561E+06         0.00000E+00
   -0.61561E+06        -0.53195E+08         0.00000E+00
    0.00000E+00         0.00000E+00        -0.59078E+08
 
   -0.54572E+08        -0.54470E+06         0.00000E+00
   -0.54470E+06        -0.53261E+08         0.00000E+00
    0.00000E+00         0.00000E+00        -0.59135E+08
 
   -0.54728E+08        -0.47120E+06         0.00000E+00
   -0.47120E+06        -0.53318E+08         0.00000E+00
    0.00000E+00         0.00000E+00        -0.59191E+08
 
   -0.54893E+08        -0.39429E+06         0.00000E+00
   -0.39429E+06        -0.53366E+08         0.00000E+00
    0.00000E+00         0.00000E+00        -0.59247E+08
 
   -0.55067E+08        -0.31301E+06         0.00000E+00
   -0.31301E+06        -0.53404E+08         0.00000E+00
    0.00000E+00         0.00000E+00        -0.59303E+08
 
   -0.55254E+08        -0.22620E+06         0.00000E+00
   -0.22620E+06        -0.53433E+08         0.00000E+00
    0.00000E+00         0.00000E+00        -0.59359E+08
 
   -0.55455E+08        -0.13251E+06         0.00000E+00
   -0.13251E+06        -0.53450E+08         0.00000E+00
    0.00000E+00         0.00000E+00        -0.59414E+08
 
   -0.55670E+08        -0.30270E+05         0.00000E+00
   -0.30270E+05        -0.53455E+08         0.00000E+00
    0.00000E+00         0.00000E+00        -0.59470E+08
 
   -0.55904E+08         0.82538E+05         0.00000E+00
    0.82538E+05        -0.53448E+08         0.00000E+00
    0.00000E+00         0.00000E+00        -0.59526E+08
 
   -0.56157E+08         0.20840E+06         0.00000E+00
    0.20840E+06        -0.53426E+08         0.00000E+00
    0.00000E+00         0.00000E+00        -0.59583E+08
 
   -0.56432E+08         0.35042E+06         0.00000E+00
    0.35042E+06        -0.53389E+08         0.00000E+00
    0.00000E+00         0.00000E+00        -0.59640E+08
 
   -0.56731E+08         0.51248E+06         0.00000E+00
    0.51248E+06        -0.53335E+08         0.00000E+00
    0.00000E+00         0.00000E+00        -0.59698E+08
 
   -0.57058E+08         0.69949E+06         0.00000E+00
    0.69949E+06        -0.53262E+08         0.00000E+00
    0.00000E+00         0.00000E+00        -0.59757E+08
 
   -0.57413E+08         0.91777E+06         0.00000E+00
    0.91777E+06        -0.53168E+08         0.00000E+00
    0.00000E+00         0.00000E+00        -0.59817E+08
 
   -0.57800E+08         0.11755E+07         0.00000E+00
    0.11755E+07        -0.53052E+08         0.00000E+00
    0.00000E+00         0.00000E+00        -0.59878E+08
 
   -0.58217E+08         0.14832E+07         0.00000E+00
    0.14832E+07        -0.52911E+08         0.00000E+00
    0.00000E+00         0.00000E+00        -0.59938E+08
 
   -0.58662E+08         0.18551E+07         0.00000E+00
    0.18551E+07        -0.52743E+08         0.00000E+00
    0.00000E+00         0.00000E+00        -0.59998E+08
 
   -0.59124E+08         0.23094E+07         0.00000E+00
    0.23094E+07        -0.52547E+08         0.00000E+00
    0.00000E+00         0.00000E+00        -0.60055E+08
 
   -0.59578E+08         0.28705E+07         0.00000E+00
    0.28705E+07        -0.52325E+08         0.00000E+00
    0.00000E+00         0.00000E+00        -0.60104E+08
 
   -0.59971E+08         0.35692E+07         0.00000E+00
    0.35692E+07        -0.52077E+08         0.00000E+00
    0.00000E+00         0.00000E+00        -0.60134E+08
 
   -0.49413E+08        -0.31380E+06         0.00000E+00
   -0.31380E+06        -0.49970E+08         0.00000E+00
    0.00000E+00         0.00000E+00        -0.54332E+08
 
   -0.49389E+08        -0.70499E+06         0.00000E+00
   -0.70499E+06        -0.49996E+08         0.00000E+00
    0.00000E+00         0.00000E+00        -0.54339E+08
 
   -0.49404E+08        -0.10639E+07         0.00000E+00
   -0.10639E+07        -0.49978E+08         0.00000E+00
    0.00000E+00         0.00000E+00        -0.54350E+08
 
   -0.49476E+08        -0.13758E+07         0.00000E+00
   -0.13758E+07        -0.49938E+08         0.00000E+00
    0.00000E+00         0.00000E+00        -0.54371E+08
 
   -0.49598E+08        -0.16368E+07         0.00000E+00
   -0.16368E+07        -0.49890E+08         0.00000E+00
    0.00000E+00         0.00000E+00        -0.54404E+08
 
   -0.49760E+08        -0.18472E+07         0.00000E+00
   -0.18472E+07        -0.49840E+08         0.00000E+00
    0.00000E+00         0.00000E+00        -0.54447E+08
 
   -0.49950E+08        -0.20102E+07         0.00000E+00
   -0.20102E+07        -0.49797E+08         0.00000E+00
    0.00000E+00         0.00000E+00        -0.54498E+08
 
   -0.50157E+08        -0.21336E+07         0.00000E+00
   -0.21336E+07        -0.49765E+08         0.00000E+00
    0.00000E+00         0.00000E+00        -0.54556E+08
 
   -0.50376E+08        -0.22222E+07         0.00000E+00
   -0.22222E+07        -0.49737E+08         0.00000E+00
    0.00000E+00         0.00000E+00        -0.54618E+08
 
   -0.50601E+08        -0.22788E+07         0.00000E+00
   -0.22788E+07        -0.49717E+08         0.00000E+00
    0.00000E+00         0.00000E+00        -0.54683E+08
 
   -0.50827E+08        -0.23066E+07         0.00000E+00
   -0.23066E+07        -0.49709E+08         0.00000E+00
    0.00000E+00         0.00000E+00        -0.54752E+08
 
   -0.51051E+08        -0.23102E+07         0.00000E+00
   -0.23102E+07        -0.49712E+08         0.00000E+00
    0.00000E+00         0.00000E+00        -0.54822E+08
 
   -0.51268E+08        -0.22936E+07         0.00000E+00
   -0.22936E+07        -0.49727E+08         0.00000E+00
    0.00000E+00         0.00000E+00        -0.54893E+08
 
   -0.51477E+08        -0.22608E+07         0.00000E+00
   -0.22608E+07        -0.49751E+08         0.00000E+00
    0.00000E+00         0.00000E+00        -0.54964E+08
 
   -0.51676E+08        -0.22151E+07         0.00000E+00
   -0.22151E+07        -0.49784E+08         0.00000E+00
    0.00000E+00         0.00000E+00        -0.55034E+08
 
   -0.51866E+08        -0.21593E+07         0.00000E+00
   -0.21593E+07        -0.49825E+08         0.00000E+00
    0.00000E+00         0.00000E+00        -0.55104E+08
 
   -0.52046E+08        -0.20955E+07         0.00000E+00
   -0.20955E+07        -0.49871E+08         0.00000E+00
    0.00000E+00         0.00000E+00        -0.55173E+08
 
   -0.52217E+08        -0.20257E+07         0.00000E+00
   -0.20257E+07        -0.49922E+08         0.00000E+00
    0.00000E+00         0.00000E+00        -0.55240E+08
 
   -0.52379E+08        -0.19513E+07         0.00000E+00
   -0.19513E+07        -0.49977E+08         0.00000E+00
    0.00000E+00         0.00000E+00        -0.55307E+08
 
   -0.52534E+08        -0.18732E+07         0.00000E+00
   -0.18732E+07        -0.50035E+08         0.00000E+00
    0.00000E+00         0.00000E+00        -0.55371E+08
 
   -0.52682E+08        -0.17923E+07         0.00000E+00
   -0.17923E+07        -0.50094E+08         0.00000E+00
    0.00000E+00         0.00000E+00        -0.55435E+08
 
   -0.52824E+08        -0.17092E+07         0.00000E+00
   -0.17092E+07        -0.50154E+08         0.00000E+00
    0.00000E+00         0.00000E+00        -0.55497E+08
 
   -0.52961E+08        -0.16243E+07         0.00000E+00
   -0.16243E+07        -0.50214E+08         0.00000E+00
    0.00000E+00         0.00000E+00        -0.55557E+08
 
   -0.53094E+08        -0.15379E+07         0.00000E+00
   -0.15379E+07        -0.50273E+08         0.00000E+00
    0.00000E+00         0.00000E+00        -0.55616E+08
 
   -0.53224E+08        -0.14499E+07         0.00000E+00
   -0.14499E+07        -0.50330E+08         0.00000E+00
    0.00000E+00         0.00000E+00        -0.55674E+08
 
   -0.53352E+08        -0.13604E+07         0.00000E+00
   -0.13604E+07        -0.50385E+08         0.00000E+00
    0.00000E+00         0.00000E+00        -0.55731E+08
 
   -0.53479E+08        -0.12692E+07         0.00000E+00
   -0.12692E+07        -0.50438E+08         0.00000E+00
    0.00000E+00         0.00000E+00        -0.55786E+08
 
   -0.53604E+08        -0.11761E+07         0.00000E+00
   -0.11761E+07        -0.50487E+08         0.00000E+00
    0.00000E+00         0.00000E+00        -0.55840E+08
 
   -0.53730E+08        -0.10806E+07         0.00000E+00
   -0.10806E+07        -0.50533E+08         0.00000E+00
    0.00000E+00         0.00000E+00        -0.55893E+08
 
   -0.53857E+08        -0.98235E+06         0.00000E+00
   -0.98235E+06        -0.50575E+08         0.00000E+00
    0.00000E+00         0.00000E+00        -0.55946E+08
 
   -0.53986E+08        -0.88071E+06         0.00000E+00
   -0.88071E+06        -0.50612E+08         0.00000E+00
    0.00000E+00         0.00000E+00        -0.55997E+08
 
   -0.54117E+08        -0.77498E+06         0.00000E+00
   -0.77498E+06        -0.50644E+08         0.00000E+00
    0.00000E+00         0.00000E+00        -0.56047E+08
 
   -0.54252E+08        -0.66431E+06         0.00000E+00
   -0.66431E+06        -0.50670E+08         0.00000E+00
    0.00000E+00         0.00000E+00        -0.56097E+08
 
   -0.54390E+08        -0.54770E+06         0.00000E+00
   -0.54770E+06        -0.50691E+08         0.00000E+00
    0.00000E+00         0.00000E+00        -0.56145E+08
 
   -0.54532E+08        -0.42398E+06         0.00000E+00
   -0.42398E+06        -0.50704E+08         0.00000E+00
    0.00000E+00         0.00000E+00        -0.56193E+08
 
   -0.54679E+08        -0.29176E+06         0.00000E+00
   -0.29176E+06        -0.50712E+08         0.00000E+00
    0.00000E+00         0.00000E+00        -0.56240E+08
 
   -0.54831E+08        -0.14943E+06         0.00000E+00
   -0.14943E+06        -0.50711E+08         0.00000E+00
    0.00000E+00         0.00000E+00        -0.56286E+08
 
   -0.54989E+08         0.48964E+04         0.00000E+00
    0.48964E+04        -0.50703E+08         0.00000E+00
    0.00000E+00         0.00000E+00        -0.56331E+08
 
   -0.55152E+08         0.17345E+06         0.00000E+00
    0.17345E+06        -0.50687E+08         0.00000E+00
    0.00000E+00         0.00000E+00        -0.56376E+08
 
   -0.55320E+08         0.35882E+06         0.00000E+00
    0.35882E+06        -0.50663E+08         0.00000E+00
    0.00000E+00         0.00000E+00        -0.56419E+08
 
   -0.55493E+08         0.56404E+06         0.00000E+00
    0.56404E+06        -0.50630E+08         0.00000E+00
    0.00000E+00         0.00000E+00        -0.56461E+08
 
   -0.55670E+08         0.79262E+06         0.00000E+00
    0.79262E+06        -0.50589E+08         0.00000E+00
    0.00000E+00         0.00000E+00        -0.56501E+08
 
   -0.55847E+08         0.10486E+07         0.00000E+00
    0.10486E+07        -0.50540E+08         0.00000E+00
    0.00000E+00         0.00000E+00        -0.56539E+08
 
   -0.56023E+08         0.13366E+07         0.00000E+00
    0.13366E+07        -0.50483E+08         0.00000E+00
    0.00000E+00         0.00000E+00        -0.56574E+08
 
   -0.56194E+08         0.16616E+07         0.00000E+00
    0.16616E+07        -0.50420E+08         0.00000E+00
    0.00000E+00         0.00000E+00        -0.56606E+08
 
   -0.56351E+08         0.20291E+07         0.00000E+00
    0.20291E+07        -0.50354E+08         0.00000E+00
    0.00000E+00         0.00000E+00        -0.56633E+08
 
   -0.56488E+08         0.24439E+07         0.00000E+00
    0.24439E+07        -0.50289E+08         0.00000E+00
    0.00000E+00         0.00000E+00        -0.56656E+08
 
   -0.56594E+08         0.29098E+07         0.00000E+00
    0.29098E+07        -0.50231E+08         0.00000E+00
    0.00000E+00         0.00000E+00        -0.56672E+08
 
   -0.56660E+08         0.34269E+07         0.00000E+00
    0.34269E+07        -0.50188E+08         0.00000E+00
    0.00000E+00         0.00000E+00        -0.56681E+08
 
   -0.56685E+08         0.39875E+07         0.00000E+00
    0.39875E+07        -0.50178E+08         0.00000E+00
    0.00000E+00         0.00000E+00        -0.56687E+08
 
   -0.51437E+08        -0.19611E+06         0.00000E+00
   -0.19611E+06        -0.50037E+08         0.00000E+00
    0.00000E+00         0.00000E+00        -0.52920E+08
 
   -0.51145E+08        -0.53406E+06         0.00000E+00
   -0.53406E+06        -0.49988E+08         0.00000E+00
    0.00000E+00         0.00000E+00        -0.52857E+08
 
   -0.50943E+08        -0.82918E+06         0.00000E+00
   -0.82918E+06        -0.49933E+08         0.00000E+00
    0.00000E+00         0.00000E+00        -0.52815E+08
 
   -0.50810E+08        -0.10904E+07         0.00000E+00
   -0.10904E+07        -0.49869E+08         0.00000E+00
    0.00000E+00         0.00000E+00        -0.52789E+08
 
   -0.50732E+08        -0.13205E+07         0.00000E+00
   -0.13205E+07        -0.49795E+08         0.00000E+00
    0.00000E+00         0.00000E+00        -0.52774E+08
 
   -0.50702E+08        -0.15206E+07         0.00000E+00
   -0.15206E+07        -0.49716E+08         0.00000E+00
    0.00000E+00         0.00000E+00        -0.52770E+08
 
   -0.50711E+08        -0.16915E+07         0.00000E+00
   -0.16915E+07        -0.49633E+08         0.00000E+00
    0.00000E+00         0.00000E+00        -0.52774E+08
 
   -0.50754E+08        -0.18335E+07         0.00000E+00
   -0.18335E+07        -0.49548E+08         0.00000E+00
    0.00000E+00         0.00000E+00        -0.52786E+08
 
   -0.50823E+08        -0.19481E+07         0.00000E+00
   -0.19481E+07        -0.49467E+08         0.00000E+00
    0.00000E+00         0.00000E+00        -0.52803E+08
 
   -0.50913E+08        -0.20376E+07         0.00000E+00
   -0.20376E+07        -0.49389E+08         0.00000E+00
    0.00000E+00         0.00000E+00        -0.52826E+08
 
   -0.51018E+08        -0.21041E+07         0.00000E+00
   -0.21041E+07        -0.49315E+08         0.00000E+00
    0.00000E+00         0.00000E+00        -0.52853E+08
 
   -0.51134E+08        -0.21493E+07         0.00000E+00
   -0.21493E+07        -0.49247E+08         0.00000E+00
    0.00000E+00         0.00000E+00        -0.52884E+08
 
   -0.51259E+08        -0.21752E+07         0.00000E+00
   -0.21752E+07        -0.49186E+08         0.00000E+00
    0.00000E+00         0.00000E+00        -0.52917E+08
 
   -0.51389E+08        -0.21836E+07         0.00000E+00
   -0.21836E+07        -0.49131E+08         0.00000E+00
    0.00000E+00         0.00000E+00        -0.52952E+08
 
   -0.51522E+08        -0.21766E+07         0.00000E+00
   -0.21766E+07        -0.49083E+08         0.00000E+00
    0.00000E+00         0.00000E+00        -0.52989E+08
 
   -0.51656E+08        -0.21560E+07         0.00000E+00
   -0.21560E+07        -0.49042E+08         0.00000E+00
    0.00000E+00         0.00000E+00        -0.53027E+08
 
   -0.51790E+08        -0.21235E+07         0.00000E+00
   -0.21235E+07        -0.49008E+08         0.00000E+00
    0.00000E+00         0.00000E+00        -0.53066E+08
 
   -0.51922E+08        -0.20807E+07         0.00000E+00
   -0.20807E+07        -0.48980E+08         0.00000E+00
    0.00000E+00         0.00000E+00        -0.53106E+08
 
   -0.52052E+08        -0.20290E+07         0.00000E+00
   -0.20290E+07        -0.48957E+08         0.00000E+00
    0.00000E+00         0.00000E+00        -0.53146E+08
 
   -0.52179E+08        -0.19693E+07         0.00000E+00
   -0.19693E+07        -0.48939E+08         0.00000E+00
    0.00000E+00         0.00000E+00        -0.53187E+08
 
   -0.52304E+08        -0.19028E+07         0.00000E+00
   -0.19028E+07        -0.48926E+08         0.00000E+00
    0.00000E+00         0.00000E+00        -0.53227E+08
 
   -0.52426E+08        -0.18302E+07         0.00000E+00
   -0.18302E+07        -0.48916E+08         0.00000E+00
    0.00000E+00         0.00000E+00        -0.53267E+08
 
   -0.52545E+08        -0.17521E+07         0.00000E+00
   -0.17521E+07        -0.48909E+08         0.00000E+00
    0.00000E+00         0.00000E+00        -0.53307E+08
 
   -0.52662E+08        -0.16690E+07         0.00000E+00
   -0.16690E+07        -0.48905E+08         0.00000E+00
    0.00000E+00         0.00000E+00        -0.53347E+08
 
   -0.52776E+08        -0.15812E+07         0.00000E+00
   -0.15812E+07        -0.48902E+08         0.00000E+00
    0.00000E+00         0.00000E+00        -0.53386E+08
 
   -0.52888E+08        -0.14887E+07         0.00000E+00
   -0.14887E+07        -0.48900E+08         0.00000E+00
    0.00000E+00         0.00000E+00        -0.53425E+08
 
   -0.52998E+08        -0.13918E+07         0.00000E+00
   -0.13918E+07        -0.48899E+08         0.00000E+00
    0.00000E+00         0.00000E+00        -0.53463E+08
 
   -0.53107E+08        -0.12903E+07         0.00000E+00
   -0.12903E+07        -0.48899E+08         0.00000E+00
    0.00000E+00         0.00000E+00        -0.53501E+08
 
   -0.53214E+08        -0.11840E+07         0.00000E+00
   -0.11840E+07        -0.48898E+08         0.00000E+00
    0.00000E+00         0.00000E+00        -0.53539E+08
 
   -0.53319E+08        -0.10726E+07         0.00000E+00
   -0.10726E+07        -0.48896E+08         0.00000E+00
    0.00000E+00         0.00000E+00        -0.53575E+08
 
   -0.53424E+08        -0.95567E+06         0.00000E+00
   -0.95567E+06        -0.48893E+08         0.00000E+00
    0.00000E+00         0.00000E+00        -0.53611E+08
 
   -0.53527E+08        -0.83261E+06         0.00000E+00
   -0.83261E+06        -0.48888E+08         0.00000E+00
    0.00000E+00         0.00000E+00        -0.53647E+08
 
   -0.53629E+08        -0.70277E+06         0.00000E+00
   -0.70277E+06        -0.48882E+08         0.00000E+00
    0.00000E+00         0.00000E+00        -0.53681E+08
 
   -0.53730E+08        -0.56534E+06         0.00000E+00
   -0.56534E+06        -0.48874E+08         0.00000E+00
    0.00000E+00         0.00000E+00        -0.53715E+08
 
   -0.53829E+08        -0.41938E+06         0.00000E+00
   -0.41938E+06        -0.48863E+08         0.00000E+00
    0.00000E+00         0.00000E+00        -0.53748E+08
 
   -0.53927E+08        -0.26379E+06         0.00000E+00
   -0.26379E+06        -0.48851E+08         0.00000E+00
    0.00000E+00         0.00000E+00        -0.53780E+08
 
   -0.54021E+08        -0.97369E+05         0.00000E+00
   -0.97369E+05        -0.48836E+08         0.00000E+00
    0.00000E+00         0.00000E+00        -0.53810E+08
 
   -0.54113E+08         0.81274E+05         0.00000E+00
    0.81274E+05        -0.48819E+08         0.00000E+00
    0.00000E+00         0.00000E+00        -0.53840E+08
 
   -0.54200E+08         0.27365E+06         0.00000E+00
    0.27365E+06        -0.48800E+08         0.00000E+00
    0.00000E+00         0.00000E+00        -0.53867E+08
 
   -0.54281E+08         0.48142E+06         0.00000E+00
    0.48142E+06        -0.48780E+08         0.00000E+00
    0.00000E+00         0.00000E+00        -0.53893E+08
 
   -0.54353E+08         0.70636E+06         0.00000E+00
    0.70636E+06        -0.48759E+08         0.00000E+00
    0.00000E+00         0.00000E+00        -0.53917E+08
 
   -0.54415E+08         0.95030E+06         0.00000E+00
    0.95030E+06        -0.48738E+08         0.00000E+00
    0.00000E+00         0.00000E+00        -0.53938E+08
 
   -0.54464E+08         0.12151E+07         0.00000E+00
    0.12151E+07        -0.48720E+08         0.00000E+00
    0.00000E+00         0.00000E+00        -0.53957E+08
 
   -0.54495E+08         0.15026E+07         0.00000E+00
    0.15026E+07        -0.48705E+08         0.00000E+00
    0.00000E+00         0.00000E+00        -0.53972E+08
 
   -0.54505E+08         0.18142E+07         0.00000E+00
    0.18142E+07        -0.48697E+08         0.00000E+00
    0.00000E+00         0.00000E+00        -0.53983E+08
 
   -0.54488E+08         0.21513E+07         0.00000E+00
    0.21513E+07        -0.48697E+08         0.00000E+00
    0.00000E+00         0.00000E+00        -0.53990E+08
 
   -0.54440E+08         0.25145E+07         0.00000E+00
    0.25145E+07        -0.48709E+08         0.00000E+00
    0.00000E+00         0.00000E+00        -0.53991E+08
 
   -0.54355E+08         0.29041E+07         0.00000E+00
    0.29041E+07        -0.48738E+08         0.00000E+00
    0.00000E+00         0.00000E+00        -0.53987E+08
 
   -0.54228E+08         0.33208E+07         0.00000E+00
    0.33208E+07        -0.48785E+08         0.00000E+00
    0.00000E+00         0.00000E+00        -0.53976E+08
 
   -0.54048E+08         0.37677E+07         0.00000E+00
    0.37677E+07        -0.48852E+08         0.00000E+00
    0.00000E+00         0.00000E+00        -0.53956E+08
 
   -0.52838E+08        -0.11153E+06         0.00000E+00
   -0.11153E+06        -0.50017E+08         0.00000E+00
    0.00000E+00         0.00000E+00        -0.52091E+08
 
   -0.52460E+08        -0.32761E+06         0.00000E+00
   -0.32761E+06        -0.49993E+08         0.00000E+00
    0.00000E+00         0.00000E+00        -0.52013E+08
 
   -0.52151E+08        -0.53839E+06         0.00000E+00
   -0.53839E+06        -0.49944E+08         0.00000E+00
    0.00000E+00         0.00000E+00        -0.51946E+08
 
   -0.51903E+08        -0.73712E+06         0.00000E+00
   -0.73712E+06        -0.49880E+08         0.00000E+00
    0.00000E+00         0.00000E+00        -0.51890E+08
 
   -0.51710E+08        -0.92106E+06         0.00000E+00
   -0.92106E+06        -0.49804E+08         0.00000E+00
    0.00000E+00         0.00000E+00        -0.51844E+08
 
   -0.51565E+08        -0.10887E+07         0.00000E+00
   -0.10887E+07        -0.49719E+08         0.00000E+00
    0.00000E+00         0.00000E+00        -0.51806E+08
 
   -0.51460E+08        -0.12393E+07         0.00000E+00
   -0.12393E+07        -0.49627E+08         0.00000E+00
    0.00000E+00         0.00000E+00        -0.51776E+08
 
   -0.51390E+08        -0.13726E+07         0.00000E+00
   -0.13726E+07        -0.49531E+08         0.00000E+00
    0.00000E+00         0.00000E+00        -0.51752E+08
 
   -0.51351E+08        -0.14883E+07         0.00000E+00
   -0.14883E+07        -0.49432E+08         0.00000E+00
    0.00000E+00         0.00000E+00        -0.51734E+08
 
   -0.51337E+08        -0.15864E+07         0.00000E+00
   -0.15864E+07        -0.49331E+08         0.00000E+00
    0.00000E+00         0.00000E+00        -0.51721E+08
 
   -0.51345E+08        -0.16675E+07         0.00000E+00
   -0.16675E+07        -0.49232E+08         0.00000E+00
    0.00000E+00         0.00000E+00        -0.51713E+08
 
   -0.51370E+08        -0.17321E+07         0.00000E+00
   -0.17321E+07        -0.49134E+08         0.00000E+00
    0.00000E+00         0.00000E+00        -0.51708E+08
 
   -0.51411E+08        -0.17809E+07         0.00000E+00
   -0.17809E+07        -0.49038E+08         0.00000E+00
    0.00000E+00         0.00000E+00        -0.51707E+08
 
   -0.51464E+08        -0.18149E+07         0.00000E+00
   -0.18149E+07        -0.48945E+08         0.00000E+00
    0.00000E+00         0.00000E+00        -0.51708E+08
 
   -0.51526E+08        -0.18349E+07         0.00000E+00
   -0.18349E+07        -0.48856E+08         0.00000E+00
    0.00000E+00         0.00000E+00        -0.51712E+08
 
   -0.51596E+08        -0.18418E+07         0.00000E+00
   -0.18418E+07        -0.48772E+08         0.00000E+00
    0.00000E+00         0.00000E+00        -0.51719E+08
 
   -0.51672E+08        -0.18365E+07         0.00000E+00
   -0.18365E+07        -0.48692E+08         0.00000E+00
    0.00000E+00         0.00000E+00        -0.51727E+08
 
   -0.51753E+08        -0.18199E+07         0.00000E+00
   -0.18199E+07        -0.48616E+08         0.00000E+00
    0.00000E+00         0.00000E+00        -0.51737E+08
 
   -0.51836E+08        -0.17929E+07         0.00000E+00
   -0.17929E+07        -0.48545E+08         0.00000E+00
    0.00000E+00         0.00000E+00        -0.51748E+08
 
   -0.51921E+08        -0.17563E+07         0.00000E+00
   -0.17563E+07        -0.48478E+08         0.00000E+00
    0.00000E+00         0.00000E+00        -0.51761E+08
 
   -0.52008E+08        -0.17107E+07         0.00000E+00
   -0.17107E+07        -0.48415E+08         0.00000E+00
    0.00000E+00         0.00000E+00        -0.51774E+08
 
   -0.52095E+08        -0.16569E+07         0.00000E+00
   -0.16569E+07        -0.48357E+08         0.00000E+00
    0.00000E+00         0.00000E+00        -0.51789E+08
 
   -0.52182E+08        -0.15953E+07         0.00000E+00
   -0.15953E+07        -0.48302E+08         0.00000E+00
    0.00000E+00         0.00000E+00        -0.51804E+08
 
   -0.52268E+08        -0.15264E+07         0.00000E+00
   -0.15264E+07        -0.48251E+08         0.00000E+00
    0.00000E+00         0.00000E+00        -0.51819E+08
 
   -0.52353E+08        -0.14505E+07         0.00000E+00
   -0.14505E+07        -0.48203E+08         0.00000E+00
    0.00000E+00         0.00000E+00        -0.51836E+08
 
   -0.52436E+08        -0.13679E+07         0.00000E+00
   -0.13679E+07        -0.48157E+08         0.00000E+00
    0.00000E+00         0.00000E+00        -0.51852E+08
 
   -0.52518E+08        -0.12788E+07         0.00000E+00
   -0.12788E+07        -0.48115E+08         0.00000E+00
    0.00000E+00         0.00000E+00        -0.51869E+08
 
   -0.52598E+08        -0.11831E+07         0.00000E+00
   -0.11831E+07        -0.48074E+08         0.00000E+00
    0.00000E+00         0.00000E+00        -0.51885E+08
 
   -0.52676E+08        -0.10810E+07         0.00000E+00
   -0.10810E+07        -0.48036E+08         0.00000E+00
    0.00000E+00         0.00000E+00        -0.51902E+08
 
   -0.52751E+08        -0.97215E+06         0.00000E+00
   -0.97215E+06        -0.48000E+08         0.00000E+00
    0.00000E+00         0.00000E+00        -0.51919E+08
 
   -0.52823E+08        -0.85651E+06         0.00000E+00
   -0.85651E+06        -0.47965E+08         0.00000E+00
    0.00000E+00         0.00000E+00        -0.51935E+08
 
   -0.52892E+08        -0.73376E+06         0.00000E+00
   -0.73376E+06        -0.47932E+08         0.00000E+00
    0.00000E+00         0.00000E+00        -0.51951E+08
 
   -0.52956E+08        -0.60353E+06         0.00000E+00
   -0.60353E+06        -0.47900E+08         0.00000E+00
    0.00000E+00         0.00000E+00        -0.51967E+08
 
   -0.53016E+08        -0.46541E+06         0.00000E+00
   -0.46541E+06        -0.47870E+08         0.00000E+00
    0.00000E+00         0.00000E+00        -0.51982E+08
 
   -0.53071E+08        -0.31889E+06         0.00000E+00
   -0.31889E+06        -0.47841E+08         0.00000E+00
    0.00000E+00         0.00000E+00        -0.51996E+08
 
   -0.53119E+08        -0.16342E+06         0.00000E+00
   -0.16342E+06        -0.47815E+08         0.00000E+00
    0.00000E+00         0.00000E+00        -0.52010E+08
 
   -0.53160E+08         0.15961E+04         0.00000E+00
    0.15961E+04        -0.47790E+08         0.00000E+00
    0.00000E+00         0.00000E+00        -0.52023E+08
 
   -0.53193E+08         0.17679E+06         0.00000E+00
    0.17679E+06        -0.47768E+08         0.00000E+00
    0.00000E+00         0.00000E+00        -0.52034E+08
 
   -0.53215E+08         0.36280E+06         0.00000E+00
    0.36280E+06        -0.47749E+08         0.00000E+00
    0.00000E+00         0.00000E+00        -0.52044E+08
 
   -0.53226E+08         0.56025E+06         0.00000E+00
    0.56025E+06        -0.47734E+08         0.00000E+00
    0.00000E+00         0.00000E+00        -0.52053E+08
 
   -0.53222E+08         0.76974E+06         0.00000E+00
    0.76974E+06        -0.47724E+08         0.00000E+00
    0.00000E+00         0.00000E+00        -0.52059E+08
 
   -0.53203E+08         0.99176E+06         0.00000E+00
    0.99176E+06        -0.47720E+08         0.00000E+00
    0.00000E+00         0.00000E+00        -0.52063E+08
 
   -0.53165E+08         0.12267E+07         0.00000E+00
    0.12267E+07        -0.47723E+08         0.00000E+00
    0.00000E+00         0.00000E+00        -0.52065E+08
 
   -0.53106E+08         0.14748E+07         0.00000E+00
    0.14748E+07        -0.47736E+08         0.00000E+00
    0.00000E+00         0.00000E+00        -0.52064E+08
 
   -0.53022E+08         0.17360E+07         0.00000E+00
    0.17360E+07        -0.47759E+08         0.00000E+00
    0.00000E+00         0.00000E+00        -0.52060E+08
 
   -0.52910E+08         0.20103E+07         0.00000E+00
    0.20103E+07        -0.47794E+08         0.00000E+00
    0.00000E+00         0.00000E+00        -0.52052E+08
 
   -0.52766E+08         0.22973E+07         0.00000E+00
    0.22973E+07        -0.47844E+08         0.00000E+00
    0.00000E+00         0.00000E+00        -0.52039E+08
 
   -0.52586E+08         0.25964E+07         0.00000E+00
    0.25964E+07        -0.47912E+08         0.00000E+00
    0.00000E+00         0.00000E+00        -0.52022E+08
 
   -0.52365E+08         0.29067E+07         0.00000E+00
    0.29067E+07        -0.47999E+08         0.00000E+00
    0.00000E+00         0.00000E+00        -0.51999E+08
 
   -0.52099E+08         0.32257E+07         0.00000E+00
    0.32257E+07        -0.48109E+08         0.00000E+00
    0.00000E+00         0.00000E+00        -0.51970E+08
 
   -0.53663E+08        -0.46293E+05         0.00000E+00
   -0.46293E+05        -0.50014E+08         0.00000E+00
    0.00000E+00         0.00000E+00        -0.51696E+08
 
   -0.53293E+08        -0.16871E+06         0.00000E+00
   -0.16871E+06        -0.49994E+08         0.00000E+00
    0.00000E+00         0.00000E+00        -0.51617E+08
 
   -0.52971E+08        -0.29583E+06         0.00000E+00
   -0.29583E+06        -0.49958E+08         0.00000E+00
    0.00000E+00         0.00000E+00        -0.51545E+08
 
   -0.52694E+08        -0.42459E+06         0.00000E+00
   -0.42459E+06        -0.49909E+08         0.00000E+00
    0.00000E+00         0.00000E+00        -0.51478E+08
 
   -0.52457E+08        -0.55160E+06         0.00000E+00
   -0.55160E+06        -0.49847E+08         0.00000E+00
    0.00000E+00         0.00000E+00        -0.51417E+08
 
   -0.52257E+08        -0.67407E+06         0.00000E+00
   -0.67407E+06        -0.49775E+08         0.00000E+00
    0.00000E+00         0.00000E+00        -0.51361E+08
 
   -0.52092E+08        -0.78989E+06         0.00000E+00
   -0.78989E+06        -0.49694E+08         0.00000E+00
    0.00000E+00         0.00000E+00        -0.51309E+08
 
   -0.51958E+08        -0.89738E+06         0.00000E+00
   -0.89738E+06        -0.49606E+08         0.00000E+00
    0.00000E+00         0.00000E+00        -0.51262E+08
 
   -0.51850E+08        -0.99542E+06         0.00000E+00
   -0.99542E+06        -0.49513E+08         0.00000E+00
    0.00000E+00         0.00000E+00        -0.51219E+08
 
   -0.51768E+08        -0.10832E+07         0.00000E+00
   -0.10832E+07        -0.49416E+08         0.00000E+00
    0.00000E+00         0.00000E+00        -0.51180E+08
 
   -0.51707E+08        -0.11602E+07         0.00000E+00
   -0.11602E+07        -0.49316E+08         0.00000E+00
    0.00000E+00         0.00000E+00        -0.51145E+08
 
   -0.51665E+08        -0.12260E+07         0.00000E+00
   -0.12260E+07        -0.49214E+08         0.00000E+00
    0.00000E+00         0.00000E+00        -0.51113E+08
 
   -0.51639E+08        -0.12806E+07         0.00000E+00
   -0.12806E+07        -0.49111E+08         0.00000E+00
    0.00000E+00         0.00000E+00        -0.51084E+08
 
   -0.51628E+08        -0.13240E+07         0.00000E+00
   -0.13240E+07        -0.49009E+08         0.00000E+00
    0.00000E+00         0.00000E+00        -0.51058E+08
 
   -0.51630E+08        -0.13564E+07         0.00000E+00
   -0.13564E+07        -0.48907E+08         0.00000E+00
    0.00000E+00         0.00000E+00        -0.51034E+08
 
   -0.51642E+08        -0.13779E+07         0.00000E+00
   -0.13779E+07        -0.48807E+08         0.00000E+00
    0.00000E+00         0.00000E+00        -0.51013E+08
 
   -0.51662E+08        -0.13889E+07         0.00000E+00
   -0.13889E+07        -0.48709E+08         0.00000E+00
    0.00000E+00         0.00000E+00        -0.50994E+08
 
   -0.51691E+08        -0.13899E+07         0.00000E+00
   -0.13899E+07        -0.48614E+08         0.00000E+00
    0.00000E+00         0.00000E+00        -0.50977E+08
 
   -0.51725E+08        -0.13811E+07         0.00000E+00
   -0.13811E+07        -0.48521E+08         0.00000E+00
    0.00000E+00         0.00000E+00        -0.50962E+08
 
   -0.51764E+08        -0.13629E+07         0.00000E+00
   -0.13629E+07        -0.48431E+08         0.00000E+00
    0.00000E+00         0.00000E+00        -0.50949E+08
 
   -0.51807E+08        -0.13358E+07         0.00000E+00
   -0.13358E+07        -0.48344E+08         0.00000E+00
    0.00000E+00         0.00000E+00        -0.50938E+08
 
   -0.51852E+08        -0.13000E+07         0.00000E+00
   -0.13000E+07        -0.48260E+08         0.00000E+00
    0.00000E+00         0.00000E+00        -0.50927E+08
 
   -0.51899E+08        -0.12561E+07         0.00000E+00
   -0.12561E+07        -0.48179E+08         0.00000E+00
    0.00000E+00         0.00000E+00        -0.50918E+08
 
   -0.51948E+08        -0.12041E+07         0.00000E+00
   -0.12041E+07        -0.48102E+08         0.00000E+00
    0.00000E+00         0.00000E+00        -0.50910E+08
 
   -0.51997E+08        -0.11445E+07         0.00000E+00
   -0.11445E+07        -0.48028E+08         0.00000E+00
    0.00000E+00         0.00000E+00        -0.50904E+08
 
   -0.52045E+08        -0.10775E+07         0.00000E+00
   -0.10775E+07        -0.47958E+08         0.00000E+00
    0.00000E+00         0.00000E+00        -0.50898E+08
 
   -0.52093E+08        -0.10032E+07         0.00000E+00
   -0.10032E+07        -0.47890E+08         0.00000E+00
    0.00000E+00         0.00000E+00        -0.50892E+08
 
   -0.52138E+08        -0.92178E+06         0.00000E+00
   -0.92178E+06        -0.47827E+08         0.00000E+00
    0.00000E+00         0.00000E+00        -0.50888E+08
 
   -0.52182E+08        -0.83333E+06         0.00000E+00
   -0.83333E+06        -0.47766E+08         0.00000E+00
    0.00000E+00         0.00000E+00        -0.50884E+08
 
   -0.52222E+08        -0.73790E+06         0.00000E+00
   -0.73790E+06        -0.47708E+08         0.00000E+00
    0.00000E+00         0.00000E+00        -0.50880E+08
 
   -0.52259E+08        -0.63550E+06         0.00000E+00
   -0.63550E+06        -0.47655E+08         0.00000E+00
    0.00000E+00         0.00000E+00        -0.50876E+08
 
   -0.52292E+08        -0.52611E+06         0.00000E+00
   -0.52611E+06        -0.47604E+08         0.00000E+00
    0.00000E+00         0.00000E+00        -0.50873E+08
 
   -0.52319E+08        -0.40969E+06         0.00000E+00
   -0.40969E+06        -0.47557E+08         0.00000E+00
    0.00000E+00         0.00000E+00        -0.50870E+08
 
   -0.52341E+08        -0.28615E+06         0.00000E+00
   -0.28615E+06        -0.47514E+08         0.00000E+00
    0.00000E+00         0.00000E+00        -0.50866E+08
 
   -0.52355E+08        -0.15541E+06         0.00000E+00
   -0.15541E+06        -0.47475E+08         0.00000E+00
    0.00000E+00         0.00000E+00        -0.50862E+08
 
   -0.52362E+08        -0.17395E+05         0.00000E+00
   -0.17395E+05        -0.47440E+08         0.00000E+00
    0.00000E+00         0.00000E+00        -0.50858E+08
 
   -0.52360E+08         0.12798E+06         0.00000E+00
    0.12798E+06        -0.47411E+08         0.00000E+00
    0.00000E+00         0.00000E+00        -0.50854E+08
 
   -0.52348E+08         0.28076E+06         0.00000E+00
    0.28076E+06        -0.47386E+08         0.00000E+00
    0.00000E+00         0.00000E+00        -0.50848E+08
 
   -0.52324E+08         0.44094E+06         0.00000E+00
    0.44094E+06        -0.47368E+08         0.00000E+00
    0.00000E+00         0.00000E+00        -0.50842E+08
 
   -0.52288E+08         0.60848E+06         0.00000E+00
    0.60848E+06        -0.47356E+08         0.00000E+00
    0.00000E+00         0.00000E+00        -0.50835E+08
 
   -0.52236E+08         0.78322E+06         0.00000E+00
    0.78322E+06        -0.47352E+08         0.00000E+00
    0.00000E+00         0.00000E+00        -0.50826E+08
 
   -0.52169E+08         0.96492E+06         0.00000E+00
    0.96492E+06        -0.47356E+08         0.00000E+00
    0.00000E+00         0.00000E+00        -0.50816E+08
 
   -0.52083E+08         0.11532E+07         0.00000E+00
    0.11532E+07        -0.47369E+08         0.00000E+00
    0.00000E+00         0.00000E+00        -0.50805E+08
 
   -0.51977E+08         0.13476E+07         0.00000E+00
    0.13476E+07        -0.47393E+08         0.00000E+00
    0.00000E+00         0.00000E+00        -0.50791E+08
 
   -0.51849E+08         0.15473E+07         0.00000E+00
    0.15473E+07        -0.47429E+08         0.00000E+00
    0.00000E+00         0.00000E+00        -0.50776E+08
 
   -0.51696E+08         0.17516E+07         0.00000E+00
    0.17516E+07        -0.47477E+08         0.00000E+00
    0.00000E+00         0.00000E+00        -0.50758E+08
 
   -0.51516E+08         0.19591E+07         0.00000E+00
    0.19591E+07        -0.47541E+08         0.00000E+00
    0.00000E+00         0.00000E+00        -0.50737E+08
 
   -0.51306E+08         0.21685E+07         0.00000E+00
    0.21685E+07        -0.47620E+08         0.00000E+00
    0.00000E+00         0.00000E+00        -0.50713E+08
 
   -0.51063E+08         0.23780E+07         0.00000E+00
    0.23780E+07        -0.47718E+08         0.00000E+00
    0.00000E+00         0.00000E+00        -0.50685E+08
 
   -0.50785E+08         0.25858E+07         0.00000E+00
    0.25858E+07        -0.47834E+08         0.00000E+00
    0.00000E+00         0.00000E+00        -0.50654E+08
 
   -0.54049E+08        -0.71220E+04         0.00000E+00
   -0.71220E+04        -0.50008E+08         0.00000E+00
    0.00000E+00         0.00000E+00        -0.51549E+08
 
   -0.53733E+08        -0.57890E+05         0.00000E+00
   -0.57890E+05        -0.49996E+08         0.00000E+00
    0.00000E+00         0.00000E+00        -0.51481E+08
 
   -0.53444E+08        -0.11957E+06         0.00000E+00
   -0.11957E+06        -0.49972E+08         0.00000E+00
    0.00000E+00         0.00000E+00        -0.51413E+08
 
   -0.53183E+08        -0.18860E+06         0.00000E+00
   -0.18860E+06        -0.49938E+08         0.00000E+00
    0.00000E+00         0.00000E+00        -0.51347E+08
 
   -0.52948E+08        -0.26218E+06         0.00000E+00
   -0.26218E+06        -0.49893E+08         0.00000E+00
    0.00000E+00         0.00000E+00        -0.51282E+08
 
   -0.52739E+08        -0.33786E+06         0.00000E+00
   -0.33786E+06        -0.49839E+08         0.00000E+00
    0.00000E+00         0.00000E+00        -0.51219E+08
 
   -0.52554E+08        -0.41352E+06         0.00000E+00
   -0.41352E+06        -0.49777E+08         0.00000E+00
    0.00000E+00         0.00000E+00        -0.51159E+08
 
   -0.52392E+08        -0.48738E+06         0.00000E+00
   -0.48738E+06        -0.49707E+08         0.00000E+00
    0.00000E+00         0.00000E+00        -0.51100E+08
 
   -0.52251E+08        -0.55794E+06         0.00000E+00
   -0.55794E+06        -0.49630E+08         0.00000E+00
    0.00000E+00         0.00000E+00        -0.51043E+08
 
   -0.52130E+08        -0.62396E+06         0.00000E+00
   -0.62396E+06        -0.49548E+08         0.00000E+00
    0.00000E+00         0.00000E+00        -0.50989E+08
 
   -0.52028E+08        -0.68447E+06         0.00000E+00
   -0.68447E+06        -0.49462E+08         0.00000E+00
    0.00000E+00         0.00000E+00        -0.50937E+08
 
   -0.51942E+08        -0.73870E+06         0.00000E+00
   -0.73870E+06        -0.49372E+08         0.00000E+00
    0.00000E+00         0.00000E+00        -0.50888E+08
 
   -0.51871E+08        -0.78606E+06         0.00000E+00
   -0.78606E+06        -0.49280E+08         0.00000E+00
    0.00000E+00         0.00000E+00        -0.50840E+08
 
   -0.51814E+08        -0.82611E+06         0.00000E+00
   -0.82611E+06        -0.49185E+08         0.00000E+00
    0.00000E+00         0.00000E+00        -0.50795E+08
 
   -0.51769E+08        -0.85856E+06         0.00000E+00
   -0.85856E+06        -0.49090E+08         0.00000E+00
    0.00000E+00         0.00000E+00        -0.50752E+08
 
   -0.51735E+08        -0.88321E+06         0.00000E+00
   -0.88321E+06        -0.48993E+08         0.00000E+00
    0.00000E+00         0.00000E+00        -0.50711E+08
 
   -0.51710E+08        -0.89997E+06         0.00000E+00
   -0.89997E+06        -0.48897E+08         0.00000E+00
    0.00000E+00         0.00000E+00        -0.50673E+08
 
   -0.51694E+08        -0.90880E+06         0.00000E+00
   -0.90880E+06        -0.48801E+08         0.00000E+00
    0.00000E+00         0.00000E+00        -0.50636E+08
 
   -0.51685E+08        -0.90974E+06         0.00000E+00
   -0.90974E+06        -0.48706E+08         0.00000E+00
    0.00000E+00         0.00000E+00        -0.50601E+08
 
   -0.51681E+08        -0.90287E+06         0.00000E+00
   -0.90287E+06        -0.48613E+08         0.00000E+00
    0.00000E+00         0.00000E+00        -0.50568E+08
 
   -0.51683E+08        -0.88831E+06         0.00000E+00
   -0.88831E+06        -0.48521E+08         0.00000E+00
    0.00000E+00         0.00000E+00        -0.50536E+08
 
   -0.51689E+08        -0.86618E+06         0.00000E+00
   -0.86618E+06        -0.48432E+08         0.00000E+00
    0.00000E+00         0.00000E+00        -0.50506E+08
 
   -0.51697E+08        -0.83665E+06         0.00000E+00
   -0.83665E+06        -0.48344E+08         0.00000E+00
    0.00000E+00         0.00000E+00        -0.50478E+08
 
   -0.51708E+08        -0.79988E+06         0.00000E+00
   -0.79988E+06        -0.48259E+08         0.00000E+00
    0.00000E+00         0.00000E+00        -0.50451E+08
 
   -0.51721E+08        -0.75603E+06         0.00000E+00
   -0.75603E+06        -0.48178E+08         0.00000E+00
    0.00000E+00         0.00000E+00        -0.50425E+08
 
   -0.51733E+08        -0.70526E+06         0.00000E+00
   -0.70526E+06        -0.48099E+08         0.00000E+00
    0.00000E+00         0.00000E+00        -0.50400E+08
 
   -0.51746E+08        -0.64773E+06         0.00000E+00
   -0.64773E+06        -0.48023E+08         0.00000E+00
    0.00000E+00         0.00000E+00        -0.50377E+08
 
   -0.51758E+08        -0.58360E+06         0.00000E+00
   -0.58360E+06        -0.47951E+08         0.00000E+00
    0.00000E+00         0.00000E+00        -0.50354E+08
 
   -0.51768E+08        -0.51301E+06         0.00000E+00
   -0.51301E+06        -0.47882E+08         0.00000E+00
    0.00000E+00         0.00000E+00        -0.50332E+08
 
   -0.51775E+08        -0.43612E+06         0.00000E+00
   -0.43612E+06        -0.47817E+08         0.00000E+00
    0.00000E+00         0.00000E+00        -0.50311E+08
 
   -0.51779E+08        -0.35306E+06         0.00000E+00
   -0.35306E+06        -0.47756E+08         0.00000E+00
    0.00000E+00         0.00000E+00        -0.50291E+08
 
   -0.51779E+08        -0.26398E+06         0.00000E+00
   -0.26398E+06        -0.47699E+08         0.00000E+00
    0.00000E+00         0.00000E+00        -0.50271E+08
 
   -0.51774E+08        -0.16903E+06         0.00000E+00
   -0.16903E+06        -0.47647E+08         0.00000E+00
    0.00000E+00         0.00000E+00        -0.50252E+08
 
   -0.51764E+08        -0.68370E+05         0.00000E+00
   -0.68370E+05        -0.47599E+08         0.00000E+00
    0.00000E+00         0.00000E+00        -0.50233E+08
 
   -0.51747E+08         0.37810E+05         0.00000E+00
    0.37810E+05        -0.47557E+08         0.00000E+00
    0.00000E+00         0.00000E+00        -0.50214E+08
 
   -0.51723E+08         0.14930E+06         0.00000E+00
    0.14930E+06        -0.47520E+08         0.00000E+00
    0.00000E+00         0.00000E+00        -0.50195E+08
 
   -0.51690E+08         0.26586E+06         0.00000E+00
    0.26586E+06        -0.47489E+08         0.00000E+00
    0.00000E+00         0.00000E+00        -0.50176E+08
 
   -0.51648E+08         0.38718E+06         0.00000E+00
    0.38718E+06        -0.47465E+08         0.00000E+00
    0.00000E+00         0.00000E+00        -0.50157E+08
 
   -0.51596E+08         0.51292E+06         0.00000E+00
    0.51292E+06        -0.47447E+08         0.00000E+00
    0.00000E+00         0.00000E+00        -0.50138E+08
 
   -0.51532E+08         0.64264E+06         0.00000E+00
    0.64264E+06        -0.47436E+08         0.00000E+00
    0.00000E+00         0.00000E+00        -0.50119E+08
 
   -0.51456E+08         0.77582E+06         0.00000E+00
    0.77582E+06        -0.47434E+08         0.00000E+00
    0.00000E+00         0.00000E+00        -0.50099E+08
 
   -0.51366E+08         0.91186E+06         0.00000E+00
    0.91186E+06        -0.47441E+08         0.00000E+00
    0.00000E+00         0.00000E+00        -0.50078E+08
 
   -0.51260E+08         0.10500E+07         0.00000E+00
    0.10500E+07        -0.47456E+08         0.00000E+00
    0.00000E+00         0.00000E+00        -0.50057E+08
 
   -0.51139E+08         0.11894E+07         0.00000E+00
    0.11894E+07        -0.47482E+08         0.00000E+00
    0.00000E+00         0.00000E+00        -0.50035E+08
 
   -0.51000E+08         0.13291E+07         0.00000E+00
    0.13291E+07        -0.47519E+08         0.00000E+00
    0.00000E+00         0.00000E+00        -0.50013E+08
 
   -0.50842E+08         0.14677E+07         0.00000E+00
    0.14677E+07        -0.47568E+08         0.00000E+00
    0.00000E+00         0.00000E+00        -0.49989E+08
 
   -0.50664E+08         0.16040E+07         0.00000E+00
    0.16040E+07        -0.47629E+08         0.00000E+00
    0.00000E+00         0.00000E+00        -0.49964E+08
 
   -0.50465E+08         0.17363E+07         0.00000E+00
    0.17363E+07        -0.47704E+08         0.00000E+00
    0.00000E+00         0.00000E+00        -0.49938E+08
 
   -0.50243E+08         0.18629E+07         0.00000E+00
    0.18629E+07        -0.47792E+08         0.00000E+00
    0.00000E+00         0.00000E+00        -0.49911E+08
 
   -0.49997E+08         0.19815E+07         0.00000E+00
    0.19815E+07        -0.47896E+08         0.00000E+00
    0.00000E+00         0.00000E+00        -0.49882E+08
 
   -0.54140E+08         0.14801E+05         0.00000E+00
    0.14801E+05        -0.50004E+08         0.00000E+00
    0.00000E+00         0.00000E+00        -0.51512E+08
 
   -0.53886E+08         0.11475E+05         0.00000E+00
    0.11475E+05        -0.49997E+08         0.00000E+00
    0.00000E+00         0.00000E+00        -0.51456E+08
 
   -0.53646E+08        -0.28600E+04         0.00000E+00
   -0.28600E+04        -0.49983E+08         0.00000E+00
    0.00000E+00         0.00000E+00        -0.51398E+08
 
   -0.53421E+08        -0.26136E+05         0.00000E+00
   -0.26136E+05        -0.49960E+08         0.00000E+00
    0.00000E+00         0.00000E+00        -0.51338E+08
 
   -0.53210E+08        -0.56320E+05         0.00000E+00
   -0.56320E+05        -0.49931E+08         0.00000E+00
    0.00000E+00         0.00000E+00        -0.51277E+08
 
   -0.53015E+08        -0.91557E+05         0.00000E+00
   -0.91557E+05        -0.49893E+08         0.00000E+00
    0.00000E+00         0.00000E+00        -0.51216E+08
 
   -0.52835E+08        -0.13017E+06         0.00000E+00
   -0.13017E+06        -0.49849E+08         0.00000E+00
    0.00000E+00         0.00000E+00        -0.51155E+08
 
   -0.52670E+08        -0.17066E+06         0.00000E+00
   -0.17066E+06        -0.49798E+08         0.00000E+00
    0.00000E+00         0.00000E+00        -0.51093E+08
 
   -0.52520E+08        -0.21168E+06         0.00000E+00
   -0.21168E+06        -0.49741E+08         0.00000E+00
    0.00000E+00         0.00000E+00        -0.51033E+08
 
   -0.52385E+08        -0.25207E+06         0.00000E+00
   -0.25207E+06        -0.49678E+08         0.00000E+00
    0.00000E+00         0.00000E+00        -0.50973E+08
 
   -0.52263E+08        -0.29078E+06         0.00000E+00
   -0.29078E+06        -0.49611E+08         0.00000E+00
    0.00000E+00         0.00000E+00        -0.50914E+08
 
   -0.52154E+08        -0.32696E+06         0.00000E+00
   -0.32696E+06        -0.49540E+08         0.00000E+00
    0.00000E+00         0.00000E+00        -0.50856E+08
 
   -0.52056E+08        -0.35984E+06         0.00000E+00
   -0.35984E+06        -0.49465E+08         0.00000E+00
    0.00000E+00         0.00000E+00        -0.50800E+08
 
   -0.51971E+08        -0.38882E+06         0.00000E+00
   -0.38882E+06        -0.49387E+08         0.00000E+00
    0.00000E+00         0.00000E+00        -0.50745E+08
 
   -0.51895E+08        -0.41337E+06         0.00000E+00
   -0.41337E+06        -0.49307E+08         0.00000E+00
    0.00000E+00         0.00000E+00        -0.50691E+08
 
   -0.51829E+08        -0.43310E+06         0.00000E+00
   -0.43310E+06        -0.49225E+08         0.00000E+00
    0.00000E+00         0.00000E+00        -0.50639E+08
 
   -0.51772E+08        -0.44765E+06         0.00000E+00
   -0.44765E+06        -0.49142E+08         0.00000E+00
    0.00000E+00         0.00000E+00        -0.50588E+08
 
   -0.51722E+08        -0.45681E+06         0.00000E+00
   -0.45681E+06        -0.49058E+08         0.00000E+00
    0.00000E+00         0.00000E+00        -0.50539E+08
 
   -0.51679E+08        -0.46037E+06         0.00000E+00
   -0.46037E+06        -0.48974E+08         0.00000E+00
    0.00000E+00         0.00000E+00        -0.50492E+08
 
   -0.51642E+08        -0.45822E+06         0.00000E+00
   -0.45822E+06        -0.48890E+08         0.00000E+00
    0.00000E+00         0.00000E+00        -0.50446E+08
 
   -0.51610E+08        -0.45028E+06         0.00000E+00
   -0.45028E+06        -0.48806E+08         0.00000E+00
    0.00000E+00         0.00000E+00        -0.50401E+08
 
   -0.51583E+08        -0.43654E+06         0.00000E+00
   -0.43654E+06        -0.48724E+08         0.00000E+00
    0.00000E+00         0.00000E+00        -0.50358E+08
 
   -0.51559E+08        -0.41699E+06         0.00000E+00
   -0.41699E+06        -0.48643E+08         0.00000E+00
    0.00000E+00         0.00000E+00        -0.50317E+08
 
   -0.51538E+08        -0.39167E+06         0.00000E+00
   -0.39167E+06        -0.48564E+08         0.00000E+00
    0.00000E+00         0.00000E+00        -0.50277E+08
 
   -0.51518E+08        -0.36067E+06         0.00000E+00
   -0.36067E+06        -0.48487E+08         0.00000E+00
    0.00000E+00         0.00000E+00        -0.50238E+08
 
   -0.51500E+08        -0.32406E+06         0.00000E+00
   -0.32406E+06        -0.48412E+08         0.00000E+00
    0.00000E+00         0.00000E+00        -0.50200E+08
 
   -0.51483E+08        -0.28196E+06         0.00000E+00
   -0.28196E+06        -0.48340E+08         0.00000E+00
    0.00000E+00         0.00000E+00        -0.50164E+08
 
   -0.51465E+08        -0.23451E+06         0.00000E+00
   -0.23451E+06        -0.48271E+08         0.00000E+00
    0.00000E+00         0.00000E+00        -0.50129E+08
 
   -0.51446E+08        -0.18186E+06         0.00000E+00
   -0.18186E+06        -0.48205E+08         0.00000E+00
    0.00000E+00         0.00000E+00        -0.50095E+08
 
   -0.51425E+08        -0.12419E+06         0.00000E+00
   -0.12419E+06        -0.48143E+08         0.00000E+00
    0.00000E+00         0.00000E+00        -0.50061E+08
 
   -0.51402E+08        -0.61692E+05         0.00000E+00
   -0.61692E+05        -0.48084E+08         0.00000E+00
    0.00000E+00         0.00000E+00        -0.50029E+08
 
   -0.51376E+08         0.54151E+04         0.00000E+00
    0.54151E+04        -0.48030E+08         0.00000E+00
    0.00000E+00         0.00000E+00        -0.49997E+08
 
   -0.51347E+08         0.76886E+05         0.00000E+00
    0.76886E+05        -0.47980E+08         0.00000E+00
    0.00000E+00         0.00000E+00        -0.49967E+08
 
   -0.51313E+08         0.15244E+06         0.00000E+00
    0.15244E+06        -0.47935E+08         0.00000E+00
    0.00000E+00         0.00000E+00        -0.49936E+08
 
   -0.51273E+08         0.23178E+06         0.00000E+00
    0.23178E+06        -0.47895E+08         0.00000E+00
    0.00000E+00         0.00000E+00        -0.49907E+08
 
   -0.51228E+08         0.31455E+06         0.00000E+00
    0.31455E+06        -0.47860E+08         0.00000E+00
    0.00000E+00         0.00000E+00        -0.49878E+08
 
   -0.51176E+08         0.40035E+06         0.00000E+00
    0.40035E+06        -0.47832E+08         0.00000E+00
    0.00000E+00         0.00000E+00        -0.49849E+08
 
   -0.51117E+08         0.48874E+06         0.00000E+00
    0.48874E+06        -0.47809E+08         0.00000E+00
    0.00000E+00         0.00000E+00        -0.49821E+08
 
   -0.51050E+08         0.57921E+06         0.00000E+00
    0.57921E+06        -0.47793E+08         0.00000E+00
    0.00000E+00         0.00000E+00        -0.49794E+08
 
   -0.50974E+08         0.67118E+06         0.00000E+00
    0.67118E+06        -0.47784E+08         0.00000E+00
    0.00000E+00         0.00000E+00        -0.49766E+08
 
   -0.50889E+08         0.76402E+06         0.00000E+00
    0.76402E+06        -0.47782E+08         0.00000E+00
    0.00000E+00         0.00000E+00        -0.49739E+08
 
   -0.50794E+08         0.85698E+06         0.00000E+00
    0.85698E+06        -0.47788E+08         0.00000E+00
    0.00000E+00         0.00000E+00        -0.49713E+08
 
   -0.50688E+08         0.94924E+06         0.00000E+00
    0.94924E+06        -0.47803E+08         0.00000E+00
    0.00000E+00         0.00000E+00        -0.49686E+08
 
   -0.50571E+08         0.10399E+07         0.00000E+00
    0.10399E+07        -0.47826E+08         0.00000E+00
    0.00000E+00         0.00000E+00        -0.49660E+08
 
   -0.50441E+08         0.11278E+07         0.00000E+00
    0.11278E+07        -0.47858E+08         0.00000E+00
    0.00000E+00         0.00000E+00        -0.49635E+08
 
   -0.50300E+08         0.12119E+07         0.00000E+00
    0.12119E+07        -0.47899E+08         0.00000E+00
    0.00000E+00         0.00000E+00        -0.49609E+08
 
   -0.50145E+08         0.12909E+07         0.00000E+00
    0.12909E+07        -0.47950E+08         0.00000E+00
    0.00000E+00         0.00000E+00        -0.49584E+08
 
   -0.49977E+08         0.13632E+07         0.00000E+00
    0.13632E+07        -0.48012E+08         0.00000E+00
    0.00000E+00         0.00000E+00        -0.49559E+08
 
   -0.49795E+08         0.14274E+07         0.00000E+00
    0.14274E+07        -0.48083E+08         0.00000E+00
    0.00000E+00         0.00000E+00        -0.49535E+08
 
   -0.49600E+08         0.14816E+07         0.00000E+00
    0.14816E+07        -0.48166E+08         0.00000E+00
    0.00000E+00         0.00000E+00        -0.49511E+08
 
   -0.54046E+08         0.26167E+05         0.00000E+00
    0.26167E+05        -0.50002E+08         0.00000E+00
    0.00000E+00         0.00000E+00        -0.51500E+08
 
   -0.53848E+08         0.52696E+05         0.00000E+00
    0.52696E+05        -0.49998E+08         0.00000E+00
    0.00000E+00         0.00000E+00        -0.51456E+08
 
   -0.53655E+08         0.69735E+05         0.00000E+00
    0.69735E+05        -0.49990E+08         0.00000E+00
    0.00000E+00         0.00000E+00        -0.51408E+08
 
   -0.53469E+08         0.78542E+05         0.00000E+00
    0.78542E+05        -0.49976E+08         0.00000E+00
    0.00000E+00         0.00000E+00        -0.51357E+08
 
   -0.53289E+08         0.80341E+05         0.00000E+00
    0.80341E+05        -0.49957E+08         0.00000E+00
    0.00000E+00         0.00000E+00        -0.51304E+08
 
   -0.53118E+08         0.76330E+05         0.00000E+00
    0.76330E+05        -0.49933E+08         0.00000E+00
    0.00000E+00         0.00000E+00        -0.51248E+08
 
   -0.52956E+08         0.67664E+05         0.00000E+00
    0.67664E+05        -0.49903E+08         0.00000E+00
    0.00000E+00         0.00000E+00        -0.51192E+08
 
   -0.52802E+08         0.55433E+05         0.00000E+00
    0.55433E+05        -0.49868E+08         0.00000E+00
    0.00000E+00         0.00000E+00        -0.51134E+08
 
   -0.52658E+08         0.40658E+05         0.00000E+00
    0.40658E+05        -0.49829E+08         0.00000E+00
    0.00000E+00         0.00000E+00        -0.51075E+08
 
   -0.52522E+08         0.24280E+05         0.00000E+00
    0.24280E+05        -0.49785E+08         0.00000E+00
    0.00000E+00         0.00000E+00        -0.51016E+08
 
   -0.52397E+08         0.71596E+04         0.00000E+00
    0.71596E+04        -0.49736E+08         0.00000E+00
    0.00000E+00         0.00000E+00        -0.50957E+08
 
   -0.52280E+08        -0.99252E+04         0.00000E+00
   -0.99252E+04        -0.49684E+08         0.00000E+00
    0.00000E+00         0.00000E+00        -0.50899E+08
 
   -0.52171E+08        -0.26277E+05         0.00000E+00
   -0.26277E+05        -0.49628E+08         0.00000E+00
    0.00000E+00         0.00000E+00        -0.50840E+08
 
   -0.52071E+08        -0.41277E+05         0.00000E+00
   -0.41277E+05        -0.49570E+08         0.00000E+00
    0.00000E+00         0.00000E+00        -0.50783E+08
 
   -0.51979E+08        -0.54385E+05         0.00000E+00
   -0.54385E+05        -0.49508E+08         0.00000E+00
    0.00000E+00         0.00000E+00        -0.50726E+08
 
   -0.51895E+08        -0.65134E+05         0.00000E+00
   -0.65134E+05        -0.49445E+08         0.00000E+00
    0.00000E+00         0.00000E+00        -0.50669E+08
 
   -0.51817E+08        -0.73122E+05         0.00000E+00
   -0.73122E+05        -0.49379E+08         0.00000E+00
    0.00000E+00         0.00000E+00        -0.50614E+08
 
   -0.51746E+08        -0.78016E+05         0.00000E+00
   -0.78016E+05        -0.49313E+08         0.00000E+00
    0.00000E+00         0.00000E+00        -0.50560E+08
 
   -0.51680E+08        -0.79538E+05         0.00000E+00
   -0.79538E+05        -0.49245E+08         0.00000E+00
    0.00000E+00         0.00000E+00        -0.50507E+08
 
   -0.51620E+08        -0.77469E+05         0.00000E+00
   -0.77469E+05        -0.49177E+08         0.00000E+00
    0.00000E+00         0.00000E+00        -0.50455E+08
 
   -0.51564E+08        -0.71639E+05         0.00000E+00
   -0.71639E+05        -0.49109E+08         0.00000E+00
    0.00000E+00         0.00000E+00        -0.50405E+08
 
   -0.51512E+08        -0.61926E+05         0.00000E+00
   -0.61926E+05        -0.49041E+08         0.00000E+00
    0.00000E+00         0.00000E+00        -0.50355E+08
 
   -0.51464E+08        -0.48249E+05         0.00000E+00
   -0.48249E+05        -0.48974E+08         0.00000E+00
    0.00000E+00         0.00000E+00        -0.50307E+08
 
   -0.51418E+08        -0.30570E+05         0.00000E+00
   -0.30570E+05        -0.48908E+08         0.00000E+00
    0.00000E+00         0.00000E+00        -0.50260E+08
 
   -0.51375E+08        -0.88874E+04         0.00000E+00
   -0.88874E+04        -0.48843E+08         0.00000E+00
    0.00000E+00         0.00000E+00        -0.50215E+08
 
   -0.51333E+08         0.16765E+05         0.00000E+00
    0.16765E+05        -0.48780E+08         0.00000E+00
    0.00000E+00         0.00000E+00        -0.50170E+08
 
   -0.51293E+08         0.46321E+05         0.00000E+00
    0.46321E+05        -0.48719E+08         0.00000E+00
    0.00000E+00         0.00000E+00        -0.50127E+08
 
   -0.51252E+08         0.79681E+05         0.00000E+00
    0.79681E+05        -0.48660E+08         0.00000E+00
    0.00000E+00         0.00000E+00        -0.50084E+08
 
   -0.51212E+08         0.11671E+06         0.00000E+00
    0.11671E+06        -0.48604E+08         0.00000E+00
    0.00000E+00         0.00000E+00        -0.50043E+08
 
   -0.51170E+08         0.15726E+06         0.00000E+00
    0.15726E+06        -0.48551E+08         0.00000E+00
    0.00000E+00         0.00000E+00        -0.50003E+08
 
   -0.51128E+08         0.20112E+06         0.00000E+00
    0.20112E+06        -0.48501E+08         0.00000E+00
    0.00000E+00         0.00000E+00        -0.49964E+08
 
   -0.51083E+08         0.24808E+06         0.00000E+00
    0.24808E+06        -0.48455E+08         0.00000E+00
    0.00000E+00         0.00000E+00        -0.49926E+08
 
   -0.51036E+08         0.29786E+06         0.00000E+00
    0.29786E+06        -0.48413E+08         0.00000E+00
    0.00000E+00         0.00000E+00        -0.49889E+08
 
   -0.50987E+08         0.35018E+06         0.00000E+00
    0.35018E+06        -0.48374E+08         0.00000E+00
    0.00000E+00         0.00000E+00        -0.49853E+08
 
   -0.50933E+08         0.40471E+06         0.00000E+00
    0.40471E+06        -0.48341E+08         0.00000E+00
    0.00000E+00         0.00000E+00        -0.49817E+08
 
   -0.50876E+08         0.46106E+06         0.00000E+00
    0.46106E+06        -0.48312E+08         0.00000E+00
    0.00000E+00         0.00000E+00        -0.49783E+08
 
   -0.50815E+08         0.51882E+06         0.00000E+00
    0.51882E+06        -0.48287E+08         0.00000E+00
    0.00000E+00         0.00000E+00        -0.49749E+08
 
   -0.50748E+08         0.57753E+06         0.00000E+00
    0.57753E+06        -0.48269E+08         0.00000E+00
    0.00000E+00         0.00000E+00        -0.49717E+08
 
   -0.50677E+08         0.63667E+06         0.00000E+00
    0.63667E+06        -0.48255E+08         0.00000E+00
    0.00000E+00         0.00000E+00        -0.49685E+08
 
   -0.50599E+08         0.69568E+06         0.00000E+00
    0.69568E+06        -0.48248E+08         0.00000E+00
    0.00000E+00         0.00000E+00        -0.49654E+08
 
   -0.50516E+08         0.75392E+06         0.00000E+00
    0.75392E+06        -0.48246E+08         0.00000E+00
    0.00000E+00         0.00000E+00        -0.49624E+08
 
   -0.50426E+08         0.81071E+06         0.00000E+00
    0.81071E+06        -0.48251E+08         0.00000E+00
    0.00000E+00         0.00000E+00        -0.49595E+08
 
   -0.50330E+08         0.86530E+06         0.00000E+00
    0.86530E+06        -0.48263E+08         0.00000E+00
    0.00000E+00         0.00000E+00        -0.49567E+08
 
   -0.50227E+08         0.91685E+06         0.00000E+00
    0.91685E+06        -0.48281E+08         0.00000E+00
    0.00000E+00         0.00000E+00        -0.49540E+08
 
   -0.50117E+08         0.96448E+06         0.00000E+00
    0.96448E+06        -0.48306E+08         0.00000E+00
    0.00000E+00         0.00000E+00        -0.49514E+08
 
   -0.50001E+08         0.10072E+07         0.00000E+00
    0.10072E+07        -0.48338E+08         0.00000E+00
    0.00000E+00         0.00000E+00        -0.49489E+08
 
   -0.49878E+08         0.10440E+07         0.00000E+00
    0.10440E+07        -0.48377E+08         0.00000E+00
    0.00000E+00         0.00000E+00        -0.49466E+08
 
   -0.49748E+08         0.10737E+07         0.00000E+00
    0.10737E+07        -0.48423E+08         0.00000E+00
    0.00000E+00         0.00000E+00        -0.49444E+08
 
   -0.49612E+08         0.10951E+07         0.00000E+00
    0.10951E+07        -0.48475E+08         0.00000E+00
    0.00000E+00         0.00000E+00        -0.49424E+08
 
   -0.49470E+08         0.11069E+07         0.00000E+00
    0.11069E+07        -0.48535E+08         0.00000E+00
    0.00000E+00         0.00000E+00        -0.49406E+08
 
   -0.53842E+08         0.31801E+05         0.00000E+00
    0.31801E+05        -0.50001E+08         0.00000E+00
    0.00000E+00         0.00000E+00        -0.51476E+08
 
   -0.53689E+08         0.75994E+05         0.00000E+00
    0.75994E+05        -0.49999E+08         0.00000E+00
    0.00000E+00         0.00000E+00        -0.51441E+08
 
   -0.53536E+08         0.11263E+06         0.00000E+00
    0.11263E+06        -0.49994E+08         0.00000E+00
    0.00000E+00         0.00000E+00        -0.51402E+08
 
   -0.53385E+08         0.14235E+06         0.00000E+00
    0.14235E+06        -0.49986E+08         0.00000E+00
    0.00000E+00         0.00000E+00        -0.51360E+08
 
   -0.53237E+08         0.16585E+06         0.00000E+00
    0.16585E+06        -0.49975E+08         0.00000E+00
    0.00000E+00         0.00000E+00        -0.51315E+08
 
   -0.53092E+08         0.18386E+06         0.00000E+00
    0.18386E+06        -0.49960E+08         0.00000E+00
    0.00000E+00         0.00000E+00        -0.51267E+08
 
   -0.52951E+08         0.19708E+06         0.00000E+00
    0.19708E+06        -0.49942E+08         0.00000E+00
    0.00000E+00         0.00000E+00        -0.51217E+08
 
   -0.52814E+08         0.20625E+06         0.00000E+00
    0.20625E+06        -0.49920E+08         0.00000E+00
    0.00000E+00         0.00000E+00        -0.51166E+08
 
   -0.52683E+08         0.21205E+06         0.00000E+00
    0.21205E+06        -0.49894E+08         0.00000E+00
    0.00000E+00         0.00000E+00        -0.51113E+08
 
   -0.52557E+08         0.21517E+06         0.00000E+00
    0.21517E+06        -0.49865E+08         0.00000E+00
    0.00000E+00         0.00000E+00        -0.51059E+08
 
   -0.52436E+08         0.21624E+06         0.00000E+00
    0.21624E+06        -0.49833E+08         0.00000E+00
    0.00000E+00         0.00000E+00        -0.51005E+08
 
   -0.52321E+08         0.21587E+06         0.00000E+00
    0.21587E+06        -0.49797E+08         0.00000E+00
    0.00000E+00         0.00000E+00        -0.50949E+08
 
   -0.52212E+08         0.21462E+06         0.00000E+00
    0.21462E+06        -0.49759E+08         0.00000E+00
    0.00000E+00         0.00000E+00        -0.50894E+08
 
   -0.52109E+08         0.21301E+06         0.00000E+00
    0.21301E+06        -0.49718E+08         0.00000E+00
    0.00000E+00         0.00000E+00        -0.50839E+08
 
   -0.52011E+08         0.21151E+06         0.00000E+00
    0.21151E+06        -0.49674E+08         0.00000E+00
    0.00000E+00         0.00000E+00        -0.50784E+08
 
   -0.51918E+08         0.21054E+06         0.00000E+00
    0.21054E+06        -0.49629E+08         0.00000E+00
    0.00000E+00         0.00000E+00        -0.50729E+08
 
   -0.51831E+08         0.21048E+06         0.00000E+00
    0.21048E+06        -0.49582E+08         0.00000E+00
    0.00000E+00         0.00000E+00        -0.50674E+08
 
   -0.51748E+08         0.21166E+06         0.00000E+00
    0.21166E+06        -0.49534E+08         0.00000E+00
    0.00000E+00         0.00000E+00        -0.50621E+08
 
   -0.51670E+08         0.21437E+06         0.00000E+00
    0.21437E+06        -0.49484E+08         0.00000E+00
    0.00000E+00         0.00000E+00        -0.50568E+08
 
   -0.51596E+08         0.21885E+06         0.00000E+00
    0.21885E+06        -0.49434E+08         0.00000E+00
    0.00000E+00         0.00000E+00        -0.50515E+08
 
   -0.51526E+08         0.22530E+06         0.00000E+00
    0.22530E+06        -0.49383E+08         0.00000E+00
    0.00000E+00         0.00000E+00        -0.50464E+08
 
   -0.51459E+08         0.23387E+06         0.00000E+00
    0.23387E+06        -0.49332E+08         0.00000E+00
    0.00000E+00         0.00000E+00        -0.50413E+08
 
   -0.51395E+08         0.24470E+06         0.00000E+00
    0.24470E+06        -0.49281E+08         0.00000E+00
    0.00000E+00         0.00000E+00        -0.50364E+08
 
   -0.51334E+08         0.25784E+06         0.00000E+00
    0.25784E+06        -0.49231E+08         0.00000E+00
    0.00000E+00         0.00000E+00        -0.50315E+08
 
   -0.51274E+08         0.27336E+06         0.00000E+00
    0.27336E+06        -0.49182E+08         0.00000E+00
    0.00000E+00         0.00000E+00        -0.50268E+08
 
   -0.51217E+08         0.29125E+06         0.00000E+00
    0.29125E+06        -0.49133E+08         0.00000E+00
    0.00000E+00         0.00000E+00        -0.50221E+08
 
   -0.51161E+08         0.31149E+06         0.00000E+00
    0.31149E+06        -0.49086E+08         0.00000E+00
    0.00000E+00         0.00000E+00        -0.50176E+08
 
   -0.51106E+08         0.33402E+06         0.00000E+00
    0.33402E+06        -0.49041E+08         0.00000E+00
    0.00000E+00         0.00000E+00        -0.50131E+08
 
   -0.51051E+08         0.35873E+06         0.00000E+00
    0.35873E+06        -0.48998E+08         0.00000E+00
    0.00000E+00         0.00000E+00        -0.50088E+08
 
   -0.50996E+08         0.38551E+06         0.00000E+00
    0.38551E+06        -0.48957E+08         0.00000E+00
    0.00000E+00         0.00000E+00        -0.50046E+08
 
   -0.50941E+08         0.41420E+06         0.00000E+00
    0.41420E+06        -0.48919E+08         0.00000E+00
    0.00000E+00         0.00000E+00        -0.50005E+08
 
   -0.50886E+08         0.44458E+06         0.00000E+00
    0.44458E+06        -0.48883E+08         0.00000E+00
    0.00000E+00         0.00000E+00        -0.49965E+08
 
   -0.50829E+08         0.47645E+06         0.00000E+00
    0.47645E+06        -0.48851E+08         0.00000E+00
    0.00000E+00         0.00000E+00        -0.49925E+08
 
   -0.50771E+08         0.50954E+06         0.00000E+00
    0.50954E+06        -0.48821E+08         0.00000E+00
    0.00000E+00         0.00000E+00        -0.49888E+08
 
   -0.50711E+08         0.54355E+06         0.00000E+00
    0.54355E+06        -0.48796E+08         0.00000E+00
    0.00000E+00         0.00000E+00        -0.49851E+08
 
   -0.50648E+08         0.57816E+06         0.00000E+00
    0.57816E+06        -0.48774E+08         0.00000E+00
    0.00000E+00         0.00000E+00        -0.49815E+08
 
   -0.50584E+08         0.61299E+06         0.00000E+00
    0.61299E+06        -0.48755E+08         0.00000E+00
    0.00000E+00         0.00000E+00        -0.49780E+08
 
   -0.50517E+08         0.64764E+06         0.00000E+00
    0.64764E+06        -0.48741E+08         0.00000E+00
    0.00000E+00         0.00000E+00        -0.49747E+08
 
   -0.50447E+08         0.68168E+06         0.00000E+00
    0.68168E+06        -0.48731E+08         0.00000E+00
    0.00000E+00         0.00000E+00        -0.49714E+08
 
   -0.50375E+08         0.71461E+06         0.00000E+00
    0.71461E+06        -0.48726E+08         0.00000E+00
    0.00000E+00         0.00000E+00        -0.49683E+08
 
   -0.50299E+08         0.74593E+06         0.00000E+00
    0.74593E+06        -0.48725E+08         0.00000E+00
    0.00000E+00         0.00000E+00        -0.49653E+08
 
   -0.50220E+08         0.77507E+06         0.00000E+00
    0.77507E+06        -0.48729E+08         0.00000E+00
    0.00000E+00         0.00000E+00        -0.49625E+08
 
   -0.50139E+08         0.80144E+06         0.00000E+00
    0.80144E+06        -0.48738E+08         0.00000E+00
    0.00000E+00         0.00000E+00        -0.49598E+08
 
   -0.50054E+08         0.82439E+06         0.00000E+00
    0.82439E+06        -0.48751E+08         0.00000E+00
    0.00000E+00         0.00000E+00        -0.49573E+08
 
   -0.49967E+08         0.84325E+06         0.00000E+00
    0.84325E+06        -0.48769E+08         0.00000E+00
    0.00000E+00         0.00000E+00        -0.49549E+08
 
   -0.49877E+08         0.85731E+06         0.00000E+00
    0.85731E+06        -0.48792E+08         0.00000E+00
    0.00000E+00         0.00000E+00        -0.49527E+08
 
   -0.49785E+08         0.86581E+06         0.00000E+00
    0.86581E+06        -0.48819E+08         0.00000E+00
    0.00000E+00         0.00000E+00        -0.49507E+08
 
   -0.49691E+08         0.86797E+06         0.00000E+00
    0.86797E+06        -0.48850E+08         0.00000E+00
    0.00000E+00         0.00000E+00        -0.49489E+08
 
   -0.49597E+08         0.86298E+06         0.00000E+00
    0.86298E+06        -0.48886E+08         0.00000E+00
    0.00000E+00         0.00000E+00        -0.49473E+08
 
   -0.49502E+08         0.84999E+06         0.00000E+00
    0.84999E+06        -0.48926E+08         0.00000E+00
    0.00000E+00         0.00000E+00        -0.49460E+08
 
   -0.53577E+08         0.34249E+05         0.00000E+00
    0.34249E+05        -0.50000E+08         0.00000E+00
    0.00000E+00         0.00000E+00        -0.51426E+08
 
   -0.53458E+08         0.88100E+05         0.00000E+00
    0.88100E+05        -0.49999E+08         0.00000E+00
    0.00000E+00         0.00000E+00        -0.51399E+08
 
   -0.53338E+08         0.13602E+06         0.00000E+00
    0.13602E+06        -0.49997E+08         0.00000E+00
    0.00000E+00         0.00000E+00        -0.51368E+08
 
   -0.53217E+08         0.17833E+06         0.00000E+00
    0.17833E+06        -0.49993E+08         0.00000E+00
    0.00000E+00         0.00000E+00        -0.51334E+08
 
   -0.53096E+08         0.21540E+06         0.00000E+00
    0.21540E+06        -0.49987E+08         0.00000E+00
    0.00000E+00         0.00000E+00        -0.51297E+08
 
   -0.52975E+08         0.24764E+06         0.00000E+00
    0.24764E+06        -0.49979E+08         0.00000E+00
    0.00000E+00         0.00000E+00        -0.51257E+08
 
   -0.52856E+08         0.27547E+06         0.00000E+00
    0.27547E+06        -0.49968E+08         0.00000E+00
    0.00000E+00         0.00000E+00        -0.51215E+08
 
   -0.52738E+08         0.29935E+06         0.00000E+00
    0.29935E+06        -0.49956E+08         0.00000E+00
    0.00000E+00         0.00000E+00        -0.51171E+08
 
   -0.52622E+08         0.31971E+06         0.00000E+00
    0.31971E+06        -0.49941E+08         0.00000E+00
    0.00000E+00         0.00000E+00        -0.51125E+08
 
   -0.52509E+08         0.33701E+06         0.00000E+00
    0.33701E+06        -0.49923E+08         0.00000E+00
    0.00000E+00         0.00000E+00        -0.51078E+08
 
   -0.52399E+08         0.35170E+06         0.00000E+00
    0.35170E+06        -0.49903E+08         0.00000E+00
    0.00000E+00         0.00000E+00        -0.51030E+08
 
   -0.52293E+08         0.36419E+06         0.00000E+00
    0.36419E+06        -0.49881E+08         0.00000E+00
    0.00000E+00         0.00000E+00        -0.50981E+08
 
   -0.52189E+08         0.37490E+06         0.00000E+00
    0.37490E+06        -0.49857E+08         0.00000E+00
    0.00000E+00         0.00000E+00        -0.50931E+08
 
   -0.52089E+08         0.38423E+06         0.00000E+00
    0.38423E+06        -0.49831E+08         0.00000E+00
    0.00000E+00         0.00000E+00        -0.50881E+08
 
   -0.51993E+08         0.39253E+06         0.00000E+00
    0.39253E+06        -0.49803E+08         0.00000E+00
    0.00000E+00         0.00000E+00        -0.50831E+08
 
   -0.51900E+08         0.40015E+06         0.00000E+00
    0.40015E+06        -0.49774E+08         0.00000E+00
    0.00000E+00         0.00000E+00        -0.50780E+08
 
   -0.51810E+08         0.40740E+06         0.00000E+00
    0.40740E+06        -0.49743E+08         0.00000E+00
    0.00000E+00         0.00000E+00        -0.50730E+08
 
   -0.51724E+08         0.41455E+06         0.00000E+00
    0.41455E+06        -0.49711E+08         0.00000E+00
    0.00000E+00         0.00000E+00        -0.50680E+08
 
   -0.51642E+08         0.42187E+06         0.00000E+00
    0.42187E+06        -0.49678E+08         0.00000E+00
    0.00000E+00         0.00000E+00        -0.50630E+08
 
   -0.51562E+08         0.42956E+06         0.00000E+00
    0.42956E+06        -0.49644E+08         0.00000E+00
    0.00000E+00         0.00000E+00        -0.50581E+08
 
   -0.51485E+08         0.43782E+06         0.00000E+00
    0.43782E+06        -0.49609E+08         0.00000E+00
    0.00000E+00         0.00000E+00        -0.50533E+08
 
   -0.51411E+08         0.44679E+06         0.00000E+00
    0.44679E+06        -0.49574E+08         0.00000E+00
    0.00000E+00         0.00000E+00        -0.50485E+08
 
   -0.51339E+08         0.45662E+06         0.00000E+00
    0.45662E+06        -0.49540E+08         0.00000E+00
    0.00000E+00         0.00000E+00        -0.50437E+08
 
   -0.51270E+08         0.46737E+06         0.00000E+00
    0.46737E+06        -0.49505E+08         0.00000E+00
    0.00000E+00         0.00000E+00        -0.50391E+08
 
   -0.51202E+08         0.47913E+06         0.00000E+00
    0.47913E+06        -0.49471E+08         0.00000E+00
    0.00000E+00         0.00000E+00        -0.50345E+08
 
   -0.51136E+08         0.49191E+06         0.00000E+00
    0.49191E+06        -0.49438E+08         0.00000E+00
    0.00000E+00         0.00000E+00        -0.50301E+08
 
   -0.51072E+08         0.50572E+06         0.00000E+00
    0.50572E+06        -0.49405E+08         0.00000E+00
    0.00000E+00         0.00000E+00        -0.50257E+08
 
   -0.51009E+08         0.52053E+06         0.00000E+00
    0.52053E+06        -0.49374E+08         0.00000E+00
    0.00000E+00         0.00000E+00        -0.50214E+08
 
   -0.50947E+08         0.53628E+06         0.00000E+00
    0.53628E+06        -0.49344E+08         0.00000E+00
    0.00000E+00         0.00000E+00        -0.50172E+08
 
   -0.50885E+08         0.55288E+06         0.00000E+00
    0.55288E+06        -0.49315E+08         0.00000E+00
    0.00000E+00         0.00000E+00        -0.50131E+08
 
   -0.50824E+08         0.57022E+06         0.00000E+00
    0.57022E+06        -0.49289E+08         0.00000E+00
    0.00000E+00         0.00000E+00        -0.50091E+08
 
   -0.50763E+08         0.58814E+06         0.00000E+00
    0.58814E+06        -0.49264E+08         0.00000E+00
    0.00000E+00         0.00000E+00        -0.50052E+08
 
   -0.50703E+08         0.60648E+06         0.00000E+00
    0.60648E+06        -0.49242E+08         0.00000E+00
    0.00000E+00         0.00000E+00        -0.50015E+08
 
   -0.50641E+08         0.62503E+06         0.00000E+00
    0.62503E+06        -0.49222E+08         0.00000E+00
    0.00000E+00         0.00000E+00        -0.49978E+08
 
   -0.50580E+08         0.64356E+06         0.00000E+00
    0.64356E+06        -0.49204E+08         0.00000E+00
    0.00000E+00         0.00000E+00        -0.49943E+08
 
   -0.50518E+08         0.66183E+06         0.00000E+00
    0.66183E+06        -0.49189E+08         0.00000E+00
    0.00000E+00         0.00000E+00        -0.49908E+08
 
   -0.50455E+08         0.67954E+06         0.00000E+00
    0.67954E+06        -0.49177E+08         0.00000E+00
    0.00000E+00         0.00000E+00        -0.49875E+08
 
   -0.50392E+08         0.69639E+06         0.00000E+00
    0.69639E+06        -0.49168E+08         0.00000E+00
    0.00000E+00         0.00000E+00        -0.49844E+08
 
   -0.50328E+08         0.71204E+06         0.00000E+00
    0.71204E+06        -0.49162E+08         0.00000E+00
    0.00000E+00         0.00000E+00        -0.49813E+08
 
   -0.50263E+08         0.72614E+06         0.00000E+00
    0.72614E+06        -0.49159E+08         0.00000E+00
    0.00000E+00         0.00000E+00        -0.49784E+08
 
   -0.50198E+08         0.73831E+06         0.00000E+00
    0.73831E+06        -0.49159E+08         0.00000E+00
    0.00000E+00         0.00000E+00        -0.49757E+08
 
   -0.50132E+08         0.74815E+06         0.00000E+00
    0.74815E+06        -0.49163E+08         0.00000E+00
    0.00000E+00         0.00000E+00        -0.49731E+08
 
   -0.50066E+08         0.75522E+06         0.00000E+00
    0.75522E+06        -0.49169E+08         0.00000E+00
    0.00000E+00         0.00000E+00        -0.49707E+08
 
   -0.49999E+08         0.75910E+06         0.00000E+00
    0.75910E+06        -0.49178E+08         0.00000E+00
    0.00000E+00         0.00000E+00        -0.49684E+08
 
   -0.49933E+08         0.75933E+06         0.00000E+00
    0.75933E+06        -0.49190E+08         0.00000E+00
    0.00000E+00         0.00000E+00        -0.49664E+08
 
   -0.49867E+08         0.75543E+06         0.00000E+00
    0.75543E+06        -0.49206E+08         0.00000E+00
    0.00000E+00         0.00000E+00        -0.49645E+08
 
   -0.49802E+08         0.74694E+06         0.00000E+00
    0.74694E+06        -0.49223E+08         0.00000E+00
    0.00000E+00         0.00000E+00        -0.49629E+08
 
   -0.49738E+08         0.73338E+06         0.00000E+00
    0.73338E+06        -0.49243E+08         0.00000E+00
    0.00000E+00         0.00000E+00        -0.49615E+08
 
   -0.49677E+08         0.71427E+06         0.00000E+00
    0.71427E+06        -0.49265E+08         0.00000E+00
    0.00000E+00         0.00000E+00        -0.49603E+08
 
   -0.49619E+08         0.68916E+06         0.00000E+00
    0.68916E+06        -0.49289E+08         0.00000E+00
    0.00000E+00         0.00000E+00        -0.49594E+08
 
   -0.53282E+08         0.34736E+05         0.00000E+00
    0.34736E+05        -0.50000E+08         0.00000E+00
    0.00000E+00         0.00000E+00        -0.51355E+08
 
   -0.53190E+08         0.92907E+05         0.00000E+00
    0.92907E+05        -0.50000E+08         0.00000E+00
    0.00000E+00         0.00000E+00        -0.51334E+08
 
   -0.53096E+08         0.14639E+06         0.00000E+00
    0.14639E+06        -0.49999E+08         0.00000E+00
    0.00000E+00         0.00000E+00        -0.51310E+08
 
   -0.52999E+08         0.19533E+06         0.00000E+00
    0.19533E+06        -0.49998E+08         0.00000E+00
    0.00000E+00         0.00000E+00        -0.51282E+08
 
   -0.52901E+08         0.23994E+06         0.00000E+00
    0.23994E+06        -0.49995E+08         0.00000E+00
    0.00000E+00         0.00000E+00        -0.51252E+08
 
   -0.52802E+08         0.28042E+06         0.00000E+00
    0.28042E+06        -0.49992E+08         0.00000E+00
    0.00000E+00         0.00000E+00        -0.51219E+08
 
   -0.52702E+08         0.31702E+06         0.00000E+00
    0.31702E+06        -0.49987E+08         0.00000E+00
    0.00000E+00         0.00000E+00        -0.51184E+08
 
   -0.52603E+08         0.35001E+06         0.00000E+00
    0.35001E+06        -0.49981E+08         0.00000E+00
    0.00000E+00         0.00000E+00        -0.51148E+08
 
   -0.52503E+08         0.37966E+06         0.00000E+00
    0.37966E+06        -0.49974E+08         0.00000E+00
    0.00000E+00         0.00000E+00        -0.51109E+08
 
   -0.52405E+08         0.40625E+06         0.00000E+00
    0.40625E+06        -0.49965E+08         0.00000E+00
    0.00000E+00         0.00000E+00        -0.51069E+08
 
   -0.52308E+08         0.43008E+06         0.00000E+00
    0.43008E+06        -0.49955E+08         0.00000E+00
    0.00000E+00         0.00000E+00        -0.51028E+08
 
   -0.52212E+08         0.45143E+06         0.00000E+00
    0.45143E+06        -0.49943E+08         0.00000E+00
    0.00000E+00         0.00000E+00        -0.50986E+08
 
   -0.52118E+08         0.47057E+06         0.00000E+00
    0.47057E+06        -0.49930E+08         0.00000E+00
    0.00000E+00         0.00000E+00        -0.50943E+08
 
   -0.52025E+08         0.48780E+06         0.00000E+00
    0.48780E+06        -0.49915E+08         0.00000E+00
    0.00000E+00         0.00000E+00        -0.50899E+08
 
   -0.51935E+08         0.50336E+06         0.00000E+00
    0.50336E+06        -0.49900E+08         0.00000E+00
    0.00000E+00         0.00000E+00        -0.50855E+08
 
   -0.51847E+08         0.51751E+06         0.00000E+00
    0.51751E+06        -0.49883E+08         0.00000E+00
    0.00000E+00         0.00000E+00        -0.50811E+08
 
   -0.51760E+08         0.53049E+06         0.00000E+00
    0.53049E+06        -0.49865E+08         0.00000E+00
    0.00000E+00         0.00000E+00        -0.50767E+08
 
   -0.51676E+08         0.54251E+06         0.00000E+00
    0.54251E+06        -0.49846E+08         0.00000E+00
    0.00000E+00         0.00000E+00        -0.50722E+08
 
   -0.51595E+08         0.55376E+06         0.00000E+00
    0.55376E+06        -0.49827E+08         0.00000E+00
    0.00000E+00         0.00000E+00        -0.50678E+08
 
   -0.51515E+08         0.56444E+06         0.00000E+00
    0.56444E+06        -0.49806E+08         0.00000E+00
    0.00000E+00         0.00000E+00        -0.50634E+08
 
   -0.51438E+08         0.57468E+06         0.00000E+00
    0.57468E+06        -0.49786E+08         0.00000E+00
    0.00000E+00         0.00000E+00        -0.50590E+08
 
   -0.51362E+08         0.58463E+06         0.00000E+00
    0.58463E+06        -0.49765E+08         0.00000E+00
    0.00000E+00         0.00000E+00        -0.50547E+08
 
   -0.51289E+08         0.59440E+06         0.00000E+00
    0.59440E+06        -0.49744E+08         0.00000E+00
    0.00000E+00         0.00000E+00        -0.50504E+08
 
   -0.51217E+08         0.60407E+06         0.00000E+00
    0.60407E+06        -0.49723E+08         0.00000E+00
    0.00000E+00         0.00000E+00        -0.50462E+08
 
   -0.51147E+08         0.61371E+06         0.00000E+00
    0.61371E+06        -0.49702E+08         0.00000E+00
    0.00000E+00         0.00000E+00        -0.50420E+08
 
   -0.51079E+08         0.62337E+06         0.00000E+00
    0.62337E+06        -0.49682E+08         0.00000E+00
    0.00000E+00         0.00000E+00        -0.50380E+08
 
   -0.51012E+08         0.63305E+06         0.00000E+00
    0.63305E+06        -0.49662E+08         0.00000E+00
    0.00000E+00         0.00000E+00        -0.50340E+08
 
   -0.50947E+08         0.64276E+06         0.00000E+00
    0.64276E+06        -0.49643E+08         0.00000E+00
    0.00000E+00         0.00000E+00        -0.50300E+08
 
   -0.50883E+08         0.65246E+06         0.00000E+00
    0.65246E+06        -0.49625E+08         0.00000E+00
    0.00000E+00         0.00000E+00        -0.50262E+08
 
   -0.50819E+08         0.66211E+06         0.00000E+00
    0.66211E+06        -0.49607E+08         0.00000E+00
    0.00000E+00         0.00000E+00        -0.50225E+08
 
   -0.50757E+08         0.67162E+06         0.00000E+00
    0.67162E+06        -0.49591E+08         0.00000E+00
    0.00000E+00         0.00000E+00        -0.50188E+08
 
   -0.50696E+08         0.68092E+06         0.00000E+00
    0.68092E+06        -0.49577E+08         0.00000E+00
    0.00000E+00         0.00000E+00        -0.50153E+08
 
   -0.50635E+08         0.68988E+06         0.00000E+00
    0.68988E+06        -0.49564E+08         0.00000E+00
    0.00000E+00         0.00000E+00        -0.50119E+08
 
   -0.50576E+08         0.69836E+06         0.00000E+00
    0.69836E+06        -0.49552E+08         0.00000E+00
    0.00000E+00         0.00000E+00        -0.50085E+08
 
   -0.50516E+08         0.70621E+06         0.00000E+00
    0.70621E+06        -0.49542E+08         0.00000E+00
    0.00000E+00         0.00000E+00        -0.50053E+08
 
   -0.50458E+08         0.71325E+06         0.00000E+00
    0.71325E+06        -0.49534E+08         0.00000E+00
    0.00000E+00         0.00000E+00        -0.50022E+08
 
   -0.50400E+08         0.71930E+06         0.00000E+00
    0.71930E+06        -0.49527E+08         0.00000E+00
    0.00000E+00         0.00000E+00        -0.49993E+08
 
   -0.50343E+08         0.72414E+06         0.00000E+00
    0.72414E+06        -0.49523E+08         0.00000E+00
    0.00000E+00         0.00000E+00        -0.49964E+08
 
   -0.50286E+08         0.72756E+06         0.00000E+00
    0.72756E+06        -0.49520E+08         0.00000E+00
    0.00000E+00         0.00000E+00        -0.49937E+08
 
   -0.50230E+08         0.72931E+06         0.00000E+00
    0.72931E+06        -0.49519E+08         0.00000E+00
    0.00000E+00         0.00000E+00        -0.49912E+08
 
   -0.50175E+08         0.72916E+06         0.00000E+00
    0.72916E+06        -0.49521E+08         0.00000E+00
    0.00000E+00         0.00000E+00        -0.49888E+08
 
   -0.50121E+08         0.72684E+06         0.00000E+00
    0.72684E+06        -0.49524E+08         0.00000E+00
    0.00000E+00         0.00000E+00        -0.49865E+08
 
   -0.50069E+08         0.72209E+06         0.00000E+00
    0.72209E+06        -0.49528E+08         0.00000E+00
    0.00000E+00         0.00000E+00        -0.49845E+08
 
   -0.50018E+08         0.71465E+06         0.00000E+00
    0.71465E+06        -0.49535E+08         0.00000E+00
    0.00000E+00         0.00000E+00        -0.49826E+08
 
   -0.49969E+08         0.70425E+06         0.00000E+00
    0.70425E+06        -0.49543E+08         0.00000E+00
    0.00000E+00         0.00000E+00        -0.49809E+08
 
   -0.49922E+08         0.69063E+06         0.00000E+00
    0.69063E+06        -0.49553E+08         0.00000E+00
    0.00000E+00         0.00000E+00        -0.49793E+08
 
   -0.49878E+08         0.67354E+06         0.00000E+00
    0.67354E+06        -0.49563E+08         0.00000E+00
    0.00000E+00         0.00000E+00        -0.49780E+08
 
   -0.49838E+08         0.65273E+06         0.00000E+00
    0.65273E+06        -0.49575E+08         0.00000E+00
    0.00000E+00         0.00000E+00        -0.49770E+08
 
   -0.49801E+08         0.62798E+06         0.00000E+00
    0.62798E+06        -0.49587E+08         0.00000E+00
    0.00000E+00         0.00000E+00        -0.49762E+08
 
   -0.49769E+08         0.59910E+06         0.00000E+00
    0.59910E+06        -0.49600E+08         0.00000E+00
    0.00000E+00         0.00000E+00        -0.49756E+08
 
   -0.52977E+08         0.33868E+05         0.00000E+00
    0.33868E+05        -0.50000E+08         0.00000E+00
    0.00000E+00         0.00000E+00        -0.51268E+08
 
   -0.52907E+08         0.92719E+05         0.00000E+00
    0.92719E+05        -0.50000E+08         0.00000E+00
    0.00000E+00         0.00000E+00        -0.51252E+08
 
   -0.52834E+08         0.14782E+06         0.00000E+00
    0.14782E+06        -0.50001E+08         0.00000E+00
    0.00000E+00         0.00000E+00        -0.51233E+08
 
   -0.52757E+08         0.19924E+06         0.00000E+00
    0.19924E+06        -0.50001E+08         0.00000E+00
    0.00000E+00         0.00000E+00        -0.51211E+08
 
   -0.52679E+08         0.24707E+06         0.00000E+00
    0.24707E+06        -0.50001E+08         0.00000E+00
    0.00000E+00         0.00000E+00        -0.51187E+08
 
   -0.52598E+08         0.29142E+06         0.00000E+00
    0.29142E+06        -0.50001E+08         0.00000E+00
    0.00000E+00         0.00000E+00        -0.51160E+08
 
   -0.52516E+08         0.33242E+06         0.00000E+00
    0.33242E+06        -0.50000E+08         0.00000E+00
    0.00000E+00         0.00000E+00        -0.51132E+08
 
   -0.52433E+08         0.37023E+06         0.00000E+00
    0.37023E+06        -0.49999E+08         0.00000E+00
    0.00000E+00         0.00000E+00        -0.51102E+08
 
   -0.52349E+08         0.40501E+06         0.00000E+00
    0.40501E+06        -0.49997E+08         0.00000E+00
    0.00000E+00         0.00000E+00        -0.51070E+08
 
   -0.52264E+08         0.43692E+06         0.00000E+00
    0.43692E+06        -0.49994E+08         0.00000E+00
    0.00000E+00         0.00000E+00        -0.51037E+08
 
   -0.52180E+08         0.46615E+06         0.00000E+00
    0.46615E+06        -0.49991E+08         0.00000E+00
    0.00000E+00         0.00000E+00        -0.51003E+08
 
   -0.52096E+08         0.49287E+06         0.00000E+00
    0.49287E+06        -0.49987E+08         0.00000E+00
    0.00000E+00         0.00000E+00        -0.50967E+08
 
   -0.52013E+08         0.51727E+06         0.00000E+00
    0.51727E+06        -0.49982E+08         0.00000E+00
    0.00000E+00         0.00000E+00        -0.50931E+08
 
   -0.51930E+08         0.53954E+06         0.00000E+00
    0.53954E+06        -0.49976E+08         0.00000E+00
    0.00000E+00         0.00000E+00        -0.50894E+08
 
   -0.51848E+08         0.55985E+06         0.00000E+00
    0.55985E+06        -0.49969E+08         0.00000E+00
    0.00000E+00         0.00000E+00        -0.50857E+08
 
   -0.51768E+08         0.57838E+06         0.00000E+00
    0.57838E+06        -0.49962E+08         0.00000E+00
    0.00000E+00         0.00000E+00        -0.50819E+08
 
   -0.51688E+08         0.59529E+06         0.00000E+00
    0.59529E+06        -0.49954E+08         0.00000E+00
    0.00000E+00         0.00000E+00        -0.50781E+08
 
   -0.51610E+08         0.61074E+06         0.00000E+00
    0.61074E+06        -0.49946E+08         0.00000E+00
    0.00000E+00         0.00000E+00        -0.50743E+08
 
   -0.51533E+08         0.62487E+06         0.00000E+00
    0.62487E+06        -0.49937E+08         0.00000E+00
    0.00000E+00         0.00000E+00        -0.50705E+08
 
   -0.51458E+08         0.63783E+06         0.00000E+00
    0.63783E+06        -0.49927E+08         0.00000E+00
    0.00000E+00         0.00000E+00        -0.50667E+08
 
   -0.51384E+08         0.64973E+06         0.00000E+00
    0.64973E+06        -0.49917E+08         0.00000E+00
    0.00000E+00         0.00000E+00        -0.50629E+08
 
   -0.51311E+08         0.66068E+06         0.00000E+00
    0.66068E+06        -0.49907E+08         0.00000E+00
    0.00000E+00         0.00000E+00        -0.50591E+08
 
   -0.51240E+08         0.67076E+06         0.00000E+00
    0.67076E+06        -0.49897E+08         0.00000E+00
    0.00000E+00         0.00000E+00        -0.50554E+08
 
   -0.51171E+08         0.68007E+06         0.00000E+00
    0.68007E+06        -0.49887E+08         0.00000E+00
    0.00000E+00         0.00000E+00        -0.50517E+08
 
   -0.51103E+08         0.68865E+06         0.00000E+00
    0.68865E+06        -0.49877E+08         0.00000E+00
    0.00000E+00         0.00000E+00        -0.50481E+08
 
   -0.51036E+08         0.69656E+06         0.00000E+00
    0.69656E+06        -0.49867E+08         0.00000E+00
    0.00000E+00         0.00000E+00        -0.50445E+08
 
   -0.50971E+08         0.70382E+06         0.00000E+00
    0.70382E+06        -0.49858E+08         0.00000E+00
    0.00000E+00         0.00000E+00        -0.50410E+08
 
   -0.50907E+08         0.71044E+06         0.00000E+00
    0.71044E+06        -0.49848E+08         0.00000E+00
    0.00000E+00         0.00000E+00        -0.50376E+08
 
   -0.50845E+08         0.71642E+06         0.00000E+00
    0.71642E+06        -0.49840E+08         0.00000E+00
    0.00000E+00         0.00000E+00        -0.50342E+08
 
   -0.50783E+08         0.72173E+06         0.00000E+00
    0.72173E+06        -0.49832E+08         0.00000E+00
    0.00000E+00         0.00000E+00        -0.50310E+08
 
   -0.50724E+08         0.72636E+06         0.00000E+00
    0.72636E+06        -0.49824E+08         0.00000E+00
    0.00000E+00         0.00000E+00        -0.50278E+08
 
   -0.50665E+08         0.73024E+06         0.00000E+00
    0.73024E+06        -0.49818E+08         0.00000E+00
    0.00000E+00         0.00000E+00        -0.50247E+08
 
   -0.50608E+08         0.73331E+06         0.00000E+00
    0.73331E+06        -0.49812E+08         0.00000E+00
    0.00000E+00         0.00000E+00        -0.50217E+08
 
   -0.50552E+08         0.73549E+06         0.00000E+00
    0.73549E+06        -0.49807E+08         0.00000E+00
    0.00000E+00         0.00000E+00        -0.50188E+08
 
   -0.50497E+08         0.73670E+06         0.00000E+00
    0.73670E+06        -0.49803E+08         0.00000E+00
    0.00000E+00         0.00000E+00        -0.50160E+08
 
   -0.50443E+08         0.73683E+06         0.00000E+00
    0.73683E+06        -0.49801E+08         0.00000E+00
    0.00000E+00         0.00000E+00        -0.50133E+08
 
   -0.50391E+08         0.73577E+06         0.00000E+00
    0.73577E+06        -0.49799E+08         0.00000E+00
    0.00000E+00         0.00000E+00        -0.50108E+08
 
   -0.50341E+08         0.73340E+06         0.00000E+00
    0.73340E+06        -0.49798E+08         0.00000E+00
    0.00000E+00         0.00000E+00        -0.50083E+08
 
   -0.50292E+08         0.72960E+06         0.00000E+00
    0.72960E+06        -0.49798E+08         0.00000E+00
    0.00000E+00         0.00000E+00        -0.50060E+08
 
   -0.50244E+08         0.72423E+06         0.00000E+00
    0.72423E+06        -0.49800E+08         0.00000E+00
    0.00000E+00         0.00000E+00        -0.50038E+08
 
   -0.50199E+08         0.71715E+06         0.00000E+00
    0.71715E+06        -0.49802E+08         0.00000E+00
    0.00000E+00         0.00000E+00        -0.50018E+08
 
   -0.50156E+08         0.70825E+06         0.00000E+00
    0.70825E+06        -0.49805E+08         0.00000E+00
    0.00000E+00         0.00000E+00        -0.49999E+08
 
   -0.50115E+08         0.69737E+06         0.00000E+00
    0.69737E+06        -0.49809E+08         0.00000E+00
    0.00000E+00         0.00000E+00        -0.49982E+08
 
   -0.50076E+08         0.68438E+06         0.00000E+00
    0.68438E+06        -0.49814E+08         0.00000E+00
    0.00000E+00         0.00000E+00        -0.49967E+08
 
   -0.50041E+08         0.66918E+06         0.00000E+00
    0.66918E+06        -0.49819E+08         0.00000E+00
    0.00000E+00         0.00000E+00        -0.49953E+08
 
   -0.50008E+08         0.65164E+06         0.00000E+00
    0.65164E+06        -0.49825E+08         0.00000E+00
    0.00000E+00         0.00000E+00        -0.49941E+08
 
   -0.49980E+08         0.63167E+06         0.00000E+00
    0.63167E+06        -0.49831E+08         0.00000E+00
    0.00000E+00         0.00000E+00        -0.49931E+08
 
   -0.49955E+08         0.60920E+06         0.00000E+00
    0.60920E+06        -0.49838E+08         0.00000E+00
    0.00000E+00         0.00000E+00        -0.49923E+08
 
   -0.49935E+08         0.58415E+06         0.00000E+00
    0.58415E+06        -0.49844E+08         0.00000E+00
    0.00000E+00         0.00000E+00        -0.49917E+08
 
   -0.49919E+08         0.55651E+06         0.00000E+00
    0.55651E+06        -0.49849E+08         0.00000E+00
    0.00000E+00         0.00000E+00        -0.49914E+08
 
   -0.52679E+08         0.32031E+05         0.00000E+00
    0.32031E+05        -0.50000E+08         0.00000E+00
    0.00000E+00         0.00000E+00        -0.51173E+08
 
   -0.52625E+08         0.89061E+05         0.00000E+00
    0.89061E+05        -0.50001E+08         0.00000E+00
    0.00000E+00         0.00000E+00        -0.51160E+08
 
   -0.52569E+08         0.14308E+06         0.00000E+00
    0.14308E+06        -0.50002E+08         0.00000E+00
    0.00000E+00         0.00000E+00        -0.51145E+08
 
   -0.52509E+08         0.19411E+06         0.00000E+00
    0.19411E+06        -0.50003E+08         0.00000E+00
    0.00000E+00         0.00000E+00        -0.51128E+08
 
   -0.52446E+08         0.24217E+06         0.00000E+00
    0.24217E+06        -0.50005E+08         0.00000E+00
    0.00000E+00         0.00000E+00        -0.51109E+08
 
   -0.52381E+08         0.28732E+06         0.00000E+00
    0.28732E+06        -0.50007E+08         0.00000E+00
    0.00000E+00         0.00000E+00        -0.51088E+08
 
   -0.52314E+08         0.32963E+06         0.00000E+00
    0.32963E+06        -0.50009E+08         0.00000E+00
    0.00000E+00         0.00000E+00        -0.51065E+08
 
   -0.52246E+08         0.36916E+06         0.00000E+00
    0.36916E+06        -0.50011E+08         0.00000E+00
    0.00000E+00         0.00000E+00        -0.51041E+08
 
   -0.52176E+08         0.40600E+06         0.00000E+00
    0.40600E+06        -0.50013E+08         0.00000E+00
    0.00000E+00         0.00000E+00        -0.51015E+08
 
   -0.52105E+08         0.44025E+06         0.00000E+00
    0.44025E+06        -0.50015E+08         0.00000E+00
    0.00000E+00         0.00000E+00        -0.50988E+08
 
   -0.52033E+08         0.47202E+06         0.00000E+00
    0.47202E+06        -0.50016E+08         0.00000E+00
    0.00000E+00         0.00000E+00        -0.50960E+08
 
   -0.51961E+08         0.50142E+06         0.00000E+00
    0.50142E+06        -0.50017E+08         0.00000E+00
    0.00000E+00         0.00000E+00        -0.50931E+08
 
   -0.51889E+08         0.52855E+06         0.00000E+00
    0.52855E+06        -0.50018E+08         0.00000E+00
    0.00000E+00         0.00000E+00        -0.50902E+08
 
   -0.51816E+08         0.55353E+06         0.00000E+00
    0.55353E+06        -0.50018E+08         0.00000E+00
    0.00000E+00         0.00000E+00        -0.50871E+08
 
   -0.51744E+08         0.57648E+06         0.00000E+00
    0.57648E+06        -0.50018E+08         0.00000E+00
    0.00000E+00         0.00000E+00        -0.50840E+08
 
   -0.51672E+08         0.59752E+06         0.00000E+00
    0.59752E+06        -0.50017E+08         0.00000E+00
    0.00000E+00         0.00000E+00        -0.50808E+08
 
   -0.51601E+08         0.61675E+06         0.00000E+00
    0.61675E+06        -0.50017E+08         0.00000E+00
    0.00000E+00         0.00000E+00        -0.50777E+08
 
   -0.51531E+08         0.63429E+06         0.00000E+00
    0.63429E+06        -0.50016E+08         0.00000E+00
    0.00000E+00         0.00000E+00        -0.50745E+08
 
   -0.51461E+08         0.65024E+06         0.00000E+00
    0.65024E+06        -0.50014E+08         0.00000E+00
    0.00000E+00         0.00000E+00        -0.50713E+08
 
   -0.51392E+08         0.66469E+06         0.00000E+00
    0.66469E+06        -0.50013E+08         0.00000E+00
    0.00000E+00         0.00000E+00        -0.50681E+08
 
   -0.51324E+08         0.67774E+06         0.00000E+00
    0.67774E+06        -0.50011E+08         0.00000E+00
    0.00000E+00         0.00000E+00        -0.50649E+08
 
   -0.51257E+08         0.68947E+06         0.00000E+00
    0.68947E+06        -0.50009E+08         0.00000E+00
    0.00000E+00         0.00000E+00        -0.50617E+08
 
   -0.51191E+08         0.69995E+06         0.00000E+00
    0.69995E+06        -0.50007E+08         0.00000E+00
    0.00000E+00         0.00000E+00        -0.50585E+08
 
   -0.51126E+08         0.70925E+06         0.00000E+00
    0.70925E+06        -0.50005E+08         0.00000E+00
    0.00000E+00         0.00000E+00        -0.50554E+08
 
   -0.51063E+08         0.71742E+06         0.00000E+00
    0.71742E+06        -0.50003E+08         0.00000E+00
    0.00000E+00         0.00000E+00        -0.50523E+08
 
   -0.51001E+08         0.72450E+06         0.00000E+00
    0.72450E+06        -0.50001E+08         0.00000E+00
    0.00000E+00         0.00000E+00        -0.50493E+08
 
   -0.50940E+08         0.73053E+06         0.00000E+00
    0.73053E+06        -0.49999E+08         0.00000E+00
    0.00000E+00         0.00000E+00        -0.50463E+08
 
   -0.50880E+08         0.73553E+06         0.00000E+00
    0.73553E+06        -0.49997E+08         0.00000E+00
    0.00000E+00         0.00000E+00        -0.50434E+08
 
   -0.50822E+08         0.73952E+06         0.00000E+00
    0.73952E+06        -0.49996E+08         0.00000E+00
    0.00000E+00         0.00000E+00        -0.50405E+08
 
   -0.50765E+08         0.74250E+06         0.00000E+00
    0.74250E+06        -0.49994E+08         0.00000E+00
    0.00000E+00         0.00000E+00        -0.50378E+08
 
   -0.50710E+08         0.74447E+06         0.00000E+00
    0.74447E+06        -0.49994E+08         0.00000E+00
    0.00000E+00         0.00000E+00        -0.50350E+08
 
   -0.50656E+08         0.74540E+06         0.00000E+00
    0.74540E+06        -0.49993E+08         0.00000E+00
    0.00000E+00         0.00000E+00        -0.50324E+08
 
   -0.50603E+08         0.74529E+06         0.00000E+00
    0.74529E+06        -0.49993E+08         0.00000E+00
    0.00000E+00         0.00000E+00        -0.50299E+08
 
   -0.50552E+08         0.74409E+06         0.00000E+00
    0.74409E+06        -0.49993E+08         0.00000E+00
    0.00000E+00         0.00000E+00        -0.50274E+08
 
   -0.50503E+08         0.74177E+06         0.00000E+00
    0.74177E+06        -0.49994E+08         0.00000E+00
    0.00000E+00         0.00000E+00        -0.50251E+08
 
   -0.50455E+08         0.73829E+06         0.00000E+00
    0.73829E+06        -0.49996E+08         0.00000E+00
    0.00000E+00         0.00000E+00        -0.50228E+08
 
   -0.50409E+08         0.73359E+06         0.00000E+00
    0.73359E+06        -0.49997E+08         0.00000E+00
    0.00000E+00         0.00000E+00        -0.50207E+08
 
   -0.50366E+08         0.72764E+06         0.00000E+00
    0.72764E+06        -0.49999E+08         0.00000E+00
    0.00000E+00         0.00000E+00        -0.50187E+08
 
   -0.50324E+08         0.72037E+06         0.00000E+00
    0.72037E+06        -0.50002E+08         0.00000E+00
    0.00000E+00         0.00000E+00        -0.50167E+08
 
   -0.50284E+08         0.71174E+06         0.00000E+00
    0.71174E+06        -0.50005E+08         0.00000E+00
    0.00000E+00         0.00000E+00        -0.50149E+08
 
   -0.50247E+08         0.70169E+06         0.00000E+00
    0.70169E+06        -0.50008E+08         0.00000E+00
    0.00000E+00         0.00000E+00        -0.50133E+08
 
   -0.50212E+08         0.69018E+06         0.00000E+00
    0.69018E+06        -0.50012E+08         0.00000E+00
    0.00000E+00         0.00000E+00        -0.50118E+08
 
   -0.50180E+08         0.67716E+06         0.00000E+00
    0.67716E+06        -0.50016E+08         0.00000E+00
    0.00000E+00         0.00000E+00        -0.50104E+08
 
   -0.50150E+08         0.66259E+06         0.00000E+00
    0.66259E+06        -0.50020E+08         0.00000E+00
    0.00000E+00         0.00000E+00        -0.50091E+08
 
   -0.50124E+08         0.64647E+06         0.00000E+00
    0.64647E+06        -0.50024E+08         0.00000E+00
    0.00000E+00         0.00000E+00        -0.50080E+08
 
   -0.50102E+08         0.62877E+06         0.00000E+00
    0.62877E+06        -0.50027E+08         0.00000E+00
    0.00000E+00         0.00000E+00        -0.50071E+08
 
   -0.50083E+08         0.60949E+06         0.00000E+00
    0.60949E+06        -0.50031E+08         0.00000E+00
    0.00000E+00         0.00000E+00        -0.50064E+08
 
   -0.50069E+08         0.58867E+06         0.00000E+00
    0.58867E+06        -0.50034E+08         0.00000E+00
    0.00000E+00         0.00000E+00        -0.50058E+08
 
   -0.50058E+08         0.56635E+06         0.00000E+00
    0.56635E+06        -0.50036E+08         0.00000E+00
    0.00000E+00         0.00000E+00        -0.50054E+08
 
   -0.50053E+08         0.54259E+06         0.00000E+00
    0.54259E+06        -0.50037E+08         0.00000E+00
    0.00000E+00         0.00000E+00        -0.50052E+08
 
   -0.52395E+08         0.29538E+05         0.00000E+00
    0.29538E+05        -0.50000E+08         0.00000E+00
    0.00000E+00         0.00000E+00        -0.51074E+08
 
   -0.52355E+08         0.83091E+05         0.00000E+00
    0.83091E+05        -0.50001E+08         0.00000E+00
    0.00000E+00         0.00000E+00        -0.51065E+08
 
   -0.52312E+08         0.13424E+06         0.00000E+00
    0.13424E+06        -0.50002E+08         0.00000E+00
    0.00000E+00         0.00000E+00        -0.51054E+08
 
   -0.52266E+08         0.18297E+06         0.00000E+00
    0.18297E+06        -0.50005E+08         0.00000E+00
    0.00000E+00         0.00000E+00        -0.51040E+08
 
   -0.52216E+08         0.22927E+06         0.00000E+00
    0.22927E+06        -0.50008E+08         0.00000E+00
    0.00000E+00         0.00000E+00        -0.51026E+08
 
   -0.52165E+08         0.27316E+06         0.00000E+00
    0.27316E+06        -0.50011E+08         0.00000E+00
    0.00000E+00         0.00000E+00        -0.51009E+08
 
   -0.52111E+08         0.31465E+06         0.00000E+00
    0.31465E+06        -0.50015E+08         0.00000E+00
    0.00000E+00         0.00000E+00        -0.50991E+08
 
   -0.52055E+08         0.35377E+06         0.00000E+00
    0.35377E+06        -0.50019E+08         0.00000E+00
    0.00000E+00         0.00000E+00        -0.50972E+08
 
   -0.51997E+08         0.39055E+06         0.00000E+00
    0.39055E+06        -0.50023E+08         0.00000E+00
    0.00000E+00         0.00000E+00        -0.50951E+08
 
   -0.51938E+08         0.42506E+06         0.00000E+00
    0.42506E+06        -0.50028E+08         0.00000E+00
    0.00000E+00         0.00000E+00        -0.50930E+08
 
   -0.51878E+08         0.45733E+06         0.00000E+00
    0.45733E+06        -0.50032E+08         0.00000E+00
    0.00000E+00         0.00000E+00        -0.50907E+08
 
   -0.51817E+08         0.48744E+06         0.00000E+00
    0.48744E+06        -0.50037E+08         0.00000E+00
    0.00000E+00         0.00000E+00        -0.50883E+08
 
   -0.51756E+08         0.51544E+06         0.00000E+00
    0.51544E+06        -0.50041E+08         0.00000E+00
    0.00000E+00         0.00000E+00        -0.50859E+08
 
   -0.51694E+08         0.54140E+06         0.00000E+00
    0.54140E+06        -0.50045E+08         0.00000E+00
    0.00000E+00         0.00000E+00        -0.50834E+08
 
   -0.51631E+08         0.56540E+06         0.00000E+00
    0.56540E+06        -0.50050E+08         0.00000E+00
    0.00000E+00         0.00000E+00        -0.50809E+08
 
   -0.51569E+08         0.58751E+06         0.00000E+00
    0.58751E+06        -0.50054E+08         0.00000E+00
    0.00000E+00         0.00000E+00        -0.50783E+08
 
   -0.51506E+08         0.60781E+06         0.00000E+00
    0.60781E+06        -0.50058E+08         0.00000E+00
    0.00000E+00         0.00000E+00        -0.50757E+08
 
   -0.51444E+08         0.62635E+06         0.00000E+00
    0.62635E+06        -0.50062E+08         0.00000E+00
    0.00000E+00         0.00000E+00        -0.50731E+08
 
   -0.51382E+08         0.64322E+06         0.00000E+00
    0.64322E+06        -0.50066E+08         0.00000E+00
    0.00000E+00         0.00000E+00        -0.50705E+08
 
   -0.51321E+08         0.65848E+06         0.00000E+00
    0.65848E+06        -0.50070E+08         0.00000E+00
    0.00000E+00         0.00000E+00        -0.50678E+08
 
   -0.51260E+08         0.67221E+06         0.00000E+00
    0.67221E+06        -0.50074E+08         0.00000E+00
    0.00000E+00         0.00000E+00        -0.50652E+08
 
   -0.51200E+08         0.68445E+06         0.00000E+00
    0.68445E+06        -0.50077E+08         0.00000E+00
    0.00000E+00         0.00000E+00        -0.50625E+08
 
   -0.51141E+08         0.69527E+06         0.00000E+00
    0.69527E+06        -0.50081E+08         0.00000E+00
    0.00000E+00         0.00000E+00        -0.50599E+08
 
   -0.51082E+08         0.70472E+06         0.00000E+00
    0.70472E+06        -0.50084E+08         0.00000E+00
    0.00000E+00         0.00000E+00        -0.50573E+08
 
   -0.51025E+08         0.71286E+06         0.00000E+00
    0.71286E+06        -0.50088E+08         0.00000E+00
    0.00000E+00         0.00000E+00        -0.50548E+08
 
   -0.50969E+08         0.71971E+06         0.00000E+00
    0.71971E+06        -0.50091E+08         0.00000E+00
    0.00000E+00         0.00000E+00        -0.50523E+08
 
   -0.50914E+08         0.72532E+06         0.00000E+00
    0.72532E+06        -0.50095E+08         0.00000E+00
    0.00000E+00         0.00000E+00        -0.50498E+08
 
   -0.50860E+08         0.72972E+06         0.00000E+00
    0.72972E+06        -0.50098E+08         0.00000E+00
    0.00000E+00         0.00000E+00        -0.50474E+08
 
   -0.50807E+08         0.73293E+06         0.00000E+00
    0.73293E+06        -0.50102E+08         0.00000E+00
    0.00000E+00         0.00000E+00        -0.50450E+08
 
   -0.50755E+08         0.73498E+06         0.00000E+00
    0.73498E+06        -0.50105E+08         0.00000E+00
    0.00000E+00         0.00000E+00        -0.50427E+08
 
   -0.50705E+08         0.73588E+06         0.00000E+00
    0.73588E+06        -0.50109E+08         0.00000E+00
    0.00000E+00         0.00000E+00        -0.50404E+08
 
   -0.50657E+08         0.73564E+06         0.00000E+00
    0.73564E+06        -0.50113E+08         0.00000E+00
    0.00000E+00         0.00000E+00        -0.50382E+08
 
   -0.50610E+08         0.73427E+06         0.00000E+00
    0.73427E+06        -0.50117E+08         0.00000E+00
    0.00000E+00         0.00000E+00        -0.50361E+08
 
   -0.50564E+08         0.73178E+06         0.00000E+00
    0.73178E+06        -0.50121E+08         0.00000E+00
    0.00000E+00         0.00000E+00        -0.50341E+08
 
   -0.50521E+08         0.72816E+06         0.00000E+00
    0.72816E+06        -0.50125E+08         0.00000E+00
    0.00000E+00         0.00000E+00        -0.50322E+08
 
   -0.50479E+08         0.72341E+06         0.00000E+00
    0.72341E+06        -0.50129E+08         0.00000E+00
    0.00000E+00         0.00000E+00        -0.50303E+08
 
   -0.50439E+08         0.71753E+06         0.00000E+00
    0.71753E+06        -0.50133E+08         0.00000E+00
    0.00000E+00         0.00000E+00        -0.50285E+08
 
   -0.50401E+08         0.71052E+06         0.00000E+00
    0.71052E+06        -0.50138E+08         0.00000E+00
    0.00000E+00         0.00000E+00        -0.50269E+08
 
   -0.50366E+08         0.70238E+06         0.00000E+00
    0.70238E+06        -0.50142E+08         0.00000E+00
    0.00000E+00         0.00000E+00        -0.50253E+08
 
   -0.50332E+08         0.69311E+06         0.00000E+00
    0.69311E+06        -0.50146E+08         0.00000E+00
    0.00000E+00         0.00000E+00        -0.50239E+08
 
   -0.50301E+08         0.68271E+06         0.00000E+00
    0.68271E+06        -0.50150E+08         0.00000E+00
    0.00000E+00         0.00000E+00        -0.50225E+08
 
   -0.50273E+08         0.67120E+06         0.00000E+00
    0.67120E+06        -0.50155E+08         0.00000E+00
    0.00000E+00         0.00000E+00        -0.50213E+08
 
   -0.50247E+08         0.65860E+06         0.00000E+00
    0.65860E+06        -0.50158E+08         0.00000E+00
    0.00000E+00         0.00000E+00        -0.50202E+08
 
   -0.50224E+08         0.64493E+06         0.00000E+00
    0.64493E+06        -0.50162E+08         0.00000E+00
    0.00000E+00         0.00000E+00        -0.50192E+08
 
   -0.50205E+08         0.63022E+06         0.00000E+00
    0.63022E+06        -0.50165E+08         0.00000E+00
    0.00000E+00         0.00000E+00        -0.50183E+08
 
   -0.50189E+08         0.61454E+06         0.00000E+00
    0.61454E+06        -0.50168E+08         0.00000E+00
    0.00000E+00         0.00000E+00        -0.50176E+08
 
   -0.50176E+08         0.59793E+06         0.00000E+00
    0.59793E+06        -0.50170E+08         0.00000E+00
    0.00000E+00         0.00000E+00        -0.50170E+08
 
   -0.50167E+08         0.58049E+06         0.00000E+00
    0.58049E+06        -0.50171E+08         0.00000E+00
    0.00000E+00         0.00000E+00        -0.50166E+08
 
   -0.50162E+08         0.56230E+06         0.00000E+00
    0.56230E+06        -0.50172E+08         0.00000E+00
    0.00000E+00         0.00000E+00        -0.50163E+08
 
   -0.50161E+08         0.54349E+06         0.00000E+00
    0.54349E+06        -0.50172E+08         0.00000E+00
    0.00000E+00         0.00000E+00        -0.50162E+08
 
   -0.52133E+08         0.26672E+05         0.00000E+00
    0.26672E+05        -0.50000E+08         0.00000E+00
    0.00000E+00         0.00000E+00        -0.50977E+08
 
   -0.52104E+08         0.75748E+05         0.00000E+00
    0.75748E+05        -0.50001E+08         0.00000E+00
    0.00000E+00         0.00000E+00        -0.50971E+08
 
   -0.52071E+08         0.12293E+06         0.00000E+00
    0.12293E+06        -0.50003E+08         0.00000E+00
    0.00000E+00         0.00000E+00        -0.50962E+08
 
   -0.52036E+08         0.16819E+06         0.00000E+00
    0.16819E+06        -0.50006E+08         0.00000E+00
    0.00000E+00         0.00000E+00        -0.50952E+08
 
   -0.51998E+08         0.21148E+06         0.00000E+00
    0.21148E+06        -0.50009E+08         0.00000E+00
    0.00000E+00         0.00000E+00        -0.50941E+08
 
   -0.51957E+08         0.25279E+06         0.00000E+00
    0.25279E+06        -0.50014E+08         0.00000E+00
    0.00000E+00         0.00000E+00        -0.50928E+08
 
   -0.51914E+08         0.29210E+06         0.00000E+00
    0.29210E+06        -0.50018E+08         0.00000E+00
    0.00000E+00         0.00000E+00        -0.50914E+08
 
   -0.51869E+08         0.32943E+06         0.00000E+00
    0.32943E+06        -0.50024E+08         0.00000E+00
    0.00000E+00         0.00000E+00        -0.50899E+08
 
   -0.51822E+08         0.36477E+06         0.00000E+00
    0.36477E+06        -0.50029E+08         0.00000E+00
    0.00000E+00         0.00000E+00        -0.50883E+08
 
   -0.51774E+08         0.39813E+06         0.00000E+00
    0.39813E+06        -0.50035E+08         0.00000E+00
    0.00000E+00         0.00000E+00        -0.50865E+08
 
   -0.51724E+08         0.42955E+06         0.00000E+00
    0.42955E+06        -0.50042E+08         0.00000E+00
    0.00000E+00         0.00000E+00        -0.50847E+08
 
   -0.51673E+08         0.45905E+06         0.00000E+00
    0.45905E+06        -0.50048E+08         0.00000E+00
    0.00000E+00         0.00000E+00        -0.50829E+08
 
   -0.51621E+08         0.48665E+06         0.00000E+00
    0.48665E+06        -0.50055E+08         0.00000E+00
    0.00000E+00         0.00000E+00        -0.50809E+08
 
   -0.51569E+08         0.51240E+06         0.00000E+00
    0.51240E+06        -0.50062E+08         0.00000E+00
    0.00000E+00         0.00000E+00        -0.50790E+08
 
   -0.51516E+08         0.53633E+06         0.00000E+00
    0.53633E+06        -0.50069E+08         0.00000E+00
    0.00000E+00         0.00000E+00        -0.50769E+08
 
   -0.51462E+08         0.55850E+06         0.00000E+00
    0.55850E+06        -0.50076E+08         0.00000E+00
    0.00000E+00         0.00000E+00        -0.50748E+08
 
   -0.51408E+08         0.57893E+06         0.00000E+00
    0.57893E+06        -0.50083E+08         0.00000E+00
    0.00000E+00         0.00000E+00        -0.50727E+08
 
   -0.51355E+08         0.59769E+06         0.00000E+00
    0.59769E+06        -0.50090E+08         0.00000E+00
    0.00000E+00         0.00000E+00        -0.50706E+08
 
   -0.51301E+08         0.61482E+06         0.00000E+00
    0.61482E+06        -0.50098E+08         0.00000E+00
    0.00000E+00         0.00000E+00        -0.50685E+08
 
   -0.51248E+08         0.63036E+06         0.00000E+00
    0.63036E+06        -0.50105E+08         0.00000E+00
    0.00000E+00         0.00000E+00        -0.50663E+08
 
   -0.51194E+08         0.64437E+06         0.00000E+00
    0.64437E+06        -0.50112E+08         0.00000E+00
    0.00000E+00         0.00000E+00        -0.50642E+08
 
   -0.51142E+08         0.65688E+06         0.00000E+00
    0.65688E+06        -0.50119E+08         0.00000E+00
    0.00000E+00         0.00000E+00        -0.50620E+08
 
   -0.51089E+08         0.66795E+06         0.00000E+00
    0.66795E+06        -0.50126E+08         0.00000E+00
    0.00000E+00         0.00000E+00        -0.50599E+08
 
   -0.51038E+08         0.67762E+06         0.00000E+00
    0.67762E+06        -0.50133E+08         0.00000E+00
    0.00000E+00         0.00000E+00        -0.50578E+08
 
   -0.50987E+08         0.68593E+06         0.00000E+00
    0.68593E+06        -0.50140E+08         0.00000E+00
    0.00000E+00         0.00000E+00        -0.50557E+08
 
   -0.50937E+08         0.69291E+06         0.00000E+00
    0.69291E+06        -0.50147E+08         0.00000E+00
    0.00000E+00         0.00000E+00        -0.50536E+08
 
   -0.50888E+08         0.69861E+06         0.00000E+00
    0.69861E+06        -0.50154E+08         0.00000E+00
    0.00000E+00         0.00000E+00        -0.50516E+08
 
   -0.50840E+08         0.70306E+06         0.00000E+00
    0.70306E+06        -0.50161E+08         0.00000E+00
    0.00000E+00         0.00000E+00        -0.50496E+08
 
   -0.50794E+08         0.70629E+06         0.00000E+00
    0.70629E+06        -0.50168E+08         0.00000E+00
    0.00000E+00         0.00000E+00        -0.50477E+08
 
   -0.50748E+08         0.70834E+06         0.00000E+00
    0.70834E+06        -0.50175E+08         0.00000E+00
    0.00000E+00         0.00000E+00        -0.50458E+08
 
   -0.50704E+08         0.70923E+06         0.00000E+00
    0.70923E+06        -0.50181E+08         0.00000E+00
    0.00000E+00         0.00000E+00        -0.50439E+08
 
   -0.50661E+08         0.70900E+06         0.00000E+00
    0.70900E+06        -0.50188E+08         0.00000E+00
    0.00000E+00         0.00000E+00        -0.50421E+08
 
   -0.50619E+08         0.70766E+06         0.00000E+00
    0.70766E+06        -0.50194E+08         0.00000E+00
    0.00000E+00         0.00000E+00        -0.50404E+08
 
   -0.50580E+08         0.70524E+06         0.00000E+00
    0.70524E+06        -0.50201E+08         0.00000E+00
    0.00000E+00         0.00000E+00        -0.50388E+08
 
   -0.50541E+08         0.70178E+06         0.00000E+00
    0.70178E+06        -0.50207E+08         0.00000E+00
    0.00000E+00         0.00000E+00        -0.50372E+08
 
   -0.50505E+08         0.69729E+06         0.00000E+00
    0.69729E+06        -0.50213E+08         0.00000E+00
    0.00000E+00         0.00000E+00        -0.50357E+08
 
   -0.50470E+08         0.69180E+06         0.00000E+00
    0.69180E+06        -0.50219E+08         0.00000E+00
    0.00000E+00         0.00000E+00        -0.50342E+08
 
   -0.50438E+08         0.68535E+06         0.00000E+00
    0.68535E+06        -0.50225E+08         0.00000E+00
    0.00000E+00         0.00000E+00        -0.50329E+08
 
   -0.50407E+08         0.67796E+06         0.00000E+00
    0.67796E+06        -0.50230E+08         0.00000E+00
    0.00000E+00         0.00000E+00        -0.50316E+08
 
   -0.50379E+08         0.66966E+06         0.00000E+00
    0.66966E+06        -0.50236E+08         0.00000E+00
    0.00000E+00         0.00000E+00        -0.50305E+08
 
   -0.50353E+08         0.66051E+06         0.00000E+00
    0.66051E+06        -0.50241E+08         0.00000E+00
    0.00000E+00         0.00000E+00        -0.50294E+08
 
   -0.50329E+08         0.65055E+06         0.00000E+00
    0.65055E+06        -0.50245E+08         0.00000E+00
    0.00000E+00         0.00000E+00        -0.50284E+08
 
   -0.50308E+08         0.63982E+06         0.00000E+00
    0.63982E+06        -0.50249E+08         0.00000E+00
    0.00000E+00         0.00000E+00        -0.50275E+08
 
   -0.50289E+08         0.62839E+06         0.00000E+00
    0.62839E+06        -0.50253E+08         0.00000E+00
    0.00000E+00         0.00000E+00        -0.50267E+08
 
   -0.50274E+08         0.61633E+06         0.00000E+00
    0.61633E+06        -0.50256E+08         0.00000E+00
    0.00000E+00         0.00000E+00        -0.50261E+08
 
   -0.50261E+08         0.60372E+06         0.00000E+00
    0.60372E+06        -0.50258E+08         0.00000E+00
    0.00000E+00         0.00000E+00        -0.50255E+08
 
   -0.50251E+08         0.59065E+06         0.00000E+00
    0.59065E+06        -0.50260E+08         0.00000E+00
    0.00000E+00         0.00000E+00        -0.50250E+08
 
   -0.50245E+08         0.57722E+06         0.00000E+00
    0.57722E+06        -0.50261E+08         0.00000E+00
    0.00000E+00         0.00000E+00        -0.50247E+08
 
   -0.50242E+08         0.56355E+06         0.00000E+00
    0.56355E+06        -0.50261E+08         0.00000E+00
    0.00000E+00         0.00000E+00        -0.50245E+08
 
   -0.50243E+08         0.54978E+06         0.00000E+00
    0.54978E+06        -0.50260E+08         0.00000E+00
    0.00000E+00         0.00000E+00        -0.50244E+08
 
   -0.51896E+08         0.23669E+05         0.00000E+00
    0.23669E+05        -0.50000E+08         0.00000E+00
    0.00000E+00         0.00000E+00        -0.50885E+08
 
   -0.51875E+08         0.67790E+05         0.00000E+00
    0.67790E+05        -0.50001E+08         0.00000E+00
    0.00000E+00         0.00000E+00        -0.50880E+08
 
   -0.51851E+08         0.11045E+06         0.00000E+00
    0.11045E+06        -0.50003E+08         0.00000E+00
    0.00000E+00         0.00000E+00        -0.50874E+08
 
   -0.51824E+08         0.15160E+06         0.00000E+00
    0.15160E+06        -0.50006E+08         0.00000E+00
    0.00000E+00         0.00000E+00        -0.50867E+08
 
   -0.51795E+08         0.19118E+06         0.00000E+00
    0.19118E+06        -0.50010E+08         0.00000E+00
    0.00000E+00         0.00000E+00        -0.50858E+08
 
   -0.51763E+08         0.22917E+06         0.00000E+00
    0.22917E+06        -0.50014E+08         0.00000E+00
    0.00000E+00         0.00000E+00        -0.50848E+08
 
   -0.51729E+08         0.26552E+06         0.00000E+00
    0.26552E+06        -0.50020E+08         0.00000E+00
    0.00000E+00         0.00000E+00        -0.50837E+08
 
   -0.51693E+08         0.30024E+06         0.00000E+00
    0.30024E+06        -0.50025E+08         0.00000E+00
    0.00000E+00         0.00000E+00        -0.50826E+08
 
   -0.51655E+08         0.33329E+06         0.00000E+00
    0.33329E+06        -0.50032E+08         0.00000E+00
    0.00000E+00         0.00000E+00        -0.50813E+08
 
   -0.51616E+08         0.36467E+06         0.00000E+00
    0.36467E+06        -0.50039E+08         0.00000E+00
    0.00000E+00         0.00000E+00        -0.50800E+08
 
   -0.51575E+08         0.39438E+06         0.00000E+00
    0.39438E+06        -0.50046E+08         0.00000E+00
    0.00000E+00         0.00000E+00        -0.50786E+08
 
   -0.51533E+08         0.42243E+06         0.00000E+00
    0.42243E+06        -0.50054E+08         0.00000E+00
    0.00000E+00         0.00000E+00        -0.50771E+08
 
   -0.51490E+08         0.44883E+06         0.00000E+00
    0.44883E+06        -0.50062E+08         0.00000E+00
    0.00000E+00         0.00000E+00        -0.50756E+08
 
   -0.51446E+08         0.47359E+06         0.00000E+00
    0.47359E+06        -0.50070E+08         0.00000E+00
    0.00000E+00         0.00000E+00        -0.50740E+08
 
   -0.51402E+08         0.49673E+06         0.00000E+00
    0.49673E+06        -0.50078E+08         0.00000E+00
    0.00000E+00         0.00000E+00        -0.50724E+08
 
   -0.51357E+08         0.51827E+06         0.00000E+00
    0.51827E+06        -0.50087E+08         0.00000E+00
    0.00000E+00         0.00000E+00        -0.50707E+08
 
   -0.51311E+08         0.53825E+06         0.00000E+00
    0.53825E+06        -0.50096E+08         0.00000E+00
    0.00000E+00         0.00000E+00        -0.50690E+08
 
   -0.51265E+08         0.55669E+06         0.00000E+00
    0.55669E+06        -0.50105E+08         0.00000E+00
    0.00000E+00         0.00000E+00        -0.50673E+08
 
   -0.51220E+08         0.57361E+06         0.00000E+00
    0.57361E+06        -0.50114E+08         0.00000E+00
    0.00000E+00         0.00000E+00        -0.50656E+08
 
   -0.51174E+08         0.58906E+06         0.00000E+00
    0.58906E+06        -0.50123E+08         0.00000E+00
    0.00000E+00         0.00000E+00        -0.50639E+08
 
   -0.51128E+08         0.60306E+06         0.00000E+00
    0.60306E+06        -0.50132E+08         0.00000E+00
    0.00000E+00         0.00000E+00        -0.50622E+08
 
   -0.51082E+08         0.61565E+06         0.00000E+00
    0.61565E+06        -0.50141E+08         0.00000E+00
    0.00000E+00         0.00000E+00        -0.50604E+08
 
   -0.51037E+08         0.62687E+06         0.00000E+00
    0.62687E+06        -0.50150E+08         0.00000E+00
    0.00000E+00         0.00000E+00        -0.50587E+08
 
   -0.50992E+08         0.63675E+06         0.00000E+00
    0.63675E+06        -0.50159E+08         0.00000E+00
    0.00000E+00         0.00000E+00        -0.50570E+08
 
   -0.50948E+08         0.64533E+06         0.00000E+00
    0.64533E+06        -0.50168E+08         0.00000E+00
    0.00000E+00         0.00000E+00        -0.50553E+08
 
   -0.50905E+08         0.65264E+06         0.00000E+00
    0.65264E+06        -0.50177E+08         0.00000E+00
    0.00000E+00         0.00000E+00        -0.50536E+08
 
   -0.50862E+08         0.65872E+06         0.00000E+00
    0.65872E+06        -0.50186E+08         0.00000E+00
    0.00000E+00         0.00000E+00        -0.50520E+08
 
   -0.50820E+08         0.66360E+06         0.00000E+00
    0.66360E+06        -0.50195E+08         0.00000E+00
    0.00000E+00         0.00000E+00        -0.50504E+08
 
   -0.50779E+08         0.66733E+06         0.00000E+00
    0.66733E+06        -0.50204E+08         0.00000E+00
    0.00000E+00         0.00000E+00        -0.50488E+08
 
   -0.50739E+08         0.66993E+06         0.00000E+00
    0.66993E+06        -0.50212E+08         0.00000E+00
    0.00000E+00         0.00000E+00        -0.50473E+08
 
   -0.50700E+08         0.67145E+06         0.00000E+00
    0.67145E+06        -0.50221E+08         0.00000E+00
    0.00000E+00         0.00000E+00        -0.50458E+08
 
   -0.50663E+08         0.67192E+06         0.00000E+00
    0.67192E+06        -0.50229E+08         0.00000E+00
    0.00000E+00         0.00000E+00        -0.50443E+08
 
   -0.50627E+08         0.67137E+06         0.00000E+00
    0.67137E+06        -0.50237E+08         0.00000E+00
    0.00000E+00         0.00000E+00        -0.50429E+08
 
   -0.50592E+08         0.66986E+06         0.00000E+00
    0.66986E+06        -0.50245E+08         0.00000E+00
    0.00000E+00         0.00000E+00        -0.50416E+08
 
   -0.50559E+08         0.66741E+06         0.00000E+00
    0.66741E+06        -0.50252E+08         0.00000E+00
    0.00000E+00         0.00000E+00        -0.50403E+08
 
   -0.50527E+08         0.66406E+06         0.00000E+00
    0.66406E+06        -0.50259E+08         0.00000E+00
    0.00000E+00         0.00000E+00        -0.50391E+08
 
   -0.50497E+08         0.65987E+06         0.00000E+00
    0.65987E+06        -0.50266E+08         0.00000E+00
    0.00000E+00         0.00000E+00        -0.50379E+08
 
   -0.50468E+08         0.65487E+06         0.00000E+00
    0.65487E+06        -0.50273E+08         0.00000E+00
    0.00000E+00         0.00000E+00        -0.50368E+08
 
   -0.50442E+08         0.64913E+06         0.00000E+00
    0.64913E+06        -0.50279E+08         0.00000E+00
    0.00000E+00         0.00000E+00        -0.50358E+08
 
   -0.50417E+08         0.64268E+06         0.00000E+00
    0.64268E+06        -0.50285E+08         0.00000E+00
    0.00000E+00         0.00000E+00        -0.50349E+08
 
   -0.50395E+08         0.63559E+06         0.00000E+00
    0.63559E+06        -0.50291E+08         0.00000E+00
    0.00000E+00         0.00000E+00        -0.50340E+08
 
   -0.50374E+08         0.62793E+06         0.00000E+00
    0.62793E+06        -0.50296E+08         0.00000E+00
    0.00000E+00         0.00000E+00        -0.50332E+08
 
   -0.50356E+08         0.61975E+06         0.00000E+00
    0.61975E+06        -0.50300E+08         0.00000E+00
    0.00000E+00         0.00000E+00        -0.50325E+08
 
   -0.50340E+08         0.61114E+06         0.00000E+00
    0.61114E+06        -0.50304E+08         0.00000E+00
    0.00000E+00         0.00000E+00        -0.50319E+08
 
   -0.50327E+08         0.60218E+06         0.00000E+00
    0.60218E+06        -0.50307E+08         0.00000E+00
    0.00000E+00         0.00000E+00        -0.50313E+08
 
   -0.50316E+08         0.59296E+06         0.00000E+00
    0.59296E+06        -0.50310E+08         0.00000E+00
    0.00000E+00         0.00000E+00        -0.50309E+08
 
   -0.50308E+08         0.58357E+06         0.00000E+00
    0.58357E+06        -0.50312E+08         0.00000E+00
    0.00000E+00         0.00000E+00        -0.50305E+08
 
   -0.50302E+08         0.57414E+06         0.00000E+00
    0.57414E+06        -0.50313E+08         0.00000E+00
    0.00000E+00         0.00000E+00        -0.50303E+08
 
   -0.50299E+08         0.56477E+06         0.00000E+00
    0.56477E+06        -0.50314E+08         0.00000E+00
    0.00000E+00         0.00000E+00        -0.50301E+08
 
   -0.50300E+08         0.55559E+06         0.00000E+00
    0.55559E+06        -0.50313E+08         0.00000E+00
    0.00000E+00         0.00000E+00        -0.50300E+08
 
   -0.51685E+08         0.20718E+05         0.00000E+00
    0.20718E+05        -0.50000E+08         0.00000E+00
    0.00000E+00         0.00000E+00        -0.50800E+08
 
   -0.51670E+08         0.59796E+05         0.00000E+00
    0.59796E+05        -0.50001E+08         0.00000E+00
    0.00000E+00         0.00000E+00        -0.50796E+08
 
   -0.51653E+08         0.97774E+05         0.00000E+00
    0.97774E+05        -0.50003E+08         0.00000E+00
    0.00000E+00         0.00000E+00        -0.50792E+08
 
   -0.51633E+08         0.13459E+06         0.00000E+00
    0.13459E+06        -0.50006E+08         0.00000E+00
    0.00000E+00         0.00000E+00        -0.50786E+08
 
   -0.51610E+08         0.17018E+06         0.00000E+00
    0.17018E+06        -0.50010E+08         0.00000E+00
    0.00000E+00         0.00000E+00        -0.50780E+08
 
   -0.51586E+08         0.20452E+06         0.00000E+00
    0.20452E+06        -0.50014E+08         0.00000E+00
    0.00000E+00         0.00000E+00        -0.50772E+08
 
   -0.51559E+08         0.23754E+06         0.00000E+00
    0.23754E+06        -0.50020E+08         0.00000E+00
    0.00000E+00         0.00000E+00        -0.50764E+08
 
   -0.51531E+08         0.26923E+06         0.00000E+00
    0.26923E+06        -0.50026E+08         0.00000E+00
    0.00000E+00         0.00000E+00        -0.50755E+08
 
   -0.51501E+08         0.29955E+06         0.00000E+00
    0.29955E+06        -0.50032E+08         0.00000E+00
    0.00000E+00         0.00000E+00        -0.50745E+08
 
   -0.51469E+08         0.32849E+06         0.00000E+00
    0.32849E+06        -0.50039E+08         0.00000E+00
    0.00000E+00         0.00000E+00        -0.50735E+08
 
   -0.51436E+08         0.35604E+06         0.00000E+00
    0.35604E+06        -0.50047E+08         0.00000E+00
    0.00000E+00         0.00000E+00        -0.50724E+08
 
   -0.51402E+08         0.38217E+06         0.00000E+00
    0.38217E+06        -0.50055E+08         0.00000E+00
    0.00000E+00         0.00000E+00        -0.50712E+08
 
   -0.51366E+08         0.40690E+06         0.00000E+00
    0.40690E+06        -0.50063E+08         0.00000E+00
    0.00000E+00         0.00000E+00        -0.50700E+08
 
   -0.51330E+08         0.43021E+06         0.00000E+00
    0.43021E+06        -0.50072E+08         0.00000E+00
    0.00000E+00         0.00000E+00        -0.50688E+08
 
   -0.51293E+08         0.45213E+06         0.00000E+00
    0.45213E+06        -0.50081E+08         0.00000E+00
    0.00000E+00         0.00000E+00        -0.50675E+08
 
   -0.51255E+08         0.47264E+06         0.00000E+00
    0.47264E+06        -0.50090E+08         0.00000E+00
    0.00000E+00         0.00000E+00        -0.50662E+08
 
   -0.51217E+08         0.49178E+06         0.00000E+00
    0.49178E+06        -0.50100E+08         0.00000E+00
    0.00000E+00         0.00000E+00        -0.50649E+08
 
   -0.51178E+08         0.50955E+06         0.00000E+00
    0.50955E+06        -0.50109E+08         0.00000E+00
    0.00000E+00         0.00000E+00        -0.50635E+08
 
   -0.51140E+08         0.52598E+06         0.00000E+00
    0.52598E+06        -0.50119E+08         0.00000E+00
    0.00000E+00         0.00000E+00        -0.50622E+08
 
   -0.51101E+08         0.54107E+06         0.00000E+00
    0.54107E+06        -0.50129E+08         0.00000E+00
    0.00000E+00         0.00000E+00        -0.50608E+08
 
   -0.51062E+08         0.55487E+06         0.00000E+00
    0.55487E+06        -0.50139E+08         0.00000E+00
    0.00000E+00         0.00000E+00        -0.50594E+08
 
   -0.51023E+08         0.56739E+06         0.00000E+00
    0.56739E+06        -0.50149E+08         0.00000E+00
    0.00000E+00         0.00000E+00        -0.50580E+08
 
   -0.50984E+08         0.57867E+06         0.00000E+00
    0.57867E+06        -0.50159E+08         0.00000E+00
    0.00000E+00         0.00000E+00        -0.50567E+08
 
   -0.50945E+08         0.58872E+06         0.00000E+00
    0.58872E+06        -0.50169E+08         0.00000E+00
    0.00000E+00         0.00000E+00        -0.50553E+08
 
   -0.50907E+08         0.59759E+06         0.00000E+00
    0.59759E+06        -0.50179E+08         0.00000E+00
    0.00000E+00         0.00000E+00        -0.50539E+08
 
   -0.50870E+08         0.60530E+06         0.00000E+00
    0.60530E+06        -0.50189E+08         0.00000E+00
    0.00000E+00         0.00000E+00        -0.50526E+08
 
   -0.50833E+08         0.61189E+06         0.00000E+00
    0.61189E+06        -0.50198E+08         0.00000E+00
    0.00000E+00         0.00000E+00        -0.50513E+08
 
   -0.50797E+08         0.61739E+06         0.00000E+00
    0.61739E+06        -0.50208E+08         0.00000E+00
    0.00000E+00         0.00000E+00        -0.50500E+08
 
   -0.50761E+08         0.62184E+06         0.00000E+00
    0.62184E+06        -0.50218E+08         0.00000E+00
    0.00000E+00         0.00000E+00        -0.50487E+08
 
   -0.50727E+08         0.62528E+06         0.00000E+00
    0.62528E+06        -0.50227E+08         0.00000E+00
    0.00000E+00         0.00000E+00        -0.50475E+08
 
   -0.50693E+08         0.62774E+06         0.00000E+00
    0.62774E+06        -0.50236E+08         0.00000E+00
    0.00000E+00         0.00000E+00        -0.50463E+08
 
   -0.50660E+08         0.62927E+06         0.00000E+00
    0.62927E+06        -0.50245E+08         0.00000E+00
    0.00000E+00         0.00000E+00        -0.50451E+08
 
   -0.50629E+08         0.62990E+06         0.00000E+00
    0.62990E+06        -0.50254E+08         0.00000E+00
    0.00000E+00         0.00000E+00        -0.50440E+08
 
   -0.50598E+08         0.62968E+06         0.00000E+00
    0.62968E+06        -0.50262E+08         0.00000E+00
    0.00000E+00         0.00000E+00        -0.50429E+08
 
   -0.50569E+08         0.62866E+06         0.00000E+00
    0.62866E+06        -0.50270E+08         0.00000E+00
    0.00000E+00         0.00000E+00        -0.50418E+08
 
   -0.50541E+08         0.62688E+06         0.00000E+00
    0.62688E+06        -0.50278E+08         0.00000E+00
    0.00000E+00         0.00000E+00        -0.50409E+08
 
   -0.50515E+08         0.62440E+06         0.00000E+00
    0.62440E+06        -0.50286E+08         0.00000E+00
    0.00000E+00         0.00000E+00        -0.50399E+08
 
   -0.50490E+08         0.62127E+06         0.00000E+00
    0.62127E+06        -0.50293E+08         0.00000E+00
    0.00000E+00         0.00000E+00        -0.50390E+08
 
   -0.50467E+08         0.61754E+06         0.00000E+00
    0.61754E+06        -0.50300E+08         0.00000E+00
    0.00000E+00         0.00000E+00        -0.50382E+08
 
   -0.50445E+08         0.61327E+06         0.00000E+00
    0.61327E+06        -0.50306E+08         0.00000E+00
    0.00000E+00         0.00000E+00        -0.50374E+08
 
   -0.50425E+08         0.60854E+06         0.00000E+00
    0.60854E+06        -0.50312E+08         0.00000E+00
    0.00000E+00         0.00000E+00        -0.50367E+08
 
   -0.50407E+08         0.60340E+06         0.00000E+00
    0.60340E+06        -0.50317E+08         0.00000E+00
    0.00000E+00         0.00000E+00        -0.50361E+08
 
   -0.50391E+08         0.59793E+06         0.00000E+00
    0.59793E+06        -0.50322E+08         0.00000E+00
    0.00000E+00         0.00000E+00        -0.50355E+08
 
   -0.50377E+08         0.59221E+06         0.00000E+00
    0.59221E+06        -0.50326E+08         0.00000E+00
    0.00000E+00         0.00000E+00        -0.50350E+08
 
   -0.50364E+08         0.58632E+06         0.00000E+00
    0.58632E+06        -0.50330E+08         0.00000E+00
    0.00000E+00         0.00000E+00        -0.50345E+08
 
   -0.50354E+08         0.58035E+06         0.00000E+00
    0.58035E+06        -0.50333E+08         0.00000E+00
    0.00000E+00         0.00000E+00        -0.50342E+08
 
   -0.50346E+08         0.57439E+06         0.00000E+00
    0.57439E+06        -0.50335E+08         0.00000E+00
    0.00000E+00         0.00000E+00        -0.50339E+08
 
   -0.50340E+08         0.56855E+06         0.00000E+00
    0.56855E+06        -0.50337E+08         0.00000E+00
    0.00000E+00         0.00000E+00        -0.50336E+08
 
   -0.50336E+08         0.56294E+06         0.00000E+00
    0.56294E+06        -0.50338E+08         0.00000E+00
    0.00000E+00         0.00000E+00        -0.50335E+08
 
   -0.50334E+08         0.55767E+06         0.00000E+00
    0.55767E+06        -0.50339E+08         0.00000E+00
    0.00000E+00         0.00000E+00        -0.50334E+08
 
   -0.51500E+08         0.17948E+05         0.00000E+00
    0.17948E+05        -0.50000E+08         0.00000E+00
    0.00000E+00         0.00000E+00        -0.50722E+08
 
   -0.51489E+08         0.52178E+05         0.00000E+00
    0.52178E+05        -0.50001E+08         0.00000E+00
    0.00000E+00         0.00000E+00        -0.50719E+08
 
   -0.51477E+08         0.85601E+05         0.00000E+00
    0.85601E+05        -0.50003E+08         0.00000E+00
    0.00000E+00         0.00000E+00        -0.50716E+08
 
   -0.51462E+08         0.11815E+06         0.00000E+00
    0.11815E+06        -0.50006E+08         0.00000E+00
    0.00000E+00         0.00000E+00        -0.50712E+08
 
   -0.51445E+08         0.14977E+06         0.00000E+00
    0.14977E+06        -0.50009E+08         0.00000E+00
    0.00000E+00         0.00000E+00        -0.50707E+08
 
   -0.51426E+08         0.18041E+06         0.00000E+00
    0.18041E+06        -0.50014E+08         0.00000E+00
    0.00000E+00         0.00000E+00        -0.50701E+08
 
   -0.51406E+08         0.21002E+06         0.00000E+00
    0.21002E+06        -0.50019E+08         0.00000E+00
    0.00000E+00         0.00000E+00        -0.50695E+08
 
   -0.51383E+08         0.23857E+06         0.00000E+00
    0.23857E+06        -0.50024E+08         0.00000E+00
    0.00000E+00         0.00000E+00        -0.50688E+08
 
   -0.51359E+08         0.26602E+06         0.00000E+00
    0.26602E+06        -0.50031E+08         0.00000E+00
    0.00000E+00         0.00000E+00        -0.50681E+08
 
   -0.51334E+08         0.29234E+06         0.00000E+00
    0.29234E+06        -0.50037E+08         0.00000E+00
    0.00000E+00         0.00000E+00        -0.50673E+08
 
   -0.51307E+08         0.31751E+06         0.00000E+00
    0.31751E+06        -0.50045E+08         0.00000E+00
    0.00000E+00         0.00000E+00        -0.50664E+08
 
   -0.51279E+08         0.34152E+06         0.00000E+00
    0.34152E+06        -0.50053E+08         0.00000E+00
    0.00000E+00         0.00000E+00        -0.50655E+08
 
   -0.51251E+08         0.36435E+06         0.00000E+00
    0.36435E+06        -0.50061E+08         0.00000E+00
    0.00000E+00         0.00000E+00        -0.50646E+08
 
   -0.51221E+08         0.38600E+06         0.00000E+00
    0.38600E+06        -0.50069E+08         0.00000E+00
    0.00000E+00         0.00000E+00        -0.50636E+08
 
   -0.51190E+08         0.40645E+06         0.00000E+00
    0.40645E+06        -0.50078E+08         0.00000E+00
    0.00000E+00         0.00000E+00        -0.50626E+08
 
   -0.51159E+08         0.42572E+06         0.00000E+00
    0.42572E+06        -0.50087E+08         0.00000E+00
    0.00000E+00         0.00000E+00        -0.50616E+08
 
   -0.51127E+08         0.44381E+06         0.00000E+00
    0.44381E+06        -0.50097E+08         0.00000E+00
    0.00000E+00         0.00000E+00        -0.50606E+08
 
   -0.51095E+08         0.46071E+06         0.00000E+00
    0.46071E+06        -0.50107E+08         0.00000E+00
    0.00000E+00         0.00000E+00        -0.50595E+08
 
   -0.51062E+08         0.47645E+06         0.00000E+00
    0.47645E+06        -0.50116E+08         0.00000E+00
    0.00000E+00         0.00000E+00        -0.50584E+08
 
   -0.51029E+08         0.49104E+06         0.00000E+00
    0.49104E+06        -0.50126E+08         0.00000E+00
    0.00000E+00         0.00000E+00        -0.50573E+08
 
   -0.50996E+08         0.50450E+06         0.00000E+00
    0.50450E+06        -0.50136E+08         0.00000E+00
    0.00000E+00         0.00000E+00        -0.50562E+08
 
   -0.50963E+08         0.51683E+06         0.00000E+00
    0.51683E+06        -0.50146E+08         0.00000E+00
    0.00000E+00         0.00000E+00        -0.50551E+08
 
   -0.50930E+08         0.52807E+06         0.00000E+00
    0.52807E+06        -0.50157E+08         0.00000E+00
    0.00000E+00         0.00000E+00        -0.50540E+08
 
   -0.50898E+08         0.53824E+06         0.00000E+00
    0.53824E+06        -0.50167E+08         0.00000E+00
    0.00000E+00         0.00000E+00        -0.50529E+08
 
   -0.50865E+08         0.54736E+06         0.00000E+00
    0.54736E+06        -0.50177E+08         0.00000E+00
    0.00000E+00         0.00000E+00        -0.50519E+08
 
   -0.50833E+08         0.55546E+06         0.00000E+00
    0.55546E+06        -0.50187E+08         0.00000E+00
    0.00000E+00         0.00000E+00        -0.50508E+08
 
   -0.50801E+08         0.56258E+06         0.00000E+00
    0.56258E+06        -0.50197E+08         0.00000E+00
    0.00000E+00         0.00000E+00        -0.50497E+08
 
   -0.50770E+08         0.56874E+06         0.00000E+00
    0.56874E+06        -0.50207E+08         0.00000E+00
    0.00000E+00         0.00000E+00        -0.50487E+08
 
   -0.50739E+08         0.57397E+06         0.00000E+00
    0.57397E+06        -0.50216E+08         0.00000E+00
    0.00000E+00         0.00000E+00        -0.50476E+08
 
   -0.50709E+08         0.57832E+06         0.00000E+00
    0.57832E+06        -0.50226E+08         0.00000E+00
    0.00000E+00         0.00000E+00        -0.50466E+08
 
   -0.50680E+08         0.58182E+06         0.00000E+00
    0.58182E+06        -0.50235E+08         0.00000E+00
    0.00000E+00         0.00000E+00        -0.50457E+08
 
   -0.50652E+08         0.58452E+06         0.00000E+00
    0.58452E+06        -0.50244E+08         0.00000E+00
    0.00000E+00         0.00000E+00        -0.50447E+08
 
   -0.50624E+08         0.58644E+06         0.00000E+00
    0.58644E+06        -0.50253E+08         0.00000E+00
    0.00000E+00         0.00000E+00        -0.50438E+08
 
   -0.50598E+08         0.58764E+06         0.00000E+00
    0.58764E+06        -0.50262E+08         0.00000E+00
    0.00000E+00         0.00000E+00        -0.50429E+08
 
   -0.50572E+08         0.58816E+06         0.00000E+00
    0.58816E+06        -0.50270E+08         0.00000E+00
    0.00000E+00         0.00000E+00        -0.50421E+08
 
   -0.50548E+08         0.58806E+06         0.00000E+00
    0.58806E+06        -0.50278E+08         0.00000E+00
    0.00000E+00         0.00000E+00        -0.50413E+08
 
   -0.50524E+08         0.58737E+06         0.00000E+00
    0.58737E+06        -0.50286E+08         0.00000E+00
    0.00000E+00         0.00000E+00        -0.50405E+08
 
   -0.50502E+08         0.58616E+06         0.00000E+00
    0.58616E+06        -0.50293E+08         0.00000E+00
    0.00000E+00         0.00000E+00        -0.50398E+08
 
   -0.50482E+08         0.58448E+06         0.00000E+00
    0.58448E+06        -0.50300E+08         0.00000E+00
    0.00000E+00         0.00000E+00        -0.50391E+08
 
   -0.50462E+08         0.58240E+06         0.00000E+00
    0.58240E+06        -0.50306E+08         0.00000E+00
    0.00000E+00         0.00000E+00        -0.50384E+08
 
   -0.50444E+08         0.57996E+06         0.00000E+00
    0.57996E+06        -0.50312E+08         0.00000E+00
    0.00000E+00         0.00000E+00        -0.50379E+08
 
   -0.50427E+08         0.57725E+06         0.00000E+00
    0.57725E+06        -0.50318E+08         0.00000E+00
    0.00000E+00         0.00000E+00        -0.50373E+08
 
   -0.50412E+08         0.57433E+06         0.00000E+00
    0.57433E+06        -0.50323E+08         0.00000E+00
    0.00000E+00         0.00000E+00        -0.50368E+08
 
   -0.50399E+08         0.57126E+06         0.00000E+00
    0.57126E+06        -0.50328E+08         0.00000E+00
    0.00000E+00         0.00000E+00        -0.50364E+08
 
   -0.50387E+08         0.56814E+06         0.00000E+00
    0.56814E+06        -0.50332E+08         0.00000E+00
    0.00000E+00         0.00000E+00        -0.50360E+08
 
   -0.50376E+08         0.56503E+06         0.00000E+00
    0.56503E+06        -0.50335E+08         0.00000E+00
    0.00000E+00         0.00000E+00        -0.50357E+08
 
   -0.50368E+08         0.56203E+06         0.00000E+00
    0.56203E+06        -0.50338E+08         0.00000E+00
    0.00000E+00         0.00000E+00        -0.50354E+08
 
   -0.50360E+08         0.55923E+06         0.00000E+00
    0.55923E+06        -0.50341E+08         0.00000E+00
    0.00000E+00         0.00000E+00        -0.50352E+08
 
   -0.50355E+08         0.55670E+06         0.00000E+00
    0.55670E+06        -0.50343E+08         0.00000E+00
    0.00000E+00         0.00000E+00        -0.50351E+08
 
   -0.50351E+08         0.55457E+06         0.00000E+00
    0.55457E+06        -0.50344E+08         0.00000E+00
    0.00000E+00         0.00000E+00        -0.50350E+08
 
   -0.51338E+08         0.15443E+05         0.00000E+00
    0.15443E+05        -0.50000E+08         0.00000E+00
    0.00000E+00         0.00000E+00        -0.50651E+08
 
   -0.51331E+08         0.45199E+05         0.00000E+00
    0.45199E+05        -0.50001E+08         0.00000E+00
    0.00000E+00         0.00000E+00        -0.50649E+08
 
   -0.51322E+08         0.74381E+05         0.00000E+00
    0.74381E+05        -0.50002E+08         0.00000E+00
    0.00000E+00         0.00000E+00        -0.50647E+08
 
   -0.51311E+08         0.10293E+06         0.00000E+00
    0.10293E+06        -0.50005E+08         0.00000E+00
    0.00000E+00         0.00000E+00        -0.50644E+08
 
   -0.51299E+08         0.13078E+06         0.00000E+00
    0.13078E+06        -0.50008E+08         0.00000E+00
    0.00000E+00         0.00000E+00        -0.50641E+08
 
   -0.51284E+08         0.15788E+06         0.00000E+00
    0.15788E+06        -0.50012E+08         0.00000E+00
    0.00000E+00         0.00000E+00        -0.50636E+08
 
   -0.51268E+08         0.18420E+06         0.00000E+00
    0.18420E+06        -0.50017E+08         0.00000E+00
    0.00000E+00         0.00000E+00        -0.50632E+08
 
   -0.51251E+08         0.20968E+06         0.00000E+00
    0.20968E+06        -0.50022E+08         0.00000E+00
    0.00000E+00         0.00000E+00        -0.50626E+08
 
   -0.51232E+08         0.23430E+06         0.00000E+00
    0.23430E+06        -0.50028E+08         0.00000E+00
    0.00000E+00         0.00000E+00        -0.50621E+08
 
   -0.51211E+08         0.25801E+06         0.00000E+00
    0.25801E+06        -0.50034E+08         0.00000E+00
    0.00000E+00         0.00000E+00        -0.50615E+08
 
   -0.51190E+08         0.28080E+06         0.00000E+00
    0.28080E+06        -0.50041E+08         0.00000E+00
    0.00000E+00         0.00000E+00        -0.50608E+08
 
   -0.51167E+08         0.30264E+06         0.00000E+00
    0.30264E+06        -0.50049E+08         0.00000E+00
    0.00000E+00         0.00000E+00        -0.50601E+08
 
   -0.51144E+08         0.32352E+06         0.00000E+00
    0.32352E+06        -0.50056E+08         0.00000E+00
    0.00000E+00         0.00000E+00        -0.50594E+08
 
   -0.51120E+08         0.34343E+06         0.00000E+00
    0.34343E+06        -0.50064E+08         0.00000E+00
    0.00000E+00         0.00000E+00        -0.50586E+08
 
   -0.51094E+08         0.36234E+06         0.00000E+00
    0.36234E+06        -0.50073E+08         0.00000E+00
    0.00000E+00         0.00000E+00        -0.50579E+08
 
   -0.51069E+08         0.38027E+06         0.00000E+00
    0.38027E+06        -0.50081E+08         0.00000E+00
    0.00000E+00         0.00000E+00        -0.50571E+08
 
   -0.51042E+08         0.39721E+06         0.00000E+00
    0.39721E+06        -0.50090E+08         0.00000E+00
    0.00000E+00         0.00000E+00        -0.50562E+08
 
   -0.51015E+08         0.41315E+06         0.00000E+00
    0.41315E+06        -0.50099E+08         0.00000E+00
    0.00000E+00         0.00000E+00        -0.50554E+08
 
   -0.50988E+08         0.42810E+06         0.00000E+00
    0.42810E+06        -0.50109E+08         0.00000E+00
    0.00000E+00         0.00000E+00        -0.50545E+08
 
   -0.50960E+08         0.44208E+06         0.00000E+00
    0.44208E+06        -0.50118E+08         0.00000E+00
    0.00000E+00         0.00000E+00        -0.50537E+08
 
   -0.50933E+08         0.45509E+06         0.00000E+00
    0.45509E+06        -0.50128E+08         0.00000E+00
    0.00000E+00         0.00000E+00        -0.50528E+08
 
   -0.50905E+08         0.46715E+06         0.00000E+00
    0.46715E+06        -0.50138E+08         0.00000E+00
    0.00000E+00         0.00000E+00        -0.50519E+08
 
   -0.50877E+08         0.47827E+06         0.00000E+00
    0.47827E+06        -0.50147E+08         0.00000E+00
    0.00000E+00         0.00000E+00        -0.50510E+08
 
   -0.50849E+08         0.48847E+06         0.00000E+00
    0.48847E+06        -0.50157E+08         0.00000E+00
    0.00000E+00         0.00000E+00        -0.50501E+08
 
   -0.50821E+08         0.49778E+06         0.00000E+00
    0.49778E+06        -0.50167E+08         0.00000E+00
    0.00000E+00         0.00000E+00        -0.50493E+08
 
   -0.50794E+08         0.50621E+06         0.00000E+00
    0.50621E+06        -0.50176E+08         0.00000E+00
    0.00000E+00         0.00000E+00        -0.50484E+08
 
   -0.50767E+08         0.51379E+06         0.00000E+00
    0.51379E+06        -0.50186E+08         0.00000E+00
    0.00000E+00         0.00000E+00        -0.50475E+08
 
   -0.50740E+08         0.52055E+06         0.00000E+00
    0.52055E+06        -0.50196E+08         0.00000E+00
    0.00000E+00         0.00000E+00        -0.50467E+08
 
   -0.50713E+08         0.52652E+06         0.00000E+00
    0.52652E+06        -0.50205E+08         0.00000E+00
    0.00000E+00         0.00000E+00        -0.50459E+08
 
   -0.50687E+08         0.53173E+06         0.00000E+00
    0.53173E+06        -0.50214E+08         0.00000E+00
    0.00000E+00         0.00000E+00        -0.50451E+08
 
   -0.50662E+08         0.53622E+06         0.00000E+00
    0.53622E+06        -0.50223E+08         0.00000E+00
    0.00000E+00         0.00000E+00        -0.50443E+08
 
   -0.50637E+08         0.54003E+06         0.00000E+00
    0.54003E+06        -0.50232E+08         0.00000E+00
    0.00000E+00         0.00000E+00        -0.50435E+08
 
   -0.50613E+08         0.54319E+06         0.00000E+00
    0.54319E+06        -0.50241E+08         0.00000E+00
    0.00000E+00         0.00000E+00        -0.50427E+08
 
   -0.50590E+08         0.54573E+06         0.00000E+00
    0.54573E+06        -0.50249E+08         0.00000E+00
    0.00000E+00         0.00000E+00        -0.50420E+08
 
   -0.50567E+08         0.54772E+06         0.00000E+00
    0.54772E+06        -0.50257E+08         0.00000E+00
    0.00000E+00         0.00000E+00        -0.50413E+08
 
   -0.50545E+08         0.54919E+06         0.00000E+00
    0.54919E+06        -0.50265E+08         0.00000E+00
    0.00000E+00         0.00000E+00        -0.50406E+08
 
   -0.50525E+08         0.55018E+06         0.00000E+00
    0.55018E+06        -0.50273E+08         0.00000E+00
    0.00000E+00         0.00000E+00        -0.50400E+08
 
   -0.50505E+08         0.55075E+06         0.00000E+00
    0.55075E+06        -0.50280E+08         0.00000E+00
    0.00000E+00         0.00000E+00        -0.50394E+08
 
   -0.50486E+08         0.55095E+06         0.00000E+00
    0.55095E+06        -0.50287E+08         0.00000E+00
    0.00000E+00         0.00000E+00        -0.50388E+08
 
   -0.50468E+08         0.55084E+06         0.00000E+00
    0.55084E+06        -0.50293E+08         0.00000E+00
    0.00000E+00         0.00000E+00        -0.50383E+08
 
   -0.50451E+08         0.55046E+06         0.00000E+00
    0.55046E+06        -0.50300E+08         0.00000E+00
    0.00000E+00         0.00000E+00        -0.50378E+08
 
   -0.50436E+08         0.54989E+06         0.00000E+00
    0.54989E+06        -0.50305E+08         0.00000E+00
    0.00000E+00         0.00000E+00        -0.50373E+08
 
   -0.50421E+08         0.54918E+06         0.00000E+00
    0.54918E+06        -0.50311E+08         0.00000E+00
    0.00000E+00         0.00000E+00        -0.50369E+08
 
   -0.50408E+08         0.54839E+06         0.00000E+00
    0.54839E+06        -0.50316E+08         0.00000E+00
    0.00000E+00         0.00000E+00        -0.50365E+08
 
   -0.50396E+08         0.54760E+06         0.00000E+00
    0.54760E+06        -0.50320E+08         0.00000E+00
    0.00000E+00         0.00000E+00        -0.50362E+08
 
   -0.50385E+08         0.54686E+06         0.00000E+00
    0.54686E+06        -0.50324E+08         0.00000E+00
    0.00000E+00         0.00000E+00        -0.50359E+08
 
   -0.50376E+08         0.54627E+06         0.00000E+00
    0.54627E+06        -0.50328E+08         0.00000E+00
    0.00000E+00         0.00000E+00        -0.50357E+08
 
   -0.50367E+08         0.54588E+06         0.00000E+00
    0.54588E+06        -0.50331E+08         0.00000E+00
    0.00000E+00         0.00000E+00        -0.50355E+08
 
   -0.50360E+08         0.54577E+06         0.00000E+00
    0.54577E+06        -0.50334E+08         0.00000E+00
    0.00000E+00         0.00000E+00        -0.50353E+08
 
   -0.50355E+08         0.54603E+06         0.00000E+00
    0.54603E+06        -0.50336E+08         0.00000E+00
    0.00000E+00         0.00000E+00        -0.50352E+08
 
   -0.51199E+08         0.13241E+05         0.00000E+00
    0.13241E+05        -0.50000E+08         0.00000E+00
    0.00000E+00         0.00000E+00        -0.50588E+08
 
   -0.51194E+08         0.38999E+05         0.00000E+00
    0.38999E+05        -0.50001E+08         0.00000E+00
    0.00000E+00         0.00000E+00        -0.50587E+08
 
   -0.51187E+08         0.64365E+05         0.00000E+00
    0.64365E+05        -0.50002E+08         0.00000E+00
    0.00000E+00         0.00000E+00        -0.50585E+08
 
   -0.51179E+08         0.89279E+05         0.00000E+00
    0.89279E+05        -0.50004E+08         0.00000E+00
    0.00000E+00         0.00000E+00        -0.50583E+08
 
   -0.51170E+08         0.11369E+06         0.00000E+00
    0.11369E+06        -0.50007E+08         0.00000E+00
    0.00000E+00         0.00000E+00        -0.50580E+08
 
   -0.51159E+08         0.13754E+06         0.00000E+00
    0.13754E+06        -0.50011E+08         0.00000E+00
    0.00000E+00         0.00000E+00        -0.50577E+08
 
   -0.51146E+08         0.16080E+06         0.00000E+00
    0.16080E+06        -0.50015E+08         0.00000E+00
    0.00000E+00         0.00000E+00        -0.50574E+08
 
   -0.51132E+08         0.18342E+06         0.00000E+00
    0.18342E+06        -0.50020E+08         0.00000E+00
    0.00000E+00         0.00000E+00        -0.50570E+08
 
   -0.51117E+08         0.20537E+06         0.00000E+00
    0.20537E+06        -0.50025E+08         0.00000E+00
    0.00000E+00         0.00000E+00        -0.50565E+08
 
   -0.51101E+08         0.22661E+06         0.00000E+00
    0.22661E+06        -0.50031E+08         0.00000E+00
    0.00000E+00         0.00000E+00        -0.50561E+08
 
   -0.51084E+08         0.24712E+06         0.00000E+00
    0.24712E+06        -0.50037E+08         0.00000E+00
    0.00000E+00         0.00000E+00        -0.50556E+08
 
   -0.51066E+08         0.26687E+06         0.00000E+00
    0.26687E+06        -0.50043E+08         0.00000E+00
    0.00000E+00         0.00000E+00        -0.50550E+08
 
   -0.51047E+08         0.28585E+06         0.00000E+00
    0.28585E+06        -0.50050E+08         0.00000E+00
    0.00000E+00         0.00000E+00        -0.50545E+08
 
   -0.51027E+08         0.30404E+06         0.00000E+00
    0.30404E+06        -0.50058E+08         0.00000E+00
    0.00000E+00         0.00000E+00        -0.50539E+08
 
   -0.51006E+08         0.32143E+06         0.00000E+00
    0.32143E+06        -0.50065E+08         0.00000E+00
    0.00000E+00         0.00000E+00        -0.50533E+08
 
   -0.50985E+08         0.33800E+06         0.00000E+00
    0.33800E+06        -0.50073E+08         0.00000E+00
    0.00000E+00         0.00000E+00        -0.50526E+08
 
   -0.50963E+08         0.35377E+06         0.00000E+00
    0.35377E+06        -0.50082E+08         0.00000E+00
    0.00000E+00         0.00000E+00        -0.50520E+08
 
   -0.50940E+08         0.36871E+06         0.00000E+00
    0.36871E+06        -0.50090E+08         0.00000E+00
    0.00000E+00         0.00000E+00        -0.50513E+08
 
   -0.50918E+08         0.38283E+06         0.00000E+00
    0.38283E+06        -0.50099E+08         0.00000E+00
    0.00000E+00         0.00000E+00        -0.50506E+08
 
   -0.50894E+08         0.39614E+06         0.00000E+00
    0.39614E+06        -0.50107E+08         0.00000E+00
    0.00000E+00         0.00000E+00        -0.50499E+08
 
   -0.50871E+08         0.40865E+06         0.00000E+00
    0.40865E+06        -0.50116E+08         0.00000E+00
    0.00000E+00         0.00000E+00        -0.50492E+08
 
   -0.50848E+08         0.42035E+06         0.00000E+00
    0.42035E+06        -0.50125E+08         0.00000E+00
    0.00000E+00         0.00000E+00        -0.50485E+08
 
   -0.50824E+08         0.43127E+06         0.00000E+00
    0.43127E+06        -0.50134E+08         0.00000E+00
    0.00000E+00         0.00000E+00        -0.50478E+08
 
   -0.50800E+08         0.44142E+06         0.00000E+00
    0.44142E+06        -0.50143E+08         0.00000E+00
    0.00000E+00         0.00000E+00        -0.50471E+08
 
   -0.50777E+08         0.45081E+06         0.00000E+00
    0.45081E+06        -0.50152E+08         0.00000E+00
    0.00000E+00         0.00000E+00        -0.50464E+08
 
   -0.50753E+08         0.45947E+06         0.00000E+00
    0.45947E+06        -0.50161E+08         0.00000E+00
    0.00000E+00         0.00000E+00        -0.50457E+08
 
   -0.50730E+08         0.46741E+06         0.00000E+00
    0.46741E+06        -0.50170E+08         0.00000E+00
    0.00000E+00         0.00000E+00        -0.50450E+08
 
   -0.50706E+08         0.47467E+06         0.00000E+00
    0.47467E+06        -0.50179E+08         0.00000E+00
    0.00000E+00         0.00000E+00        -0.50443E+08
 
   -0.50683E+08         0.48126E+06         0.00000E+00
    0.48126E+06        -0.50188E+08         0.00000E+00
    0.00000E+00         0.00000E+00        -0.50436E+08
 
   -0.50661E+08         0.48721E+06         0.00000E+00
    0.48721E+06        -0.50197E+08         0.00000E+00
    0.00000E+00         0.00000E+00        -0.50429E+08
 
   -0.50639E+08         0.49255E+06         0.00000E+00
    0.49255E+06        -0.50205E+08         0.00000E+00
    0.00000E+00         0.00000E+00        -0.50423E+08
 
   -0.50617E+08         0.49732E+06         0.00000E+00
    0.49732E+06        -0.50214E+08         0.00000E+00
    0.00000E+00         0.00000E+00        -0.50416E+08
 
   -0.50596E+08         0.50155E+06         0.00000E+00
    0.50155E+06        -0.50222E+08         0.00000E+00
    0.00000E+00         0.00000E+00        -0.50410E+08
 
   -0.50575E+08         0.50527E+06         0.00000E+00
    0.50527E+06        -0.50230E+08         0.00000E+00
    0.00000E+00         0.00000E+00        -0.50404E+08
 
   -0.50555E+08         0.50853E+06         0.00000E+00
    0.50853E+06        -0.50238E+08         0.00000E+00
    0.00000E+00         0.00000E+00        -0.50398E+08
 
   -0.50536E+08         0.51135E+06         0.00000E+00
    0.51135E+06        -0.50245E+08         0.00000E+00
    0.00000E+00         0.00000E+00        -0.50392E+08
 
   -0.50517E+08         0.51379E+06         0.00000E+00
    0.51379E+06        -0.50252E+08         0.00000E+00
    0.00000E+00         0.00000E+00        -0.50387E+08
 
   -0.50499E+08         0.51589E+06         0.00000E+00
    0.51589E+06        -0.50259E+08         0.00000E+00
    0.00000E+00         0.00000E+00        -0.50382E+08
 
   -0.50482E+08         0.51769E+06         0.00000E+00
    0.51769E+06        -0.50266E+08         0.00000E+00
    0.00000E+00         0.00000E+00        -0.50377E+08
 
   -0.50465E+08         0.51924E+06         0.00000E+00
    0.51924E+06        -0.50273E+08         0.00000E+00
    0.00000E+00         0.00000E+00        -0.50372E+08
 
   -0.50449E+08         0.52059E+06         0.00000E+00
    0.52059E+06        -0.50279E+08         0.00000E+00
    0.00000E+00         0.00000E+00        -0.50368E+08
 
   -0.50434E+08         0.52178E+06         0.00000E+00
    0.52178E+06        -0.50285E+08         0.00000E+00
    0.00000E+00         0.00000E+00        -0.50364E+08
 
   -0.50420E+08         0.52288E+06         0.00000E+00
    0.52288E+06        -0.50290E+08         0.00000E+00
    0.00000E+00         0.00000E+00        -0.50360E+08
 
   -0.50407E+08         0.52393E+06         0.00000E+00
    0.52393E+06        -0.50295E+08         0.00000E+00
    0.00000E+00         0.00000E+00        -0.50357E+08
 
   -0.50395E+08         0.52499E+06         0.00000E+00
    0.52499E+06        -0.50300E+08         0.00000E+00
    0.00000E+00         0.00000E+00        -0.50354E+08
 
   -0.50384E+08         0.52612E+06         0.00000E+00
    0.52612E+06        -0.50305E+08         0.00000E+00
    0.00000E+00         0.00000E+00        -0.50351E+08
 
   -0.50373E+08         0.52738E+06         0.00000E+00
    0.52738E+06        -0.50309E+08         0.00000E+00
    0.00000E+00         0.00000E+00        -0.50349E+08
 
   -0.50364E+08         0.52882E+06         0.00000E+00
    0.52882E+06        -0.50313E+08         0.00000E+00
    0.00000E+00         0.00000E+00        -0.50347E+08
 
   -0.50355E+08         0.53051E+06         0.00000E+00
    0.53051E+06        -0.50316E+08         0.00000E+00
    0.00000E+00         0.00000E+00        -0.50346E+08
 
   -0.50348E+08         0.53250E+06         0.00000E+00
    0.53250E+06        -0.50320E+08         0.00000E+00
    0.00000E+00         0.00000E+00        -0.50345E+08
 
   -0.51078E+08         0.11353E+05         0.00000E+00
    0.11353E+05        -0.50000E+08         0.00000E+00
    0.00000E+00         0.00000E+00        -0.50532E+08
 
   -0.51075E+08         0.33628E+05         0.00000E+00
    0.33628E+05        -0.50001E+08         0.00000E+00
    0.00000E+00         0.00000E+00        -0.50531E+08
 
   -0.51070E+08         0.55646E+05         0.00000E+00
    0.55646E+05        -0.50002E+08         0.00000E+00
    0.00000E+00         0.00000E+00        -0.50530E+08
 
   -0.51064E+08         0.77355E+05         0.00000E+00
    0.77355E+05        -0.50004E+08         0.00000E+00
    0.00000E+00         0.00000E+00        -0.50529E+08
 
   -0.51057E+08         0.98706E+05         0.00000E+00
    0.98706E+05        -0.50006E+08         0.00000E+00
    0.00000E+00         0.00000E+00        -0.50527E+08
 
   -0.51048E+08         0.11966E+06         0.00000E+00
    0.11966E+06        -0.50009E+08         0.00000E+00
    0.00000E+00         0.00000E+00        -0.50524E+08
 
   -0.51038E+08         0.14016E+06         0.00000E+00
    0.14016E+06        -0.50013E+08         0.00000E+00
    0.00000E+00         0.00000E+00        -0.50521E+08
 
   -0.51027E+08         0.16019E+06         0.00000E+00
    0.16019E+06        -0.50017E+08         0.00000E+00
    0.00000E+00         0.00000E+00        -0.50518E+08
 
   -0.51015E+08         0.17970E+06         0.00000E+00
    0.17970E+06        -0.50022E+08         0.00000E+00
    0.00000E+00         0.00000E+00        -0.50515E+08
 
   -0.51002E+08         0.19867E+06         0.00000E+00
    0.19867E+06        -0.50027E+08         0.00000E+00
    0.00000E+00         0.00000E+00        -0.50511E+08
 
   -0.50988E+08         0.21707E+06         0.00000E+00
    0.21707E+06        -0.50032E+08         0.00000E+00
    0.00000E+00         0.00000E+00        -0.50507E+08
 
   -0.50973E+08         0.23488E+06         0.00000E+00
    0.23488E+06        -0.50038E+08         0.00000E+00
    0.00000E+00         0.00000E+00        -0.50503E+08
 
   -0.50958E+08         0.25208E+06         0.00000E+00
    0.25208E+06        -0.50044E+08         0.00000E+00
    0.00000E+00         0.00000E+00        -0.50499E+08
 
   -0.50941E+08         0.26865E+06         0.00000E+00
    0.26865E+06        -0.50051E+08         0.00000E+00
    0.00000E+00         0.00000E+00        -0.50494E+08
 
   -0.50924E+08         0.28457E+06         0.00000E+00
    0.28457E+06        -0.50057E+08         0.00000E+00
    0.00000E+00         0.00000E+00        -0.50489E+08
 
   -0.50907E+08         0.29984E+06         0.00000E+00
    0.29984E+06        -0.50065E+08         0.00000E+00
    0.00000E+00         0.00000E+00        -0.50484E+08
 
   -0.50889E+08         0.31446E+06         0.00000E+00
    0.31446E+06        -0.50072E+08         0.00000E+00
    0.00000E+00         0.00000E+00        -0.50479E+08
 
   -0.50870E+08         0.32840E+06         0.00000E+00
    0.32840E+06        -0.50079E+08         0.00000E+00
    0.00000E+00         0.00000E+00        -0.50473E+08
 
   -0.50851E+08         0.34168E+06         0.00000E+00
    0.34168E+06        -0.50087E+08         0.00000E+00
    0.00000E+00         0.00000E+00        -0.50468E+08
 
   -0.50831E+08         0.35430E+06         0.00000E+00
    0.35430E+06        -0.50095E+08         0.00000E+00
    0.00000E+00         0.00000E+00        -0.50462E+08
 
   -0.50812E+08         0.36625E+06         0.00000E+00
    0.36625E+06        -0.50103E+08         0.00000E+00
    0.00000E+00         0.00000E+00        -0.50457E+08
 
   -0.50792E+08         0.37755E+06         0.00000E+00
    0.37755E+06        -0.50111E+08         0.00000E+00
    0.00000E+00         0.00000E+00        -0.50451E+08
 
   -0.50772E+08         0.38819E+06         0.00000E+00
    0.38819E+06        -0.50119E+08         0.00000E+00
    0.00000E+00         0.00000E+00        -0.50445E+08
 
   -0.50751E+08         0.39820E+06         0.00000E+00
    0.39820E+06        -0.50127E+08         0.00000E+00
    0.00000E+00         0.00000E+00        -0.50439E+08
 
   -0.50731E+08         0.40759E+06         0.00000E+00
    0.40759E+06        -0.50136E+08         0.00000E+00
    0.00000E+00         0.00000E+00        -0.50434E+08
 
   -0.50711E+08         0.41636E+06         0.00000E+00
    0.41636E+06        -0.50144E+08         0.00000E+00
    0.00000E+00         0.00000E+00        -0.50428E+08
 
   -0.50691E+08         0.42454E+06         0.00000E+00
    0.42454E+06        -0.50152E+08         0.00000E+00
    0.00000E+00         0.00000E+00        -0.50422E+08
 
   -0.50671E+08         0.43214E+06         0.00000E+00
    0.43214E+06        -0.50160E+08         0.00000E+00
    0.00000E+00         0.00000E+00        -0.50416E+08
 
   -0.50651E+08         0.43920E+06         0.00000E+00
    0.43920E+06        -0.50168E+08         0.00000E+00
    0.00000E+00         0.00000E+00        -0.50410E+08
 
   -0.50631E+08         0.44572E+06         0.00000E+00
    0.44572E+06        -0.50176E+08         0.00000E+00
    0.00000E+00         0.00000E+00        -0.50405E+08
 
   -0.50612E+08         0.45174E+06         0.00000E+00
    0.45174E+06        -0.50184E+08         0.00000E+00
    0.00000E+00         0.00000E+00        -0.50399E+08
 
   -0.50592E+08         0.45728E+06         0.00000E+00
    0.45728E+06        -0.50192E+08         0.00000E+00
    0.00000E+00         0.00000E+00        -0.50394E+08
 
   -0.50574E+08         0.46237E+06         0.00000E+00
    0.46237E+06        -0.50200E+08         0.00000E+00
    0.00000E+00         0.00000E+00        -0.50389E+08
 
   -0.50555E+08         0.46704E+06         0.00000E+00
    0.46704E+06        -0.50207E+08         0.00000E+00
    0.00000E+00         0.00000E+00        -0.50383E+08
 
   -0.50537E+08         0.47132E+06         0.00000E+00
    0.47132E+06        -0.50214E+08         0.00000E+00
    0.00000E+00         0.00000E+00        -0.50378E+08
 
   -0.50519E+08         0.47525E+06         0.00000E+00
    0.47525E+06        -0.50222E+08         0.00000E+00
    0.00000E+00         0.00000E+00        -0.50373E+08
 
   -0.50502E+08         0.47885E+06         0.00000E+00
    0.47885E+06        -0.50228E+08         0.00000E+00
    0.00000E+00         0.00000E+00        -0.50369E+08
 
   -0.50486E+08         0.48218E+06         0.00000E+00
    0.48218E+06        -0.50235E+08         0.00000E+00
    0.00000E+00         0.00000E+00        -0.50364E+08
 
   -0.50470E+08         0.48525E+06         0.00000E+00
    0.48525E+06        -0.50242E+08         0.00000E+00
    0.00000E+00         0.00000E+00        -0.50360E+08
 
   -0.50454E+08         0.48812E+06         0.00000E+00
    0.48812E+06        -0.50248E+08         0.00000E+00
    0.00000E+00         0.00000E+00        -0.50356E+08
 
   -0.50439E+08         0.49083E+06         0.00000E+00
    0.49083E+06        -0.50254E+08         0.00000E+00
    0.00000E+00         0.00000E+00        -0.50352E+08
 
   -0.50425E+08         0.49341E+06         0.00000E+00
    0.49341E+06        -0.50260E+08         0.00000E+00
    0.00000E+00         0.00000E+00        -0.50349E+08
 
   -0.50411E+08         0.49590E+06         0.00000E+00
    0.49590E+06        -0.50265E+08         0.00000E+00
    0.00000E+00         0.00000E+00        -0.50345E+08
 
   -0.50398E+08         0.49836E+06         0.00000E+00
    0.49836E+06        -0.50271E+08         0.00000E+00
    0.00000E+00         0.00000E+00        -0.50342E+08
 
   -0.50386E+08         0.50082E+06         0.00000E+00
    0.50082E+06        -0.50276E+08         0.00000E+00
    0.00000E+00         0.00000E+00        -0.50339E+08
 
   -0.50374E+08         0.50333E+06         0.00000E+00
    0.50333E+06        -0.50281E+08         0.00000E+00
    0.00000E+00         0.00000E+00        -0.50337E+08
 
   -0.50363E+08         0.50594E+06         0.00000E+00
    0.50594E+06        -0.50285E+08         0.00000E+00
    0.00000E+00         0.00000E+00        -0.50335E+08
 
   -0.50353E+08         0.50869E+06         0.00000E+00
    0.50869E+06        -0.50289E+08         0.00000E+00
    0.00000E+00         0.00000E+00        -0.50333E+08
 
   -0.50343E+08         0.51163E+06         0.00000E+00
    0.51163E+06        -0.50294E+08         0.00000E+00
    0.00000E+00         0.00000E+00        -0.50331E+08
 
   -0.50334E+08         0.51481E+06         0.00000E+00
    0.51481E+06        -0.50298E+08         0.00000E+00
    0.00000E+00         0.00000E+00        -0.50330E+08
 
   -0.50974E+08         0.97643E+04         0.00000E+00
    0.97643E+04        -0.50000E+08         0.00000E+00
    0.00000E+00         0.00000E+00        -0.50483E+08
 
   -0.50971E+08         0.29067E+05         0.00000E+00
    0.29067E+05        -0.50000E+08         0.00000E+00
    0.00000E+00         0.00000E+00        -0.50482E+08
 
   -0.50968E+08         0.48211E+05         0.00000E+00
    0.48211E+05        -0.50002E+08         0.00000E+00
    0.00000E+00         0.00000E+00        -0.50481E+08
 
   -0.50963E+08         0.67151E+05         0.00000E+00
    0.67151E+05        -0.50003E+08         0.00000E+00
    0.00000E+00         0.00000E+00        -0.50480E+08
 
   -0.50958E+08         0.85844E+05         0.00000E+00
    0.85844E+05        -0.50005E+08         0.00000E+00
    0.00000E+00         0.00000E+00        -0.50478E+08
 
   -0.50951E+08         0.10425E+06         0.00000E+00
    0.10425E+06        -0.50008E+08         0.00000E+00
    0.00000E+00         0.00000E+00        -0.50476E+08
 
   -0.50943E+08         0.12234E+06         0.00000E+00
    0.12234E+06        -0.50011E+08         0.00000E+00
    0.00000E+00         0.00000E+00        -0.50474E+08
 
   -0.50934E+08         0.14007E+06         0.00000E+00
    0.14007E+06        -0.50015E+08         0.00000E+00
    0.00000E+00         0.00000E+00        -0.50472E+08
 
   -0.50924E+08         0.15742E+06         0.00000E+00
    0.15742E+06        -0.50018E+08         0.00000E+00
    0.00000E+00         0.00000E+00        -0.50469E+08
 
   -0.50914E+08         0.17436E+06         0.00000E+00
    0.17436E+06        -0.50023E+08         0.00000E+00
    0.00000E+00         0.00000E+00        -0.50466E+08
 
   -0.50902E+08         0.19086E+06         0.00000E+00
    0.19086E+06        -0.50027E+08         0.00000E+00
    0.00000E+00         0.00000E+00        -0.50463E+08
 
   -0.50890E+08         0.20690E+06         0.00000E+00
    0.20690E+06        -0.50033E+08         0.00000E+00
    0.00000E+00         0.00000E+00        -0.50460E+08
 
   -0.50877E+08         0.22246E+06         0.00000E+00
    0.22246E+06        -0.50038E+08         0.00000E+00
    0.00000E+00         0.00000E+00        -0.50456E+08
 
   -0.50864E+08         0.23753E+06         0.00000E+00
    0.23753E+06        -0.50044E+08         0.00000E+00
    0.00000E+00         0.00000E+00        -0.50452E+08
 
   -0.50850E+08         0.25210E+06         0.00000E+00
    0.25210E+06        -0.50050E+08         0.00000E+00
    0.00000E+00         0.00000E+00        -0.50449E+08
 
   -0.50835E+08         0.26614E+06         0.00000E+00
    0.26614E+06        -0.50056E+08         0.00000E+00
    0.00000E+00         0.00000E+00        -0.50444E+08
 
   -0.50820E+08         0.27966E+06         0.00000E+00
    0.27966E+06        -0.50062E+08         0.00000E+00
    0.00000E+00         0.00000E+00        -0.50440E+08
 
   -0.50804E+08         0.29265E+06         0.00000E+00
    0.29265E+06        -0.50069E+08         0.00000E+00
    0.00000E+00         0.00000E+00        -0.50436E+08
 
   -0.50788E+08         0.30510E+06         0.00000E+00
    0.30510E+06        -0.50075E+08         0.00000E+00
    0.00000E+00         0.00000E+00        -0.50431E+08
 
   -0.50772E+08         0.31701E+06         0.00000E+00
    0.31701E+06        -0.50082E+08         0.00000E+00
    0.00000E+00         0.00000E+00        -0.50427E+08
 
   -0.50755E+08         0.32838E+06         0.00000E+00
    0.32838E+06        -0.50089E+08         0.00000E+00
    0.00000E+00         0.00000E+00        -0.50422E+08
 
   -0.50738E+08         0.33922E+06         0.00000E+00
    0.33922E+06        -0.50097E+08         0.00000E+00
    0.00000E+00         0.00000E+00        -0.50417E+08
 
   -0.50721E+08         0.34953E+06         0.00000E+00
    0.34953E+06        -0.50104E+08         0.00000E+00
    0.00000E+00         0.00000E+00        -0.50412E+08
 
   -0.50703E+08         0.35932E+06         0.00000E+00
    0.35932E+06        -0.50111E+08         0.00000E+00
    0.00000E+00         0.00000E+00        -0.50408E+08
 
   -0.50686E+08         0.36860E+06         0.00000E+00
    0.36860E+06        -0.50119E+08         0.00000E+00
    0.00000E+00         0.00000E+00        -0.50403E+08
 
   -0.50668E+08         0.37738E+06         0.00000E+00
    0.37738E+06        -0.50126E+08         0.00000E+00
    0.00000E+00         0.00000E+00        -0.50398E+08
 
   -0.50651E+08         0.38566E+06         0.00000E+00
    0.38566E+06        -0.50133E+08         0.00000E+00
    0.00000E+00         0.00000E+00        -0.50393E+08
 
   -0.50633E+08         0.39348E+06         0.00000E+00
    0.39348E+06        -0.50141E+08         0.00000E+00
    0.00000E+00         0.00000E+00        -0.50388E+08
 
   -0.50616E+08         0.40083E+06         0.00000E+00
    0.40083E+06        -0.50148E+08         0.00000E+00
    0.00000E+00         0.00000E+00        -0.50383E+08
 
   -0.50599E+08         0.40775E+06         0.00000E+00
    0.40775E+06        -0.50155E+08         0.00000E+00
    0.00000E+00         0.00000E+00        -0.50378E+08
 
   -0.50581E+08         0.41425E+06         0.00000E+00
    0.41425E+06        -0.50162E+08         0.00000E+00
    0.00000E+00         0.00000E+00        -0.50374E+08
 
   -0.50564E+08         0.42035E+06         0.00000E+00
    0.42035E+06        -0.50170E+08         0.00000E+00
    0.00000E+00         0.00000E+00        -0.50369E+08
 
   -0.50547E+08         0.42608E+06         0.00000E+00
    0.42608E+06        -0.50177E+08         0.00000E+00
    0.00000E+00         0.00000E+00        -0.50364E+08
 
   -0.50531E+08         0.43146E+06         0.00000E+00
    0.43146E+06        -0.50183E+08         0.00000E+00
    0.00000E+00         0.00000E+00        -0.50360E+08
 
   -0.50514E+08         0.43651E+06         0.00000E+00
    0.43651E+06        -0.50190E+08         0.00000E+00
    0.00000E+00         0.00000E+00        -0.50356E+08
 
   -0.50498E+08         0.44127E+06         0.00000E+00
    0.44127E+06        -0.50197E+08         0.00000E+00
    0.00000E+00         0.00000E+00        -0.50351E+08
 
   -0.50483E+08         0.44575E+06         0.00000E+00
    0.44575E+06        -0.50203E+08         0.00000E+00
    0.00000E+00         0.00000E+00        -0.50347E+08
 
   -0.50467E+08         0.45000E+06         0.00000E+00
    0.45000E+06        -0.50210E+08         0.00000E+00
    0.00000E+00         0.00000E+00        -0.50343E+08
 
   -0.50452E+08         0.45403E+06         0.00000E+00
    0.45403E+06        -0.50216E+08         0.00000E+00
    0.00000E+00         0.00000E+00        -0.50339E+08
 
   -0.50438E+08         0.45789E+06         0.00000E+00
    0.45789E+06        -0.50222E+08         0.00000E+00
    0.00000E+00         0.00000E+00        -0.50336E+08
 
   -0.50424E+08         0.46160E+06         0.00000E+00
    0.46160E+06        -0.50228E+08         0.00000E+00
    0.00000E+00         0.00000E+00        -0.50332E+08
 
   -0.50410E+08         0.46519E+06         0.00000E+00
    0.46519E+06        -0.50233E+08         0.00000E+00
    0.00000E+00         0.00000E+00        -0.50329E+08
 
   -0.50396E+08         0.46870E+06         0.00000E+00
    0.46870E+06        -0.50239E+08         0.00000E+00
    0.00000E+00         0.00000E+00        -0.50326E+08
 
   -0.50384E+08         0.47217E+06         0.00000E+00
    0.47217E+06        -0.50244E+08         0.00000E+00
    0.00000E+00         0.00000E+00        -0.50323E+08
 
   -0.50371E+08         0.47562E+06         0.00000E+00
    0.47562E+06        -0.50250E+08         0.00000E+00
    0.00000E+00         0.00000E+00        -0.50320E+08
 
   -0.50359E+08         0.47910E+06         0.00000E+00
    0.47910E+06        -0.50255E+08         0.00000E+00
    0.00000E+00         0.00000E+00        -0.50318E+08
 
   -0.50347E+08         0.48264E+06         0.00000E+00
    0.48264E+06        -0.50259E+08         0.00000E+00
    0.00000E+00         0.00000E+00        -0.50316E+08
 
   -0.50336E+08         0.48626E+06         0.00000E+00
    0.48626E+06        -0.50264E+08         0.00000E+00
    0.00000E+00         0.00000E+00        -0.50314E+08
 
   -0.50326E+08         0.49001E+06         0.00000E+00
    0.49001E+06        -0.50269E+08         0.00000E+00
    0.00000E+00         0.00000E+00        -0.50312E+08
 
   -0.50315E+08         0.49393E+06         0.00000E+00
    0.49393E+06        -0.50273E+08         0.00000E+00
    0.00000E+00         0.00000E+00        -0.50311E+08
 
   -0.50883E+08         0.84488E+04         0.00000E+00
    0.84488E+04        -0.50000E+08         0.00000E+00
    0.00000E+00         0.00000E+00        -0.50439E+08
 
   -0.50882E+08         0.25256E+05         0.00000E+00
    0.25256E+05        -0.50000E+08         0.00000E+00
    0.00000E+00         0.00000E+00        -0.50438E+08
 
   -0.50879E+08         0.41973E+05         0.00000E+00
    0.41973E+05        -0.50001E+08         0.00000E+00
    0.00000E+00         0.00000E+00        -0.50438E+08
 
   -0.50875E+08         0.58560E+05         0.00000E+00
    0.58560E+05        -0.50003E+08         0.00000E+00
    0.00000E+00         0.00000E+00        -0.50437E+08
 
   -0.50870E+08         0.74983E+05         0.00000E+00
    0.74983E+05        -0.50004E+08         0.00000E+00
    0.00000E+00         0.00000E+00        -0.50435E+08
 
   -0.50865E+08         0.91209E+05         0.00000E+00
    0.91209E+05        -0.50007E+08         0.00000E+00
    0.00000E+00         0.00000E+00        -0.50434E+08
 
   -0.50859E+08         0.10721E+06         0.00000E+00
    0.10721E+06        -0.50009E+08         0.00000E+00
    0.00000E+00         0.00000E+00        -0.50432E+08
 
   -0.50851E+08         0.12294E+06         0.00000E+00
    0.12294E+06        -0.50012E+08         0.00000E+00
    0.00000E+00         0.00000E+00        -0.50430E+08
 
   -0.50843E+08         0.13840E+06         0.00000E+00
    0.13840E+06        -0.50016E+08         0.00000E+00
    0.00000E+00         0.00000E+00        -0.50428E+08
 
   -0.50835E+08         0.15355E+06         0.00000E+00
    0.15355E+06        -0.50019E+08         0.00000E+00
    0.00000E+00         0.00000E+00        -0.50426E+08
 
   -0.50825E+08         0.16836E+06         0.00000E+00
    0.16836E+06        -0.50023E+08         0.00000E+00
    0.00000E+00         0.00000E+00        -0.50423E+08
 
   -0.50815E+08         0.18283E+06         0.00000E+00
    0.18283E+06        -0.50028E+08         0.00000E+00
    0.00000E+00         0.00000E+00        -0.50420E+08
 
   -0.50804E+08         0.19693E+06         0.00000E+00
    0.19693E+06        -0.50032E+08         0.00000E+00
    0.00000E+00         0.00000E+00        -0.50417E+08
 
   -0.50793E+08         0.21064E+06         0.00000E+00
    0.21064E+06        -0.50037E+08         0.00000E+00
    0.00000E+00         0.00000E+00        -0.50414E+08
 
   -0.50781E+08         0.22396E+06         0.00000E+00
    0.22396E+06        -0.50042E+08         0.00000E+00
    0.00000E+00         0.00000E+00        -0.50411E+08
 
   -0.50769E+08         0.23687E+06         0.00000E+00
    0.23687E+06        -0.50047E+08         0.00000E+00
    0.00000E+00         0.00000E+00        -0.50408E+08
 
   -0.50756E+08         0.24937E+06         0.00000E+00
    0.24937E+06        -0.50053E+08         0.00000E+00
    0.00000E+00         0.00000E+00        -0.50404E+08
 
   -0.50743E+08         0.26144E+06         0.00000E+00
    0.26144E+06        -0.50059E+08         0.00000E+00
    0.00000E+00         0.00000E+00        -0.50400E+08
 
   -0.50729E+08         0.27309E+06         0.00000E+00
    0.27309E+06        -0.50065E+08         0.00000E+00
    0.00000E+00         0.00000E+00        -0.50397E+08
 
   -0.50715E+08         0.28430E+06         0.00000E+00
    0.28430E+06        -0.50071E+08         0.00000E+00
    0.00000E+00         0.00000E+00        -0.50393E+08
 
   -0.50701E+08         0.29509E+06         0.00000E+00
    0.29509E+06        -0.50077E+08         0.00000E+00
    0.00000E+00         0.00000E+00        -0.50389E+08
 
   -0.50686E+08         0.30544E+06         0.00000E+00
    0.30544E+06        -0.50083E+08         0.00000E+00
    0.00000E+00         0.00000E+00        -0.50385E+08
 
   -0.50671E+08         0.31536E+06         0.00000E+00
    0.31536E+06        -0.50089E+08         0.00000E+00
    0.00000E+00         0.00000E+00        -0.50381E+08
 
   -0.50656E+08         0.32486E+06         0.00000E+00
    0.32486E+06        -0.50096E+08         0.00000E+00
    0.00000E+00         0.00000E+00        -0.50377E+08
 
   -0.50641E+08         0.33395E+06         0.00000E+00
    0.33395E+06        -0.50102E+08         0.00000E+00
    0.00000E+00         0.00000E+00        -0.50372E+08
 
   -0.50626E+08         0.34262E+06         0.00000E+00
    0.34262E+06        -0.50109E+08         0.00000E+00
    0.00000E+00         0.00000E+00        -0.50368E+08
 
   -0.50611E+08         0.35089E+06         0.00000E+00
    0.35089E+06        -0.50115E+08         0.00000E+00
    0.00000E+00         0.00000E+00        -0.50364E+08
 
   -0.50595E+08         0.35878E+06         0.00000E+00
    0.35878E+06        -0.50122E+08         0.00000E+00
    0.00000E+00         0.00000E+00        -0.50360E+08
 
   -0.50580E+08         0.36628E+06         0.00000E+00
    0.36628E+06        -0.50128E+08         0.00000E+00
    0.00000E+00         0.00000E+00        -0.50356E+08
 
   -0.50564E+08         0.37343E+06         0.00000E+00
    0.37343E+06        -0.50135E+08         0.00000E+00
    0.00000E+00         0.00000E+00        -0.50351E+08
 
   -0.50549E+08         0.38023E+06         0.00000E+00
    0.38023E+06        -0.50141E+08         0.00000E+00
    0.00000E+00         0.00000E+00        -0.50347E+08
 
   -0.50534E+08         0.38669E+06         0.00000E+00
    0.38669E+06        -0.50148E+08         0.00000E+00
    0.00000E+00         0.00000E+00        -0.50343E+08
 
   -0.50518E+08         0.39284E+06         0.00000E+00
    0.39284E+06        -0.50154E+08         0.00000E+00
    0.00000E+00         0.00000E+00        -0.50339E+08
 
   -0.50503E+08         0.39870E+06         0.00000E+00
    0.39870E+06        -0.50161E+08         0.00000E+00
    0.00000E+00         0.00000E+00        -0.50335E+08
 
   -0.50488E+08         0.40428E+06         0.00000E+00
    0.40428E+06        -0.50167E+08         0.00000E+00
    0.00000E+00         0.00000E+00        -0.50331E+08
 
   -0.50474E+08         0.40961E+06         0.00000E+00
    0.40961E+06        -0.50173E+08         0.00000E+00
    0.00000E+00         0.00000E+00        -0.50327E+08
 
   -0.50459E+08         0.41471E+06         0.00000E+00
    0.41471E+06        -0.50179E+08         0.00000E+00
    0.00000E+00         0.00000E+00        -0.50324E+08
 
   -0.50445E+08         0.41959E+06         0.00000E+00
    0.41959E+06        -0.50185E+08         0.00000E+00
    0.00000E+00         0.00000E+00        -0.50320E+08
 
   -0.50431E+08         0.42430E+06         0.00000E+00
    0.42430E+06        -0.50191E+08         0.00000E+00
    0.00000E+00         0.00000E+00        -0.50317E+08
 
   -0.50417E+08         0.42883E+06         0.00000E+00
    0.42883E+06        -0.50197E+08         0.00000E+00
    0.00000E+00         0.00000E+00        -0.50313E+08
 
   -0.50403E+08         0.43323E+06         0.00000E+00
    0.43323E+06        -0.50202E+08         0.00000E+00
    0.00000E+00         0.00000E+00        -0.50310E+08
 
   -0.50390E+08         0.43752E+06         0.00000E+00
    0.43752E+06        -0.50208E+08         0.00000E+00
    0.00000E+00         0.00000E+00        -0.50307E+08
 
   -0.50377E+08         0.44172E+06         0.00000E+00
    0.44172E+06        -0.50213E+08         0.00000E+00
    0.00000E+00         0.00000E+00        -0.50304E+08
 
   -0.50364E+08         0.44586E+06         0.00000E+00
    0.44586E+06        -0.50218E+08         0.00000E+00
    0.00000E+00         0.00000E+00        -0.50301E+08
 
   -0.50352E+08         0.44997E+06         0.00000E+00
    0.44997E+06        -0.50224E+08         0.00000E+00
    0.00000E+00         0.00000E+00        -0.50299E+08
 
   -0.50340E+08         0.45406E+06         0.00000E+00
    0.45406E+06        -0.50229E+08         0.00000E+00
    0.00000E+00         0.00000E+00        -0.50297E+08
 
   -0.50328E+08         0.45817E+06         0.00000E+00
    0.45817E+06        -0.50234E+08         0.00000E+00
    0.00000E+00         0.00000E+00        -0.50294E+08
 
   -0.50317E+08         0.46232E+06         0.00000E+00
    0.46232E+06        -0.50239E+08         0.00000E+00
    0.00000E+00         0.00000E+00        -0.50293E+08
 
   -0.50305E+08         0.46654E+06         0.00000E+00
    0.46654E+06        -0.50243E+08         0.00000E+00
    0.00000E+00         0.00000E+00        -0.50291E+08
 
   -0.50294E+08         0.47084E+06         0.00000E+00
    0.47084E+06        -0.50248E+08         0.00000E+00
    0.00000E+00         0.00000E+00        -0.50289E+08
 
   -0.50805E+08         0.73728E+04         0.00000E+00
    0.73728E+04        -0.50000E+08         0.00000E+00
    0.00000E+00         0.00000E+00        -0.50400E+08
 
   -0.50803E+08         0.22111E+05         0.00000E+00
    0.22111E+05        -0.50000E+08         0.00000E+00
    0.00000E+00         0.00000E+00        -0.50399E+08
 
   -0.50801E+08         0.36804E+05         0.00000E+00
    0.36804E+05        -0.50001E+08         0.00000E+00
    0.00000E+00         0.00000E+00        -0.50399E+08
 
   -0.50798E+08         0.51419E+05         0.00000E+00
    0.51419E+05        -0.50002E+08         0.00000E+00
    0.00000E+00         0.00000E+00        -0.50398E+08
 
   -0.50794E+08         0.65928E+05         0.00000E+00
    0.65928E+05        -0.50004E+08         0.00000E+00
    0.00000E+00         0.00000E+00        -0.50397E+08
 
   -0.50789E+08         0.80303E+05         0.00000E+00
    0.80303E+05        -0.50006E+08         0.00000E+00
    0.00000E+00         0.00000E+00        -0.50396E+08
 
   -0.50784E+08         0.94517E+05         0.00000E+00
    0.94517E+05        -0.50008E+08         0.00000E+00
    0.00000E+00         0.00000E+00        -0.50394E+08
 
   -0.50778E+08         0.10855E+06         0.00000E+00
    0.10855E+06        -0.50010E+08         0.00000E+00
    0.00000E+00         0.00000E+00        -0.50393E+08
 
   -0.50771E+08         0.12237E+06         0.00000E+00
    0.12237E+06        -0.50013E+08         0.00000E+00
    0.00000E+00         0.00000E+00        -0.50391E+08
 
   -0.50764E+08         0.13596E+06         0.00000E+00
    0.13596E+06        -0.50016E+08         0.00000E+00
    0.00000E+00         0.00000E+00        -0.50389E+08
 
   -0.50756E+08         0.14931E+06         0.00000E+00
    0.14931E+06        -0.50019E+08         0.00000E+00
    0.00000E+00         0.00000E+00        -0.50387E+08
 
   -0.50747E+08         0.16238E+06         0.00000E+00
    0.16238E+06        -0.50023E+08         0.00000E+00
    0.00000E+00         0.00000E+00        -0.50384E+08
 
   -0.50738E+08         0.17518E+06         0.00000E+00
    0.17518E+06        -0.50027E+08         0.00000E+00
    0.00000E+00         0.00000E+00        -0.50382E+08
 
   -0.50728E+08         0.18769E+06         0.00000E+00
    0.18769E+06        -0.50031E+08         0.00000E+00
    0.00000E+00         0.00000E+00        -0.50379E+08
 
   -0.50718E+08         0.19988E+06         0.00000E+00
    0.19988E+06        -0.50035E+08         0.00000E+00
    0.00000E+00         0.00000E+00        -0.50376E+08
 
   -0.50708E+08         0.21176E+06         0.00000E+00
    0.21176E+06        -0.50040E+08         0.00000E+00
    0.00000E+00         0.00000E+00        -0.50374E+08
 
   -0.50697E+08         0.22331E+06         0.00000E+00
    0.22331E+06        -0.50045E+08         0.00000E+00
    0.00000E+00         0.00000E+00        -0.50371E+08
 
   -0.50685E+08         0.23453E+06         0.00000E+00
    0.23453E+06        -0.50050E+08         0.00000E+00
    0.00000E+00         0.00000E+00        -0.50367E+08
 
   -0.50674E+08         0.24541E+06         0.00000E+00
    0.24541E+06        -0.50055E+08         0.00000E+00
    0.00000E+00         0.00000E+00        -0.50364E+08
 
   -0.50662E+08         0.25594E+06         0.00000E+00
    0.25594E+06        -0.50060E+08         0.00000E+00
    0.00000E+00         0.00000E+00        -0.50361E+08
 
   -0.50649E+08         0.26613E+06         0.00000E+00
    0.26613E+06        -0.50065E+08         0.00000E+00
    0.00000E+00         0.00000E+00        -0.50357E+08
 
   -0.50637E+08         0.27598E+06         0.00000E+00
    0.27598E+06        -0.50071E+08         0.00000E+00
    0.00000E+00         0.00000E+00        -0.50354E+08
 
   -0.50624E+08         0.28548E+06         0.00000E+00
    0.28548E+06        -0.50076E+08         0.00000E+00
    0.00000E+00         0.00000E+00        -0.50350E+08
 
   -0.50611E+08         0.29463E+06         0.00000E+00
    0.29463E+06        -0.50082E+08         0.00000E+00
    0.00000E+00         0.00000E+00        -0.50347E+08
 
   -0.50597E+08         0.30345E+06         0.00000E+00
    0.30345E+06        -0.50087E+08         0.00000E+00
    0.00000E+00         0.00000E+00        -0.50343E+08
 
   -0.50584E+08         0.31193E+06         0.00000E+00
    0.31193E+06        -0.50093E+08         0.00000E+00
    0.00000E+00         0.00000E+00        -0.50340E+08
 
   -0.50570E+08         0.32009E+06         0.00000E+00
    0.32009E+06        -0.50099E+08         0.00000E+00
    0.00000E+00         0.00000E+00        -0.50336E+08
 
   -0.50557E+08         0.32792E+06         0.00000E+00
    0.32792E+06        -0.50105E+08         0.00000E+00
    0.00000E+00         0.00000E+00        -0.50332E+08
 
   -0.50543E+08         0.33544E+06         0.00000E+00
    0.33544E+06        -0.50110E+08         0.00000E+00
    0.00000E+00         0.00000E+00        -0.50328E+08
 
   -0.50529E+08         0.34266E+06         0.00000E+00
    0.34266E+06        -0.50116E+08         0.00000E+00
    0.00000E+00         0.00000E+00        -0.50325E+08
 
   -0.50515E+08         0.34959E+06         0.00000E+00
    0.34959E+06        -0.50122E+08         0.00000E+00
    0.00000E+00         0.00000E+00        -0.50321E+08
 
   -0.50502E+08         0.35625E+06         0.00000E+00
    0.35625E+06        -0.50128E+08         0.00000E+00
    0.00000E+00         0.00000E+00        -0.50317E+08
 
   -0.50488E+08         0.36263E+06         0.00000E+00
    0.36263E+06        -0.50134E+08         0.00000E+00
    0.00000E+00         0.00000E+00        -0.50314E+08
 
   -0.50474E+08         0.36877E+06         0.00000E+00
    0.36877E+06        -0.50139E+08         0.00000E+00
    0.00000E+00         0.00000E+00        -0.50310E+08
 
   -0.50460E+08         0.37467E+06         0.00000E+00
    0.37467E+06        -0.50145E+08         0.00000E+00
    0.00000E+00         0.00000E+00        -0.50307E+08
 
   -0.50447E+08         0.38034E+06         0.00000E+00
    0.38034E+06        -0.50151E+08         0.00000E+00
    0.00000E+00         0.00000E+00        -0.50303E+08
 
   -0.50433E+08         0.38582E+06         0.00000E+00
    0.38582E+06        -0.50156E+08         0.00000E+00
    0.00000E+00         0.00000E+00        -0.50300E+08
 
   -0.50420E+08         0.39110E+06         0.00000E+00
    0.39110E+06        -0.50162E+08         0.00000E+00
    0.00000E+00         0.00000E+00        -0.50296E+08
 
   -0.50407E+08         0.39622E+06         0.00000E+00
    0.39622E+06        -0.50167E+08         0.00000E+00
    0.00000E+00         0.00000E+00        -0.50293E+08
 
   -0.50394E+08         0.40118E+06         0.00000E+00
    0.40118E+06        -0.50173E+08         0.00000E+00
    0.00000E+00         0.00000E+00        -0.50290E+08
 
   -0.50381E+08         0.40601E+06         0.00000E+00
    0.40601E+06        -0.50178E+08         0.00000E+00
    0.00000E+00         0.00000E+00        -0.50287E+08
 
   -0.50368E+08         0.41072E+06         0.00000E+00
    0.41072E+06        -0.50183E+08         0.00000E+00
    0.00000E+00         0.00000E+00        -0.50284E+08
 
   -0.50355E+08         0.41534E+06         0.00000E+00
    0.41534E+06        -0.50189E+08         0.00000E+00
    0.00000E+00         0.00000E+00        -0.50281E+08
 
   -0.50343E+08         0.41987E+06         0.00000E+00
    0.41987E+06        -0.50194E+08         0.00000E+00
    0.00000E+00         0.00000E+00        -0.50279E+08
 
   -0.50331E+08         0.42435E+06         0.00000E+00
    0.42435E+06        -0.50199E+08         0.00000E+00
    0.00000E+00         0.00000E+00        -0.50276E+08
 
   -0.50319E+08         0.42878E+06         0.00000E+00
    0.42878E+06        -0.50204E+08         0.00000E+00
    0.00000E+00         0.00000E+00        -0.50274E+08
 
   -0.50307E+08         0.43319E+06         0.00000E+00
    0.43319E+06        -0.50209E+08         0.00000E+00
    0.00000E+00         0.00000E+00        -0.50272E+08
 
   -0.50295E+08         0.43760E+06         0.00000E+00
    0.43760E+06        -0.50214E+08         0.00000E+00
    0.00000E+00         0.00000E+00        -0.50270E+08
 
   -0.50283E+08         0.44202E+06         0.00000E+00
    0.44202E+06        -0.50219E+08         0.00000E+00
    0.00000E+00         0.00000E+00        -0.50269E+08
 
   -0.50272E+08         0.44646E+06         0.00000E+00
    0.44646E+06        -0.50224E+08         0.00000E+00
    0.00000E+00         0.00000E+00        -0.50267E+08
 
   -0.50735E+08         0.65004E+04         0.00000E+00
    0.65004E+04        -0.50000E+08         0.00000E+00
    0.00000E+00         0.00000E+00        -0.50365E+08
 
   -0.50734E+08         0.19539E+05         0.00000E+00
    0.19539E+05        -0.50000E+08         0.00000E+00
    0.00000E+00         0.00000E+00        -0.50365E+08
 
   -0.50732E+08         0.32560E+05         0.00000E+00
    0.32560E+05        -0.50001E+08         0.00000E+00
    0.00000E+00         0.00000E+00        -0.50364E+08
 
   -0.50729E+08         0.45537E+05         0.00000E+00
    0.45537E+05        -0.50002E+08         0.00000E+00
    0.00000E+00         0.00000E+00        -0.50363E+08
 
   -0.50725E+08         0.58447E+05         0.00000E+00
    0.58447E+05        -0.50003E+08         0.00000E+00
    0.00000E+00         0.00000E+00        -0.50362E+08
 
   -0.50721E+08         0.71267E+05         0.00000E+00
    0.71267E+05        -0.50005E+08         0.00000E+00
    0.00000E+00         0.00000E+00        -0.50361E+08
 
   -0.50717E+08         0.83976E+05         0.00000E+00
    0.83976E+05        -0.50006E+08         0.00000E+00
    0.00000E+00         0.00000E+00        -0.50360E+08
 
   -0.50712E+08         0.96552E+05         0.00000E+00
    0.96552E+05        -0.50008E+08         0.00000E+00
    0.00000E+00         0.00000E+00        -0.50359E+08
 
   -0.50706E+08         0.10898E+06         0.00000E+00
    0.10898E+06        -0.50011E+08         0.00000E+00
    0.00000E+00         0.00000E+00        -0.50357E+08
 
   -0.50700E+08         0.12123E+06         0.00000E+00
    0.12123E+06        -0.50013E+08         0.00000E+00
    0.00000E+00         0.00000E+00        -0.50355E+08
 
   -0.50693E+08         0.13330E+06         0.00000E+00
    0.13330E+06        -0.50016E+08         0.00000E+00
    0.00000E+00         0.00000E+00        -0.50354E+08
 
   -0.50685E+08         0.14517E+06         0.00000E+00
    0.14517E+06        -0.50019E+08         0.00000E+00
    0.00000E+00         0.00000E+00        -0.50352E+08
 
   -0.50678E+08         0.15683E+06         0.00000E+00
    0.15683E+06        -0.50022E+08         0.00000E+00
    0.00000E+00         0.00000E+00        -0.50349E+08
 
   -0.50669E+08         0.16826E+06         0.00000E+00
    0.16826E+06        -0.50026E+08         0.00000E+00
    0.00000E+00         0.00000E+00        -0.50347E+08
 
   -0.50661E+08         0.17945E+06         0.00000E+00
    0.17945E+06        -0.50029E+08         0.00000E+00
    0.00000E+00         0.00000E+00        -0.50345E+08
 
   -0.50651E+08         0.19039E+06         0.00000E+00
    0.19039E+06        -0.50033E+08         0.00000E+00
    0.00000E+00         0.00000E+00        -0.50342E+08
 
   -0.50642E+08         0.20108E+06         0.00000E+00
    0.20108E+06        -0.50037E+08         0.00000E+00
    0.00000E+00         0.00000E+00        -0.50340E+08
 
   -0.50632E+08         0.21150E+06         0.00000E+00
    0.21150E+06        -0.50042E+08         0.00000E+00
    0.00000E+00         0.00000E+00        -0.50337E+08
 
   -0.50622E+08         0.22166E+06         0.00000E+00
    0.22166E+06        -0.50046E+08         0.00000E+00
    0.00000E+00         0.00000E+00        -0.50334E+08
 
   -0.50611E+08         0.23154E+06         0.00000E+00
    0.23154E+06        -0.50050E+08         0.00000E+00
    0.00000E+00         0.00000E+00        -0.50331E+08
 
   -0.50601E+08         0.24115E+06         0.00000E+00
    0.24115E+06        -0.50055E+08         0.00000E+00
    0.00000E+00         0.00000E+00        -0.50328E+08
 
   -0.50589E+08         0.25047E+06         0.00000E+00
    0.25047E+06        -0.50060E+08         0.00000E+00
    0.00000E+00         0.00000E+00        -0.50325E+08
 
   -0.50578E+08         0.25952E+06         0.00000E+00
    0.25952E+06        -0.50064E+08         0.00000E+00
    0.00000E+00         0.00000E+00        -0.50322E+08
 
   -0.50567E+08         0.26829E+06         0.00000E+00
    0.26829E+06        -0.50069E+08         0.00000E+00
    0.00000E+00         0.00000E+00        -0.50319E+08
 
   -0.50555E+08         0.27679E+06         0.00000E+00
    0.27679E+06        -0.50074E+08         0.00000E+00
    0.00000E+00         0.00000E+00        -0.50315E+08
 
   -0.50543E+08         0.28501E+06         0.00000E+00
    0.28501E+06        -0.50079E+08         0.00000E+00
    0.00000E+00         0.00000E+00        -0.50312E+08
 
   -0.50531E+08         0.29296E+06         0.00000E+00
    0.29296E+06        -0.50084E+08         0.00000E+00
    0.00000E+00         0.00000E+00        -0.50309E+08
 
   -0.50519E+08         0.30064E+06         0.00000E+00
    0.30064E+06        -0.50089E+08         0.00000E+00
    0.00000E+00         0.00000E+00        -0.50306E+08
 
   -0.50506E+08         0.30806E+06         0.00000E+00
    0.30806E+06        -0.50094E+08         0.00000E+00
    0.00000E+00         0.00000E+00        -0.50302E+08
 
   -0.50494E+08         0.31524E+06         0.00000E+00
    0.31524E+06        -0.50100E+08         0.00000E+00
    0.00000E+00         0.00000E+00        -0.50299E+08
 
   -0.50481E+08         0.32216E+06         0.00000E+00
    0.32216E+06        -0.50105E+08         0.00000E+00
    0.00000E+00         0.00000E+00        -0.50295E+08
 
   -0.50469E+08         0.32885E+06         0.00000E+00
    0.32885E+06        -0.50110E+08         0.00000E+00
    0.00000E+00         0.00000E+00        -0.50292E+08
 
   -0.50456E+08         0.33531E+06         0.00000E+00
    0.33531E+06        -0.50115E+08         0.00000E+00
    0.00000E+00         0.00000E+00        -0.50289E+08
 
   -0.50444E+08         0.34156E+06         0.00000E+00
    0.34156E+06        -0.50120E+08         0.00000E+00
    0.00000E+00         0.00000E+00        -0.50285E+08
 
   -0.50431E+08         0.34759E+06         0.00000E+00
    0.34759E+06        -0.50126E+08         0.00000E+00
    0.00000E+00         0.00000E+00        -0.50282E+08
 
   -0.50418E+08         0.35343E+06         0.00000E+00
    0.35343E+06        -0.50131E+08         0.00000E+00
    0.00000E+00         0.00000E+00        -0.50279E+08
 
   -0.50406E+08         0.35909E+06         0.00000E+00
    0.35909E+06        -0.50136E+08         0.00000E+00
    0.00000E+00         0.00000E+00        -0.50276E+08
 
   -0.50393E+08         0.36457E+06         0.00000E+00
    0.36457E+06        -0.50141E+08         0.00000E+00
    0.00000E+00         0.00000E+00        -0.50273E+08
 
   -0.50381E+08         0.36990E+06         0.00000E+00
    0.36990E+06        -0.50146E+08         0.00000E+00
    0.00000E+00         0.00000E+00        -0.50270E+08
 
   -0.50369E+08         0.37507E+06         0.00000E+00
    0.37507E+06        -0.50151E+08         0.00000E+00
    0.00000E+00         0.00000E+00        -0.50267E+08
 
   -0.50356E+08         0.38011E+06         0.00000E+00
    0.38011E+06        -0.50156E+08         0.00000E+00
    0.00000E+00         0.00000E+00        -0.50264E+08
 
   -0.50344E+08         0.38503E+06         0.00000E+00
    0.38503E+06        -0.50161E+08         0.00000E+00
    0.00000E+00         0.00000E+00        -0.50261E+08
 
   -0.50332E+08         0.38985E+06         0.00000E+00
    0.38985E+06        -0.50166E+08         0.00000E+00
    0.00000E+00         0.00000E+00        -0.50259E+08
 
   -0.50320E+08         0.39456E+06         0.00000E+00
    0.39456E+06        -0.50171E+08         0.00000E+00
    0.00000E+00         0.00000E+00        -0.50256E+08
 
   -0.50308E+08         0.39920E+06         0.00000E+00
    0.39920E+06        -0.50176E+08         0.00000E+00
    0.00000E+00         0.00000E+00        -0.50254E+08
 
   -0.50296E+08         0.40376E+06         0.00000E+00
    0.40376E+06        -0.50181E+08         0.00000E+00
    0.00000E+00         0.00000E+00        -0.50252E+08
 
   -0.50284E+08         0.40827E+06         0.00000E+00
    0.40827E+06        -0.50186E+08         0.00000E+00
    0.00000E+00         0.00000E+00        -0.50250E+08
 
   -0.50273E+08         0.41273E+06         0.00000E+00
    0.41273E+06        -0.50191E+08         0.00000E+00
    0.00000E+00         0.00000E+00        -0.50248E+08
 
   -0.50261E+08         0.41716E+06         0.00000E+00
    0.41716E+06        -0.50196E+08         0.00000E+00
    0.00000E+00         0.00000E+00        -0.50246E+08
 
   -0.50250E+08         0.42156E+06         0.00000E+00
    0.42156E+06        -0.50201E+08         0.00000E+00
    0.00000E+00         0.00000E+00        -0.50245E+08
 
   -0.50674E+08         0.57965E+04         0.00000E+00
    0.57965E+04        -0.50000E+08         0.00000E+00
    0.00000E+00         0.00000E+00        -0.50334E+08
 
   -0.50672E+08         0.17446E+05         0.00000E+00
    0.17446E+05        -0.50000E+08         0.00000E+00
    0.00000E+00         0.00000E+00        -0.50334E+08
 
   -0.50670E+08         0.29094E+05         0.00000E+00
    0.29094E+05        -0.50001E+08         0.00000E+00
    0.00000E+00         0.00000E+00        -0.50333E+08
 
   -0.50668E+08         0.40718E+05         0.00000E+00
    0.40718E+05        -0.50001E+08         0.00000E+00
    0.00000E+00         0.00000E+00        -0.50332E+08
 
   -0.50664E+08         0.52300E+05         0.00000E+00
    0.52300E+05        -0.50002E+08         0.00000E+00
    0.00000E+00         0.00000E+00        -0.50332E+08
 
   -0.50661E+08         0.63822E+05         0.00000E+00
    0.63822E+05        -0.50004E+08         0.00000E+00
    0.00000E+00         0.00000E+00        -0.50331E+08
 
   -0.50657E+08         0.75266E+05         0.00000E+00
    0.75266E+05        -0.50005E+08         0.00000E+00
    0.00000E+00         0.00000E+00        -0.50329E+08
 
   -0.50652E+08         0.86615E+05         0.00000E+00
    0.86615E+05        -0.50007E+08         0.00000E+00
    0.00000E+00         0.00000E+00        -0.50328E+08
 
   -0.50647E+08         0.97853E+05         0.00000E+00
    0.97853E+05        -0.50009E+08         0.00000E+00
    0.00000E+00         0.00000E+00        -0.50327E+08
 
   -0.50642E+08         0.10897E+06         0.00000E+00
    0.10897E+06        -0.50011E+08         0.00000E+00
    0.00000E+00         0.00000E+00        -0.50325E+08
 
   -0.50636E+08         0.11994E+06         0.00000E+00
    0.11994E+06        -0.50013E+08         0.00000E+00
    0.00000E+00         0.00000E+00        -0.50324E+08
 
   -0.50629E+08         0.13076E+06         0.00000E+00
    0.13076E+06        -0.50016E+08         0.00000E+00
    0.00000E+00         0.00000E+00        -0.50322E+08
 
   -0.50622E+08         0.14142E+06         0.00000E+00
    0.14142E+06        -0.50019E+08         0.00000E+00
    0.00000E+00         0.00000E+00        -0.50320E+08
 
   -0.50615E+08         0.15190E+06         0.00000E+00
    0.15190E+06        -0.50021E+08         0.00000E+00
    0.00000E+00         0.00000E+00        -0.50318E+08
 
   -0.50607E+08         0.16219E+06         0.00000E+00
    0.16219E+06        -0.50025E+08         0.00000E+00
    0.00000E+00         0.00000E+00        -0.50316E+08
 
   -0.50599E+08         0.17230E+06         0.00000E+00
    0.17230E+06        -0.50028E+08         0.00000E+00
    0.00000E+00         0.00000E+00        -0.50313E+08
 
   -0.50591E+08         0.18220E+06         0.00000E+00
    0.18220E+06        -0.50031E+08         0.00000E+00
    0.00000E+00         0.00000E+00        -0.50311E+08
 
   -0.50582E+08         0.19189E+06         0.00000E+00
    0.19189E+06        -0.50035E+08         0.00000E+00
    0.00000E+00         0.00000E+00        -0.50309E+08
 
   -0.50573E+08         0.20137E+06         0.00000E+00
    0.20137E+06        -0.50038E+08         0.00000E+00
    0.00000E+00         0.00000E+00        -0.50306E+08
 
   -0.50564E+08         0.21063E+06         0.00000E+00
    0.21063E+06        -0.50042E+08         0.00000E+00
    0.00000E+00         0.00000E+00        -0.50303E+08
 
   -0.50555E+08         0.21967E+06         0.00000E+00
    0.21967E+06        -0.50046E+08         0.00000E+00
    0.00000E+00         0.00000E+00        -0.50301E+08
 
   -0.50545E+08         0.22848E+06         0.00000E+00
    0.22848E+06        -0.50050E+08         0.00000E+00
    0.00000E+00         0.00000E+00        -0.50298E+08
 
   -0.50535E+08         0.23707E+06         0.00000E+00
    0.23707E+06        -0.50054E+08         0.00000E+00
    0.00000E+00         0.00000E+00        -0.50295E+08
 
   -0.50524E+08         0.24542E+06         0.00000E+00
    0.24542E+06        -0.50059E+08         0.00000E+00
    0.00000E+00         0.00000E+00        -0.50292E+08
 
   -0.50514E+08         0.25355E+06         0.00000E+00
    0.25355E+06        -0.50063E+08         0.00000E+00
    0.00000E+00         0.00000E+00        -0.50289E+08
 
   -0.50503E+08         0.26146E+06         0.00000E+00
    0.26146E+06        -0.50067E+08         0.00000E+00
    0.00000E+00         0.00000E+00        -0.50286E+08
 
   -0.50492E+08         0.26914E+06         0.00000E+00
    0.26914E+06        -0.50072E+08         0.00000E+00
    0.00000E+00         0.00000E+00        -0.50283E+08
 
   -0.50481E+08         0.27659E+06         0.00000E+00
    0.27659E+06        -0.50076E+08         0.00000E+00
    0.00000E+00         0.00000E+00        -0.50280E+08
 
   -0.50470E+08         0.28383E+06         0.00000E+00
    0.28383E+06        -0.50081E+08         0.00000E+00
    0.00000E+00         0.00000E+00        -0.50277E+08
 
   -0.50459E+08         0.29085E+06         0.00000E+00
    0.29085E+06        -0.50085E+08         0.00000E+00
    0.00000E+00         0.00000E+00        -0.50274E+08
 
   -0.50447E+08         0.29767E+06         0.00000E+00
    0.29767E+06        -0.50090E+08         0.00000E+00
    0.00000E+00         0.00000E+00        -0.50271E+08
 
   -0.50436E+08         0.30427E+06         0.00000E+00
    0.30427E+06        -0.50094E+08         0.00000E+00
    0.00000E+00         0.00000E+00        -0.50268E+08
 
   -0.50424E+08         0.31068E+06         0.00000E+00
    0.31068E+06        -0.50099E+08         0.00000E+00
    0.00000E+00         0.00000E+00        -0.50265E+08
 
   -0.50413E+08         0.31690E+06         0.00000E+00
    0.31690E+06        -0.50104E+08         0.00000E+00
    0.00000E+00         0.00000E+00        -0.50262E+08
 
   -0.50401E+08         0.32293E+06         0.00000E+00
    0.32293E+06        -0.50109E+08         0.00000E+00
    0.00000E+00         0.00000E+00        -0.50259E+08
 
   -0.50390E+08         0.32879E+06         0.00000E+00
    0.32879E+06        -0.50113E+08         0.00000E+00
    0.00000E+00         0.00000E+00        -0.50256E+08
 
   -0.50378E+08         0.33447E+06         0.00000E+00
    0.33447E+06        -0.50118E+08         0.00000E+00
    0.00000E+00         0.00000E+00        -0.50253E+08
 
   -0.50366E+08         0.34000E+06         0.00000E+00
    0.34000E+06        -0.50123E+08         0.00000E+00
    0.00000E+00         0.00000E+00        -0.50250E+08
 
   -0.50354E+08         0.34537E+06         0.00000E+00
    0.34537E+06        -0.50127E+08         0.00000E+00
    0.00000E+00         0.00000E+00        -0.50247E+08
 
   -0.50343E+08         0.35059E+06         0.00000E+00
    0.35059E+06        -0.50132E+08         0.00000E+00
    0.00000E+00         0.00000E+00        -0.50244E+08
 
   -0.50331E+08         0.35568E+06         0.00000E+00
    0.35568E+06        -0.50137E+08         0.00000E+00
    0.00000E+00         0.00000E+00        -0.50242E+08
 
   -0.50320E+08         0.36064E+06         0.00000E+00
    0.36064E+06        -0.50142E+08         0.00000E+00
    0.00000E+00         0.00000E+00        -0.50239E+08
 
   -0.50308E+08         0.36549E+06         0.00000E+00
    0.36549E+06        -0.50146E+08         0.00000E+00
    0.00000E+00         0.00000E+00        -0.50237E+08
 
   -0.50296E+08         0.37022E+06         0.00000E+00
    0.37022E+06        -0.50151E+08         0.00000E+00
    0.00000E+00         0.00000E+00        -0.50234E+08
 
   -0.50285E+08         0.37486E+06         0.00000E+00
    0.37486E+06        -0.50156E+08         0.00000E+00
    0.00000E+00         0.00000E+00        -0.50232E+08
 
   -0.50273E+08         0.37940E+06         0.00000E+00
    0.37940E+06        -0.50161E+08         0.00000E+00
    0.00000E+00         0.00000E+00        -0.50230E+08
 
   -0.50262E+08         0.38386E+06         0.00000E+00
    0.38386E+06        -0.50165E+08         0.00000E+00
    0.00000E+00         0.00000E+00        -0.50228E+08
 
   -0.50251E+08         0.38823E+06         0.00000E+00
    0.38823E+06        -0.50170E+08         0.00000E+00
    0.00000E+00         0.00000E+00        -0.50226E+08
 
   -0.50240E+08         0.39254E+06         0.00000E+00
    0.39254E+06        -0.50175E+08         0.00000E+00
    0.00000E+00         0.00000E+00        -0.50225E+08
 
   -0.50228E+08         0.39679E+06         0.00000E+00
    0.39679E+06        -0.50180E+08         0.00000E+00
    0.00000E+00         0.00000E+00        -0.50223E+08
 
   -0.50618E+08         0.52292E+04         0.00000E+00
    0.52292E+04        -0.50000E+08         0.00000E+00
    0.00000E+00         0.00000E+00        -0.50306E+08
 
   -0.50617E+08         0.15746E+05         0.00000E+00
    0.15746E+05        -0.50000E+08         0.00000E+00
    0.00000E+00         0.00000E+00        -0.50306E+08
 
   -0.50615E+08         0.26267E+05         0.00000E+00
    0.26267E+05        -0.50001E+08         0.00000E+00
    0.00000E+00         0.00000E+00        -0.50305E+08
 
   -0.50612E+08         0.36777E+05         0.00000E+00
    0.36777E+05        -0.50001E+08         0.00000E+00
    0.00000E+00         0.00000E+00        -0.50304E+08
 
   -0.50610E+08         0.47259E+05         0.00000E+00
    0.47259E+05        -0.50002E+08         0.00000E+00
    0.00000E+00         0.00000E+00        -0.50304E+08
 
   -0.50606E+08         0.57700E+05         0.00000E+00
    0.57700E+05        -0.50003E+08         0.00000E+00
    0.00000E+00         0.00000E+00        -0.50303E+08
 
   -0.50602E+08         0.68084E+05         0.00000E+00
    0.68084E+05        -0.50004E+08         0.00000E+00
    0.00000E+00         0.00000E+00        -0.50302E+08
 
   -0.50598E+08         0.78399E+05         0.00000E+00
    0.78399E+05        -0.50006E+08         0.00000E+00
    0.00000E+00         0.00000E+00        -0.50300E+08
 
   -0.50594E+08         0.88632E+05         0.00000E+00
    0.88632E+05        -0.50007E+08         0.00000E+00
    0.00000E+00         0.00000E+00        -0.50299E+08
 
   -0.50589E+08         0.98769E+05         0.00000E+00
    0.98769E+05        -0.50009E+08         0.00000E+00
    0.00000E+00         0.00000E+00        -0.50298E+08
 
   -0.50583E+08         0.10880E+06         0.00000E+00
    0.10880E+06        -0.50011E+08         0.00000E+00
    0.00000E+00         0.00000E+00        -0.50296E+08
 
   -0.50578E+08         0.11871E+06         0.00000E+00
    0.11871E+06        -0.50013E+08         0.00000E+00
    0.00000E+00         0.00000E+00        -0.50295E+08
 
   -0.50572E+08         0.12850E+06         0.00000E+00
    0.12850E+06        -0.50015E+08         0.00000E+00
    0.00000E+00         0.00000E+00        -0.50293E+08
 
   -0.50565E+08         0.13815E+06         0.00000E+00
    0.13815E+06        -0.50018E+08         0.00000E+00
    0.00000E+00         0.00000E+00        -0.50291E+08
 
   -0.50558E+08         0.14765E+06         0.00000E+00
    0.14765E+06        -0.50020E+08         0.00000E+00
    0.00000E+00         0.00000E+00        -0.50289E+08
 
   -0.50551E+08         0.15700E+06         0.00000E+00
    0.15700E+06        -0.50023E+08         0.00000E+00
    0.00000E+00         0.00000E+00        -0.50287E+08
 
   -0.50544E+08         0.16619E+06         0.00000E+00
    0.16619E+06        -0.50026E+08         0.00000E+00
    0.00000E+00         0.00000E+00        -0.50285E+08
 
   -0.50536E+08         0.17521E+06         0.00000E+00
    0.17521E+06        -0.50029E+08         0.00000E+00
    0.00000E+00         0.00000E+00        -0.50283E+08
 
   -0.50528E+08         0.18406E+06         0.00000E+00
    0.18406E+06        -0.50032E+08         0.00000E+00
    0.00000E+00         0.00000E+00        -0.50280E+08
 
   -0.50520E+08         0.19273E+06         0.00000E+00
    0.19273E+06        -0.50035E+08         0.00000E+00
    0.00000E+00         0.00000E+00        -0.50278E+08
 
   -0.50511E+08         0.20123E+06         0.00000E+00
    0.20123E+06        -0.50039E+08         0.00000E+00
    0.00000E+00         0.00000E+00        -0.50275E+08
 
   -0.50502E+08         0.20953E+06         0.00000E+00
    0.20953E+06        -0.50042E+08         0.00000E+00
    0.00000E+00         0.00000E+00        -0.50273E+08
 
   -0.50493E+08         0.21765E+06         0.00000E+00
    0.21765E+06        -0.50046E+08         0.00000E+00
    0.00000E+00         0.00000E+00        -0.50270E+08
 
   -0.50484E+08         0.22558E+06         0.00000E+00
    0.22558E+06        -0.50049E+08         0.00000E+00
    0.00000E+00         0.00000E+00        -0.50268E+08
 
   -0.50475E+08         0.23333E+06         0.00000E+00
    0.23333E+06        -0.50053E+08         0.00000E+00
    0.00000E+00         0.00000E+00        -0.50265E+08
 
   -0.50465E+08         0.24088E+06         0.00000E+00
    0.24088E+06        -0.50057E+08         0.00000E+00
    0.00000E+00         0.00000E+00        -0.50262E+08
 
   -0.50455E+08         0.24824E+06         0.00000E+00
    0.24824E+06        -0.50061E+08         0.00000E+00
    0.00000E+00         0.00000E+00        -0.50259E+08
 
   -0.50445E+08         0.25541E+06         0.00000E+00
    0.25541E+06        -0.50065E+08         0.00000E+00
    0.00000E+00         0.00000E+00        -0.50257E+08
 
   -0.50435E+08         0.26240E+06         0.00000E+00
    0.26240E+06        -0.50069E+08         0.00000E+00
    0.00000E+00         0.00000E+00        -0.50254E+08
 
   -0.50425E+08         0.26920E+06         0.00000E+00
    0.26920E+06        -0.50073E+08         0.00000E+00
    0.00000E+00         0.00000E+00        -0.50251E+08
 
   -0.50414E+08         0.27582E+06         0.00000E+00
    0.27582E+06        -0.50077E+08         0.00000E+00
    0.00000E+00         0.00000E+00        -0.50248E+08
 
   -0.50404E+08         0.28225E+06         0.00000E+00
    0.28225E+06        -0.50081E+08         0.00000E+00
    0.00000E+00         0.00000E+00        -0.50245E+08
 
   -0.50393E+08         0.28851E+06         0.00000E+00
    0.28851E+06        -0.50085E+08         0.00000E+00
    0.00000E+00         0.00000E+00        -0.50242E+08
 
   -0.50383E+08         0.29460E+06         0.00000E+00
    0.29460E+06        -0.50090E+08         0.00000E+00
    0.00000E+00         0.00000E+00        -0.50239E+08
 
   -0.50372E+08         0.30052E+06         0.00000E+00
    0.30052E+06        -0.50094E+08         0.00000E+00
    0.00000E+00         0.00000E+00        -0.50237E+08
 
   -0.50361E+08         0.30628E+06         0.00000E+00
    0.30628E+06        -0.50098E+08         0.00000E+00
    0.00000E+00         0.00000E+00        -0.50234E+08
 
   -0.50350E+08         0.31188E+06         0.00000E+00
    0.31188E+06        -0.50102E+08         0.00000E+00
    0.00000E+00         0.00000E+00        -0.50231E+08
 
   -0.50339E+08         0.31732E+06         0.00000E+00
    0.31732E+06        -0.50107E+08         0.00000E+00
    0.00000E+00         0.00000E+00        -0.50228E+08
 
   -0.50328E+08         0.32262E+06         0.00000E+00
    0.32262E+06        -0.50111E+08         0.00000E+00
    0.00000E+00         0.00000E+00        -0.50226E+08
 
   -0.50317E+08         0.32777E+06         0.00000E+00
    0.32777E+06        -0.50115E+08         0.00000E+00
    0.00000E+00         0.00000E+00        -0.50223E+08
 
   -0.50306E+08         0.33279E+06         0.00000E+00
    0.33279E+06        -0.50120E+08         0.00000E+00
    0.00000E+00         0.00000E+00        -0.50221E+08
 
   -0.50295E+08         0.33767E+06         0.00000E+00
    0.33767E+06        -0.50124E+08         0.00000E+00
    0.00000E+00         0.00000E+00        -0.50218E+08
 
   -0.50284E+08         0.34243E+06         0.00000E+00
    0.34243E+06        -0.50129E+08         0.00000E+00
    0.00000E+00         0.00000E+00        -0.50216E+08
 
   -0.50273E+08         0.34707E+06         0.00000E+00
    0.34707E+06        -0.50133E+08         0.00000E+00
    0.00000E+00         0.00000E+00        -0.50214E+08
 
   -0.50262E+08         0.35159E+06         0.00000E+00
    0.35159E+06        -0.50138E+08         0.00000E+00
    0.00000E+00         0.00000E+00        -0.50212E+08
 
   -0.50251E+08         0.35600E+06         0.00000E+00
    0.35600E+06        -0.50142E+08         0.00000E+00
    0.00000E+00         0.00000E+00        -0.50210E+08
 
   -0.50240E+08         0.36031E+06         0.00000E+00
    0.36031E+06        -0.50147E+08         0.00000E+00
    0.00000E+00         0.00000E+00        -0.50208E+08
 
   -0.50230E+08         0.36451E+06         0.00000E+00
    0.36451E+06        -0.50152E+08         0.00000E+00
    0.00000E+00         0.00000E+00        -0.50206E+08
 
   -0.50219E+08         0.36862E+06         0.00000E+00
    0.36862E+06        -0.50156E+08         0.00000E+00
    0.00000E+00         0.00000E+00        -0.50205E+08
 
   -0.50208E+08         0.37263E+06         0.00000E+00
    0.37263E+06        -0.50161E+08         0.00000E+00
    0.00000E+00         0.00000E+00        -0.50203E+08
 
   -0.50568E+08         0.47705E+04         0.00000E+00
    0.47705E+04        -0.50000E+08         0.00000E+00
    0.00000E+00         0.00000E+00        -0.50280E+08
 
   -0.50567E+08         0.14362E+05         0.00000E+00
    0.14362E+05        -0.50000E+08         0.00000E+00
    0.00000E+00         0.00000E+00        -0.50280E+08
 
   -0.50565E+08         0.23958E+05         0.00000E+00
    0.23958E+05        -0.50000E+08         0.00000E+00
    0.00000E+00         0.00000E+00        -0.50280E+08
 
   -0.50562E+08         0.33547E+05         0.00000E+00
    0.33547E+05        -0.50001E+08         0.00000E+00
    0.00000E+00         0.00000E+00        -0.50279E+08
 
   -0.50560E+08         0.43117E+05         0.00000E+00
    0.43117E+05        -0.50002E+08         0.00000E+00
    0.00000E+00         0.00000E+00        -0.50278E+08
 
   -0.50556E+08         0.52656E+05         0.00000E+00
    0.52656E+05        -0.50002E+08         0.00000E+00
    0.00000E+00         0.00000E+00        -0.50277E+08
 
   -0.50553E+08         0.62153E+05         0.00000E+00
    0.62153E+05        -0.50003E+08         0.00000E+00
    0.00000E+00         0.00000E+00        -0.50276E+08
 
   -0.50549E+08         0.71596E+05         0.00000E+00
    0.71596E+05        -0.50005E+08         0.00000E+00
    0.00000E+00         0.00000E+00        -0.50275E+08
 
   -0.50545E+08         0.80975E+05         0.00000E+00
    0.80975E+05        -0.50006E+08         0.00000E+00
    0.00000E+00         0.00000E+00        -0.50274E+08
 
   -0.50540E+08         0.90280E+05         0.00000E+00
    0.90280E+05        -0.50007E+08         0.00000E+00
    0.00000E+00         0.00000E+00        -0.50273E+08
 
   -0.50536E+08         0.99502E+05         0.00000E+00
    0.99502E+05        -0.50009E+08         0.00000E+00
    0.00000E+00         0.00000E+00        -0.50271E+08
 
   -0.50530E+08         0.10863E+06         0.00000E+00
    0.10863E+06        -0.50011E+08         0.00000E+00
    0.00000E+00         0.00000E+00        -0.50270E+08
 
   -0.50525E+08         0.11766E+06         0.00000E+00
    0.11766E+06        -0.50013E+08         0.00000E+00
    0.00000E+00         0.00000E+00        -0.50268E+08
 
   -0.50519E+08         0.12657E+06         0.00000E+00
    0.12657E+06        -0.50015E+08         0.00000E+00
    0.00000E+00         0.00000E+00        -0.50266E+08
 
   -0.50513E+08         0.13538E+06         0.00000E+00
    0.13538E+06        -0.50017E+08         0.00000E+00
    0.00000E+00         0.00000E+00        -0.50264E+08
 
   -0.50507E+08         0.14405E+06         0.00000E+00
    0.14405E+06        -0.50019E+08         0.00000E+00
    0.00000E+00         0.00000E+00        -0.50263E+08
 
   -0.50500E+08         0.15260E+06         0.00000E+00
    0.15260E+06        -0.50022E+08         0.00000E+00
    0.00000E+00         0.00000E+00        -0.50261E+08
 
   -0.50493E+08         0.16101E+06         0.00000E+00
    0.16101E+06        -0.50024E+08         0.00000E+00
    0.00000E+00         0.00000E+00        -0.50259E+08
 
   -0.50486E+08         0.16928E+06         0.00000E+00
    0.16928E+06        -0.50027E+08         0.00000E+00
    0.00000E+00         0.00000E+00        -0.50256E+08
 
   -0.50478E+08         0.17740E+06         0.00000E+00
    0.17740E+06        -0.50030E+08         0.00000E+00
    0.00000E+00         0.00000E+00        -0.50254E+08
 
   -0.50471E+08         0.18537E+06         0.00000E+00
    0.18537E+06        -0.50033E+08         0.00000E+00
    0.00000E+00         0.00000E+00        -0.50252E+08
 
   -0.50463E+08         0.19319E+06         0.00000E+00
    0.19319E+06        -0.50036E+08         0.00000E+00
    0.00000E+00         0.00000E+00        -0.50250E+08
 
   -0.50454E+08         0.20085E+06         0.00000E+00
    0.20085E+06        -0.50039E+08         0.00000E+00
    0.00000E+00         0.00000E+00        -0.50247E+08
 
   -0.50446E+08         0.20835E+06         0.00000E+00
    0.20835E+06        -0.50042E+08         0.00000E+00
    0.00000E+00         0.00000E+00        -0.50245E+08
 
   -0.50437E+08         0.21570E+06         0.00000E+00
    0.21570E+06        -0.50045E+08         0.00000E+00
    0.00000E+00         0.00000E+00        -0.50242E+08
 
   -0.50429E+08         0.22288E+06         0.00000E+00
    0.22288E+06        -0.50049E+08         0.00000E+00
    0.00000E+00         0.00000E+00        -0.50240E+08
 
   -0.50420E+08         0.22989E+06         0.00000E+00
    0.22989E+06        -0.50052E+08         0.00000E+00
    0.00000E+00         0.00000E+00        -0.50237E+08
 
   -0.50411E+08         0.23674E+06         0.00000E+00
    0.23674E+06        -0.50055E+08         0.00000E+00
    0.00000E+00         0.00000E+00        -0.50234E+08
 
   -0.50401E+08         0.24343E+06         0.00000E+00
    0.24343E+06        -0.50059E+08         0.00000E+00
    0.00000E+00         0.00000E+00        -0.50232E+08
 
   -0.50392E+08         0.24996E+06         0.00000E+00
    0.24996E+06        -0.50063E+08         0.00000E+00
    0.00000E+00         0.00000E+00        -0.50229E+08
 
   -0.50382E+08         0.25632E+06         0.00000E+00
    0.25632E+06        -0.50066E+08         0.00000E+00
    0.00000E+00         0.00000E+00        -0.50227E+08
 
   -0.50373E+08         0.26253E+06         0.00000E+00
    0.26253E+06        -0.50070E+08         0.00000E+00
    0.00000E+00         0.00000E+00        -0.50224E+08
 
   -0.50363E+08         0.26857E+06         0.00000E+00
    0.26857E+06        -0.50074E+08         0.00000E+00
    0.00000E+00         0.00000E+00        -0.50221E+08
 
   -0.50353E+08         0.27446E+06         0.00000E+00
    0.27446E+06        -0.50077E+08         0.00000E+00
    0.00000E+00         0.00000E+00        -0.50219E+08
 
   -0.50343E+08         0.28019E+06         0.00000E+00
    0.28019E+06        -0.50081E+08         0.00000E+00
    0.00000E+00         0.00000E+00        -0.50216E+08
 
   -0.50333E+08         0.28577E+06         0.00000E+00
    0.28577E+06        -0.50085E+08         0.00000E+00
    0.00000E+00         0.00000E+00        -0.50213E+08
 
   -0.50323E+08         0.29120E+06         0.00000E+00
    0.29120E+06        -0.50089E+08         0.00000E+00
    0.00000E+00         0.00000E+00        -0.50211E+08
 
   -0.50313E+08         0.29648E+06         0.00000E+00
    0.29648E+06        -0.50093E+08         0.00000E+00
    0.00000E+00         0.00000E+00        -0.50208E+08
 
   -0.50302E+08         0.30162E+06         0.00000E+00
    0.30162E+06        -0.50097E+08         0.00000E+00
    0.00000E+00         0.00000E+00        -0.50206E+08
 
   -0.50292E+08         0.30661E+06         0.00000E+00
    0.30661E+06        -0.50101E+08         0.00000E+00
    0.00000E+00         0.00000E+00        -0.50203E+08
 
   -0.50282E+08         0.31147E+06         0.00000E+00
    0.31147E+06        -0.50105E+08         0.00000E+00
    0.00000E+00         0.00000E+00        -0.50201E+08
 
   -0.50271E+08         0.31619E+06         0.00000E+00
    0.31619E+06        -0.50109E+08         0.00000E+00
    0.00000E+00         0.00000E+00        -0.50199E+08
 
   -0.50261E+08         0.32079E+06         0.00000E+00
    0.32079E+06        -0.50114E+08         0.00000E+00
    0.00000E+00         0.00000E+00        -0.50196E+08
 
   -0.50251E+08         0.32525E+06         0.00000E+00
    0.32525E+06        -0.50118E+08         0.00000E+00
    0.00000E+00         0.00000E+00        -0.50194E+08
 
   -0.50240E+08         0.32958E+06         0.00000E+00
    0.32958E+06        -0.50122E+08         0.00000E+00
    0.00000E+00         0.00000E+00        -0.50192E+08
 
   -0.50230E+08         0.33380E+06         0.00000E+00
    0.33380E+06        -0.50126E+08         0.00000E+00
    0.00000E+00         0.00000E+00        -0.50190E+08
 
   -0.50220E+08         0.33789E+06         0.00000E+00
    0.33789E+06        -0.50131E+08         0.00000E+00
    0.00000E+00         0.00000E+00        -0.50189E+08
 
   -0.50209E+08         0.34187E+06         0.00000E+00
    0.34187E+06        -0.50135E+08         0.00000E+00
    0.00000E+00         0.00000E+00        -0.50187E+08
 
   -0.50199E+08         0.34572E+06         0.00000E+00
    0.34572E+06        -0.50139E+08         0.00000E+00
    0.00000E+00         0.00000E+00        -0.50186E+08
 
   -0.50189E+08         0.34947E+06         0.00000E+00
    0.34947E+06        -0.50144E+08         0.00000E+00
    0.00000E+00         0.00000E+00        -0.50184E+08
 
   -0.50522E+08         0.43969E+04         0.00000E+00
    0.43969E+04        -0.50000E+08         0.00000E+00
    0.00000E+00         0.00000E+00        -0.50257E+08
 
   -0.50521E+08         0.13227E+05         0.00000E+00
    0.13227E+05        -0.50000E+08         0.00000E+00
    0.00000E+00         0.00000E+00        -0.50257E+08
 
   -0.50519E+08         0.22059E+05         0.00000E+00
    0.22059E+05        -0.50000E+08         0.00000E+00
    0.00000E+00         0.00000E+00        -0.50256E+08
 
   -0.50516E+08         0.30885E+05         0.00000E+00
    0.30885E+05        -0.50001E+08         0.00000E+00
    0.00000E+00         0.00000E+00        -0.50256E+08
 
   -0.50514E+08         0.39695E+05         0.00000E+00
    0.39695E+05        -0.50001E+08         0.00000E+00
    0.00000E+00         0.00000E+00        -0.50255E+08
 
   -0.50511E+08         0.48479E+05         0.00000E+00
    0.48479E+05        -0.50002E+08         0.00000E+00
    0.00000E+00         0.00000E+00        -0.50254E+08
 
   -0.50508E+08         0.57228E+05         0.00000E+00
    0.57228E+05        -0.50003E+08         0.00000E+00
    0.00000E+00         0.00000E+00        -0.50253E+08
 
   -0.50504E+08         0.65934E+05         0.00000E+00
    0.65934E+05        -0.50004E+08         0.00000E+00
    0.00000E+00         0.00000E+00        -0.50252E+08
 
   -0.50500E+08         0.74588E+05         0.00000E+00
    0.74588E+05        -0.50005E+08         0.00000E+00
    0.00000E+00         0.00000E+00        -0.50251E+08
 
   -0.50496E+08         0.83181E+05         0.00000E+00
    0.83181E+05        -0.50006E+08         0.00000E+00
    0.00000E+00         0.00000E+00        -0.50250E+08
 
   -0.50492E+08         0.91706E+05         0.00000E+00
    0.91706E+05        -0.50008E+08         0.00000E+00
    0.00000E+00         0.00000E+00        -0.50248E+08
 
   -0.50487E+08         0.10015E+06         0.00000E+00
    0.10015E+06        -0.50009E+08         0.00000E+00
    0.00000E+00         0.00000E+00        -0.50247E+08
 
   -0.50482E+08         0.10852E+06         0.00000E+00
    0.10852E+06        -0.50011E+08         0.00000E+00
    0.00000E+00         0.00000E+00        -0.50245E+08
 
   -0.50476E+08         0.11679E+06         0.00000E+00
    0.11679E+06        -0.50012E+08         0.00000E+00
    0.00000E+00         0.00000E+00        -0.50244E+08
 
   -0.50471E+08         0.12497E+06         0.00000E+00
    0.12497E+06        -0.50014E+08         0.00000E+00
    0.00000E+00         0.00000E+00        -0.50242E+08
 
   -0.50465E+08         0.13305E+06         0.00000E+00
    0.13305E+06        -0.50016E+08         0.00000E+00
    0.00000E+00         0.00000E+00        -0.50240E+08
 
   -0.50459E+08         0.14101E+06         0.00000E+00
    0.14101E+06        -0.50018E+08         0.00000E+00
    0.00000E+00         0.00000E+00        -0.50238E+08
 
   -0.50453E+08         0.14887E+06         0.00000E+00
    0.14887E+06        -0.50021E+08         0.00000E+00
    0.00000E+00         0.00000E+00        -0.50236E+08
 
   -0.50446E+08         0.15660E+06         0.00000E+00
    0.15660E+06        -0.50023E+08         0.00000E+00
    0.00000E+00         0.00000E+00        -0.50234E+08
 
   -0.50439E+08         0.16421E+06         0.00000E+00
    0.16421E+06        -0.50025E+08         0.00000E+00
    0.00000E+00         0.00000E+00        -0.50232E+08
 
   -0.50432E+08         0.17169E+06         0.00000E+00
    0.17169E+06        -0.50028E+08         0.00000E+00
    0.00000E+00         0.00000E+00        -0.50230E+08
 
   -0.50425E+08         0.17905E+06         0.00000E+00
    0.17905E+06        -0.50030E+08         0.00000E+00
    0.00000E+00         0.00000E+00        -0.50228E+08
 
   -0.50418E+08         0.18626E+06         0.00000E+00
    0.18626E+06        -0.50033E+08         0.00000E+00
    0.00000E+00         0.00000E+00        -0.50226E+08
 
   -0.50410E+08         0.19334E+06         0.00000E+00
    0.19334E+06        -0.50036E+08         0.00000E+00
    0.00000E+00         0.00000E+00        -0.50223E+08
 
   -0.50402E+08         0.20029E+06         0.00000E+00
    0.20029E+06        -0.50039E+08         0.00000E+00
    0.00000E+00         0.00000E+00        -0.50221E+08
 
   -0.50394E+08         0.20709E+06         0.00000E+00
    0.20709E+06        -0.50042E+08         0.00000E+00
    0.00000E+00         0.00000E+00        -0.50219E+08
 
   -0.50386E+08         0.21374E+06         0.00000E+00
    0.21374E+06        -0.50045E+08         0.00000E+00
    0.00000E+00         0.00000E+00        -0.50216E+08
 
   -0.50378E+08         0.22025E+06         0.00000E+00
    0.22025E+06        -0.50048E+08         0.00000E+00
    0.00000E+00         0.00000E+00        -0.50214E+08
 
   -0.50369E+08         0.22662E+06         0.00000E+00
    0.22662E+06        -0.50051E+08         0.00000E+00
    0.00000E+00         0.00000E+00        -0.50211E+08
 
   -0.50360E+08         0.23284E+06         0.00000E+00
    0.23284E+06        -0.50054E+08         0.00000E+00
    0.00000E+00         0.00000E+00        -0.50209E+08
 
   -0.50352E+08         0.23892E+06         0.00000E+00
    0.23892E+06        -0.50057E+08         0.00000E+00
    0.00000E+00         0.00000E+00        -0.50207E+08
 
   -0.50343E+08         0.24485E+06         0.00000E+00
    0.24485E+06        -0.50061E+08         0.00000E+00
    0.00000E+00         0.00000E+00        -0.50204E+08
 
   -0.50334E+08         0.25063E+06         0.00000E+00
    0.25063E+06        -0.50064E+08         0.00000E+00
    0.00000E+00         0.00000E+00        -0.50202E+08
 
   -0.50325E+08         0.25627E+06         0.00000E+00
    0.25627E+06        -0.50067E+08         0.00000E+00
    0.00000E+00         0.00000E+00        -0.50199E+08
 
   -0.50315E+08         0.26176E+06         0.00000E+00
    0.26176E+06        -0.50071E+08         0.00000E+00
    0.00000E+00         0.00000E+00        -0.50197E+08
 
   -0.50306E+08         0.26711E+06         0.00000E+00
    0.26711E+06        -0.50074E+08         0.00000E+00
    0.00000E+00         0.00000E+00        -0.50194E+08
 
   -0.50297E+08         0.27231E+06         0.00000E+00
    0.27231E+06        -0.50078E+08         0.00000E+00
    0.00000E+00         0.00000E+00        -0.50192E+08
 
   -0.50287E+08         0.27737E+06         0.00000E+00
    0.27737E+06        -0.50082E+08         0.00000E+00
    0.00000E+00         0.00000E+00        -0.50189E+08
 
   -0.50278E+08         0.28230E+06         0.00000E+00
    0.28230E+06        -0.50085E+08         0.00000E+00
    0.00000E+00         0.00000E+00        -0.50187E+08
 
   -0.50268E+08         0.28708E+06         0.00000E+00
    0.28708E+06        -0.50089E+08         0.00000E+00
    0.00000E+00         0.00000E+00        -0.50185E+08
 
   -0.50258E+08         0.29172E+06         0.00000E+00
    0.29172E+06        -0.50093E+08         0.00000E+00
    0.00000E+00         0.00000E+00        -0.50182E+08
 
   -0.50249E+08         0.29623E+06         0.00000E+00
    0.29623E+06        -0.50097E+08         0.00000E+00
    0.00000E+00         0.00000E+00        -0.50180E+08
 
   -0.50239E+08         0.30061E+06         0.00000E+00
    0.30061E+06        -0.50100E+08         0.00000E+00
    0.00000E+00         0.00000E+00        -0.50178E+08
 
   -0.50229E+08         0.30485E+06         0.00000E+00
    0.30485E+06        -0.50104E+08         0.00000E+00
    0.00000E+00         0.00000E+00        -0.50176E+08
 
   -0.50220E+08         0.30896E+06         0.00000E+00
    0.30896E+06        -0.50108E+08         0.00000E+00
    0.00000E+00         0.00000E+00        -0.50174E+08
 
   -0.50210E+08         0.31293E+06         0.00000E+00
    0.31293E+06        -0.50112E+08         0.00000E+00
    0.00000E+00         0.00000E+00        -0.50173E+08
 
   -0.50200E+08         0.31678E+06         0.00000E+00
    0.31678E+06        -0.50116E+08         0.00000E+00
    0.00000E+00         0.00000E+00        -0.50171E+08
 
   -0.50190E+08         0.32050E+06         0.00000E+00
    0.32050E+06        -0.50120E+08         0.00000E+00
    0.00000E+00         0.00000E+00        -0.50169E+08
 
   -0.50181E+08         0.32409E+06         0.00000E+00
    0.32409E+06        -0.50125E+08         0.00000E+00
    0.00000E+00         0.00000E+00        -0.50168E+08
 
   -0.50171E+08         0.32755E+06         0.00000E+00
    0.32755E+06        -0.50129E+08         0.00000E+00
    0.00000E+00         0.00000E+00        -0.50167E+08
 
   -0.50480E+08         0.40890E+04         0.00000E+00
    0.40890E+04        -0.50000E+08         0.00000E+00
    0.00000E+00         0.00000E+00        -0.50236E+08
 
   -0.50478E+08         0.12287E+05         0.00000E+00
    0.12287E+05        -0.50000E+08         0.00000E+00
    0.00000E+00         0.00000E+00        -0.50235E+08
 
   -0.50476E+08         0.20483E+05         0.00000E+00
    0.20483E+05        -0.50000E+08         0.00000E+00
    0.00000E+00         0.00000E+00        -0.50235E+08
 
   -0.50474E+08         0.28671E+05         0.00000E+00
    0.28671E+05        -0.50001E+08         0.00000E+00
    0.00000E+00         0.00000E+00        -0.50234E+08
 
   -0.50471E+08         0.36843E+05         0.00000E+00
    0.36843E+05        -0.50001E+08         0.00000E+00
    0.00000E+00         0.00000E+00        -0.50233E+08
 
   -0.50469E+08         0.44991E+05         0.00000E+00
    0.44991E+05        -0.50002E+08         0.00000E+00
    0.00000E+00         0.00000E+00        -0.50233E+08
 
   -0.50465E+08         0.53108E+05         0.00000E+00
    0.53108E+05        -0.50002E+08         0.00000E+00
    0.00000E+00         0.00000E+00        -0.50232E+08
 
   -0.50462E+08         0.61186E+05         0.00000E+00
    0.61186E+05        -0.50003E+08         0.00000E+00
    0.00000E+00         0.00000E+00        -0.50231E+08
 
   -0.50459E+08         0.69220E+05         0.00000E+00
    0.69220E+05        -0.50004E+08         0.00000E+00
    0.00000E+00         0.00000E+00        -0.50230E+08
 
   -0.50455E+08         0.77201E+05         0.00000E+00
    0.77201E+05        -0.50005E+08         0.00000E+00
    0.00000E+00         0.00000E+00        -0.50228E+08
 
   -0.50451E+08         0.85124E+05         0.00000E+00
    0.85124E+05        -0.50006E+08         0.00000E+00
    0.00000E+00         0.00000E+00        -0.50227E+08
 
   -0.50446E+08         0.92982E+05         0.00000E+00
    0.92982E+05        -0.50008E+08         0.00000E+00
    0.00000E+00         0.00000E+00        -0.50226E+08
 
   -0.50442E+08         0.10077E+06         0.00000E+00
    0.10077E+06        -0.50009E+08         0.00000E+00
    0.00000E+00         0.00000E+00        -0.50224E+08
 
   -0.50437E+08         0.10848E+06         0.00000E+00
    0.10848E+06        -0.50010E+08         0.00000E+00
    0.00000E+00         0.00000E+00        -0.50223E+08
 
   -0.50432E+08         0.11610E+06         0.00000E+00
    0.11610E+06        -0.50012E+08         0.00000E+00
    0.00000E+00         0.00000E+00        -0.50221E+08
 
   -0.50426E+08         0.12364E+06         0.00000E+00
    0.12364E+06        -0.50014E+08         0.00000E+00
    0.00000E+00         0.00000E+00        -0.50219E+08
 
   -0.50421E+08         0.13109E+06         0.00000E+00
    0.13109E+06        -0.50016E+08         0.00000E+00
    0.00000E+00         0.00000E+00        -0.50218E+08
 
   -0.50415E+08         0.13843E+06         0.00000E+00
    0.13843E+06        -0.50017E+08         0.00000E+00
    0.00000E+00         0.00000E+00        -0.50216E+08
 
   -0.50409E+08         0.14567E+06         0.00000E+00
    0.14567E+06        -0.50019E+08         0.00000E+00
    0.00000E+00         0.00000E+00        -0.50214E+08
 
   -0.50403E+08         0.15281E+06         0.00000E+00
    0.15281E+06        -0.50022E+08         0.00000E+00
    0.00000E+00         0.00000E+00        -0.50212E+08
 
   -0.50396E+08         0.15984E+06         0.00000E+00
    0.15984E+06        -0.50024E+08         0.00000E+00
    0.00000E+00         0.00000E+00        -0.50210E+08
 
   -0.50390E+08         0.16675E+06         0.00000E+00
    0.16675E+06        -0.50026E+08         0.00000E+00
    0.00000E+00         0.00000E+00        -0.50208E+08
 
   -0.50383E+08         0.17354E+06         0.00000E+00
    0.17354E+06        -0.50028E+08         0.00000E+00
    0.00000E+00         0.00000E+00        -0.50206E+08
 
   -0.50376E+08         0.18021E+06         0.00000E+00
    0.18021E+06        -0.50031E+08         0.00000E+00
    0.00000E+00         0.00000E+00        -0.50204E+08
 
   -0.50369E+08         0.18676E+06         0.00000E+00
    0.18676E+06        -0.50033E+08         0.00000E+00
    0.00000E+00         0.00000E+00        -0.50202E+08
 
   -0.50361E+08         0.19319E+06         0.00000E+00
    0.19319E+06        -0.50036E+08         0.00000E+00
    0.00000E+00         0.00000E+00        -0.50199E+08
 
   -0.50354E+08         0.19948E+06         0.00000E+00
    0.19948E+06        -0.50038E+08         0.00000E+00
    0.00000E+00         0.00000E+00        -0.50197E+08
 
   -0.50346E+08         0.20565E+06         0.00000E+00
    0.20565E+06        -0.50041E+08         0.00000E+00
    0.00000E+00         0.00000E+00        -0.50195E+08
 
   -0.50338E+08         0.21168E+06         0.00000E+00
    0.21168E+06        -0.50044E+08         0.00000E+00
    0.00000E+00         0.00000E+00        -0.50193E+08
 
   -0.50330E+08         0.21758E+06         0.00000E+00
    0.21758E+06        -0.50047E+08         0.00000E+00
    0.00000E+00         0.00000E+00        -0.50190E+08
 
   -0.50322E+08         0.22335E+06         0.00000E+00
    0.22335E+06        -0.50050E+08         0.00000E+00
    0.00000E+00         0.00000E+00        -0.50188E+08
 
   -0.50314E+08         0.22898E+06         0.00000E+00
    0.22898E+06        -0.50053E+08         0.00000E+00
    0.00000E+00         0.00000E+00        -0.50186E+08
 
   -0.50306E+08         0.23448E+06         0.00000E+00
    0.23448E+06        -0.50056E+08         0.00000E+00
    0.00000E+00         0.00000E+00        -0.50183E+08
 
   -0.50297E+08         0.23984E+06         0.00000E+00
    0.23984E+06        -0.50059E+08         0.00000E+00
    0.00000E+00         0.00000E+00        -0.50181E+08
 
   -0.50289E+08         0.24506E+06         0.00000E+00
    0.24506E+06        -0.50062E+08         0.00000E+00
    0.00000E+00         0.00000E+00        -0.50179E+08
 
   -0.50280E+08         0.25015E+06         0.00000E+00
    0.25015E+06        -0.50065E+08         0.00000E+00
    0.00000E+00         0.00000E+00        -0.50176E+08
 
   -0.50272E+08         0.25509E+06         0.00000E+00
    0.25509E+06        -0.50068E+08         0.00000E+00
    0.00000E+00         0.00000E+00        -0.50174E+08
 
   -0.50263E+08         0.25991E+06         0.00000E+00
    0.25991E+06        -0.50072E+08         0.00000E+00
    0.00000E+00         0.00000E+00        -0.50172E+08
 
   -0.50254E+08         0.26458E+06         0.00000E+00
    0.26458E+06        -0.50075E+08         0.00000E+00
    0.00000E+00         0.00000E+00        -0.50170E+08
 
   -0.50245E+08         0.26912E+06         0.00000E+00
    0.26912E+06        -0.50079E+08         0.00000E+00
    0.00000E+00         0.00000E+00        -0.50168E+08
 
   -0.50236E+08         0.27352E+06         0.00000E+00
    0.27352E+06        -0.50082E+08         0.00000E+00
    0.00000E+00         0.00000E+00        -0.50165E+08
 
   -0.50227E+08         0.27779E+06         0.00000E+00
    0.27779E+06        -0.50085E+08         0.00000E+00
    0.00000E+00         0.00000E+00        -0.50163E+08
 
   -0.50218E+08         0.28192E+06         0.00000E+00
    0.28192E+06        -0.50089E+08         0.00000E+00
    0.00000E+00         0.00000E+00        -0.50162E+08
 
   -0.50209E+08         0.28591E+06         0.00000E+00
    0.28591E+06        -0.50093E+08         0.00000E+00
    0.00000E+00         0.00000E+00        -0.50160E+08
 
   -0.50200E+08         0.28977E+06         0.00000E+00
    0.28977E+06        -0.50096E+08         0.00000E+00
    0.00000E+00         0.00000E+00        -0.50158E+08
 
   -0.50191E+08         0.29349E+06         0.00000E+00
    0.29349E+06        -0.50100E+08         0.00000E+00
    0.00000E+00         0.00000E+00        -0.50156E+08
 
   -0.50182E+08         0.29708E+06         0.00000E+00
    0.29708E+06        -0.50104E+08         0.00000E+00
    0.00000E+00         0.00000E+00        -0.50155E+08
 
   -0.50173E+08         0.30054E+06         0.00000E+00
    0.30054E+06        -0.50108E+08         0.00000E+00
    0.00000E+00         0.00000E+00        -0.50153E+08
 
   -0.50164E+08         0.30385E+06         0.00000E+00
    0.30385E+06        -0.50112E+08         0.00000E+00
    0.00000E+00         0.00000E+00        -0.50152E+08
 
   -0.50155E+08         0.30703E+06         0.00000E+00
    0.30703E+06        -0.50115E+08         0.00000E+00
    0.00000E+00         0.00000E+00        -0.50151E+08
 
   -0.50440E+08         0.38315E+04         0.00000E+00
    0.38315E+04        -0.50000E+08         0.00000E+00
    0.00000E+00         0.00000E+00        -0.50216E+08
 
   -0.50438E+08         0.11498E+05         0.00000E+00
    0.11498E+05        -0.50000E+08         0.00000E+00
    0.00000E+00         0.00000E+00        -0.50215E+08
 
   -0.50436E+08         0.19159E+05         0.00000E+00
    0.19159E+05        -0.50000E+08         0.00000E+00
    0.00000E+00         0.00000E+00        -0.50215E+08
 
   -0.50434E+08         0.26808E+05         0.00000E+00
    0.26808E+05        -0.50001E+08         0.00000E+00
    0.00000E+00         0.00000E+00        -0.50214E+08
 
   -0.50432E+08         0.34439E+05         0.00000E+00
    0.34439E+05        -0.50001E+08         0.00000E+00
    0.00000E+00         0.00000E+00        -0.50214E+08
 
   -0.50429E+08         0.42046E+05         0.00000E+00
    0.42046E+05        -0.50001E+08         0.00000E+00
    0.00000E+00         0.00000E+00        -0.50213E+08
 
   -0.50426E+08         0.49623E+05         0.00000E+00
    0.49623E+05        -0.50002E+08         0.00000E+00
    0.00000E+00         0.00000E+00        -0.50212E+08
 
   -0.50423E+08         0.57165E+05         0.00000E+00
    0.57165E+05        -0.50003E+08         0.00000E+00
    0.00000E+00         0.00000E+00        -0.50211E+08
 
   -0.50420E+08         0.64665E+05         0.00000E+00
    0.64665E+05        -0.50004E+08         0.00000E+00
    0.00000E+00         0.00000E+00        -0.50210E+08
 
   -0.50416E+08         0.72117E+05         0.00000E+00
    0.72117E+05        -0.50004E+08         0.00000E+00
    0.00000E+00         0.00000E+00        -0.50209E+08
 
   -0.50412E+08         0.79517E+05         0.00000E+00
    0.79517E+05        -0.50005E+08         0.00000E+00
    0.00000E+00         0.00000E+00        -0.50208E+08
 
   -0.50408E+08         0.86858E+05         0.00000E+00
    0.86858E+05        -0.50007E+08         0.00000E+00
    0.00000E+00         0.00000E+00        -0.50206E+08
 
   -0.50404E+08         0.94136E+05         0.00000E+00
    0.94136E+05        -0.50008E+08         0.00000E+00
    0.00000E+00         0.00000E+00        -0.50205E+08
 
   -0.50400E+08         0.10135E+06         0.00000E+00
    0.10135E+06        -0.50009E+08         0.00000E+00
    0.00000E+00         0.00000E+00        -0.50203E+08
 
   -0.50395E+08         0.10848E+06         0.00000E+00
    0.10848E+06        -0.50010E+08         0.00000E+00
    0.00000E+00         0.00000E+00        -0.50202E+08
 
   -0.50390E+08         0.11554E+06         0.00000E+00
    0.11554E+06        -0.50012E+08         0.00000E+00
    0.00000E+00         0.00000E+00        -0.50200E+08
 
   -0.50385E+08         0.12251E+06         0.00000E+00
    0.12251E+06        -0.50013E+08         0.00000E+00
    0.00000E+00         0.00000E+00        -0.50199E+08
 
   -0.50380E+08         0.12940E+06         0.00000E+00
    0.12940E+06        -0.50015E+08         0.00000E+00
    0.00000E+00         0.00000E+00        -0.50197E+08
 
   -0.50374E+08         0.13620E+06         0.00000E+00
    0.13620E+06        -0.50017E+08         0.00000E+00
    0.00000E+00         0.00000E+00        -0.50195E+08
 
   -0.50368E+08         0.14290E+06         0.00000E+00
    0.14290E+06        -0.50019E+08         0.00000E+00
    0.00000E+00         0.00000E+00        -0.50193E+08
 
   -0.50362E+08         0.14950E+06         0.00000E+00
    0.14950E+06        -0.50020E+08         0.00000E+00
    0.00000E+00         0.00000E+00        -0.50192E+08
 
   -0.50356E+08         0.15600E+06         0.00000E+00
    0.15600E+06        -0.50022E+08         0.00000E+00
    0.00000E+00         0.00000E+00        -0.50190E+08
 
   -0.50350E+08         0.16239E+06         0.00000E+00
    0.16239E+06        -0.50024E+08         0.00000E+00
    0.00000E+00         0.00000E+00        -0.50188E+08
 
   -0.50344E+08         0.16867E+06         0.00000E+00
    0.16867E+06        -0.50027E+08         0.00000E+00
    0.00000E+00         0.00000E+00        -0.50186E+08
 
   -0.50337E+08         0.17485E+06         0.00000E+00
    0.17485E+06        -0.50029E+08         0.00000E+00
    0.00000E+00         0.00000E+00        -0.50184E+08
 
   -0.50330E+08         0.18091E+06         0.00000E+00
    0.18091E+06        -0.50031E+08         0.00000E+00
    0.00000E+00         0.00000E+00        -0.50182E+08
 
   -0.50324E+08         0.18685E+06         0.00000E+00
    0.18685E+06        -0.50033E+08         0.00000E+00
    0.00000E+00         0.00000E+00        -0.50179E+08
 
   -0.50317E+08         0.19267E+06         0.00000E+00
    0.19267E+06        -0.50036E+08         0.00000E+00
    0.00000E+00         0.00000E+00        -0.50177E+08
 
   -0.50309E+08         0.19837E+06         0.00000E+00
    0.19837E+06        -0.50038E+08         0.00000E+00
    0.00000E+00         0.00000E+00        -0.50175E+08
 
   -0.50302E+08         0.20395E+06         0.00000E+00
    0.20395E+06        -0.50041E+08         0.00000E+00
    0.00000E+00         0.00000E+00        -0.50173E+08
 
   -0.50295E+08         0.20940E+06         0.00000E+00
    0.20940E+06        -0.50043E+08         0.00000E+00
    0.00000E+00         0.00000E+00        -0.50171E+08
 
   -0.50287E+08         0.21473E+06         0.00000E+00
    0.21473E+06        -0.50046E+08         0.00000E+00
    0.00000E+00         0.00000E+00        -0.50169E+08
 
   -0.50279E+08         0.21993E+06         0.00000E+00
    0.21993E+06        -0.50049E+08         0.00000E+00
    0.00000E+00         0.00000E+00        -0.50167E+08
 
   -0.50272E+08         0.22500E+06         0.00000E+00
    0.22500E+06        -0.50052E+08         0.00000E+00
    0.00000E+00         0.00000E+00        -0.50164E+08
 
   -0.50264E+08         0.22994E+06         0.00000E+00
    0.22994E+06        -0.50055E+08         0.00000E+00
    0.00000E+00         0.00000E+00        -0.50162E+08
 
   -0.50256E+08         0.23475E+06         0.00000E+00
    0.23475E+06        -0.50057E+08         0.00000E+00
    0.00000E+00         0.00000E+00        -0.50160E+08
 
   -0.50248E+08         0.23943E+06         0.00000E+00
    0.23943E+06        -0.50060E+08         0.00000E+00
    0.00000E+00         0.00000E+00        -0.50158E+08
 
   -0.50240E+08         0.24398E+06         0.00000E+00
    0.24398E+06        -0.50063E+08         0.00000E+00
    0.00000E+00         0.00000E+00        -0.50156E+08
 
   -0.50232E+08         0.24839E+06         0.00000E+00
    0.24839E+06        -0.50066E+08         0.00000E+00
    0.00000E+00         0.00000E+00        -0.50154E+08
 
   -0.50223E+08         0.25267E+06         0.00000E+00
    0.25267E+06        -0.50070E+08         0.00000E+00
    0.00000E+00         0.00000E+00        -0.50152E+08
 
   -0.50215E+08         0.25682E+06         0.00000E+00
    0.25682E+06        -0.50073E+08         0.00000E+00
    0.00000E+00         0.00000E+00        -0.50150E+08
 
   -0.50207E+08         0.26083E+06         0.00000E+00
    0.26083E+06        -0.50076E+08         0.00000E+00
    0.00000E+00         0.00000E+00        -0.50148E+08
 
   -0.50198E+08         0.26470E+06         0.00000E+00
    0.26470E+06        -0.50079E+08         0.00000E+00
    0.00000E+00         0.00000E+00        -0.50146E+08
 
   -0.50190E+08         0.26844E+06         0.00000E+00
    0.26844E+06        -0.50083E+08         0.00000E+00
    0.00000E+00         0.00000E+00        -0.50144E+08
 
   -0.50182E+08         0.27205E+06         0.00000E+00
    0.27205E+06        -0.50086E+08         0.00000E+00
    0.00000E+00         0.00000E+00        -0.50143E+08
 
   -0.50173E+08         0.27552E+06         0.00000E+00
    0.27552E+06        -0.50089E+08         0.00000E+00
    0.00000E+00         0.00000E+00        -0.50141E+08
 
   -0.50165E+08         0.27885E+06         0.00000E+00
    0.27885E+06        -0.50093E+08         0.00000E+00
    0.00000E+00         0.00000E+00        -0.50140E+08
 
   -0.50157E+08         0.28205E+06         0.00000E+00
    0.28205E+06        -0.50096E+08         0.00000E+00
    0.00000E+00         0.00000E+00        -0.50139E+08
 
   -0.50148E+08         0.28510E+06         0.00000E+00
    0.28510E+06        -0.50100E+08         0.00000E+00
    0.00000E+00         0.00000E+00        -0.50137E+08
 
   -0.50140E+08         0.28802E+06         0.00000E+00
    0.28802E+06        -0.50104E+08         0.00000E+00
    0.00000E+00         0.00000E+00        -0.50136E+08
 
   -0.50403E+08         0.36126E+04         0.00000E+00
    0.36126E+04        -0.50000E+08         0.00000E+00
    0.00000E+00         0.00000E+00        -0.50197E+08
 
   -0.50401E+08         0.10827E+05         0.00000E+00
    0.10827E+05        -0.50000E+08         0.00000E+00
    0.00000E+00         0.00000E+00        -0.50197E+08
 
   -0.50399E+08         0.18031E+05         0.00000E+00
    0.18031E+05        -0.50000E+08         0.00000E+00
    0.00000E+00         0.00000E+00        -0.50196E+08
 
   -0.50397E+08         0.25220E+05         0.00000E+00
    0.25220E+05        -0.50000E+08         0.00000E+00
    0.00000E+00         0.00000E+00        -0.50196E+08
 
   -0.50395E+08         0.32388E+05         0.00000E+00
    0.32388E+05        -0.50001E+08         0.00000E+00
    0.00000E+00         0.00000E+00        -0.50195E+08
 
   -0.50392E+08         0.39530E+05         0.00000E+00
    0.39530E+05        -0.50001E+08         0.00000E+00
    0.00000E+00         0.00000E+00        -0.50194E+08
 
   -0.50390E+08         0.46643E+05         0.00000E+00
    0.46643E+05        -0.50002E+08         0.00000E+00
    0.00000E+00         0.00000E+00        -0.50193E+08
 
   -0.50387E+08         0.53720E+05         0.00000E+00
    0.53720E+05        -0.50002E+08         0.00000E+00
    0.00000E+00         0.00000E+00        -0.50193E+08
 
   -0.50384E+08         0.60757E+05         0.00000E+00
    0.60757E+05        -0.50003E+08         0.00000E+00
    0.00000E+00         0.00000E+00        -0.50192E+08
 
   -0.50380E+08         0.67749E+05         0.00000E+00
    0.67749E+05        -0.50004E+08         0.00000E+00
    0.00000E+00         0.00000E+00        -0.50190E+08
 
   -0.50377E+08         0.74692E+05         0.00000E+00
    0.74692E+05        -0.50005E+08         0.00000E+00
    0.00000E+00         0.00000E+00        -0.50189E+08
 
   -0.50373E+08         0.81581E+05         0.00000E+00
    0.81581E+05        -0.50006E+08         0.00000E+00
    0.00000E+00         0.00000E+00        -0.50188E+08
 
   -0.50369E+08         0.88411E+05         0.00000E+00
    0.88411E+05        -0.50007E+08         0.00000E+00
    0.00000E+00         0.00000E+00        -0.50187E+08
 
   -0.50365E+08         0.95177E+05         0.00000E+00
    0.95177E+05        -0.50008E+08         0.00000E+00
    0.00000E+00         0.00000E+00        -0.50185E+08
 
   -0.50361E+08         0.10188E+06         0.00000E+00
    0.10188E+06        -0.50009E+08         0.00000E+00
    0.00000E+00         0.00000E+00        -0.50184E+08
 
   -0.50356E+08         0.10850E+06         0.00000E+00
    0.10850E+06        -0.50010E+08         0.00000E+00
    0.00000E+00         0.00000E+00        -0.50183E+08
 
   -0.50351E+08         0.11506E+06         0.00000E+00
    0.11506E+06        -0.50012E+08         0.00000E+00
    0.00000E+00         0.00000E+00        -0.50181E+08
 
   -0.50346E+08         0.12153E+06         0.00000E+00
    0.12153E+06        -0.50013E+08         0.00000E+00
    0.00000E+00         0.00000E+00        -0.50179E+08
 
   -0.50341E+08         0.12792E+06         0.00000E+00
    0.12792E+06        -0.50015E+08         0.00000E+00
    0.00000E+00         0.00000E+00        -0.50178E+08
 
   -0.50336E+08         0.13422E+06         0.00000E+00
    0.13422E+06        -0.50016E+08         0.00000E+00
    0.00000E+00         0.00000E+00        -0.50176E+08
 
   -0.50331E+08         0.14043E+06         0.00000E+00
    0.14043E+06        -0.50018E+08         0.00000E+00
    0.00000E+00         0.00000E+00        -0.50174E+08
 
   -0.50325E+08         0.14655E+06         0.00000E+00
    0.14655E+06        -0.50019E+08         0.00000E+00
    0.00000E+00         0.00000E+00        -0.50172E+08
 
   -0.50319E+08         0.15256E+06         0.00000E+00
    0.15256E+06        -0.50021E+08         0.00000E+00
    0.00000E+00         0.00000E+00        -0.50171E+08
 
   -0.50314E+08         0.15848E+06         0.00000E+00
    0.15848E+06        -0.50023E+08         0.00000E+00
    0.00000E+00         0.00000E+00        -0.50169E+08
 
   -0.50307E+08         0.16430E+06         0.00000E+00
    0.16430E+06        -0.50025E+08         0.00000E+00
    0.00000E+00         0.00000E+00        -0.50167E+08
 
   -0.50301E+08         0.17001E+06         0.00000E+00
    0.17001E+06        -0.50027E+08         0.00000E+00
    0.00000E+00         0.00000E+00        -0.50165E+08
 
   -0.50295E+08         0.17561E+06         0.00000E+00
    0.17561E+06        -0.50029E+08         0.00000E+00
    0.00000E+00         0.00000E+00        -0.50163E+08
 
   -0.50289E+08         0.18110E+06         0.00000E+00
    0.18110E+06        -0.50031E+08         0.00000E+00
    0.00000E+00         0.00000E+00        -0.50161E+08
 
   -0.50282E+08         0.18648E+06         0.00000E+00
    0.18648E+06        -0.50034E+08         0.00000E+00
    0.00000E+00         0.00000E+00        -0.50159E+08
 
   -0.50275E+08         0.19174E+06         0.00000E+00
    0.19174E+06        -0.50036E+08         0.00000E+00
    0.00000E+00         0.00000E+00        -0.50157E+08
 
   -0.50268E+08         0.19689E+06         0.00000E+00
    0.19689E+06        -0.50038E+08         0.00000E+00
    0.00000E+00         0.00000E+00        -0.50155E+08
 
   -0.50262E+08         0.20192E+06         0.00000E+00
    0.20192E+06        -0.50041E+08         0.00000E+00
    0.00000E+00         0.00000E+00        -0.50153E+08
 
   -0.50254E+08         0.20682E+06         0.00000E+00
    0.20682E+06        -0.50043E+08         0.00000E+00
    0.00000E+00         0.00000E+00        -0.50151E+08
 
   -0.50247E+08         0.21161E+06         0.00000E+00
    0.21161E+06        -0.50046E+08         0.00000E+00
    0.00000E+00         0.00000E+00        -0.50149E+08
 
   -0.50240E+08         0.21626E+06         0.00000E+00
    0.21626E+06        -0.50048E+08         0.00000E+00
    0.00000E+00         0.00000E+00        -0.50147E+08
 
   -0.50233E+08         0.22080E+06         0.00000E+00
    0.22080E+06        -0.50051E+08         0.00000E+00
    0.00000E+00         0.00000E+00        -0.50145E+08
 
   -0.50225E+08         0.22521E+06         0.00000E+00
    0.22521E+06        -0.50054E+08         0.00000E+00
    0.00000E+00         0.00000E+00        -0.50143E+08
 
   -0.50218E+08         0.22949E+06         0.00000E+00
    0.22949E+06        -0.50056E+08         0.00000E+00
    0.00000E+00         0.00000E+00        -0.50141E+08
 
   -0.50211E+08         0.23364E+06         0.00000E+00
    0.23364E+06        -0.50059E+08         0.00000E+00
    0.00000E+00         0.00000E+00        -0.50139E+08
 
   -0.50203E+08         0.23766E+06         0.00000E+00
    0.23766E+06        -0.50062E+08         0.00000E+00
    0.00000E+00         0.00000E+00        -0.50137E+08
 
   -0.50195E+08         0.24155E+06         0.00000E+00
    0.24155E+06        -0.50065E+08         0.00000E+00
    0.00000E+00         0.00000E+00        -0.50136E+08
 
   -0.50188E+08         0.24531E+06         0.00000E+00
    0.24531E+06        -0.50068E+08         0.00000E+00
    0.00000E+00         0.00000E+00        -0.50134E+08
 
   -0.50180E+08         0.24893E+06         0.00000E+00
    0.24893E+06        -0.50071E+08         0.00000E+00
    0.00000E+00         0.00000E+00        -0.50132E+08
 
   -0.50172E+08         0.25242E+06         0.00000E+00
    0.25242E+06        -0.50074E+08         0.00000E+00
    0.00000E+00         0.00000E+00        -0.50131E+08
 
   -0.50165E+08         0.25578E+06         0.00000E+00
    0.25578E+06        -0.50077E+08         0.00000E+00
    0.00000E+00         0.00000E+00        -0.50129E+08
 
   -0.50157E+08         0.25901E+06         0.00000E+00
    0.25901E+06        -0.50080E+08         0.00000E+00
    0.00000E+00         0.00000E+00        -0.50128E+08
 
   -0.50149E+08         0.26210E+06         0.00000E+00
    0.26210E+06        -0.50083E+08         0.00000E+00
    0.00000E+00         0.00000E+00        -0.50126E+08
 
   -0.50142E+08         0.26505E+06         0.00000E+00
    0.26505E+06        -0.50086E+08         0.00000E+00
    0.00000E+00         0.00000E+00        -0.50125E+08
 
   -0.50134E+08         0.26786E+06         0.00000E+00
    0.26786E+06        -0.50090E+08         0.00000E+00
    0.00000E+00         0.00000E+00        -0.50124E+08
 
   -0.50126E+08         0.27054E+06         0.00000E+00
    0.27054E+06        -0.50093E+08         0.00000E+00
    0.00000E+00         0.00000E+00        -0.50123E+08
 
   -0.50368E+08         0.34235E+04         0.00000E+00
    0.34235E+04        -0.50000E+08         0.00000E+00
    0.00000E+00         0.00000E+00        -0.50180E+08
 
   -0.50366E+08         0.10248E+05         0.00000E+00
    0.10248E+05        -0.50000E+08         0.00000E+00
    0.00000E+00         0.00000E+00        -0.50179E+08
 
   -0.50364E+08         0.17057E+05         0.00000E+00
    0.17057E+05        -0.50000E+08         0.00000E+00
    0.00000E+00         0.00000E+00        -0.50179E+08
 
   -0.50362E+08         0.23847E+05         0.00000E+00
    0.23847E+05        -0.50000E+08         0.00000E+00
    0.00000E+00         0.00000E+00        -0.50178E+08
 
   -0.50360E+08         0.30614E+05         0.00000E+00
    0.30614E+05        -0.50001E+08         0.00000E+00
    0.00000E+00         0.00000E+00        -0.50178E+08
 
   -0.50358E+08         0.37354E+05         0.00000E+00
    0.37354E+05        -0.50001E+08         0.00000E+00
    0.00000E+00         0.00000E+00        -0.50177E+08
 
   -0.50355E+08         0.44062E+05         0.00000E+00
    0.44062E+05        -0.50002E+08         0.00000E+00
    0.00000E+00         0.00000E+00        -0.50176E+08
 
   -0.50353E+08         0.50735E+05         0.00000E+00
    0.50735E+05        -0.50002E+08         0.00000E+00
    0.00000E+00         0.00000E+00        -0.50175E+08
 
   -0.50350E+08         0.57368E+05         0.00000E+00
    0.57368E+05        -0.50003E+08         0.00000E+00
    0.00000E+00         0.00000E+00        -0.50174E+08
 
   -0.50346E+08         0.63957E+05         0.00000E+00
    0.63957E+05        -0.50003E+08         0.00000E+00
    0.00000E+00         0.00000E+00        -0.50173E+08
 
   -0.50343E+08         0.70499E+05         0.00000E+00
    0.70499E+05        -0.50004E+08         0.00000E+00
    0.00000E+00         0.00000E+00        -0.50172E+08
 
   -0.50340E+08         0.76988E+05         0.00000E+00
    0.76988E+05        -0.50005E+08         0.00000E+00
    0.00000E+00         0.00000E+00        -0.50171E+08
 
   -0.50336E+08         0.83422E+05         0.00000E+00
    0.83422E+05        -0.50006E+08         0.00000E+00
    0.00000E+00         0.00000E+00        -0.50170E+08
 
   -0.50332E+08         0.89796E+05         0.00000E+00
    0.89796E+05        -0.50007E+08         0.00000E+00
    0.00000E+00         0.00000E+00        -0.50169E+08
 
   -0.50328E+08         0.96106E+05         0.00000E+00
    0.96106E+05        -0.50008E+08         0.00000E+00
    0.00000E+00         0.00000E+00        -0.50167E+08
 
   -0.50324E+08         0.10235E+06         0.00000E+00
    0.10235E+06        -0.50009E+08         0.00000E+00
    0.00000E+00         0.00000E+00        -0.50166E+08
 
   -0.50320E+08         0.10852E+06         0.00000E+00
    0.10852E+06        -0.50010E+08         0.00000E+00
    0.00000E+00         0.00000E+00        -0.50164E+08
 
   -0.50315E+08         0.11462E+06         0.00000E+00
    0.11462E+06        -0.50011E+08         0.00000E+00
    0.00000E+00         0.00000E+00        -0.50163E+08
 
   -0.50311E+08         0.12064E+06         0.00000E+00
    0.12064E+06        -0.50013E+08         0.00000E+00
    0.00000E+00         0.00000E+00        -0.50161E+08
 
   -0.50306E+08         0.12657E+06         0.00000E+00
    0.12657E+06        -0.50014E+08         0.00000E+00
    0.00000E+00         0.00000E+00        -0.50160E+08
 
   -0.50301E+08         0.13243E+06         0.00000E+00
    0.13243E+06        -0.50016E+08         0.00000E+00
    0.00000E+00         0.00000E+00        -0.50158E+08
 
   -0.50296E+08         0.13819E+06         0.00000E+00
    0.13819E+06        -0.50017E+08         0.00000E+00
    0.00000E+00         0.00000E+00        -0.50157E+08
 
   -0.50290E+08         0.14387E+06         0.00000E+00
    0.14387E+06        -0.50019E+08         0.00000E+00
    0.00000E+00         0.00000E+00        -0.50155E+08
 
   -0.50285E+08         0.14945E+06         0.00000E+00
    0.14945E+06        -0.50020E+08         0.00000E+00
    0.00000E+00         0.00000E+00        -0.50153E+08
 
   -0.50280E+08         0.15493E+06         0.00000E+00
    0.15493E+06        -0.50022E+08         0.00000E+00
    0.00000E+00         0.00000E+00        -0.50151E+08
 
   -0.50274E+08         0.16031E+06         0.00000E+00
    0.16031E+06        -0.50024E+08         0.00000E+00
    0.00000E+00         0.00000E+00        -0.50150E+08
 
   -0.50268E+08         0.16560E+06         0.00000E+00
    0.16560E+06        -0.50026E+08         0.00000E+00
    0.00000E+00         0.00000E+00        -0.50148E+08
 
   -0.50262E+08         0.17077E+06         0.00000E+00
    0.17077E+06        -0.50028E+08         0.00000E+00
    0.00000E+00         0.00000E+00        -0.50146E+08
 
   -0.50256E+08         0.17584E+06         0.00000E+00
    0.17584E+06        -0.50030E+08         0.00000E+00
    0.00000E+00         0.00000E+00        -0.50144E+08
 
   -0.50250E+08         0.18081E+06         0.00000E+00
    0.18081E+06        -0.50032E+08         0.00000E+00
    0.00000E+00         0.00000E+00        -0.50142E+08
 
   -0.50244E+08         0.18566E+06         0.00000E+00
    0.18566E+06        -0.50034E+08         0.00000E+00
    0.00000E+00         0.00000E+00        -0.50140E+08
 
   -0.50237E+08         0.19039E+06         0.00000E+00
    0.19039E+06        -0.50036E+08         0.00000E+00
    0.00000E+00         0.00000E+00        -0.50138E+08
 
   -0.50231E+08         0.19502E+06         0.00000E+00
    0.19502E+06        -0.50038E+08         0.00000E+00
    0.00000E+00         0.00000E+00        -0.50137E+08
 
   -0.50224E+08         0.19952E+06         0.00000E+00
    0.19952E+06        -0.50040E+08         0.00000E+00
    0.00000E+00         0.00000E+00        -0.50135E+08
 
   -0.50218E+08         0.20391E+06         0.00000E+00
    0.20391E+06        -0.50043E+08         0.00000E+00
    0.00000E+00         0.00000E+00        -0.50133E+08
 
   -0.50211E+08         0.20817E+06         0.00000E+00
    0.20817E+06        -0.50045E+08         0.00000E+00
    0.00000E+00         0.00000E+00        -0.50131E+08
 
   -0.50204E+08         0.21232E+06         0.00000E+00
    0.21232E+06        -0.50048E+08         0.00000E+00
    0.00000E+00         0.00000E+00        -0.50129E+08
 
   -0.50198E+08         0.21634E+06         0.00000E+00
    0.21634E+06        -0.50050E+08         0.00000E+00
    0.00000E+00         0.00000E+00        -0.50127E+08
 
   -0.50191E+08         0.22024E+06         0.00000E+00
    0.22024E+06        -0.50053E+08         0.00000E+00
    0.00000E+00         0.00000E+00        -0.50126E+08
 
   -0.50184E+08         0.22401E+06         0.00000E+00
    0.22401E+06        -0.50055E+08         0.00000E+00
    0.00000E+00         0.00000E+00        -0.50124E+08
 
   -0.50177E+08         0.22765E+06         0.00000E+00
    0.22765E+06        -0.50058E+08         0.00000E+00
    0.00000E+00         0.00000E+00        -0.50122E+08
 
   -0.50170E+08         0.23117E+06         0.00000E+00
    0.23117E+06        -0.50060E+08         0.00000E+00
    0.00000E+00         0.00000E+00        -0.50121E+08
 
   -0.50163E+08         0.23455E+06         0.00000E+00
    0.23455E+06        -0.50063E+08         0.00000E+00
    0.00000E+00         0.00000E+00        -0.50119E+08
 
   -0.50156E+08         0.23781E+06         0.00000E+00
    0.23781E+06        -0.50066E+08         0.00000E+00
    0.00000E+00         0.00000E+00        -0.50118E+08
 
   -0.50149E+08         0.24094E+06         0.00000E+00
    0.24094E+06        -0.50069E+08         0.00000E+00
    0.00000E+00         0.00000E+00        -0.50116E+08
 
   -0.50142E+08         0.24393E+06         0.00000E+00
    0.24393E+06        -0.50072E+08         0.00000E+00
    0.00000E+00         0.00000E+00        -0.50115E+08
 
   -0.50135E+08         0.24679E+06         0.00000E+00
    0.24679E+06        -0.50075E+08         0.00000E+00
    0.00000E+00         0.00000E+00        -0.50114E+08
 
   -0.50128E+08         0.24952E+06         0.00000E+00
    0.24952E+06        -0.50077E+08         0.00000E+00
    0.00000E+00         0.00000E+00        -0.50113E+08
 
   -0.50121E+08         0.25212E+06         0.00000E+00
    0.25212E+06        -0.50080E+08         0.00000E+00
    0.00000E+00         0.00000E+00        -0.50112E+08
 
   -0.50114E+08         0.25458E+06         0.00000E+00
    0.25458E+06        -0.50083E+08         0.00000E+00
    0.00000E+00         0.00000E+00        -0.50111E+08
 
   -0.50334E+08         0.32577E+04         0.00000E+00
    0.32577E+04        -0.50000E+08         0.00000E+00
    0.00000E+00         0.00000E+00        -0.50163E+08
 
   -0.50333E+08         0.97400E+04         0.00000E+00
    0.97400E+04        -0.50000E+08         0.00000E+00
    0.00000E+00         0.00000E+00        -0.50163E+08
 
   -0.50331E+08         0.16204E+05         0.00000E+00
    0.16204E+05        -0.50000E+08         0.00000E+00
    0.00000E+00         0.00000E+00        -0.50162E+08
 
   -0.50329E+08         0.22646E+05         0.00000E+00
    0.22646E+05        -0.50000E+08         0.00000E+00
    0.00000E+00         0.00000E+00        -0.50162E+08
 
   -0.50327E+08         0.29062E+05         0.00000E+00
    0.29062E+05        -0.50001E+08         0.00000E+00
    0.00000E+00         0.00000E+00        -0.50161E+08
 
   -0.50325E+08         0.35449E+05         0.00000E+00
    0.35449E+05        -0.50001E+08         0.00000E+00
    0.00000E+00         0.00000E+00        -0.50161E+08
 
   -0.50323E+08         0.41803E+05         0.00000E+00
    0.41803E+05        -0.50001E+08         0.00000E+00
    0.00000E+00         0.00000E+00        -0.50160E+08
 
   -0.50320E+08         0.48121E+05         0.00000E+00
    0.48121E+05        -0.50002E+08         0.00000E+00
    0.00000E+00         0.00000E+00        -0.50159E+08
 
   -0.50317E+08         0.54399E+05         0.00000E+00
    0.54399E+05        -0.50002E+08         0.00000E+00
    0.00000E+00         0.00000E+00        -0.50158E+08
 
   -0.50315E+08         0.60633E+05         0.00000E+00
    0.60633E+05        -0.50003E+08         0.00000E+00
    0.00000E+00         0.00000E+00        -0.50157E+08
 
   -0.50312E+08         0.66821E+05         0.00000E+00
    0.66821E+05        -0.50004E+08         0.00000E+00
    0.00000E+00         0.00000E+00        -0.50156E+08
 
   -0.50308E+08         0.72957E+05         0.00000E+00
    0.72957E+05        -0.50004E+08         0.00000E+00
    0.00000E+00         0.00000E+00        -0.50155E+08
 
   -0.50305E+08         0.79039E+05         0.00000E+00
    0.79039E+05        -0.50005E+08         0.00000E+00
    0.00000E+00         0.00000E+00        -0.50154E+08
 
   -0.50301E+08         0.85063E+05         0.00000E+00
    0.85063E+05        -0.50006E+08         0.00000E+00
    0.00000E+00         0.00000E+00        -0.50153E+08
 
   -0.50298E+08         0.91026E+05         0.00000E+00
    0.91026E+05        -0.50007E+08         0.00000E+00
    0.00000E+00         0.00000E+00        -0.50152E+08
 
   -0.50294E+08         0.96925E+05         0.00000E+00
    0.96925E+05        -0.50008E+08         0.00000E+00
    0.00000E+00         0.00000E+00        -0.50150E+08
 
   -0.50290E+08         0.10276E+06         0.00000E+00
    0.10276E+06        -0.50009E+08         0.00000E+00
    0.00000E+00         0.00000E+00        -0.50149E+08
 
   -0.50286E+08         0.10851E+06         0.00000E+00
    0.10851E+06        -0.50010E+08         0.00000E+00
    0.00000E+00         0.00000E+00        -0.50148E+08
 
   -0.50282E+08         0.11420E+06         0.00000E+00
    0.11420E+06        -0.50011E+08         0.00000E+00
    0.00000E+00         0.00000E+00        -0.50146E+08
 
   -0.50277E+08         0.11981E+06         0.00000E+00
    0.11981E+06        -0.50012E+08         0.00000E+00
    0.00000E+00         0.00000E+00        -0.50145E+08
 
   -0.50273E+08         0.12533E+06         0.00000E+00
    0.12533E+06        -0.50014E+08         0.00000E+00
    0.00000E+00         0.00000E+00        -0.50143E+08
 
   -0.50268E+08         0.13078E+06         0.00000E+00
    0.13078E+06        -0.50015E+08         0.00000E+00
    0.00000E+00         0.00000E+00        -0.50142E+08
 
   -0.50263E+08         0.13614E+06         0.00000E+00
    0.13614E+06        -0.50017E+08         0.00000E+00
    0.00000E+00         0.00000E+00        -0.50140E+08
 
   -0.50258E+08         0.14140E+06         0.00000E+00
    0.14140E+06        -0.50018E+08         0.00000E+00
    0.00000E+00         0.00000E+00        -0.50138E+08
 
   -0.50253E+08         0.14658E+06         0.00000E+00
    0.14658E+06        -0.50020E+08         0.00000E+00
    0.00000E+00         0.00000E+00        -0.50137E+08
 
   -0.50248E+08         0.15166E+06         0.00000E+00
    0.15166E+06        -0.50021E+08         0.00000E+00
    0.00000E+00         0.00000E+00        -0.50135E+08
 
   -0.50243E+08         0.15665E+06         0.00000E+00
    0.15665E+06        -0.50023E+08         0.00000E+00
    0.00000E+00         0.00000E+00        -0.50133E+08
 
   -0.50237E+08         0.16153E+06         0.00000E+00
    0.16153E+06        -0.50025E+08         0.00000E+00
    0.00000E+00         0.00000E+00        -0.50132E+08
 
   -0.50232E+08         0.16632E+06         0.00000E+00
    0.16632E+06        -0.50026E+08         0.00000E+00
    0.00000E+00         0.00000E+00        -0.50130E+08
 
   -0.50226E+08         0.17100E+06         0.00000E+00
    0.17100E+06        -0.50028E+08         0.00000E+00
    0.00000E+00         0.00000E+00        -0.50128E+08
 
   -0.50220E+08         0.17557E+06         0.00000E+00
    0.17557E+06        -0.50030E+08         0.00000E+00
    0.00000E+00         0.00000E+00        -0.50127E+08
 
   -0.50215E+08         0.18003E+06         0.00000E+00
    0.18003E+06        -0.50032E+08         0.00000E+00
    0.00000E+00         0.00000E+00        -0.50125E+08
 
   -0.50209E+08         0.18439E+06         0.00000E+00
    0.18439E+06        -0.50034E+08         0.00000E+00
    0.00000E+00         0.00000E+00        -0.50123E+08
 
   -0.50203E+08         0.18863E+06         0.00000E+00
    0.18863E+06        -0.50036E+08         0.00000E+00
    0.00000E+00         0.00000E+00        -0.50121E+08
 
   -0.50197E+08         0.19276E+06         0.00000E+00
    0.19276E+06        -0.50038E+08         0.00000E+00
    0.00000E+00         0.00000E+00        -0.50120E+08
 
   -0.50191E+08         0.19677E+06         0.00000E+00
    0.19677E+06        -0.50040E+08         0.00000E+00
    0.00000E+00         0.00000E+00        -0.50118E+08
 
   -0.50185E+08         0.20067E+06         0.00000E+00
    0.20067E+06        -0.50042E+08         0.00000E+00
    0.00000E+00         0.00000E+00        -0.50116E+08
 
   -0.50178E+08         0.20445E+06         0.00000E+00
    0.20445E+06        -0.50045E+08         0.00000E+00
    0.00000E+00         0.00000E+00        -0.50115E+08
 
   -0.50172E+08         0.20811E+06         0.00000E+00
    0.20811E+06        -0.50047E+08         0.00000E+00
    0.00000E+00         0.00000E+00        -0.50113E+08
 
   -0.50166E+08         0.21164E+06         0.00000E+00
    0.21164E+06        -0.50049E+08         0.00000E+00
    0.00000E+00         0.00000E+00        -0.50112E+08
 
   -0.50160E+08         0.21506E+06         0.00000E+00
    0.21506E+06        -0.50052E+08         0.00000E+00
    0.00000E+00         0.00000E+00        -0.50110E+08
 
   -0.50153E+08         0.21835E+06         0.00000E+00
    0.21835E+06        -0.50054E+08         0.00000E+00
    0.00000E+00         0.00000E+00        -0.50109E+08
 
   -0.50147E+08         0.22151E+06         0.00000E+00
    0.22151E+06        -0.50057E+08         0.00000E+00
    0.00000E+00         0.00000E+00        -0.50107E+08
 
   -0.50140E+08         0.22455E+06         0.00000E+00
    0.22455E+06        -0.50059E+08         0.00000E+00
    0.00000E+00         0.00000E+00        -0.50106E+08
 
   -0.50134E+08         0.22746E+06         0.00000E+00
    0.22746E+06        -0.50062E+08         0.00000E+00
    0.00000E+00         0.00000E+00        -0.50105E+08
 
   -0.50128E+08         0.23025E+06         0.00000E+00
    0.23025E+06        -0.50064E+08         0.00000E+00
    0.00000E+00         0.00000E+00        -0.50103E+08
 
   -0.50121E+08         0.23291E+06         0.00000E+00
    0.23291E+06        -0.50067E+08         0.00000E+00
    0.00000E+00         0.00000E+00        -0.50102E+08
 
   -0.50115E+08         0.23543E+06         0.00000E+00
    0.23543E+06        -0.50069E+08         0.00000E+00
    0.00000E+00         0.00000E+00        -0.50101E+08
 
   -0.50109E+08         0.23783E+06         0.00000E+00
    0.23783E+06        -0.50072E+08         0.00000E+00
    0.00000E+00         0.00000E+00        -0.50100E+08
 
   -0.50102E+08         0.24010E+06         0.00000E+00
    0.24010E+06        -0.50075E+08         0.00000E+00
    0.00000E+00         0.00000E+00        -0.50100E+08
 
   -0.50303E+08         0.31105E+04         0.00000E+00
    0.31105E+04        -0.50000E+08         0.00000E+00
    0.00000E+00         0.00000E+00        -0.50148E+08
 
   -0.50301E+08         0.92909E+04         0.00000E+00
    0.92909E+04        -0.50000E+08         0.00000E+00
    0.00000E+00         0.00000E+00        -0.50147E+08
 
   -0.50300E+08         0.15450E+05         0.00000E+00
    0.15450E+05        -0.50000E+08         0.00000E+00
    0.00000E+00         0.00000E+00        -0.50147E+08
 
   -0.50298E+08         0.21584E+05         0.00000E+00
    0.21584E+05        -0.50000E+08         0.00000E+00
    0.00000E+00         0.00000E+00        -0.50146E+08
 
   -0.50296E+08         0.27691E+05         0.00000E+00
    0.27691E+05        -0.50001E+08         0.00000E+00
    0.00000E+00         0.00000E+00        -0.50146E+08
 
   -0.50294E+08         0.33767E+05         0.00000E+00
    0.33767E+05        -0.50001E+08         0.00000E+00
    0.00000E+00         0.00000E+00        -0.50145E+08
 
   -0.50292E+08         0.39809E+05         0.00000E+00
    0.39809E+05        -0.50001E+08         0.00000E+00
    0.00000E+00         0.00000E+00        -0.50144E+08
 
   -0.50289E+08         0.45814E+05         0.00000E+00
    0.45814E+05        -0.50002E+08         0.00000E+00
    0.00000E+00         0.00000E+00        -0.50144E+08
 
   -0.50287E+08         0.51778E+05         0.00000E+00
    0.51778E+05        -0.50002E+08         0.00000E+00
    0.00000E+00         0.00000E+00        -0.50143E+08
 
   -0.50284E+08         0.57698E+05         0.00000E+00
    0.57698E+05        -0.50003E+08         0.00000E+00
    0.00000E+00         0.00000E+00        -0.50142E+08
 
   -0.50281E+08         0.63572E+05         0.00000E+00
    0.63572E+05        -0.50003E+08         0.00000E+00
    0.00000E+00         0.00000E+00        -0.50141E+08
 
   -0.50279E+08         0.69395E+05         0.00000E+00
    0.69395E+05        -0.50004E+08         0.00000E+00
    0.00000E+00         0.00000E+00        -0.50140E+08
 
   -0.50275E+08         0.75164E+05         0.00000E+00
    0.75164E+05        -0.50005E+08         0.00000E+00
    0.00000E+00         0.00000E+00        -0.50139E+08
 
   -0.50272E+08         0.80877E+05         0.00000E+00
    0.80877E+05        -0.50005E+08         0.00000E+00
    0.00000E+00         0.00000E+00        -0.50138E+08
 
   -0.50269E+08         0.86531E+05         0.00000E+00
    0.86531E+05        -0.50006E+08         0.00000E+00
    0.00000E+00         0.00000E+00        -0.50137E+08
 
   -0.50265E+08         0.92122E+05         0.00000E+00
    0.92122E+05        -0.50007E+08         0.00000E+00
    0.00000E+00         0.00000E+00        -0.50136E+08
 
   -0.50262E+08         0.97647E+05         0.00000E+00
    0.97647E+05        -0.50008E+08         0.00000E+00
    0.00000E+00         0.00000E+00        -0.50134E+08
 
   -0.50258E+08         0.10310E+06         0.00000E+00
    0.10310E+06        -0.50009E+08         0.00000E+00
    0.00000E+00         0.00000E+00        -0.50133E+08
 
   -0.50254E+08         0.10849E+06         0.00000E+00
    0.10849E+06        -0.50010E+08         0.00000E+00
    0.00000E+00         0.00000E+00        -0.50132E+08
 
   -0.50250E+08         0.11380E+06         0.00000E+00
    0.11380E+06        -0.50011E+08         0.00000E+00
    0.00000E+00         0.00000E+00        -0.50130E+08
 
   -0.50246E+08         0.11903E+06         0.00000E+00
    0.11903E+06        -0.50012E+08         0.00000E+00
    0.00000E+00         0.00000E+00        -0.50129E+08
 
   -0.50242E+08         0.12418E+06         0.00000E+00
    0.12418E+06        -0.50013E+08         0.00000E+00
    0.00000E+00         0.00000E+00        -0.50128E+08
 
   -0.50237E+08         0.12925E+06         0.00000E+00
    0.12925E+06        -0.50015E+08         0.00000E+00
    0.00000E+00         0.00000E+00        -0.50126E+08
 
   -0.50233E+08         0.13424E+06         0.00000E+00
    0.13424E+06        -0.50016E+08         0.00000E+00
    0.00000E+00         0.00000E+00        -0.50125E+08
 
   -0.50228E+08         0.13913E+06         0.00000E+00
    0.13913E+06        -0.50017E+08         0.00000E+00
    0.00000E+00         0.00000E+00        -0.50123E+08
 
   -0.50223E+08         0.14394E+06         0.00000E+00
    0.14394E+06        -0.50019E+08         0.00000E+00
    0.00000E+00         0.00000E+00        -0.50122E+08
 
   -0.50219E+08         0.14865E+06         0.00000E+00
    0.14865E+06        -0.50020E+08         0.00000E+00
    0.00000E+00         0.00000E+00        -0.50120E+08
 
   -0.50214E+08         0.15327E+06         0.00000E+00
    0.15327E+06        -0.50022E+08         0.00000E+00
    0.00000E+00         0.00000E+00        -0.50119E+08
 
   -0.50209E+08         0.15778E+06         0.00000E+00
    0.15778E+06        -0.50023E+08         0.00000E+00
    0.00000E+00         0.00000E+00        -0.50117E+08
 
   -0.50204E+08         0.16220E+06         0.00000E+00
    0.16220E+06        -0.50025E+08         0.00000E+00
    0.00000E+00         0.00000E+00        -0.50115E+08
 
   -0.50199E+08         0.16652E+06         0.00000E+00
    0.16652E+06        -0.50027E+08         0.00000E+00
    0.00000E+00         0.00000E+00        -0.50114E+08
 
   -0.50193E+08         0.17074E+06         0.00000E+00
    0.17074E+06        -0.50029E+08         0.00000E+00
    0.00000E+00         0.00000E+00        -0.50112E+08
 
   -0.50188E+08         0.17484E+06         0.00000E+00
    0.17484E+06        -0.50030E+08         0.00000E+00
    0.00000E+00         0.00000E+00        -0.50111E+08
 
   -0.50183E+08         0.17884E+06         0.00000E+00
    0.17884E+06        -0.50032E+08         0.00000E+00
    0.00000E+00         0.00000E+00        -0.50109E+08
 
   -0.50177E+08         0.18273E+06         0.00000E+00
    0.18273E+06        -0.50034E+08         0.00000E+00
    0.00000E+00         0.00000E+00        -0.50108E+08
 
   -0.50172E+08         0.18651E+06         0.00000E+00
    0.18651E+06        -0.50036E+08         0.00000E+00
    0.00000E+00         0.00000E+00        -0.50106E+08
 
   -0.50166E+08         0.19018E+06         0.00000E+00
    0.19018E+06        -0.50038E+08         0.00000E+00
    0.00000E+00         0.00000E+00        -0.50105E+08
 
   -0.50160E+08         0.19373E+06         0.00000E+00
    0.19373E+06        -0.50040E+08         0.00000E+00
    0.00000E+00         0.00000E+00        -0.50103E+08
 
   -0.50155E+08         0.19717E+06         0.00000E+00
    0.19717E+06        -0.50042E+08         0.00000E+00
    0.00000E+00         0.00000E+00        -0.50102E+08
 
   -0.50149E+08         0.20049E+06         0.00000E+00
    0.20049E+06        -0.50044E+08         0.00000E+00
    0.00000E+00         0.00000E+00        -0.50100E+08
 
   -0.50143E+08         0.20369E+06         0.00000E+00
    0.20369E+06        -0.50046E+08         0.00000E+00
    0.00000E+00         0.00000E+00        -0.50099E+08
 
   -0.50138E+08         0.20677E+06         0.00000E+00
    0.20677E+06        -0.50048E+08         0.00000E+00
    0.00000E+00         0.00000E+00        -0.50097E+08
 
   -0.50132E+08         0.20974E+06         0.00000E+00
    0.20974E+06        -0.50051E+08         0.00000E+00
    0.00000E+00         0.00000E+00        -0.50096E+08
 
   -0.50126E+08         0.21258E+06         0.00000E+00
    0.21258E+06        -0.50053E+08         0.00000E+00
    0.00000E+00         0.00000E+00        -0.50095E+08
 
   -0.50120E+08         0.21530E+06         0.00000E+00
    0.21530E+06        -0.50055E+08         0.00000E+00
    0.00000E+00         0.00000E+00        -0.50094E+08
 
   -0.50114E+08         0.21790E+06         0.00000E+00
    0.21790E+06        -0.50057E+08         0.00000E+00
    0.00000E+00         0.00000E+00        -0.50093E+08
 
   -0.50109E+08         0.22037E+06         0.00000E+00
    0.22037E+06        -0.50060E+08         0.00000E+00
    0.00000E+00         0.00000E+00        -0.50092E+08
 
   -0.50103E+08         0.22273E+06         0.00000E+00
    0.22273E+06        -0.50062E+08         0.00000E+00
    0.00000E+00         0.00000E+00        -0.50091E+08
 
   -0.50097E+08         0.22495E+06         0.00000E+00
    0.22495E+06        -0.50065E+08         0.00000E+00
    0.00000E+00         0.00000E+00        -0.50090E+08
 
   -0.50092E+08         0.22706E+06         0.00000E+00
    0.22706E+06        -0.50067E+08         0.00000E+00
    0.00000E+00         0.00000E+00        -0.50089E+08
 
   -0.50272E+08         0.29789E+04         0.00000E+00
    0.29789E+04        -0.50000E+08         0.00000E+00
    0.00000E+00         0.00000E+00        -0.50133E+08
 
   -0.50271E+08         0.88905E+04         0.00000E+00
    0.88905E+04        -0.50000E+08         0.00000E+00
    0.00000E+00         0.00000E+00        -0.50132E+08
 
   -0.50270E+08         0.14779E+05         0.00000E+00
    0.14779E+05        -0.50000E+08         0.00000E+00
    0.00000E+00         0.00000E+00        -0.50132E+08
 
   -0.50268E+08         0.20640E+05         0.00000E+00
    0.20640E+05        -0.50000E+08         0.00000E+00
    0.00000E+00         0.00000E+00        -0.50132E+08
 
   -0.50266E+08         0.26473E+05         0.00000E+00
    0.26473E+05        -0.50001E+08         0.00000E+00
    0.00000E+00         0.00000E+00        -0.50131E+08
 
   -0.50264E+08         0.32273E+05         0.00000E+00
    0.32273E+05        -0.50001E+08         0.00000E+00
    0.00000E+00         0.00000E+00        -0.50130E+08
 
   -0.50262E+08         0.38039E+05         0.00000E+00
    0.38039E+05        -0.50001E+08         0.00000E+00
    0.00000E+00         0.00000E+00        -0.50130E+08
 
   -0.50260E+08         0.43766E+05         0.00000E+00
    0.43766E+05        -0.50001E+08         0.00000E+00
    0.00000E+00         0.00000E+00        -0.50129E+08
 
   -0.50258E+08         0.49452E+05         0.00000E+00
    0.49452E+05        -0.50002E+08         0.00000E+00
    0.00000E+00         0.00000E+00        -0.50128E+08
 
   -0.50256E+08         0.55094E+05         0.00000E+00
    0.55094E+05        -0.50002E+08         0.00000E+00
    0.00000E+00         0.00000E+00        -0.50128E+08
 
   -0.50253E+08         0.60688E+05         0.00000E+00
    0.60688E+05        -0.50003E+08         0.00000E+00
    0.00000E+00         0.00000E+00        -0.50127E+08
 
   -0.50250E+08         0.66233E+05         0.00000E+00
    0.66233E+05        -0.50003E+08         0.00000E+00
    0.00000E+00         0.00000E+00        -0.50126E+08
 
   -0.50247E+08         0.71725E+05         0.00000E+00
    0.71725E+05        -0.50004E+08         0.00000E+00
    0.00000E+00         0.00000E+00        -0.50125E+08
 
   -0.50244E+08         0.77161E+05         0.00000E+00
    0.77161E+05        -0.50005E+08         0.00000E+00
    0.00000E+00         0.00000E+00        -0.50124E+08
 
   -0.50241E+08         0.82539E+05         0.00000E+00
    0.82539E+05        -0.50005E+08         0.00000E+00
    0.00000E+00         0.00000E+00        -0.50123E+08
 
   -0.50238E+08         0.87855E+05         0.00000E+00
    0.87855E+05        -0.50006E+08         0.00000E+00
    0.00000E+00         0.00000E+00        -0.50122E+08
 
   -0.50235E+08         0.93107E+05         0.00000E+00
    0.93107E+05        -0.50007E+08         0.00000E+00
    0.00000E+00         0.00000E+00        -0.50121E+08
 
   -0.50232E+08         0.98292E+05         0.00000E+00
    0.98292E+05        -0.50008E+08         0.00000E+00
    0.00000E+00         0.00000E+00        -0.50119E+08
 
   -0.50228E+08         0.10341E+06         0.00000E+00
    0.10341E+06        -0.50009E+08         0.00000E+00
    0.00000E+00         0.00000E+00        -0.50118E+08
 
   -0.50224E+08         0.10845E+06         0.00000E+00
    0.10845E+06        -0.50010E+08         0.00000E+00
    0.00000E+00         0.00000E+00        -0.50117E+08
 
   -0.50221E+08         0.11342E+06         0.00000E+00
    0.11342E+06        -0.50011E+08         0.00000E+00
    0.00000E+00         0.00000E+00        -0.50116E+08
 
   -0.50217E+08         0.11831E+06         0.00000E+00
    0.11831E+06        -0.50012E+08         0.00000E+00
    0.00000E+00         0.00000E+00        -0.50114E+08
 
   -0.50213E+08         0.12312E+06         0.00000E+00
    0.12312E+06        -0.50013E+08         0.00000E+00
    0.00000E+00         0.00000E+00        -0.50113E+08
 
   -0.50209E+08         0.12784E+06         0.00000E+00
    0.12784E+06        -0.50014E+08         0.00000E+00
    0.00000E+00         0.00000E+00        -0.50112E+08
 
   -0.50205E+08         0.13249E+06         0.00000E+00
    0.13249E+06        -0.50015E+08         0.00000E+00
    0.00000E+00         0.00000E+00        -0.50110E+08
 
   -0.50200E+08         0.13704E+06         0.00000E+00
    0.13704E+06        -0.50017E+08         0.00000E+00
    0.00000E+00         0.00000E+00        -0.50109E+08
 
   -0.50196E+08         0.14151E+06         0.00000E+00
    0.14151E+06        -0.50018E+08         0.00000E+00
    0.00000E+00         0.00000E+00        -0.50108E+08
 
   -0.50192E+08         0.14588E+06         0.00000E+00
    0.14588E+06        -0.50019E+08         0.00000E+00
    0.00000E+00         0.00000E+00        -0.50106E+08
 
   -0.50187E+08         0.15016E+06         0.00000E+00
    0.15016E+06        -0.50021E+08         0.00000E+00
    0.00000E+00         0.00000E+00        -0.50105E+08
 
   -0.50182E+08         0.15434E+06         0.00000E+00
    0.15434E+06        -0.50022E+08         0.00000E+00
    0.00000E+00         0.00000E+00        -0.50103E+08
 
   -0.50178E+08         0.15843E+06         0.00000E+00
    0.15843E+06        -0.50024E+08         0.00000E+00
    0.00000E+00         0.00000E+00        -0.50102E+08
 
   -0.50173E+08         0.16241E+06         0.00000E+00
    0.16241E+06        -0.50025E+08         0.00000E+00
    0.00000E+00         0.00000E+00        -0.50100E+08
 
   -0.50168E+08         0.16629E+06         0.00000E+00
    0.16629E+06        -0.50027E+08         0.00000E+00
    0.00000E+00         0.00000E+00        -0.50099E+08
 
   -0.50163E+08         0.17007E+06         0.00000E+00
    0.17007E+06        -0.50029E+08         0.00000E+00
    0.00000E+00         0.00000E+00        -0.50098E+08
 
   -0.50158E+08         0.17375E+06         0.00000E+00
    0.17375E+06        -0.50030E+08         0.00000E+00
    0.00000E+00         0.00000E+00        -0.50096E+08
 
   -0.50153E+08         0.17731E+06         0.00000E+00
    0.17731E+06        -0.50032E+08         0.00000E+00
    0.00000E+00         0.00000E+00        -0.50095E+08
 
   -0.50148E+08         0.18077E+06         0.00000E+00
    0.18077E+06        -0.50034E+08         0.00000E+00
    0.00000E+00         0.00000E+00        -0.50093E+08
 
   -0.50143E+08         0.18412E+06         0.00000E+00
    0.18412E+06        -0.50036E+08         0.00000E+00
    0.00000E+00         0.00000E+00        -0.50092E+08
 
   -0.50138E+08         0.18736E+06         0.00000E+00
    0.18736E+06        -0.50037E+08         0.00000E+00
    0.00000E+00         0.00000E+00        -0.50091E+08
 
   -0.50133E+08         0.19048E+06         0.00000E+00
    0.19048E+06        -0.50039E+08         0.00000E+00
    0.00000E+00         0.00000E+00        -0.50089E+08
 
   -0.50128E+08         0.19349E+06         0.00000E+00
    0.19349E+06        -0.50041E+08         0.00000E+00
    0.00000E+00         0.00000E+00        -0.50088E+08
 
   -0.50123E+08         0.19639E+06         0.00000E+00
    0.19639E+06        -0.50043E+08         0.00000E+00
    0.00000E+00         0.00000E+00        -0.50087E+08
 
   -0.50118E+08         0.19917E+06         0.00000E+00
    0.19917E+06        -0.50045E+08         0.00000E+00
    0.00000E+00         0.00000E+00        -0.50086E+08
 
   -0.50113E+08         0.20184E+06         0.00000E+00
    0.20184E+06        -0.50047E+08         0.00000E+00
    0.00000E+00         0.00000E+00        -0.50085E+08
 
   -0.50107E+08         0.20439E+06         0.00000E+00
    0.20439E+06        -0.50049E+08         0.00000E+00
    0.00000E+00         0.00000E+00        -0.50084E+08
 
   -0.50102E+08         0.20682E+06         0.00000E+00
    0.20682E+06        -0.50051E+08         0.00000E+00
    0.00000E+00         0.00000E+00        -0.50083E+08
 
   -0.50097E+08         0.20914E+06         0.00000E+00
    0.20914E+06        -0.50053E+08         0.00000E+00
    0.00000E+00         0.00000E+00        -0.50082E+08
 
   -0.50092E+08         0.21133E+06         0.00000E+00
    0.21133E+06        -0.50056E+08         0.00000E+00
    0.00000E+00         0.00000E+00        -0.50081E+08
 
   -0.50087E+08         0.21341E+06         0.00000E+00
    0.21341E+06        -0.50058E+08         0.00000E+00
    0.00000E+00         0.00000E+00        -0.50080E+08
 
   -0.50082E+08         0.21538E+06         0.00000E+00
    0.21538E+06        -0.50060E+08         0.00000E+00
    0.00000E+00         0.00000E+00        -0.50080E+08
 
   -0.50243E+08         0.28608E+04         0.00000E+00
    0.28608E+04        -0.50000E+08         0.00000E+00
    0.00000E+00         0.00000E+00        -0.50118E+08
 
   -0.50242E+08         0.85324E+04         0.00000E+00
    0.85324E+04        -0.50000E+08         0.00000E+00
    0.00000E+00         0.00000E+00        -0.50118E+08
 
   -0.50241E+08         0.14179E+05         0.00000E+00
    0.14179E+05        -0.50000E+08         0.00000E+00
    0.00000E+00         0.00000E+00        -0.50118E+08
 
   -0.50239E+08         0.19798E+05         0.00000E+00
    0.19798E+05        -0.50000E+08         0.00000E+00
    0.00000E+00         0.00000E+00        -0.50117E+08
 
   -0.50238E+08         0.25387E+05         0.00000E+00
    0.25387E+05        -0.50000E+08         0.00000E+00
    0.00000E+00         0.00000E+00        -0.50117E+08
 
   -0.50236E+08         0.30943E+05         0.00000E+00
    0.30943E+05        -0.50001E+08         0.00000E+00
    0.00000E+00         0.00000E+00        -0.50116E+08
 
   -0.50234E+08         0.36462E+05         0.00000E+00
    0.36462E+05        -0.50001E+08         0.00000E+00
    0.00000E+00         0.00000E+00        -0.50116E+08
 
   -0.50232E+08         0.41943E+05         0.00000E+00
    0.41943E+05        -0.50001E+08         0.00000E+00
    0.00000E+00         0.00000E+00        -0.50115E+08
 
   -0.50230E+08         0.47383E+05         0.00000E+00
    0.47383E+05        -0.50002E+08         0.00000E+00
    0.00000E+00         0.00000E+00        -0.50115E+08
 
   -0.50228E+08         0.52778E+05         0.00000E+00
    0.52778E+05        -0.50002E+08         0.00000E+00
    0.00000E+00         0.00000E+00        -0.50114E+08
 
   -0.50226E+08         0.58126E+05         0.00000E+00
    0.58126E+05        -0.50003E+08         0.00000E+00
    0.00000E+00         0.00000E+00        -0.50113E+08
 
   -0.50223E+08         0.63424E+05         0.00000E+00
    0.63424E+05        -0.50003E+08         0.00000E+00
    0.00000E+00         0.00000E+00        -0.50112E+08
 
   -0.50221E+08         0.68670E+05         0.00000E+00
    0.68670E+05        -0.50004E+08         0.00000E+00
    0.00000E+00         0.00000E+00        -0.50111E+08
 
   -0.50218E+08         0.73860E+05         0.00000E+00
    0.73860E+05        -0.50004E+08         0.00000E+00
    0.00000E+00         0.00000E+00        -0.50110E+08
 
   -0.50215E+08         0.78993E+05         0.00000E+00
    0.78993E+05        -0.50005E+08         0.00000E+00
    0.00000E+00         0.00000E+00        -0.50109E+08
 
   -0.50212E+08         0.84065E+05         0.00000E+00
    0.84065E+05        -0.50006E+08         0.00000E+00
    0.00000E+00         0.00000E+00        -0.50108E+08
 
   -0.50209E+08         0.89074E+05         0.00000E+00
    0.89074E+05        -0.50006E+08         0.00000E+00
    0.00000E+00         0.00000E+00        -0.50107E+08
 
   -0.50206E+08         0.94017E+05         0.00000E+00
    0.94017E+05        -0.50007E+08         0.00000E+00
    0.00000E+00         0.00000E+00        -0.50106E+08
 
   -0.50203E+08         0.98893E+05         0.00000E+00
    0.98893E+05        -0.50008E+08         0.00000E+00
    0.00000E+00         0.00000E+00        -0.50105E+08
 
   -0.50200E+08         0.10370E+06         0.00000E+00
    0.10370E+06        -0.50009E+08         0.00000E+00
    0.00000E+00         0.00000E+00        -0.50104E+08
 
   -0.50197E+08         0.10843E+06         0.00000E+00
    0.10843E+06        -0.50010E+08         0.00000E+00
    0.00000E+00         0.00000E+00        -0.50103E+08
 
   -0.50193E+08         0.11308E+06         0.00000E+00
    0.11308E+06        -0.50011E+08         0.00000E+00
    0.00000E+00         0.00000E+00        -0.50102E+08
 
   -0.50190E+08         0.11766E+06         0.00000E+00
    0.11766E+06        -0.50012E+08         0.00000E+00
    0.00000E+00         0.00000E+00        -0.50101E+08
 
   -0.50186E+08         0.12216E+06         0.00000E+00
    0.12216E+06        -0.50013E+08         0.00000E+00
    0.00000E+00         0.00000E+00        -0.50099E+08
 
   -0.50182E+08         0.12657E+06         0.00000E+00
    0.12657E+06        -0.50014E+08         0.00000E+00
    0.00000E+00         0.00000E+00        -0.50098E+08
 
   -0.50178E+08         0.13090E+06         0.00000E+00
    0.13090E+06        -0.50015E+08         0.00000E+00
    0.00000E+00         0.00000E+00        -0.50097E+08
 
   -0.50174E+08         0.13515E+06         0.00000E+00
    0.13515E+06        -0.50016E+08         0.00000E+00
    0.00000E+00         0.00000E+00        -0.50096E+08
 
   -0.50170E+08         0.13930E+06         0.00000E+00
    0.13930E+06        -0.50017E+08         0.00000E+00
    0.00000E+00         0.00000E+00        -0.50094E+08
 
   -0.50166E+08         0.14337E+06         0.00000E+00
    0.14337E+06        -0.50019E+08         0.00000E+00
    0.00000E+00         0.00000E+00        -0.50093E+08
 
   -0.50162E+08         0.14734E+06         0.00000E+00
    0.14734E+06        -0.50020E+08         0.00000E+00
    0.00000E+00         0.00000E+00        -0.50092E+08
 
   -0.50158E+08         0.15121E+06         0.00000E+00
    0.15121E+06        -0.50021E+08         0.00000E+00
    0.00000E+00         0.00000E+00        -0.50091E+08
 
   -0.50154E+08         0.15499E+06         0.00000E+00
    0.15499E+06        -0.50023E+08         0.00000E+00
    0.00000E+00         0.00000E+00        -0.50089E+08
 
   -0.50150E+08         0.15867E+06         0.00000E+00
    0.15867E+06        -0.50024E+08         0.00000E+00
    0.00000E+00         0.00000E+00        -0.50088E+08
 
   -0.50145E+08         0.16225E+06         0.00000E+00
    0.16225E+06        -0.50025E+08         0.00000E+00
    0.00000E+00         0.00000E+00        -0.50087E+08
 
   -0.50141E+08         0.16573E+06         0.00000E+00
    0.16573E+06        -0.50027E+08         0.00000E+00
    0.00000E+00         0.00000E+00        -0.50086E+08
 
   -0.50136E+08         0.16911E+06         0.00000E+00
    0.16911E+06        -0.50028E+08         0.00000E+00
    0.00000E+00         0.00000E+00        -0.50084E+08
 
   -0.50132E+08         0.17238E+06         0.00000E+00
    0.17238E+06        -0.50030E+08         0.00000E+00
    0.00000E+00         0.00000E+00        -0.50083E+08
 
   -0.50127E+08         0.17555E+06         0.00000E+00
    0.17555E+06        -0.50032E+08         0.00000E+00
    0.00000E+00         0.00000E+00        -0.50082E+08
 
   -0.50123E+08         0.17861E+06         0.00000E+00
    0.17861E+06        -0.50033E+08         0.00000E+00
    0.00000E+00         0.00000E+00        -0.50081E+08
 
   -0.50118E+08         0.18156E+06         0.00000E+00
    0.18156E+06        -0.50035E+08         0.00000E+00
    0.00000E+00         0.00000E+00        -0.50079E+08
 
   -0.50114E+08         0.18440E+06         0.00000E+00
    0.18440E+06        -0.50037E+08         0.00000E+00
    0.00000E+00         0.00000E+00        -0.50078E+08
 
   -0.50109E+08         0.18713E+06         0.00000E+00
    0.18713E+06        -0.50038E+08         0.00000E+00
    0.00000E+00         0.00000E+00        -0.50077E+08
 
   -0.50105E+08         0.18976E+06         0.00000E+00
    0.18976E+06        -0.50040E+08         0.00000E+00
    0.00000E+00         0.00000E+00        -0.50076E+08
 
   -0.50100E+08         0.19227E+06         0.00000E+00
    0.19227E+06        -0.50042E+08         0.00000E+00
    0.00000E+00         0.00000E+00        -0.50075E+08
 
   -0.50095E+08         0.19467E+06         0.00000E+00
    0.19467E+06        -0.50044E+08         0.00000E+00
    0.00000E+00         0.00000E+00        -0.50074E+08
 
   -0.50091E+08         0.19696E+06         0.00000E+00
    0.19696E+06        -0.50046E+08         0.00000E+00
    0.00000E+00         0.00000E+00        -0.50073E+08
 
   -0.50086E+08         0.19913E+06         0.00000E+00
    0.19913E+06        -0.50047E+08         0.00000E+00
    0.00000E+00         0.00000E+00        -0.50073E+08
 
   -0.50082E+08         0.20120E+06         0.00000E+00
    0.20120E+06        -0.50049E+08         0.00000E+00
    0.00000E+00         0.00000E+00        -0.50072E+08
 
   -0.50077E+08         0.20315E+06         0.00000E+00
    0.20315E+06        -0.50051E+08         0.00000E+00
    0.00000E+00         0.00000E+00        -0.50071E+08
 
   -0.50073E+08         0.20499E+06         0.00000E+00
    0.20499E+06        -0.50053E+08         0.00000E+00
    0.00000E+00         0.00000E+00        -0.50071E+08
 
   -0.50216E+08         0.27549E+04         0.00000E+00
    0.27549E+04        -0.50000E+08         0.00000E+00
    0.00000E+00         0.00000E+00        -0.50105E+08
 
   -0.50215E+08         0.82124E+04         0.00000E+00
    0.82124E+04        -0.50000E+08         0.00000E+00
    0.00000E+00         0.00000E+00        -0.50105E+08
 
   -0.50213E+08         0.13644E+05         0.00000E+00
    0.13644E+05        -0.50000E+08         0.00000E+00
    0.00000E+00         0.00000E+00        -0.50104E+08
 
   -0.50212E+08         0.19048E+05         0.00000E+00
    0.19048E+05        -0.50000E+08         0.00000E+00
    0.00000E+00         0.00000E+00        -0.50104E+08
 
   -0.50211E+08         0.24420E+05         0.00000E+00
    0.24420E+05        -0.50000E+08         0.00000E+00
    0.00000E+00         0.00000E+00        -0.50103E+08
 
   -0.50209E+08         0.29759E+05         0.00000E+00
    0.29759E+05        -0.50001E+08         0.00000E+00
    0.00000E+00         0.00000E+00        -0.50103E+08
 
   -0.50207E+08         0.35061E+05         0.00000E+00
    0.35061E+05        -0.50001E+08         0.00000E+00
    0.00000E+00         0.00000E+00        -0.50102E+08
 
   -0.50206E+08         0.40324E+05         0.00000E+00
    0.40324E+05        -0.50001E+08         0.00000E+00
    0.00000E+00         0.00000E+00        -0.50102E+08
 
   -0.50204E+08         0.45545E+05         0.00000E+00
    0.45545E+05        -0.50001E+08         0.00000E+00
    0.00000E+00         0.00000E+00        -0.50101E+08
 
   -0.50202E+08         0.50722E+05         0.00000E+00
    0.50722E+05        -0.50002E+08         0.00000E+00
    0.00000E+00         0.00000E+00        -0.50101E+08
 
   -0.50200E+08         0.55852E+05         0.00000E+00
    0.55852E+05        -0.50002E+08         0.00000E+00
    0.00000E+00         0.00000E+00        -0.50100E+08
 
   -0.50197E+08         0.60933E+05         0.00000E+00
    0.60933E+05        -0.50003E+08         0.00000E+00
    0.00000E+00         0.00000E+00        -0.50099E+08
 
   -0.50195E+08         0.65961E+05         0.00000E+00
    0.65961E+05        -0.50003E+08         0.00000E+00
    0.00000E+00         0.00000E+00        -0.50098E+08
 
   -0.50193E+08         0.70934E+05         0.00000E+00
    0.70934E+05        -0.50004E+08         0.00000E+00
    0.00000E+00         0.00000E+00        -0.50098E+08
 
   -0.50190E+08         0.75850E+05         0.00000E+00
    0.75850E+05        -0.50004E+08         0.00000E+00
    0.00000E+00         0.00000E+00        -0.50097E+08
 
   -0.50188E+08         0.80707E+05         0.00000E+00
    0.80707E+05        -0.50005E+08         0.00000E+00
    0.00000E+00         0.00000E+00        -0.50096E+08
 
   -0.50185E+08         0.85502E+05         0.00000E+00
    0.85502E+05        -0.50006E+08         0.00000E+00
    0.00000E+00         0.00000E+00        -0.50095E+08
 
   -0.50182E+08         0.90232E+05         0.00000E+00
    0.90232E+05        -0.50006E+08         0.00000E+00
    0.00000E+00         0.00000E+00        -0.50094E+08
 
   -0.50180E+08         0.94895E+05         0.00000E+00
    0.94895E+05        -0.50007E+08         0.00000E+00
    0.00000E+00         0.00000E+00        -0.50093E+08
 
   -0.50177E+08         0.99488E+05         0.00000E+00
    0.99488E+05        -0.50008E+08         0.00000E+00
    0.00000E+00         0.00000E+00        -0.50092E+08
 
   -0.50174E+08         0.10401E+06         0.00000E+00
    0.10401E+06        -0.50009E+08         0.00000E+00
    0.00000E+00         0.00000E+00        -0.50091E+08
 
   -0.50171E+08         0.10846E+06         0.00000E+00
    0.10846E+06        -0.50009E+08         0.00000E+00
    0.00000E+00         0.00000E+00        -0.50090E+08
 
   -0.50167E+08         0.11283E+06         0.00000E+00
    0.11283E+06        -0.50010E+08         0.00000E+00
    0.00000E+00         0.00000E+00        -0.50089E+08
 
   -0.50164E+08         0.11713E+06         0.00000E+00
    0.11713E+06        -0.50011E+08         0.00000E+00
    0.00000E+00         0.00000E+00        -0.50088E+08
 
   -0.50161E+08         0.12134E+06         0.00000E+00
    0.12134E+06        -0.50012E+08         0.00000E+00
    0.00000E+00         0.00000E+00        -0.50087E+08
 
   -0.50157E+08         0.12547E+06         0.00000E+00
    0.12547E+06        -0.50013E+08         0.00000E+00
    0.00000E+00         0.00000E+00        -0.50086E+08
 
   -0.50154E+08         0.12952E+06         0.00000E+00
    0.12952E+06        -0.50014E+08         0.00000E+00
    0.00000E+00         0.00000E+00        -0.50084E+08
 
   -0.50150E+08         0.13348E+06         0.00000E+00
    0.13348E+06        -0.50015E+08         0.00000E+00
    0.00000E+00         0.00000E+00        -0.50083E+08
 
   -0.50147E+08         0.13735E+06         0.00000E+00
    0.13735E+06        -0.50016E+08         0.00000E+00
    0.00000E+00         0.00000E+00        -0.50082E+08
 
   -0.50143E+08         0.14113E+06         0.00000E+00
    0.14113E+06        -0.50018E+08         0.00000E+00
    0.00000E+00         0.00000E+00        -0.50081E+08
 
   -0.50139E+08         0.14482E+06         0.00000E+00
    0.14482E+06        -0.50019E+08         0.00000E+00
    0.00000E+00         0.00000E+00        -0.50080E+08
 
   -0.50136E+08         0.14842E+06         0.00000E+00
    0.14842E+06        -0.50020E+08         0.00000E+00
    0.00000E+00         0.00000E+00        -0.50079E+08
 
   -0.50132E+08         0.15192E+06         0.00000E+00
    0.15192E+06        -0.50021E+08         0.00000E+00
    0.00000E+00         0.00000E+00        -0.50078E+08
 
   -0.50128E+08         0.15533E+06         0.00000E+00
    0.15533E+06        -0.50022E+08         0.00000E+00
    0.00000E+00         0.00000E+00        -0.50077E+08
 
   -0.50124E+08         0.15863E+06         0.00000E+00
    0.15863E+06        -0.50024E+08         0.00000E+00
    0.00000E+00         0.00000E+00        -0.50075E+08
 
   -0.50120E+08         0.16184E+06         0.00000E+00
    0.16184E+06        -0.50025E+08         0.00000E+00
    0.00000E+00         0.00000E+00        -0.50074E+08
 
   -0.50116E+08         0.16495E+06         0.00000E+00
    0.16495E+06        -0.50026E+08         0.00000E+00
    0.00000E+00         0.00000E+00        -0.50073E+08
 
   -0.50112E+08         0.16795E+06         0.00000E+00
    0.16795E+06        -0.50028E+08         0.00000E+00
    0.00000E+00         0.00000E+00        -0.50072E+08
 
   -0.50108E+08         0.17086E+06         0.00000E+00
    0.17086E+06        -0.50029E+08         0.00000E+00
    0.00000E+00         0.00000E+00        -0.50071E+08
 
   -0.50104E+08         0.17366E+06         0.00000E+00
    0.17366E+06        -0.50031E+08         0.00000E+00
    0.00000E+00         0.00000E+00        -0.50070E+08
 
   -0.50100E+08         0.17635E+06         0.00000E+00
    0.17635E+06        -0.50032E+08         0.00000E+00
    0.00000E+00         0.00000E+00        -0.50069E+08
 
   -0.50096E+08         0.17894E+06         0.00000E+00
    0.17894E+06        -0.50034E+08         0.00000E+00
    0.00000E+00         0.00000E+00        -0.50068E+08
 
   -0.50092E+08         0.18142E+06         0.00000E+00
    0.18142E+06        -0.50035E+08         0.00000E+00
    0.00000E+00         0.00000E+00        -0.50067E+08
 
   -0.50088E+08         0.18380E+06         0.00000E+00
    0.18380E+06        -0.50037E+08         0.00000E+00
    0.00000E+00         0.00000E+00        -0.50066E+08
 
   -0.50084E+08         0.18607E+06         0.00000E+00
    0.18607E+06        -0.50039E+08         0.00000E+00
    0.00000E+00         0.00000E+00        -0.50065E+08
 
   -0.50080E+08         0.18824E+06         0.00000E+00
    0.18824E+06        -0.50040E+08         0.00000E+00
    0.00000E+00         0.00000E+00        -0.50065E+08
 
   -0.50076E+08         0.19029E+06         0.00000E+00
    0.19029E+06        -0.50042E+08         0.00000E+00
    0.00000E+00         0.00000E+00        -0.50064E+08
 
   -0.50072E+08         0.19224E+06         0.00000E+00
    0.19224E+06        -0.50043E+08         0.00000E+00
    0.00000E+00         0.00000E+00        -0.50063E+08
 
   -0.50068E+08         0.19409E+06         0.00000E+00
    0.19409E+06        -0.50045E+08         0.00000E+00
    0.00000E+00         0.00000E+00        -0.50063E+08
 
   -0.50064E+08         0.19583E+06         0.00000E+00
    0.19583E+06        -0.50047E+08         0.00000E+00
    0.00000E+00         0.00000E+00        -0.50062E+08
 
   -0.50189E+08         0.26605E+04         0.00000E+00
    0.26605E+04        -0.50000E+08         0.00000E+00
    0.00000E+00         0.00000E+00        -0.50092E+08
 
   -0.50188E+08         0.79282E+04         0.00000E+00
    0.79282E+04        -0.50000E+08         0.00000E+00
    0.00000E+00         0.00000E+00        -0.50091E+08
 
   -0.50187E+08         0.13170E+05         0.00000E+00
    0.13170E+05        -0.50000E+08         0.00000E+00
    0.00000E+00         0.00000E+00        -0.50091E+08
 
   -0.50186E+08         0.18383E+05         0.00000E+00
    0.18383E+05        -0.50000E+08         0.00000E+00
    0.00000E+00         0.00000E+00        -0.50091E+08
 
   -0.50184E+08         0.23564E+05         0.00000E+00
    0.23564E+05        -0.50000E+08         0.00000E+00
    0.00000E+00         0.00000E+00        -0.50091E+08
 
   -0.50183E+08         0.28711E+05         0.00000E+00
    0.28711E+05        -0.50001E+08         0.00000E+00
    0.00000E+00         0.00000E+00        -0.50090E+08
 
   -0.50181E+08         0.33822E+05         0.00000E+00
    0.33822E+05        -0.50001E+08         0.00000E+00
    0.00000E+00         0.00000E+00        -0.50090E+08
 
   -0.50180E+08         0.38894E+05         0.00000E+00
    0.38894E+05        -0.50001E+08         0.00000E+00
    0.00000E+00         0.00000E+00        -0.50089E+08
 
   -0.50178E+08         0.43923E+05         0.00000E+00
    0.43923E+05        -0.50001E+08         0.00000E+00
    0.00000E+00         0.00000E+00        -0.50089E+08
 
   -0.50176E+08         0.48909E+05         0.00000E+00
    0.48909E+05        -0.50002E+08         0.00000E+00
    0.00000E+00         0.00000E+00        -0.50088E+08
 
   -0.50175E+08         0.53847E+05         0.00000E+00
    0.53847E+05        -0.50002E+08         0.00000E+00
    0.00000E+00         0.00000E+00        -0.50087E+08
 
   -0.50173E+08         0.58736E+05         0.00000E+00
    0.58736E+05        -0.50002E+08         0.00000E+00
    0.00000E+00         0.00000E+00        -0.50087E+08
 
   -0.50171E+08         0.63574E+05         0.00000E+00
    0.63574E+05        -0.50003E+08         0.00000E+00
    0.00000E+00         0.00000E+00        -0.50086E+08
 
   -0.50169E+08         0.68357E+05         0.00000E+00
    0.68357E+05        -0.50003E+08         0.00000E+00
    0.00000E+00         0.00000E+00        -0.50085E+08
 
   -0.50166E+08         0.73084E+05         0.00000E+00
    0.73084E+05        -0.50004E+08         0.00000E+00
    0.00000E+00         0.00000E+00        -0.50085E+08
 
   -0.50164E+08         0.77751E+05         0.00000E+00
    0.77751E+05        -0.50004E+08         0.00000E+00
    0.00000E+00         0.00000E+00        -0.50084E+08
 
   -0.50162E+08         0.82358E+05         0.00000E+00
    0.82358E+05        -0.50005E+08         0.00000E+00
    0.00000E+00         0.00000E+00        -0.50083E+08
 
   -0.50159E+08         0.86901E+05         0.00000E+00
    0.86901E+05        -0.50005E+08         0.00000E+00
    0.00000E+00         0.00000E+00        -0.50082E+08
 
   -0.50157E+08         0.91378E+05         0.00000E+00
    0.91378E+05        -0.50006E+08         0.00000E+00
    0.00000E+00         0.00000E+00        -0.50081E+08
 
   -0.50154E+08         0.95787E+05         0.00000E+00
    0.95787E+05        -0.50007E+08         0.00000E+00
    0.00000E+00         0.00000E+00        -0.50080E+08
 
   -0.50152E+08         0.10013E+06         0.00000E+00
    0.10013E+06        -0.50007E+08         0.00000E+00
    0.00000E+00         0.00000E+00        -0.50079E+08
 
   -0.50149E+08         0.10439E+06         0.00000E+00
    0.10439E+06        -0.50008E+08         0.00000E+00
    0.00000E+00         0.00000E+00        -0.50079E+08
 
   -0.50146E+08         0.10858E+06         0.00000E+00
    0.10858E+06        -0.50009E+08         0.00000E+00
    0.00000E+00         0.00000E+00        -0.50078E+08
 
   -0.50143E+08         0.11270E+06         0.00000E+00
    0.11270E+06        -0.50010E+08         0.00000E+00
    0.00000E+00         0.00000E+00        -0.50077E+08
 
   -0.50140E+08         0.11674E+06         0.00000E+00
    0.11674E+06        -0.50011E+08         0.00000E+00
    0.00000E+00         0.00000E+00        -0.50076E+08
 
   -0.50137E+08         0.12070E+06         0.00000E+00
    0.12070E+06        -0.50012E+08         0.00000E+00
    0.00000E+00         0.00000E+00        -0.50075E+08
 
   -0.50134E+08         0.12457E+06         0.00000E+00
    0.12457E+06        -0.50012E+08         0.00000E+00
    0.00000E+00         0.00000E+00        -0.50074E+08
 
   -0.50131E+08         0.12836E+06         0.00000E+00
    0.12836E+06        -0.50013E+08         0.00000E+00
    0.00000E+00         0.00000E+00        -0.50073E+08
 
   -0.50128E+08         0.13207E+06         0.00000E+00
    0.13207E+06        -0.50014E+08         0.00000E+00
    0.00000E+00         0.00000E+00        -0.50072E+08
 
   -0.50125E+08         0.13568E+06         0.00000E+00
    0.13568E+06        -0.50015E+08         0.00000E+00
    0.00000E+00         0.00000E+00        -0.50071E+08
 
   -0.50122E+08         0.13921E+06         0.00000E+00
    0.13921E+06        -0.50016E+08         0.00000E+00
    0.00000E+00         0.00000E+00        -0.50070E+08
 
   -0.50118E+08         0.14265E+06         0.00000E+00
    0.14265E+06        -0.50017E+08         0.00000E+00
    0.00000E+00         0.00000E+00        -0.50069E+08
 
   -0.50115E+08         0.14600E+06         0.00000E+00
    0.14600E+06        -0.50019E+08         0.00000E+00
    0.00000E+00         0.00000E+00        -0.50068E+08
 
   -0.50112E+08         0.14925E+06         0.00000E+00
    0.14925E+06        -0.50020E+08         0.00000E+00
    0.00000E+00         0.00000E+00        -0.50067E+08
 
   -0.50108E+08         0.15240E+06         0.00000E+00
    0.15240E+06        -0.50021E+08         0.00000E+00
    0.00000E+00         0.00000E+00        -0.50066E+08
 
   -0.50105E+08         0.15547E+06         0.00000E+00
    0.15547E+06        -0.50022E+08         0.00000E+00
    0.00000E+00         0.00000E+00        -0.50065E+08
 
   -0.50101E+08         0.15843E+06         0.00000E+00
    0.15843E+06        -0.50023E+08         0.00000E+00
    0.00000E+00         0.00000E+00        -0.50064E+08
 
   -0.50098E+08         0.16130E+06         0.00000E+00
    0.16130E+06        -0.50024E+08         0.00000E+00
    0.00000E+00         0.00000E+00        -0.50063E+08
 
   -0.50094E+08         0.16406E+06         0.00000E+00
    0.16406E+06        -0.50026E+08         0.00000E+00
    0.00000E+00         0.00000E+00        -0.50062E+08
 
   -0.50091E+08         0.16673E+06         0.00000E+00
    0.16673E+06        -0.50027E+08         0.00000E+00
    0.00000E+00         0.00000E+00        -0.50061E+08
 
   -0.50087E+08         0.16930E+06         0.00000E+00
    0.16930E+06        -0.50028E+08         0.00000E+00
    0.00000E+00         0.00000E+00        -0.50060E+08
 
   -0.50084E+08         0.17176E+06         0.00000E+00
    0.17176E+06        -0.50030E+08         0.00000E+00
    0.00000E+00         0.00000E+00        -0.50059E+08
 
   -0.50080E+08         0.17413E+06         0.00000E+00
    0.17413E+06        -0.50031E+08         0.00000E+00
    0.00000E+00         0.00000E+00        -0.50059E+08
 
   -0.50077E+08         0.17639E+06         0.00000E+00
    0.17639E+06        -0.50032E+08         0.00000E+00
    0.00000E+00         0.00000E+00        -0.50058E+08
 
   -0.50073E+08         0.17855E+06         0.00000E+00
    0.17855E+06        -0.50034E+08         0.00000E+00
    0.00000E+00         0.00000E+00        -0.50057E+08
 
   -0.50070E+08         0.18061E+06         0.00000E+00
    0.18061E+06        -0.50035E+08         0.00000E+00
    0.00000E+00         0.00000E+00        -0.50056E+08
 
   -0.50066E+08         0.18256E+06         0.00000E+00
    0.18256E+06        -0.50037E+08         0.00000E+00
    0.00000E+00         0.00000E+00        -0.50056E+08
 
   -0.50063E+08         0.18442E+06         0.00000E+00
    0.18442E+06        -0.50038E+08         0.00000E+00
    0.00000E+00         0.00000E+00        -0.50055E+08
 
   -0.50059E+08         0.18617E+06         0.00000E+00
    0.18617E+06        -0.50039E+08         0.00000E+00
    0.00000E+00         0.00000E+00        -0.50055E+08
 
   -0.50056E+08         0.18783E+06         0.00000E+00
    0.18783E+06        -0.50041E+08         0.00000E+00
    0.00000E+00         0.00000E+00        -0.50054E+08
 
   -0.50163E+08         0.25773E+04         0.00000E+00
    0.25773E+04        -0.50000E+08         0.00000E+00
    0.00000E+00         0.00000E+00        -0.50079E+08
 
   -0.50162E+08         0.76784E+04         0.00000E+00
    0.76784E+04        -0.50000E+08         0.00000E+00
    0.00000E+00         0.00000E+00        -0.50079E+08
 
   -0.50161E+08         0.12753E+05         0.00000E+00
    0.12753E+05        -0.50000E+08         0.00000E+00
    0.00000E+00         0.00000E+00        -0.50079E+08
 
   -0.50160E+08         0.17799E+05         0.00000E+00
    0.17799E+05        -0.50000E+08         0.00000E+00
    0.00000E+00         0.00000E+00        -0.50078E+08
 
   -0.50159E+08         0.22814E+05         0.00000E+00
    0.22814E+05        -0.50000E+08         0.00000E+00
    0.00000E+00         0.00000E+00        -0.50078E+08
 
   -0.50158E+08         0.27794E+05         0.00000E+00
    0.27794E+05        -0.50000E+08         0.00000E+00
    0.00000E+00         0.00000E+00        -0.50078E+08
 
   -0.50156E+08         0.32738E+05         0.00000E+00
    0.32738E+05        -0.50001E+08         0.00000E+00
    0.00000E+00         0.00000E+00        -0.50077E+08
 
   -0.50155E+08         0.37643E+05         0.00000E+00
    0.37643E+05        -0.50001E+08         0.00000E+00
    0.00000E+00         0.00000E+00        -0.50077E+08
 
   -0.50154E+08         0.42506E+05         0.00000E+00
    0.42506E+05        -0.50001E+08         0.00000E+00
    0.00000E+00         0.00000E+00        -0.50076E+08
 
   -0.50152E+08         0.47324E+05         0.00000E+00
    0.47324E+05        -0.50001E+08         0.00000E+00
    0.00000E+00         0.00000E+00        -0.50076E+08
 
   -0.50150E+08         0.52097E+05         0.00000E+00
    0.52097E+05        -0.50002E+08         0.00000E+00
    0.00000E+00         0.00000E+00        -0.50075E+08
 
   -0.50149E+08         0.56820E+05         0.00000E+00
    0.56820E+05        -0.50002E+08         0.00000E+00
    0.00000E+00         0.00000E+00        -0.50075E+08
 
   -0.50147E+08         0.61492E+05         0.00000E+00
    0.61492E+05        -0.50002E+08         0.00000E+00
    0.00000E+00         0.00000E+00        -0.50074E+08
 
   -0.50145E+08         0.66110E+05         0.00000E+00
    0.66110E+05        -0.50003E+08         0.00000E+00
    0.00000E+00         0.00000E+00        -0.50073E+08
 
   -0.50143E+08         0.70673E+05         0.00000E+00
    0.70673E+05        -0.50003E+08         0.00000E+00
    0.00000E+00         0.00000E+00        -0.50073E+08
 
   -0.50141E+08         0.75177E+05         0.00000E+00
    0.75177E+05        -0.50004E+08         0.00000E+00
    0.00000E+00         0.00000E+00        -0.50072E+08
 
   -0.50139E+08         0.79621E+05         0.00000E+00
    0.79621E+05        -0.50004E+08         0.00000E+00
    0.00000E+00         0.00000E+00        -0.50071E+08
 
   -0.50137E+08         0.84002E+05         0.00000E+00
    0.84002E+05        -0.50005E+08         0.00000E+00
    0.00000E+00         0.00000E+00        -0.50071E+08
 
   -0.50135E+08         0.88318E+05         0.00000E+00
    0.88318E+05        -0.50005E+08         0.00000E+00
    0.00000E+00         0.00000E+00        -0.50070E+08
 
   -0.50133E+08         0.92567E+05         0.00000E+00
    0.92567E+05        -0.50006E+08         0.00000E+00
    0.00000E+00         0.00000E+00        -0.50069E+08
 
   -0.50131E+08         0.96748E+05         0.00000E+00
    0.96748E+05        -0.50006E+08         0.00000E+00
    0.00000E+00         0.00000E+00        -0.50068E+08
 
   -0.50128E+08         0.10086E+06         0.00000E+00
    0.10086E+06        -0.50007E+08         0.00000E+00
    0.00000E+00         0.00000E+00        -0.50068E+08
 
   -0.50126E+08         0.10489E+06         0.00000E+00
    0.10489E+06        -0.50008E+08         0.00000E+00
    0.00000E+00         0.00000E+00        -0.50067E+08
 
   -0.50123E+08         0.10886E+06         0.00000E+00
    0.10886E+06        -0.50008E+08         0.00000E+00
    0.00000E+00         0.00000E+00        -0.50066E+08
 
   -0.50121E+08         0.11274E+06         0.00000E+00
    0.11274E+06        -0.50009E+08         0.00000E+00
    0.00000E+00         0.00000E+00        -0.50065E+08
 
   -0.50118E+08         0.11655E+06         0.00000E+00
    0.11655E+06        -0.50010E+08         0.00000E+00
    0.00000E+00         0.00000E+00        -0.50064E+08
 
   -0.50116E+08         0.12027E+06         0.00000E+00
    0.12027E+06        -0.50011E+08         0.00000E+00
    0.00000E+00         0.00000E+00        -0.50063E+08
 
   -0.50113E+08         0.12392E+06         0.00000E+00
    0.12392E+06        -0.50012E+08         0.00000E+00
    0.00000E+00         0.00000E+00        -0.50063E+08
 
   -0.50110E+08         0.12748E+06         0.00000E+00
    0.12748E+06        -0.50012E+08         0.00000E+00
    0.00000E+00         0.00000E+00        -0.50062E+08
 
   -0.50107E+08         0.13095E+06         0.00000E+00
    0.13095E+06        -0.50013E+08         0.00000E+00
    0.00000E+00         0.00000E+00        -0.50061E+08
 
   -0.50105E+08         0.13434E+06         0.00000E+00
    0.13434E+06        -0.50014E+08         0.00000E+00
    0.00000E+00         0.00000E+00        -0.50060E+08
 
   -0.50102E+08         0.13764E+06         0.00000E+00
    0.13764E+06        -0.50015E+08         0.00000E+00
    0.00000E+00         0.00000E+00        -0.50059E+08
 
   -0.50099E+08         0.14085E+06         0.00000E+00
    0.14085E+06        -0.50016E+08         0.00000E+00
    0.00000E+00         0.00000E+00        -0.50058E+08
 
   -0.50096E+08         0.14398E+06         0.00000E+00
    0.14398E+06        -0.50017E+08         0.00000E+00
    0.00000E+00         0.00000E+00        -0.50057E+08
 
   -0.50093E+08         0.14700E+06         0.00000E+00
    0.14700E+06        -0.50018E+08         0.00000E+00
    0.00000E+00         0.00000E+00        -0.50057E+08
 
   -0.50090E+08         0.14994E+06         0.00000E+00
    0.14994E+06        -0.50019E+08         0.00000E+00
    0.00000E+00         0.00000E+00        -0.50056E+08
 
   -0.50087E+08         0.15278E+06         0.00000E+00
    0.15278E+06        -0.50020E+08         0.00000E+00
    0.00000E+00         0.00000E+00        -0.50055E+08
 
   -0.50084E+08         0.15553E+06         0.00000E+00
    0.15553E+06        -0.50021E+08         0.00000E+00
    0.00000E+00         0.00000E+00        -0.50054E+08
 
   -0.50081E+08         0.15818E+06         0.00000E+00
    0.15818E+06        -0.50022E+08         0.00000E+00
    0.00000E+00         0.00000E+00        -0.50053E+08
 
   -0.50078E+08         0.16073E+06         0.00000E+00
    0.16073E+06        -0.50023E+08         0.00000E+00
    0.00000E+00         0.00000E+00        -0.50052E+08
 
   -0.50075E+08         0.16319E+06         0.00000E+00
    0.16319E+06        -0.50024E+08         0.00000E+00
    0.00000E+00         0.00000E+00        -0.50052E+08
 
   -0.50072E+08         0.16555E+06         0.00000E+00
    0.16555E+06        -0.50025E+08         0.00000E+00
    0.00000E+00         0.00000E+00        -0.50051E+08
 
   -0.50069E+08         0.16781E+06         0.00000E+00
    0.16781E+06        -0.50027E+08         0.00000E+00
    0.00000E+00         0.00000E+00        -0.50050E+08
 
   -0.50066E+08         0.16998E+06         0.00000E+00
    0.16998E+06        -0.50028E+08         0.00000E+00
    0.00000E+00         0.00000E+00        -0.50050E+08
 
   -0.50063E+08         0.17205E+06         0.00000E+00
    0.17205E+06        -0.50029E+08         0.00000E+00
    0.00000E+00         0.00000E+00        -0.50049E+08
 
   -0.50060E+08         0.17402E+06         0.00000E+00
    0.17402E+06        -0.50030E+08         0.00000E+00
    0.00000E+00         0.00000E+00        -0.50048E+08
 
   -0.50057E+08         0.17589E+06         0.00000E+00
    0.17589E+06        -0.50031E+08         0.00000E+00
    0.00000E+00         0.00000E+00        -0.50048E+08
 
   -0.50054E+08         0.17766E+06         0.00000E+00
    0.17766E+06        -0.50033E+08         0.00000E+00
    0.00000E+00         0.00000E+00        -0.50047E+08
 
   -0.50051E+08         0.17934E+06         0.00000E+00
    0.17934E+06        -0.50034E+08         0.00000E+00
    0.00000E+00         0.00000E+00        -0.50047E+08
 
   -0.50048E+08         0.18092E+06         0.00000E+00
    0.18092E+06        -0.50035E+08         0.00000E+00
    0.00000E+00         0.00000E+00        -0.50047E+08
 
   -0.50138E+08         0.25052E+04         0.00000E+00
    0.25052E+04        -0.50000E+08         0.00000E+00
    0.00000E+00         0.00000E+00        -0.50067E+08
 
   -0.50137E+08         0.74624E+04         0.00000E+00
    0.74624E+04        -0.50000E+08         0.00000E+00
    0.00000E+00         0.00000E+00        -0.50067E+08
 
   -0.50136E+08         0.12394E+05         0.00000E+00
    0.12394E+05        -0.50000E+08         0.00000E+00
    0.00000E+00         0.00000E+00        -0.50066E+08
 
   -0.50135E+08         0.17296E+05         0.00000E+00
    0.17296E+05        -0.50000E+08         0.00000E+00
    0.00000E+00         0.00000E+00        -0.50066E+08
 
   -0.50134E+08         0.22167E+05         0.00000E+00
    0.22167E+05        -0.50000E+08         0.00000E+00
    0.00000E+00         0.00000E+00        -0.50066E+08
 
   -0.50133E+08         0.27004E+05         0.00000E+00
    0.27004E+05        -0.50000E+08         0.00000E+00
    0.00000E+00         0.00000E+00        -0.50066E+08
 
   -0.50132E+08         0.31804E+05         0.00000E+00
    0.31804E+05        -0.50001E+08         0.00000E+00
    0.00000E+00         0.00000E+00        -0.50065E+08
 
   -0.50131E+08         0.36566E+05         0.00000E+00
    0.36566E+05        -0.50001E+08         0.00000E+00
    0.00000E+00         0.00000E+00        -0.50065E+08
 
   -0.50130E+08         0.41286E+05         0.00000E+00
    0.41286E+05        -0.50001E+08         0.00000E+00
    0.00000E+00         0.00000E+00        -0.50064E+08
 
   -0.50128E+08         0.45963E+05         0.00000E+00
    0.45963E+05        -0.50001E+08         0.00000E+00
    0.00000E+00         0.00000E+00        -0.50064E+08
 
   -0.50127E+08         0.50593E+05         0.00000E+00
    0.50593E+05        -0.50001E+08         0.00000E+00
    0.00000E+00         0.00000E+00        -0.50064E+08
 
   -0.50126E+08         0.55175E+05         0.00000E+00
    0.55175E+05        -0.50002E+08         0.00000E+00
    0.00000E+00         0.00000E+00        -0.50063E+08
 
   -0.50124E+08         0.59705E+05         0.00000E+00
    0.59705E+05        -0.50002E+08         0.00000E+00
    0.00000E+00         0.00000E+00        -0.50063E+08
 
   -0.50123E+08         0.64183E+05         0.00000E+00
    0.64183E+05        -0.50002E+08         0.00000E+00
    0.00000E+00         0.00000E+00        -0.50062E+08
 
   -0.50121E+08         0.68605E+05         0.00000E+00
    0.68605E+05        -0.50003E+08         0.00000E+00
    0.00000E+00         0.00000E+00        -0.50062E+08
 
   -0.50119E+08         0.72970E+05         0.00000E+00
    0.72970E+05        -0.50003E+08         0.00000E+00
    0.00000E+00         0.00000E+00        -0.50061E+08
 
   -0.50118E+08         0.77275E+05         0.00000E+00
    0.77275E+05        -0.50004E+08         0.00000E+00
    0.00000E+00         0.00000E+00        -0.50060E+08
 
   -0.50116E+08         0.81518E+05         0.00000E+00
    0.81518E+05        -0.50004E+08         0.00000E+00
    0.00000E+00         0.00000E+00        -0.50060E+08
 
   -0.50114E+08         0.85698E+05         0.00000E+00
    0.85698E+05        -0.50004E+08         0.00000E+00
    0.00000E+00         0.00000E+00        -0.50059E+08
 
   -0.50112E+08         0.89811E+05         0.00000E+00
    0.89811E+05        -0.50005E+08         0.00000E+00
    0.00000E+00         0.00000E+00        -0.50058E+08
 
   -0.50110E+08         0.93857E+05         0.00000E+00
    0.93857E+05        -0.50005E+08         0.00000E+00
    0.00000E+00         0.00000E+00        -0.50058E+08
 
   -0.50108E+08         0.97833E+05         0.00000E+00
    0.97833E+05        -0.50006E+08         0.00000E+00
    0.00000E+00         0.00000E+00        -0.50057E+08
 
   -0.50106E+08         0.10174E+06         0.00000E+00
    0.10174E+06        -0.50007E+08         0.00000E+00
    0.00000E+00         0.00000E+00        -0.50056E+08
 
   -0.50104E+08         0.10557E+06         0.00000E+00
    0.10557E+06        -0.50007E+08         0.00000E+00
    0.00000E+00         0.00000E+00        -0.50056E+08
 
   -0.50102E+08         0.10932E+06         0.00000E+00
    0.10932E+06        -0.50008E+08         0.00000E+00
    0.00000E+00         0.00000E+00        -0.50055E+08
 
   -0.50100E+08         0.11300E+06         0.00000E+00
    0.11300E+06        -0.50008E+08         0.00000E+00
    0.00000E+00         0.00000E+00        -0.50054E+08
 
   -0.50097E+08         0.11660E+06         0.00000E+00
    0.11660E+06        -0.50009E+08         0.00000E+00
    0.00000E+00         0.00000E+00        -0.50054E+08
 
   -0.50095E+08         0.12012E+06         0.00000E+00
    0.12012E+06        -0.50010E+08         0.00000E+00
    0.00000E+00         0.00000E+00        -0.50053E+08
 
   -0.50093E+08         0.12356E+06         0.00000E+00
    0.12356E+06        -0.50011E+08         0.00000E+00
    0.00000E+00         0.00000E+00        -0.50052E+08
 
   -0.50091E+08         0.12692E+06         0.00000E+00
    0.12692E+06        -0.50011E+08         0.00000E+00
    0.00000E+00         0.00000E+00        -0.50051E+08
 
   -0.50088E+08         0.13019E+06         0.00000E+00
    0.13019E+06        -0.50012E+08         0.00000E+00
    0.00000E+00         0.00000E+00        -0.50051E+08
 
   -0.50086E+08         0.13337E+06         0.00000E+00
    0.13337E+06        -0.50013E+08         0.00000E+00
    0.00000E+00         0.00000E+00        -0.50050E+08
 
   -0.50083E+08         0.13647E+06         0.00000E+00
    0.13647E+06        -0.50014E+08         0.00000E+00
    0.00000E+00         0.00000E+00        -0.50049E+08
 
   -0.50081E+08         0.13948E+06         0.00000E+00
    0.13948E+06        -0.50014E+08         0.00000E+00
    0.00000E+00         0.00000E+00        -0.50048E+08
 
   -0.50078E+08         0.14240E+06         0.00000E+00
    0.14240E+06        -0.50015E+08         0.00000E+00
    0.00000E+00         0.00000E+00        -0.50048E+08
 
   -0.50076E+08         0.14523E+06         0.00000E+00
    0.14523E+06        -0.50016E+08         0.00000E+00
    0.00000E+00         0.00000E+00        -0.50047E+08
 
   -0.50073E+08         0.14797E+06         0.00000E+00
    0.14797E+06        -0.50017E+08         0.00000E+00
    0.00000E+00         0.00000E+00        -0.50046E+08
 
   -0.50071E+08         0.15061E+06         0.00000E+00
    0.15061E+06        -0.50018E+08         0.00000E+00
    0.00000E+00         0.00000E+00        -0.50046E+08
 
   -0.50068E+08         0.15317E+06         0.00000E+00
    0.15317E+06        -0.50019E+08         0.00000E+00
    0.00000E+00         0.00000E+00        -0.50045E+08
 
   -0.50066E+08         0.15563E+06         0.00000E+00
    0.15563E+06        -0.50020E+08         0.00000E+00
    0.00000E+00         0.00000E+00        -0.50044E+08
 
   -0.50063E+08         0.15799E+06         0.00000E+00
    0.15799E+06        -0.50021E+08         0.00000E+00
    0.00000E+00         0.00000E+00        -0.50044E+08
 
   -0.50061E+08         0.16027E+06         0.00000E+00
    0.16027E+06        -0.50022E+08         0.00000E+00
    0.00000E+00         0.00000E+00        -0.50043E+08
 
   -0.50058E+08         0.16245E+06         0.00000E+00
    0.16245E+06        -0.50023E+08         0.00000E+00
    0.00000E+00         0.00000E+00        -0.50042E+08
 
   -0.50055E+08         0.16453E+06         0.00000E+00
    0.16453E+06        -0.50024E+08         0.00000E+00
    0.00000E+00         0.00000E+00        -0.50042E+08
 
   -0.50053E+08         0.16652E+06         0.00000E+00
    0.16652E+06        -0.50025E+08         0.00000E+00
    0.00000E+00         0.00000E+00        -0.50041E+08
 
   -0.50050E+08         0.16842E+06         0.00000E+00
    0.16842E+06        -0.50026E+08         0.00000E+00
    0.00000E+00         0.00000E+00        -0.50041E+08
 
   -0.50048E+08         0.17022E+06         0.00000E+00
    0.17022E+06        -0.50027E+08         0.00000E+00
    0.00000E+00         0.00000E+00        -0.50040E+08
 
   -0.50045E+08         0.17193E+06         0.00000E+00
    0.17193E+06        -0.50028E+08         0.00000E+00
    0.00000E+00         0.00000E+00        -0.50040E+08
 
   -0.50043E+08         0.17355E+06         0.00000E+00
    0.17355E+06        -0.50029E+08         0.00000E+00
    0.00000E+00         0.00000E+00        -0.50040E+08
 
   -0.50040E+08         0.17507E+06         0.00000E+00
    0.17507E+06        -0.50030E+08         0.00000E+00
    0.00000E+00         0.00000E+00        -0.50039E+08
 
   -0.50113E+08         0.24442E+04         0.00000E+00
    0.24442E+04        -0.50000E+08         0.00000E+00
    0.00000E+00         0.00000E+00        -0.50055E+08
 
   -0.50112E+08         0.72801E+04         0.00000E+00
    0.72801E+04        -0.50000E+08         0.00000E+00
    0.00000E+00         0.00000E+00        -0.50055E+08
 
   -0.50112E+08         0.12090E+05         0.00000E+00
    0.12090E+05        -0.50000E+08         0.00000E+00
    0.00000E+00         0.00000E+00        -0.50055E+08
 
   -0.50111E+08         0.16872E+05         0.00000E+00
    0.16872E+05        -0.50000E+08         0.00000E+00
    0.00000E+00         0.00000E+00        -0.50054E+08
 
   -0.50110E+08         0.21622E+05         0.00000E+00
    0.21622E+05        -0.50000E+08         0.00000E+00
    0.00000E+00         0.00000E+00        -0.50054E+08
 
   -0.50109E+08         0.26339E+05         0.00000E+00
    0.26339E+05        -0.50000E+08         0.00000E+00
    0.00000E+00         0.00000E+00        -0.50054E+08
 
   -0.50109E+08         0.31019E+05         0.00000E+00
    0.31019E+05        -0.50000E+08         0.00000E+00
    0.00000E+00         0.00000E+00        -0.50054E+08
 
   -0.50108E+08         0.35661E+05         0.00000E+00
    0.35661E+05        -0.50001E+08         0.00000E+00
    0.00000E+00         0.00000E+00        -0.50053E+08
 
   -0.50107E+08         0.40262E+05         0.00000E+00
    0.40262E+05        -0.50001E+08         0.00000E+00
    0.00000E+00         0.00000E+00        -0.50053E+08
 
   -0.50105E+08         0.44819E+05         0.00000E+00
    0.44819E+05        -0.50001E+08         0.00000E+00
    0.00000E+00         0.00000E+00        -0.50053E+08
 
   -0.50104E+08         0.49331E+05         0.00000E+00
    0.49331E+05        -0.50001E+08         0.00000E+00
    0.00000E+00         0.00000E+00        -0.50052E+08
 
   -0.50103E+08         0.53794E+05         0.00000E+00
    0.53794E+05        -0.50001E+08         0.00000E+00
    0.00000E+00         0.00000E+00        -0.50052E+08
 
   -0.50102E+08         0.58207E+05         0.00000E+00
    0.58207E+05        -0.50002E+08         0.00000E+00
    0.00000E+00         0.00000E+00        -0.50051E+08
 
   -0.50101E+08         0.62567E+05         0.00000E+00
    0.62567E+05        -0.50002E+08         0.00000E+00
    0.00000E+00         0.00000E+00        -0.50051E+08
 
   -0.50099E+08         0.66873E+05         0.00000E+00
    0.66873E+05        -0.50002E+08         0.00000E+00
    0.00000E+00         0.00000E+00        -0.50050E+08
 
   -0.50098E+08         0.71122E+05         0.00000E+00
    0.71122E+05        -0.50003E+08         0.00000E+00
    0.00000E+00         0.00000E+00        -0.50050E+08
 
   -0.50097E+08         0.75311E+05         0.00000E+00
    0.75311E+05        -0.50003E+08         0.00000E+00
    0.00000E+00         0.00000E+00        -0.50050E+08
 
   -0.50095E+08         0.79440E+05         0.00000E+00
    0.79440E+05        -0.50003E+08         0.00000E+00
    0.00000E+00         0.00000E+00        -0.50049E+08
 
   -0.50094E+08         0.83506E+05         0.00000E+00
    0.83506E+05        -0.50004E+08         0.00000E+00
    0.00000E+00         0.00000E+00        -0.50048E+08
 
   -0.50092E+08         0.87506E+05         0.00000E+00
    0.87506E+05        -0.50004E+08         0.00000E+00
    0.00000E+00         0.00000E+00        -0.50048E+08
 
   -0.50090E+08         0.91440E+05         0.00000E+00
    0.91440E+05        -0.50005E+08         0.00000E+00
    0.00000E+00         0.00000E+00        -0.50047E+08
 
   -0.50089E+08         0.95305E+05         0.00000E+00
    0.95305E+05        -0.50005E+08         0.00000E+00
    0.00000E+00         0.00000E+00        -0.50047E+08
 
   -0.50087E+08         0.99100E+05         0.00000E+00
    0.99100E+05        -0.50005E+08         0.00000E+00
    0.00000E+00         0.00000E+00        -0.50046E+08
 
   -0.50085E+08         0.10282E+06         0.00000E+00
    0.10282E+06        -0.50006E+08         0.00000E+00
    0.00000E+00         0.00000E+00        -0.50046E+08
 
   -0.50084E+08         0.10647E+06         0.00000E+00
    0.10647E+06        -0.50006E+08         0.00000E+00
    0.00000E+00         0.00000E+00        -0.50045E+08
 
   -0.50082E+08         0.11004E+06         0.00000E+00
    0.11004E+06        -0.50007E+08         0.00000E+00
    0.00000E+00         0.00000E+00        -0.50045E+08
 
   -0.50080E+08         0.11354E+06         0.00000E+00
    0.11354E+06        -0.50008E+08         0.00000E+00
    0.00000E+00         0.00000E+00        -0.50044E+08
 
   -0.50078E+08         0.11696E+06         0.00000E+00
    0.11696E+06        -0.50008E+08         0.00000E+00
    0.00000E+00         0.00000E+00        -0.50043E+08
 
   -0.50076E+08         0.12029E+06         0.00000E+00
    0.12029E+06        -0.50009E+08         0.00000E+00
    0.00000E+00         0.00000E+00        -0.50043E+08
 
   -0.50074E+08         0.12355E+06         0.00000E+00
    0.12355E+06        -0.50009E+08         0.00000E+00
    0.00000E+00         0.00000E+00        -0.50042E+08
 
   -0.50072E+08         0.12672E+06         0.00000E+00
    0.12672E+06        -0.50010E+08         0.00000E+00
    0.00000E+00         0.00000E+00        -0.50041E+08
 
   -0.50070E+08         0.12981E+06         0.00000E+00
    0.12981E+06        -0.50011E+08         0.00000E+00
    0.00000E+00         0.00000E+00        -0.50041E+08
 
   -0.50068E+08         0.13281E+06         0.00000E+00
    0.13281E+06        -0.50011E+08         0.00000E+00
    0.00000E+00         0.00000E+00        -0.50040E+08
 
   -0.50066E+08         0.13573E+06         0.00000E+00
    0.13573E+06        -0.50012E+08         0.00000E+00
    0.00000E+00         0.00000E+00        -0.50040E+08
 
   -0.50064E+08         0.13856E+06         0.00000E+00
    0.13856E+06        -0.50013E+08         0.00000E+00
    0.00000E+00         0.00000E+00        -0.50039E+08
 
   -0.50062E+08         0.14130E+06         0.00000E+00
    0.14130E+06        -0.50013E+08         0.00000E+00
    0.00000E+00         0.00000E+00        -0.50039E+08
 
   -0.50060E+08         0.14396E+06         0.00000E+00
    0.14396E+06        -0.50014E+08         0.00000E+00
    0.00000E+00         0.00000E+00        -0.50038E+08
 
   -0.50058E+08         0.14652E+06         0.00000E+00
    0.14652E+06        -0.50015E+08         0.00000E+00
    0.00000E+00         0.00000E+00        -0.50037E+08
 
   -0.50056E+08         0.14900E+06         0.00000E+00
    0.14900E+06        -0.50015E+08         0.00000E+00
    0.00000E+00         0.00000E+00        -0.50037E+08
 
   -0.50054E+08         0.15138E+06         0.00000E+00
    0.15138E+06        -0.50016E+08         0.00000E+00
    0.00000E+00         0.00000E+00        -0.50036E+08
 
   -0.50052E+08         0.15367E+06         0.00000E+00
    0.15367E+06        -0.50017E+08         0.00000E+00
    0.00000E+00         0.00000E+00        -0.50036E+08
 
   -0.50050E+08         0.15587E+06         0.00000E+00
    0.15587E+06        -0.50018E+08         0.00000E+00
    0.00000E+00         0.00000E+00        -0.50035E+08
 
   -0.50048E+08         0.15798E+06         0.00000E+00
    0.15798E+06        -0.50019E+08         0.00000E+00
    0.00000E+00         0.00000E+00        -0.50035E+08
 
   -0.50045E+08         0.16000E+06         0.00000E+00
    0.16000E+06        -0.50019E+08         0.00000E+00
    0.00000E+00         0.00000E+00        -0.50034E+08
 
   -0.50043E+08         0.16193E+06         0.00000E+00
    0.16193E+06        -0.50020E+08         0.00000E+00
    0.00000E+00         0.00000E+00        -0.50034E+08
 
   -0.50041E+08         0.16377E+06         0.00000E+00
    0.16377E+06        -0.50021E+08         0.00000E+00
    0.00000E+00         0.00000E+00        -0.50033E+08
 
   -0.50039E+08         0.16551E+06         0.00000E+00
    0.16551E+06        -0.50022E+08         0.00000E+00
    0.00000E+00         0.00000E+00        -0.50033E+08
 
   -0.50037E+08         0.16717E+06         0.00000E+00
    0.16717E+06        -0.50023E+08         0.00000E+00
    0.00000E+00         0.00000E+00        -0.50033E+08
 
   -0.50035E+08         0.16874E+06         0.00000E+00
    0.16874E+06        -0.50024E+08         0.00000E+00
    0.00000E+00         0.00000E+00        -0.50032E+08
 
   -0.50033E+08         0.17022E+06         0.00000E+00
    0.17022E+06        -0.50024E+08         0.00000E+00
    0.00000E+00         0.00000E+00        -0.50032E+08
 
   -0.50089E+08         0.23945E+04         0.00000E+00
    0.23945E+04        -0.50000E+08         0.00000E+00
    0.00000E+00         0.00000E+00        -0.50043E+08
 
   -0.50089E+08         0.71317E+04         0.00000E+00
    0.71317E+04        -0.50000E+08         0.00000E+00
    0.00000E+00         0.00000E+00        -0.50043E+08
 
   -0.50088E+08         0.11843E+05         0.00000E+00
    0.11843E+05        -0.50000E+08         0.00000E+00
    0.00000E+00         0.00000E+00        -0.50043E+08
 
   -0.50087E+08         0.16527E+05         0.00000E+00
    0.16527E+05        -0.50000E+08         0.00000E+00
    0.00000E+00         0.00000E+00        -0.50043E+08
 
   -0.50087E+08         0.21180E+05         0.00000E+00
    0.21180E+05        -0.50000E+08         0.00000E+00
    0.00000E+00         0.00000E+00        -0.50043E+08
 
   -0.50086E+08         0.25799E+05         0.00000E+00
    0.25799E+05        -0.50000E+08         0.00000E+00
    0.00000E+00         0.00000E+00        -0.50042E+08
 
   -0.50085E+08         0.30382E+05         0.00000E+00
    0.30382E+05        -0.50000E+08         0.00000E+00
    0.00000E+00         0.00000E+00        -0.50042E+08
 
   -0.50085E+08         0.34927E+05         0.00000E+00
    0.34927E+05        -0.50000E+08         0.00000E+00
    0.00000E+00         0.00000E+00        -0.50042E+08
 
   -0.50084E+08         0.39432E+05         0.00000E+00
    0.39432E+05        -0.50001E+08         0.00000E+00
    0.00000E+00         0.00000E+00        -0.50042E+08
 
   -0.50083E+08         0.43893E+05         0.00000E+00
    0.43893E+05        -0.50001E+08         0.00000E+00
    0.00000E+00         0.00000E+00        -0.50041E+08
 
   -0.50082E+08         0.48308E+05         0.00000E+00
    0.48308E+05        -0.50001E+08         0.00000E+00
    0.00000E+00         0.00000E+00        -0.50041E+08
 
   -0.50081E+08         0.52676E+05         0.00000E+00
    0.52676E+05        -0.50001E+08         0.00000E+00
    0.00000E+00         0.00000E+00        -0.50041E+08
 
   -0.50080E+08         0.56994E+05         0.00000E+00
    0.56994E+05        -0.50001E+08         0.00000E+00
    0.00000E+00         0.00000E+00        -0.50040E+08
 
   -0.50079E+08         0.61260E+05         0.00000E+00
    0.61260E+05        -0.50002E+08         0.00000E+00
    0.00000E+00         0.00000E+00        -0.50040E+08
 
   -0.50078E+08         0.65472E+05         0.00000E+00
    0.65472E+05        -0.50002E+08         0.00000E+00
    0.00000E+00         0.00000E+00        -0.50040E+08
 
   -0.50077E+08         0.69627E+05         0.00000E+00
    0.69627E+05        -0.50002E+08         0.00000E+00
    0.00000E+00         0.00000E+00        -0.50039E+08
 
   -0.50076E+08         0.73724E+05         0.00000E+00
    0.73724E+05        -0.50002E+08         0.00000E+00
    0.00000E+00         0.00000E+00        -0.50039E+08
 
   -0.50075E+08         0.77760E+05         0.00000E+00
    0.77760E+05        -0.50003E+08         0.00000E+00
    0.00000E+00         0.00000E+00        -0.50039E+08
 
   -0.50074E+08         0.81734E+05         0.00000E+00
    0.81734E+05        -0.50003E+08         0.00000E+00
    0.00000E+00         0.00000E+00        -0.50038E+08
 
   -0.50072E+08         0.85644E+05         0.00000E+00
    0.85644E+05        -0.50003E+08         0.00000E+00
    0.00000E+00         0.00000E+00        -0.50038E+08
 
   -0.50071E+08         0.89488E+05         0.00000E+00
    0.89488E+05        -0.50004E+08         0.00000E+00
    0.00000E+00         0.00000E+00        -0.50037E+08
 
   -0.50070E+08         0.93264E+05         0.00000E+00
    0.93264E+05        -0.50004E+08         0.00000E+00
    0.00000E+00         0.00000E+00        -0.50037E+08
 
   -0.50068E+08         0.96971E+05         0.00000E+00
    0.96971E+05        -0.50004E+08         0.00000E+00
    0.00000E+00         0.00000E+00        -0.50036E+08
 
   -0.50067E+08         0.10061E+06         0.00000E+00
    0.10061E+06        -0.50005E+08         0.00000E+00
    0.00000E+00         0.00000E+00        -0.50036E+08
 
   -0.50066E+08         0.10417E+06         0.00000E+00
    0.10417E+06        -0.50005E+08         0.00000E+00
    0.00000E+00         0.00000E+00        -0.50035E+08
 
   -0.50064E+08         0.10766E+06         0.00000E+00
    0.10766E+06        -0.50005E+08         0.00000E+00
    0.00000E+00         0.00000E+00        -0.50035E+08
 
   -0.50063E+08         0.11107E+06         0.00000E+00
    0.11107E+06        -0.50006E+08         0.00000E+00
    0.00000E+00         0.00000E+00        -0.50035E+08
 
   -0.50061E+08         0.11440E+06         0.00000E+00
    0.11440E+06        -0.50006E+08         0.00000E+00
    0.00000E+00         0.00000E+00        -0.50034E+08
 
   -0.50060E+08         0.11766E+06         0.00000E+00
    0.11766E+06        -0.50007E+08         0.00000E+00
    0.00000E+00         0.00000E+00        -0.50034E+08
 
   -0.50058E+08         0.12083E+06         0.00000E+00
    0.12083E+06        -0.50007E+08         0.00000E+00
    0.00000E+00         0.00000E+00        -0.50033E+08
 
   -0.50057E+08         0.12393E+06         0.00000E+00
    0.12393E+06        -0.50008E+08         0.00000E+00
    0.00000E+00         0.00000E+00        -0.50033E+08
 
   -0.50055E+08         0.12694E+06         0.00000E+00
    0.12694E+06        -0.50008E+08         0.00000E+00
    0.00000E+00         0.00000E+00        -0.50032E+08
 
   -0.50054E+08         0.12987E+06         0.00000E+00
    0.12987E+06        -0.50009E+08         0.00000E+00
    0.00000E+00         0.00000E+00        -0.50032E+08
 
   -0.50052E+08         0.13271E+06         0.00000E+00
    0.13271E+06        -0.50009E+08         0.00000E+00
    0.00000E+00         0.00000E+00        -0.50031E+08
 
   -0.50050E+08         0.13547E+06         0.00000E+00
    0.13547E+06        -0.50010E+08         0.00000E+00
    0.00000E+00         0.00000E+00        -0.50031E+08
 
   -0.50049E+08         0.13815E+06         0.00000E+00
    0.13815E+06        -0.50010E+08         0.00000E+00
    0.00000E+00         0.00000E+00        -0.50030E+08
 
   -0.50047E+08         0.14073E+06         0.00000E+00
    0.14073E+06        -0.50011E+08         0.00000E+00
    0.00000E+00         0.00000E+00        -0.50030E+08
 
   -0.50046E+08         0.14323E+06         0.00000E+00
    0.14323E+06        -0.50012E+08         0.00000E+00
    0.00000E+00         0.00000E+00        -0.50029E+08
 
   -0.50044E+08         0.14564E+06         0.00000E+00
    0.14564E+06        -0.50012E+08         0.00000E+00
    0.00000E+00         0.00000E+00        -0.50029E+08
 
   -0.50042E+08         0.14796E+06         0.00000E+00
    0.14796E+06        -0.50013E+08         0.00000E+00
    0.00000E+00         0.00000E+00        -0.50029E+08
 
   -0.50041E+08         0.15020E+06         0.00000E+00
    0.15020E+06        -0.50013E+08         0.00000E+00
    0.00000E+00         0.00000E+00        -0.50028E+08
 
   -0.50039E+08         0.15234E+06         0.00000E+00
    0.15234E+06        -0.50014E+08         0.00000E+00
    0.00000E+00         0.00000E+00        -0.50028E+08
 
   -0.50037E+08         0.15440E+06         0.00000E+00
    0.15440E+06        -0.50015E+08         0.00000E+00
    0.00000E+00         0.00000E+00        -0.50027E+08
 
   -0.50036E+08         0.15636E+06         0.00000E+00
    0.15636E+06        -0.50015E+08         0.00000E+00
    0.00000E+00         0.00000E+00        -0.50027E+08
 
   -0.50034E+08         0.15824E+06         0.00000E+00
    0.15824E+06        -0.50016E+08         0.00000E+00
    0.00000E+00         0.00000E+00        -0.50027E+08
 
   -0.50032E+08         0.16003E+06         0.00000E+00
    0.16003E+06        -0.50017E+08         0.00000E+00
    0.00000E+00         0.00000E+00        -0.50026E+08
 
   -0.50031E+08         0.16174E+06         0.00000E+00
    0.16174E+06        -0.50017E+08         0.00000E+00
    0.00000E+00         0.00000E+00        -0.50026E+08
 
   -0.50029E+08         0.16335E+06         0.00000E+00
    0.16335E+06        -0.50018E+08         0.00000E+00
    0.00000E+00         0.00000E+00        -0.50026E+08
 
   -0.50028E+08         0.16488E+06         0.00000E+00
    0.16488E+06        -0.50019E+08         0.00000E+00
    0.00000E+00         0.00000E+00        -0.50026E+08
 
   -0.50026E+08         0.16632E+06         0.00000E+00
    0.16632E+06        -0.50019E+08         0.00000E+00
    0.00000E+00         0.00000E+00        -0.50025E+08
 
   -0.50065E+08         0.23562E+04         0.00000E+00
    0.23562E+04        -0.50000E+08         0.00000E+00
    0.00000E+00         0.00000E+00        -0.50032E+08
 
   -0.50065E+08         0.70176E+04         0.00000E+00
    0.70176E+04        -0.50000E+08         0.00000E+00
    0.00000E+00         0.00000E+00        -0.50032E+08
 
   -0.50065E+08         0.11654E+05         0.00000E+00
    0.11654E+05        -0.50000E+08         0.00000E+00
    0.00000E+00         0.00000E+00        -0.50032E+08
 
   -0.50064E+08         0.16262E+05         0.00000E+00
    0.16262E+05        -0.50000E+08         0.00000E+00
    0.00000E+00         0.00000E+00        -0.50031E+08
 
   -0.50064E+08         0.20840E+05         0.00000E+00
    0.20840E+05        -0.50000E+08         0.00000E+00
    0.00000E+00         0.00000E+00        -0.50031E+08
 
   -0.50063E+08         0.25384E+05         0.00000E+00
    0.25384E+05        -0.50000E+08         0.00000E+00
    0.00000E+00         0.00000E+00        -0.50031E+08
 
   -0.50063E+08         0.29893E+05         0.00000E+00
    0.29893E+05        -0.50000E+08         0.00000E+00
    0.00000E+00         0.00000E+00        -0.50031E+08
 
   -0.50062E+08         0.34364E+05         0.00000E+00
    0.34364E+05        -0.50000E+08         0.00000E+00
    0.00000E+00         0.00000E+00        -0.50031E+08
 
   -0.50062E+08         0.38795E+05         0.00000E+00
    0.38795E+05        -0.50000E+08         0.00000E+00
    0.00000E+00         0.00000E+00        -0.50031E+08
 
   -0.50061E+08         0.43183E+05         0.00000E+00
    0.43183E+05        -0.50001E+08         0.00000E+00
    0.00000E+00         0.00000E+00        -0.50030E+08
 
   -0.50060E+08         0.47525E+05         0.00000E+00
    0.47525E+05        -0.50001E+08         0.00000E+00
    0.00000E+00         0.00000E+00        -0.50030E+08
 
   -0.50060E+08         0.51820E+05         0.00000E+00
    0.51820E+05        -0.50001E+08         0.00000E+00
    0.00000E+00         0.00000E+00        -0.50030E+08
 
   -0.50059E+08         0.56066E+05         0.00000E+00
    0.56066E+05        -0.50001E+08         0.00000E+00
    0.00000E+00         0.00000E+00        -0.50030E+08
 
   -0.50058E+08         0.60259E+05         0.00000E+00
    0.60259E+05        -0.50001E+08         0.00000E+00
    0.00000E+00         0.00000E+00        -0.50029E+08
 
   -0.50057E+08         0.64399E+05         0.00000E+00
    0.64399E+05        -0.50001E+08         0.00000E+00
    0.00000E+00         0.00000E+00        -0.50029E+08
 
   -0.50057E+08         0.68483E+05         0.00000E+00
    0.68483E+05        -0.50002E+08         0.00000E+00
    0.00000E+00         0.00000E+00        -0.50029E+08
 
   -0.50056E+08         0.72509E+05         0.00000E+00
    0.72509E+05        -0.50002E+08         0.00000E+00
    0.00000E+00         0.00000E+00        -0.50029E+08
 
   -0.50055E+08         0.76475E+05         0.00000E+00
    0.76475E+05        -0.50002E+08         0.00000E+00
    0.00000E+00         0.00000E+00        -0.50028E+08
 
   -0.50054E+08         0.80380E+05         0.00000E+00
    0.80380E+05        -0.50002E+08         0.00000E+00
    0.00000E+00         0.00000E+00        -0.50028E+08
 
   -0.50053E+08         0.84220E+05         0.00000E+00
    0.84220E+05        -0.50002E+08         0.00000E+00
    0.00000E+00         0.00000E+00        -0.50028E+08
 
   -0.50052E+08         0.87996E+05         0.00000E+00
    0.87996E+05        -0.50003E+08         0.00000E+00
    0.00000E+00         0.00000E+00        -0.50027E+08
 
   -0.50051E+08         0.91704E+05         0.00000E+00
    0.91704E+05        -0.50003E+08         0.00000E+00
    0.00000E+00         0.00000E+00        -0.50027E+08
 
   -0.50050E+08         0.95343E+05         0.00000E+00
    0.95343E+05        -0.50003E+08         0.00000E+00
    0.00000E+00         0.00000E+00        -0.50027E+08
 
   -0.50049E+08         0.98912E+05         0.00000E+00
    0.98912E+05        -0.50003E+08         0.00000E+00
    0.00000E+00         0.00000E+00        -0.50026E+08
 
   -0.50048E+08         0.10241E+06         0.00000E+00
    0.10241E+06        -0.50004E+08         0.00000E+00
    0.00000E+00         0.00000E+00        -0.50026E+08
 
   -0.50047E+08         0.10583E+06         0.00000E+00
    0.10583E+06        -0.50004E+08         0.00000E+00
    0.00000E+00         0.00000E+00        -0.50026E+08
 
   -0.50046E+08         0.10918E+06         0.00000E+00
    0.10918E+06        -0.50004E+08         0.00000E+00
    0.00000E+00         0.00000E+00        -0.50025E+08
 
   -0.50045E+08         0.11245E+06         0.00000E+00
    0.11245E+06        -0.50005E+08         0.00000E+00
    0.00000E+00         0.00000E+00        -0.50025E+08
 
   -0.50044E+08         0.11565E+06         0.00000E+00
    0.11565E+06        -0.50005E+08         0.00000E+00
    0.00000E+00         0.00000E+00        -0.50025E+08
 
   -0.50043E+08         0.11876E+06         0.00000E+00
    0.11876E+06        -0.50005E+08         0.00000E+00
    0.00000E+00         0.00000E+00        -0.50024E+08
 
   -0.50042E+08         0.12180E+06         0.00000E+00
    0.12180E+06        -0.50006E+08         0.00000E+00
    0.00000E+00         0.00000E+00        -0.50024E+08
 
   -0.50041E+08         0.12475E+06         0.00000E+00
    0.12475E+06        -0.50006E+08         0.00000E+00
    0.00000E+00         0.00000E+00        -0.50024E+08
 
   -0.50039E+08         0.12762E+06         0.00000E+00
    0.12762E+06        -0.50006E+08         0.00000E+00
    0.00000E+00         0.00000E+00        -0.50023E+08
 
   -0.50038E+08         0.13041E+06         0.00000E+00
    0.13041E+06        -0.50007E+08         0.00000E+00
    0.00000E+00         0.00000E+00        -0.50023E+08
 
   -0.50037E+08         0.13312E+06         0.00000E+00
    0.13312E+06        -0.50007E+08         0.00000E+00
    0.00000E+00         0.00000E+00        -0.50023E+08
 
   -0.50036E+08         0.13574E+06         0.00000E+00
    0.13574E+06        -0.50008E+08         0.00000E+00
    0.00000E+00         0.00000E+00        -0.50022E+08
 
   -0.50035E+08         0.13827E+06         0.00000E+00
    0.13827E+06        -0.50008E+08         0.00000E+00
    0.00000E+00         0.00000E+00        -0.50022E+08
 
   -0.50033E+08         0.14072E+06         0.00000E+00
    0.14072E+06        -0.50008E+08         0.00000E+00
    0.00000E+00         0.00000E+00        -0.50022E+08
 
   -0.50032E+08         0.14308E+06         0.00000E+00
    0.14308E+06        -0.50009E+08         0.00000E+00
    0.00000E+00         0.00000E+00        -0.50021E+08
 
   -0.50031E+08         0.14536E+06         0.00000E+00
    0.14536E+06        -0.50009E+08         0.00000E+00
    0.00000E+00         0.00000E+00        -0.50021E+08
 
   -0.50030E+08         0.14755E+06         0.00000E+00
    0.14755E+06        -0.50010E+08         0.00000E+00
    0.00000E+00         0.00000E+00        -0.50021E+08
 
   -0.50029E+08         0.14965E+06         0.00000E+00
    0.14965E+06        -0.50010E+08         0.00000E+00
    0.00000E+00         0.00000E+00        -0.50020E+08
 
   -0.50027E+08         0.15166E+06         0.00000E+00
    0.15166E+06        -0.50011E+08         0.00000E+00
    0.00000E+00         0.00000E+00        -0.50020E+08
 
   -0.50026E+08         0.15359E+06         0.00000E+00
    0.15359E+06        -0.50011E+08         0.00000E+00
    0.00000E+00         0.00000E+00        -0.50020E+08
 
   -0.50025E+08         0.15543E+06         0.00000E+00
    0.15543E+06        -0.50012E+08         0.00000E+00
    0.00000E+00         0.00000E+00        -0.50020E+08
 
   -0.50024E+08         0.15719E+06         0.00000E+00
    0.15719E+06        -0.50012E+08         0.00000E+00
    0.00000E+00         0.00000E+00        -0.50019E+08
 
   -0.50023E+08         0.15886E+06         0.00000E+00
    0.15886E+06        -0.50013E+08         0.00000E+00
    0.00000E+00         0.00000E+00        -0.50019E+08
 
   -0.50021E+08         0.16044E+06         0.00000E+00
    0.16044E+06        -0.50013E+08         0.00000E+00
    0.00000E+00         0.00000E+00        -0.50019E+08
 
   -0.50020E+08         0.16194E+06         0.00000E+00
    0.16194E+06        -0.50014E+08         0.00000E+00
    0.00000E+00         0.00000E+00        -0.50019E+08
 
   -0.50019E+08         0.16336E+06         0.00000E+00
    0.16336E+06        -0.50014E+08         0.00000E+00
    0.00000E+00         0.00000E+00        -0.50019E+08
 
   -0.50042E+08         0.23295E+04         0.00000E+00
    0.23295E+04        -0.50000E+08         0.00000E+00
    0.00000E+00         0.00000E+00        -0.50021E+08
 
   -0.50042E+08         0.69382E+04         0.00000E+00
    0.69382E+04        -0.50000E+08         0.00000E+00
    0.00000E+00         0.00000E+00        -0.50020E+08
 
   -0.50042E+08         0.11522E+05         0.00000E+00
    0.11522E+05        -0.50000E+08         0.00000E+00
    0.00000E+00         0.00000E+00        -0.50020E+08
 
   -0.50041E+08         0.16078E+05         0.00000E+00
    0.16078E+05        -0.50000E+08         0.00000E+00
    0.00000E+00         0.00000E+00        -0.50020E+08
 
   -0.50041E+08         0.20604E+05         0.00000E+00
    0.20604E+05        -0.50000E+08         0.00000E+00
    0.00000E+00         0.00000E+00        -0.50020E+08
 
   -0.50041E+08         0.25096E+05         0.00000E+00
    0.25096E+05        -0.50000E+08         0.00000E+00
    0.00000E+00         0.00000E+00        -0.50020E+08
 
   -0.50041E+08         0.29554E+05         0.00000E+00
    0.29554E+05        -0.50000E+08         0.00000E+00
    0.00000E+00         0.00000E+00        -0.50020E+08
 
   -0.50040E+08         0.33973E+05         0.00000E+00
    0.33973E+05        -0.50000E+08         0.00000E+00
    0.00000E+00         0.00000E+00        -0.50020E+08
 
   -0.50040E+08         0.38353E+05         0.00000E+00
    0.38353E+05        -0.50000E+08         0.00000E+00
    0.00000E+00         0.00000E+00        -0.50020E+08
 
   -0.50039E+08         0.42689E+05         0.00000E+00
    0.42689E+05        -0.50000E+08         0.00000E+00
    0.00000E+00         0.00000E+00        -0.50020E+08
 
   -0.50039E+08         0.46981E+05         0.00000E+00
    0.46981E+05        -0.50000E+08         0.00000E+00
    0.00000E+00         0.00000E+00        -0.50019E+08
 
   -0.50038E+08         0.51226E+05         0.00000E+00
    0.51226E+05        -0.50001E+08         0.00000E+00
    0.00000E+00         0.00000E+00        -0.50019E+08
 
   -0.50038E+08         0.55421E+05         0.00000E+00
    0.55421E+05        -0.50001E+08         0.00000E+00
    0.00000E+00         0.00000E+00        -0.50019E+08
 
   -0.50038E+08         0.59565E+05         0.00000E+00
    0.59565E+05        -0.50001E+08         0.00000E+00
    0.00000E+00         0.00000E+00        -0.50019E+08
 
   -0.50037E+08         0.63655E+05         0.00000E+00
    0.63655E+05        -0.50001E+08         0.00000E+00
    0.00000E+00         0.00000E+00        -0.50019E+08
 
   -0.50037E+08         0.67689E+05         0.00000E+00
    0.67689E+05        -0.50001E+08         0.00000E+00
    0.00000E+00         0.00000E+00        -0.50019E+08
 
   -0.50036E+08         0.71666E+05         0.00000E+00
    0.71666E+05        -0.50001E+08         0.00000E+00
    0.00000E+00         0.00000E+00        -0.50018E+08
 
   -0.50035E+08         0.75583E+05         0.00000E+00
    0.75583E+05        -0.50001E+08         0.00000E+00
    0.00000E+00         0.00000E+00        -0.50018E+08
 
   -0.50035E+08         0.79439E+05         0.00000E+00
    0.79439E+05        -0.50001E+08         0.00000E+00
    0.00000E+00         0.00000E+00        -0.50018E+08
 
   -0.50034E+08         0.83232E+05         0.00000E+00
    0.83232E+05        -0.50002E+08         0.00000E+00
    0.00000E+00         0.00000E+00        -0.50018E+08
 
   -0.50034E+08         0.86959E+05         0.00000E+00
    0.86959E+05        -0.50002E+08         0.00000E+00
    0.00000E+00         0.00000E+00        -0.50018E+08
 
   -0.50033E+08         0.90620E+05         0.00000E+00
    0.90620E+05        -0.50002E+08         0.00000E+00
    0.00000E+00         0.00000E+00        -0.50017E+08
 
   -0.50032E+08         0.94213E+05         0.00000E+00
    0.94213E+05        -0.50002E+08         0.00000E+00
    0.00000E+00         0.00000E+00        -0.50017E+08
 
   -0.50032E+08         0.97735E+05         0.00000E+00
    0.97735E+05        -0.50002E+08         0.00000E+00
    0.00000E+00         0.00000E+00        -0.50017E+08
 
   -0.50031E+08         0.10119E+06         0.00000E+00
    0.10119E+06        -0.50002E+08         0.00000E+00
    0.00000E+00         0.00000E+00        -0.50017E+08
 
   -0.50030E+08         0.10456E+06         0.00000E+00
    0.10456E+06        -0.50003E+08         0.00000E+00
    0.00000E+00         0.00000E+00        -0.50017E+08
 
   -0.50030E+08         0.10787E+06         0.00000E+00
    0.10787E+06        -0.50003E+08         0.00000E+00
    0.00000E+00         0.00000E+00        -0.50016E+08
 
   -0.50029E+08         0.11110E+06         0.00000E+00
    0.11110E+06        -0.50003E+08         0.00000E+00
    0.00000E+00         0.00000E+00        -0.50016E+08
 
   -0.50028E+08         0.11425E+06         0.00000E+00
    0.11425E+06        -0.50003E+08         0.00000E+00
    0.00000E+00         0.00000E+00        -0.50016E+08
 
   -0.50028E+08         0.11732E+06         0.00000E+00
    0.11732E+06        -0.50003E+08         0.00000E+00
    0.00000E+00         0.00000E+00        -0.50016E+08
 
   -0.50027E+08         0.12031E+06         0.00000E+00
    0.12031E+06        -0.50004E+08         0.00000E+00
    0.00000E+00         0.00000E+00        -0.50015E+08
 
   -0.50026E+08         0.12323E+06         0.00000E+00
    0.12323E+06        -0.50004E+08         0.00000E+00
    0.00000E+00         0.00000E+00        -0.50015E+08
 
   -0.50025E+08         0.12606E+06         0.00000E+00
    0.12606E+06        -0.50004E+08         0.00000E+00
    0.00000E+00         0.00000E+00        -0.50015E+08
 
   -0.50025E+08         0.12881E+06         0.00000E+00
    0.12881E+06        -0.50004E+08         0.00000E+00
    0.00000E+00         0.00000E+00        -0.50015E+08
 
   -0.50024E+08         0.13148E+06         0.00000E+00
    0.13148E+06        -0.50005E+08         0.00000E+00
    0.00000E+00         0.00000E+00        -0.50014E+08
 
   -0.50023E+08         0.13406E+06         0.00000E+00
    0.13406E+06        -0.50005E+08         0.00000E+00
    0.00000E+00         0.00000E+00        -0.50014E+08
 
   -0.50022E+08         0.13656E+06         0.00000E+00
    0.13656E+06        -0.50005E+08         0.00000E+00
    0.00000E+00         0.00000E+00        -0.50014E+08
 
   -0.50022E+08         0.13897E+06         0.00000E+00
    0.13897E+06        -0.50005E+08         0.00000E+00
    0.00000E+00         0.00000E+00        -0.50014E+08
 
   -0.50021E+08         0.14130E+06         0.00000E+00
    0.14130E+06        -0.50006E+08         0.00000E+00
    0.00000E+00         0.00000E+00        -0.50014E+08
 
   -0.50020E+08         0.14355E+06         0.00000E+00
    0.14355E+06        -0.50006E+08         0.00000E+00
    0.00000E+00         0.00000E+00        -0.50013E+08
 
   -0.50019E+08         0.14570E+06         0.00000E+00
    0.14570E+06        -0.50006E+08         0.00000E+00
    0.00000E+00         0.00000E+00        -0.50013E+08
 
   -0.50018E+08         0.14778E+06         0.00000E+00
    0.14778E+06        -0.50007E+08         0.00000E+00
    0.00000E+00         0.00000E+00        -0.50013E+08
 
   -0.50018E+08         0.14976E+06         0.00000E+00
    0.14976E+06        -0.50007E+08         0.00000E+00
    0.00000E+00         0.00000E+00        -0.50013E+08
 
   -0.50017E+08         0.15166E+06         0.00000E+00
    0.15166E+06        -0.50007E+08         0.00000E+00
    0.00000E+00         0.00000E+00        -0.50013E+08
 
   -0.50016E+08         0.15348E+06         0.00000E+00
    0.15348E+06        -0.50007E+08         0.00000E+00
    0.00000E+00         0.00000E+00        -0.50013E+08
 
   -0.50015E+08         0.15521E+06         0.00000E+00
    0.15521E+06        -0.50008E+08         0.00000E+00
    0.00000E+00         0.00000E+00        -0.50012E+08
 
   -0.50014E+08         0.15686E+06         0.00000E+00
    0.15686E+06        -0.50008E+08         0.00000E+00
    0.00000E+00         0.00000E+00        -0.50012E+08
 
   -0.50014E+08         0.15842E+06         0.00000E+00
    0.15842E+06        -0.50008E+08         0.00000E+00
    0.00000E+00         0.00000E+00        -0.50012E+08
 
   -0.50013E+08         0.15990E+06         0.00000E+00
    0.15990E+06        -0.50009E+08         0.00000E+00
    0.00000E+00         0.00000E+00        -0.50012E+08
 
   -0.50012E+08         0.16130E+06         0.00000E+00
    0.16130E+06        -0.50009E+08         0.00000E+00
    0.00000E+00         0.00000E+00        -0.50012E+08
 
   -0.50019E+08         0.23146E+04         0.00000E+00
    0.23146E+04        -0.50000E+08         0.00000E+00
    0.00000E+00         0.00000E+00        -0.50009E+08
 
   -0.50019E+08         0.68938E+04         0.00000E+00
    0.68938E+04        -0.50000E+08         0.00000E+00
    0.00000E+00         0.00000E+00        -0.50009E+08
 
   -0.50019E+08         0.11448E+05         0.00000E+00
    0.11448E+05        -0.50000E+08         0.00000E+00
    0.00000E+00         0.00000E+00        -0.50009E+08
 
   -0.50019E+08         0.15975E+05         0.00000E+00
    0.15975E+05        -0.50000E+08         0.00000E+00
    0.00000E+00         0.00000E+00        -0.50009E+08
 
   -0.50019E+08         0.20472E+05         0.00000E+00
    0.20472E+05        -0.50000E+08         0.00000E+00
    0.00000E+00         0.00000E+00        -0.50009E+08
 
   -0.50019E+08         0.24936E+05         0.00000E+00
    0.24936E+05        -0.50000E+08         0.00000E+00
    0.00000E+00         0.00000E+00        -0.50009E+08
 
   -0.50018E+08         0.29365E+05         0.00000E+00
    0.29365E+05        -0.50000E+08         0.00000E+00
    0.00000E+00         0.00000E+00        -0.50009E+08
 
   -0.50018E+08         0.33756E+05         0.00000E+00
    0.33756E+05        -0.50000E+08         0.00000E+00
    0.00000E+00         0.00000E+00        -0.50009E+08
 
   -0.50018E+08         0.38106E+05         0.00000E+00
    0.38106E+05        -0.50000E+08         0.00000E+00
    0.00000E+00         0.00000E+00        -0.50009E+08
 
   -0.50018E+08         0.42415E+05         0.00000E+00
    0.42415E+05        -0.50000E+08         0.00000E+00
    0.00000E+00         0.00000E+00        -0.50009E+08
 
   -0.50018E+08         0.46678E+05         0.00000E+00
    0.46678E+05        -0.50000E+08         0.00000E+00
    0.00000E+00         0.00000E+00        -0.50009E+08
 
   -0.50017E+08         0.50894E+05         0.00000E+00
    0.50894E+05        -0.50000E+08         0.00000E+00
    0.00000E+00         0.00000E+00        -0.50009E+08
 
   -0.50017E+08         0.55061E+05         0.00000E+00
    0.55061E+05        -0.50000E+08         0.00000E+00
    0.00000E+00         0.00000E+00        -0.50009E+08
 
   -0.50017E+08         0.59177E+05         0.00000E+00
    0.59177E+05        -0.50000E+08         0.00000E+00
    0.00000E+00         0.00000E+00        -0.50009E+08
 
   -0.50017E+08         0.63239E+05         0.00000E+00
    0.63239E+05        -0.50000E+08         0.00000E+00
    0.00000E+00         0.00000E+00        -0.50009E+08
 
   -0.50017E+08         0.67245E+05         0.00000E+00
    0.67245E+05        -0.50000E+08         0.00000E+00
    0.00000E+00         0.00000E+00        -0.50008E+08
 
   -0.50016E+08         0.71194E+05         0.00000E+00
    0.71194E+05        -0.50000E+08         0.00000E+00
    0.00000E+00         0.00000E+00        -0.50008E+08
 
   -0.50016E+08         0.75084E+05         0.00000E+00
    0.75084E+05        -0.50001E+08         0.00000E+00
    0.00000E+00         0.00000E+00        -0.50008E+08
 
   -0.50016E+08         0.78912E+05         0.00000E+00
    0.78912E+05        -0.50001E+08         0.00000E+00
    0.00000E+00         0.00000E+00        -0.50008E+08
 
   -0.50016E+08         0.82678E+05         0.00000E+00
    0.82678E+05        -0.50001E+08         0.00000E+00
    0.00000E+00         0.00000E+00        -0.50008E+08
 
   -0.50015E+08         0.86378E+05         0.00000E+00
    0.86378E+05        -0.50001E+08         0.00000E+00
    0.00000E+00         0.00000E+00        -0.50008E+08
 
   -0.50015E+08         0.90012E+05         0.00000E+00
    0.90012E+05        -0.50001E+08         0.00000E+00
    0.00000E+00         0.00000E+00        -0.50008E+08
 
   -0.50015E+08         0.93578E+05         0.00000E+00
    0.93578E+05        -0.50001E+08         0.00000E+00
    0.00000E+00         0.00000E+00        -0.50008E+08
 
   -0.50014E+08         0.97074E+05         0.00000E+00
    0.97074E+05        -0.50001E+08         0.00000E+00
    0.00000E+00         0.00000E+00        -0.50008E+08
 
   -0.50014E+08         0.10050E+06         0.00000E+00
    0.10050E+06        -0.50001E+08         0.00000E+00
    0.00000E+00         0.00000E+00        -0.50008E+08
 
   -0.50014E+08         0.10385E+06         0.00000E+00
    0.10385E+06        -0.50001E+08         0.00000E+00
    0.00000E+00         0.00000E+00        -0.50007E+08
 
   -0.50013E+08         0.10713E+06         0.00000E+00
    0.10713E+06        -0.50001E+08         0.00000E+00
    0.00000E+00         0.00000E+00        -0.50007E+08
 
   -0.50013E+08         0.11033E+06         0.00000E+00
    0.11033E+06        -0.50001E+08         0.00000E+00
    0.00000E+00         0.00000E+00        -0.50007E+08
 
   -0.50013E+08         0.11346E+06         0.00000E+00
    0.11346E+06        -0.50001E+08         0.00000E+00
    0.00000E+00         0.00000E+00        -0.50007E+08
 
   -0.50012E+08         0.11651E+06         0.00000E+00
    0.11651E+06        -0.50001E+08         0.00000E+00
    0.00000E+00         0.00000E+00        -0.50007E+08
 
   -0.50012E+08         0.11948E+06         0.00000E+00
    0.11948E+06        -0.50002E+08         0.00000E+00
    0.00000E+00         0.00000E+00        -0.50007E+08
 
   -0.50012E+08         0.12237E+06         0.00000E+00
    0.12237E+06        -0.50002E+08         0.00000E+00
    0.00000E+00         0.00000E+00        -0.50007E+08
 
   -0.50011E+08         0.12517E+06         0.00000E+00
    0.12517E+06        -0.50002E+08         0.00000E+00
    0.00000E+00         0.00000E+00        -0.50007E+08
 
   -0.50011E+08         0.12790E+06         0.00000E+00
    0.12790E+06        -0.50002E+08         0.00000E+00
    0.00000E+00         0.00000E+00        -0.50007E+08
 
   -0.50011E+08         0.13055E+06         0.00000E+00
    0.13055E+06        -0.50002E+08         0.00000E+00
    0.00000E+00         0.00000E+00        -0.50007E+08
 
   -0.50010E+08         0.13311E+06         0.00000E+00
    0.13311E+06        -0.50002E+08         0.00000E+00
    0.00000E+00         0.00000E+00        -0.50006E+08
 
   -0.50010E+08         0.13559E+06         0.00000E+00
    0.13559E+06        -0.50002E+08         0.00000E+00
    0.00000E+00         0.00000E+00        -0.50006E+08
 
   -0.50010E+08         0.13798E+06         0.00000E+00
    0.13798E+06        -0.50002E+08         0.00000E+00
    0.00000E+00         0.00000E+00        -0.50006E+08
 
   -0.50009E+08         0.14029E+06         0.00000E+00
    0.14029E+06        -0.50003E+08         0.00000E+00
    0.00000E+00         0.00000E+00        -0.50006E+08
 
   -0.50009E+08         0.14252E+06         0.00000E+00
    0.14252E+06        -0.50003E+08         0.00000E+00
    0.00000E+00         0.00000E+00        -0.50006E+08
 
   -0.50009E+08         0.14466E+06         0.00000E+00
    0.14466E+06        -0.50003E+08         0.00000E+00
    0.00000E+00         0.00000E+00        -0.50006E+08
 
   -0.50008E+08         0.14671E+06         0.00000E+00
    0.14671E+06        -0.50003E+08         0.00000E+00
    0.00000E+00         0.00000E+00        -0.50006E+08
 
   -0.50008E+08         0.14868E+06         0.00000E+00
    0.14868E+06        -0.50003E+08         0.00000E+00
    0.00000E+00         0.00000E+00        -0.50006E+08
 
   -0.50008E+08         0.15057E+06         0.00000E+00
    0.15057E+06        -0.50003E+08         0.00000E+00
    0.00000E+00         0.00000E+00        -0.50006E+08
 
   -0.50007E+08         0.15237E+06         0.00000E+00
    0.15237E+06        -0.50003E+08         0.00000E+00
    0.00000E+00         0.00000E+00        -0.50006E+08
 
   -0.50007E+08         0.15409E+06         0.00000E+00
    0.15409E+06        -0.50003E+08         0.00000E+00
    0.00000E+00         0.00000E+00        -0.50006E+08
 
   -0.50007E+08         0.15572E+06         0.00000E+00
    0.15572E+06        -0.50004E+08         0.00000E+00
    0.00000E+00         0.00000E+00        -0.50005E+08
 
   -0.50006E+08         0.15727E+06         0.00000E+00
    0.15727E+06        -0.50004E+08         0.00000E+00
    0.00000E+00         0.00000E+00        -0.50005E+08
 
   -0.50006E+08         0.15874E+06         0.00000E+00
    0.15874E+06        -0.50004E+08         0.00000E+00
    0.00000E+00         0.00000E+00        -0.50005E+08
 
   -0.50005E+08         0.16013E+06         0.00000E+00
    0.16013E+06        -0.50004E+08         0.00000E+00
    0.00000E+00         0.00000E+00        -0.50005E+08
 
   -0.49996E+08         0.23116E+04         0.00000E+00
    0.23116E+04        -0.50000E+08         0.00000E+00
    0.00000E+00         0.00000E+00        -0.49998E+08
 
   -0.49996E+08         0.68851E+04         0.00000E+00
    0.68851E+04        -0.50000E+08         0.00000E+00
    0.00000E+00         0.00000E+00        -0.49998E+08
 
   -0.49996E+08         0.11434E+05         0.00000E+00
    0.11434E+05        -0.50000E+08         0.00000E+00
    0.00000E+00         0.00000E+00        -0.49998E+08
 
   -0.49996E+08         0.15955E+05         0.00000E+00
    0.15955E+05        -0.50000E+08         0.00000E+00
    0.00000E+00         0.00000E+00        -0.49998E+08
 
   -0.49996E+08         0.20446E+05         0.00000E+00
    0.20446E+05        -0.50000E+08         0.00000E+00
    0.00000E+00         0.00000E+00        -0.49998E+08
 
   -0.49996E+08         0.24904E+05         0.00000E+00
    0.24904E+05        -0.50000E+08         0.00000E+00
    0.00000E+00         0.00000E+00        -0.49998E+08
 
   -0.49996E+08         0.29327E+05         0.00000E+00
    0.29327E+05        -0.50000E+08         0.00000E+00
    0.00000E+00         0.00000E+00        -0.49998E+08
 
   -0.49996E+08         0.33713E+05         0.00000E+00
    0.33713E+05        -0.50000E+08         0.00000E+00
    0.00000E+00         0.00000E+00        -0.49998E+08
 
   -0.49996E+08         0.38057E+05         0.00000E+00
    0.38057E+05        -0.50000E+08         0.00000E+00
    0.00000E+00         0.00000E+00        -0.49998E+08
 
   -0.49996E+08         0.42360E+05         0.00000E+00
    0.42360E+05        -0.50000E+08         0.00000E+00
    0.00000E+00         0.00000E+00        -0.49998E+08
 
   -0.49997E+08         0.46617E+05         0.00000E+00
    0.46617E+05        -0.50000E+08         0.00000E+00
    0.00000E+00         0.00000E+00        -0.49998E+08
 
   -0.49997E+08         0.50827E+05         0.00000E+00
    0.50827E+05        -0.50000E+08         0.00000E+00
    0.00000E+00         0.00000E+00        -0.49998E+08
 
   -0.49997E+08         0.54988E+05         0.00000E+00
    0.54988E+05        -0.50000E+08         0.00000E+00
    0.00000E+00         0.00000E+00        -0.49998E+08
 
   -0.49997E+08         0.59098E+05         0.00000E+00
    0.59098E+05        -0.50000E+08         0.00000E+00
    0.00000E+00         0.00000E+00        -0.49998E+08
 
   -0.49997E+08         0.63153E+05         0.00000E+00
    0.63153E+05        -0.50000E+08         0.00000E+00
    0.00000E+00         0.00000E+00        -0.49998E+08
 
   -0.49997E+08         0.67153E+05         0.00000E+00
    0.67153E+05        -0.50000E+08         0.00000E+00
    0.00000E+00         0.00000E+00        -0.49998E+08
 
   -0.49997E+08         0.71096E+05         0.00000E+00
    0.71096E+05        -0.50000E+08         0.00000E+00
    0.00000E+00         0.00000E+00        -0.49998E+08
 
   -0.49997E+08         0.74979E+05         0.00000E+00
    0.74979E+05        -0.50000E+08         0.00000E+00
    0.00000E+00         0.00000E+00        -0.49998E+08
 
   -0.49997E+08         0.78801E+05         0.00000E+00
    0.78801E+05        -0.50000E+08         0.00000E+00
    0.00000E+00         0.00000E+00        -0.49998E+08
 
   -0.49997E+08         0.82559E+05         0.00000E+00
    0.82559E+05        -0.50000E+08         0.00000E+00
    0.00000E+00         0.00000E+00        -0.49998E+08
 
   -0.49997E+08         0.86252E+05         0.00000E+00
    0.86252E+05        -0.50000E+08         0.00000E+00
    0.00000E+00         0.00000E+00        -0.49998E+08
 
   -0.49997E+08         0.89879E+05         0.00000E+00
    0.89879E+05        -0.50000E+08         0.00000E+00
    0.00000E+00         0.00000E+00        -0.49998E+08
 
   -0.49997E+08         0.93438E+05         0.00000E+00
    0.93438E+05        -0.50000E+08         0.00000E+00
    0.00000E+00         0.00000E+00        -0.49998E+08
 
   -0.49997E+08         0.96927E+05         0.00000E+00
    0.96927E+05        -0.50000E+08         0.00000E+00
    0.00000E+00         0.00000E+00        -0.49998E+08
 
   -0.49997E+08         0.10034E+06         0.00000E+00
    0.10034E+06        -0.50000E+08         0.00000E+00
    0.00000E+00         0.00000E+00        -0.49998E+08
 
   -0.49997E+08         0.10369E+06         0.00000E+00
    0.10369E+06        -0.50000E+08         0.00000E+00
    0.00000E+00         0.00000E+00        -0.49998E+08
 
   -0.49997E+08         0.10696E+06         0.00000E+00
    0.10696E+06        -0.50000E+08         0.00000E+00
    0.00000E+00         0.00000E+00        -0.49998E+08
 
   -0.49997E+08         0.11016E+06         0.00000E+00
    0.11016E+06        -0.50000E+08         0.00000E+00
    0.00000E+00         0.00000E+00        -0.49998E+08
 
   -0.49997E+08         0.11328E+06         0.00000E+00
    0.11328E+06        -0.50000E+08         0.00000E+00
    0.00000E+00         0.00000E+00        -0.49998E+08
 
   -0.49997E+08         0.11632E+06         0.00000E+00
    0.11632E+06        -0.50000E+08         0.00000E+00
    0.00000E+00         0.00000E+00        -0.49998E+08
 
   -0.49998E+08         0.11928E+06         0.00000E+00
    0.11928E+06        -0.50000E+08         0.00000E+00
    0.00000E+00         0.00000E+00        -0.49999E+08
 
   -0.49998E+08         0.12216E+06         0.00000E+00
    0.12216E+06        -0.50000E+08         0.00000E+00
    0.00000E+00         0.00000E+00        -0.49999E+08
 
   -0.49998E+08         0.12496E+06         0.00000E+00
    0.12496E+06        -0.49999E+08         0.00000E+00
    0.00000E+00         0.00000E+00        -0.49999E+08
 
   -0.49998E+08         0.12768E+06         0.00000E+00
    0.12768E+06        -0.49999E+08         0.00000E+00
    0.00000E+00         0.00000E+00        -0.49999E+08
 
   -0.49998E+08         0.13032E+06         0.00000E+00
    0.13032E+06        -0.49999E+08         0.00000E+00
    0.00000E+00         0.00000E+00        -0.49999E+08
 
   -0.49998E+08         0.13288E+06         0.00000E+00
    0.13288E+06        -0.49999E+08         0.00000E+00
    0.00000E+00         0.00000E+00        -0.49999E+08
 
   -0.49998E+08         0.13535E+06         0.00000E+00
    0.13535E+06        -0.49999E+08         0.00000E+00
    0.00000E+00         0.00000E+00        -0.49999E+08
 
   -0.49998E+08         0.13774E+06         0.00000E+00
    0.13774E+06        -0.49999E+08         0.00000E+00
    0.00000E+00         0.00000E+00        -0.49999E+08
 
   -0.49998E+08         0.14004E+06         0.00000E+00
    0.14004E+06        -0.49999E+08         0.00000E+00
    0.00000E+00         0.00000E+00        -0.49999E+08
 
   -0.49998E+08         0.14226E+06         0.00000E+00
    0.14226E+06        -0.49999E+08         0.00000E+00
    0.00000E+00         0.00000E+00        -0.49999E+08
 
   -0.49998E+08         0.14440E+06         0.00000E+00
    0.14440E+06        -0.49999E+08         0.00000E+00
    0.00000E+00         0.00000E+00        -0.49999E+08
 
   -0.49998E+08         0.14645E+06         0.00000E+00
    0.14645E+06        -0.49999E+08         0.00000E+00
    0.00000E+00         0.00000E+00        -0.49999E+08
 
   -0.49998E+08         0.14841E+06         0.00000E+00
    0.14841E+06        -0.49999E+08         0.00000E+00
    0.00000E+00         0.00000E+00        -0.49999E+08
 
   -0.49998E+08         0.15029E+06         0.00000E+00
    0.15029E+06        -0.49999E+08         0.00000E+00
    0.00000E+00         0.00000E+00        -0.49999E+08
 
   -0.49998E+08         0.15209E+06         0.00000E+00
    0.15209E+06        -0.49999E+08         0.00000E+00
    0.00000E+00         0.00000E+00        -0.49999E+08
 
   -0.49998E+08         0.15381E+06         0.00000E+00
    0.15381E+06        -0.49999E+08         0.00000E+00
    0.00000E+00         0.00000E+00        -0.49999E+08
 
   -0.49999E+08         0.15544E+06         0.00000E+00
    0.15544E+06        -0.49999E+08         0.00000E+00
    0.00000E+00         0.00000E+00        -0.49999E+08
 
   -0.49999E+08         0.15699E+06         0.00000E+00
    0.15699E+06        -0.49999E+08         0.00000E+00
    0.00000E+00         0.00000E+00        -0.49999E+08
 
   -0.49999E+08         0.15845E+06         0.00000E+00
    0.15845E+06        -0.49999E+08         0.00000E+00
    0.00000E+00         0.00000E+00        -0.49999E+08
 
   -0.49999E+08         0.15984E+06         0.00000E+00
    0.15984E+06        -0.49999E+08         0.00000E+00
    0.00000E+00         0.00000E+00        -0.49999E+08
 
   -0.49973E+08         0.23207E+04         0.00000E+00
    0.23207E+04        -0.50000E+08         0.00000E+00
    0.00000E+00         0.00000E+00        -0.49987E+08
 
   -0.49973E+08         0.69124E+04         0.00000E+00
    0.69124E+04        -0.50000E+08         0.00000E+00
    0.00000E+00         0.00000E+00        -0.49987E+08
 
   -0.49974E+08         0.11479E+05         0.00000E+00
    0.11479E+05        -0.50000E+08         0.00000E+00
    0.00000E+00         0.00000E+00        -0.49987E+08
 
   -0.49974E+08         0.16018E+05         0.00000E+00
    0.16018E+05        -0.50000E+08         0.00000E+00
    0.00000E+00         0.00000E+00        -0.49987E+08
 
   -0.49974E+08         0.20527E+05         0.00000E+00
    0.20527E+05        -0.50000E+08         0.00000E+00
    0.00000E+00         0.00000E+00        -0.49987E+08
 
   -0.49974E+08         0.25003E+05         0.00000E+00
    0.25003E+05        -0.50000E+08         0.00000E+00
    0.00000E+00         0.00000E+00        -0.49987E+08
 
   -0.49974E+08         0.29444E+05         0.00000E+00
    0.29444E+05        -0.50000E+08         0.00000E+00
    0.00000E+00         0.00000E+00        -0.49987E+08
 
   -0.49975E+08         0.33846E+05         0.00000E+00
    0.33846E+05        -0.50000E+08         0.00000E+00
    0.00000E+00         0.00000E+00        -0.49987E+08
 
   -0.49975E+08         0.38208E+05         0.00000E+00
    0.38208E+05        -0.50000E+08         0.00000E+00
    0.00000E+00         0.00000E+00        -0.49987E+08
 
   -0.49975E+08         0.42527E+05         0.00000E+00
    0.42527E+05        -0.50000E+08         0.00000E+00
    0.00000E+00         0.00000E+00        -0.49988E+08
 
   -0.49975E+08         0.46801E+05         0.00000E+00
    0.46801E+05        -0.50000E+08         0.00000E+00
    0.00000E+00         0.00000E+00        -0.49988E+08
 
   -0.49976E+08         0.51028E+05         0.00000E+00
    0.51028E+05        -0.50000E+08         0.00000E+00
    0.00000E+00         0.00000E+00        -0.49988E+08
 
   -0.49976E+08         0.55204E+05         0.00000E+00
    0.55204E+05        -0.50000E+08         0.00000E+00
    0.00000E+00         0.00000E+00        -0.49988E+08
 
   -0.49976E+08         0.59329E+05         0.00000E+00
    0.59329E+05        -0.49999E+08         0.00000E+00
    0.00000E+00         0.00000E+00        -0.49988E+08
 
   -0.49976E+08         0.63400E+05         0.00000E+00
    0.63400E+05        -0.49999E+08         0.00000E+00
    0.00000E+00         0.00000E+00        -0.49988E+08
 
   -0.49977E+08         0.67416E+05         0.00000E+00
    0.67416E+05        -0.49999E+08         0.00000E+00
    0.00000E+00         0.00000E+00        -0.49988E+08
 
   -0.49977E+08         0.71373E+05         0.00000E+00
    0.71373E+05        -0.49999E+08         0.00000E+00
    0.00000E+00         0.00000E+00        -0.49988E+08
 
   -0.49977E+08         0.75270E+05         0.00000E+00
    0.75270E+05        -0.49999E+08         0.00000E+00
    0.00000E+00         0.00000E+00        -0.49988E+08
 
   -0.49978E+08         0.79106E+05         0.00000E+00
    0.79106E+05        -0.49999E+08         0.00000E+00
    0.00000E+00         0.00000E+00        -0.49988E+08
 
   -0.49978E+08         0.82878E+05         0.00000E+00
    0.82878E+05        -0.49999E+08         0.00000E+00
    0.00000E+00         0.00000E+00        -0.49989E+08
 
   -0.49979E+08         0.86584E+05         0.00000E+00
    0.86584E+05        -0.49999E+08         0.00000E+00
    0.00000E+00         0.00000E+00        -0.49989E+08
 
   -0.49979E+08         0.90224E+05         0.00000E+00
    0.90224E+05        -0.49999E+08         0.00000E+00
    0.00000E+00         0.00000E+00        -0.49989E+08
 
   -0.49979E+08         0.93795E+05         0.00000E+00
    0.93795E+05        -0.49999E+08         0.00000E+00
    0.00000E+00         0.00000E+00        -0.49989E+08
 
   -0.49980E+08         0.97297E+05         0.00000E+00
    0.97297E+05        -0.49998E+08         0.00000E+00
    0.00000E+00         0.00000E+00        -0.49989E+08
 
   -0.49980E+08         0.10073E+06         0.00000E+00
    0.10073E+06        -0.49998E+08         0.00000E+00
    0.00000E+00         0.00000E+00        -0.49989E+08
 
   -0.49981E+08         0.10408E+06         0.00000E+00
    0.10408E+06        -0.49998E+08         0.00000E+00
    0.00000E+00         0.00000E+00        -0.49989E+08
 
   -0.49981E+08         0.10736E+06         0.00000E+00
    0.10736E+06        -0.49998E+08         0.00000E+00
    0.00000E+00         0.00000E+00        -0.49990E+08
 
   -0.49982E+08         0.11057E+06         0.00000E+00
    0.11057E+06        -0.49998E+08         0.00000E+00
    0.00000E+00         0.00000E+00        -0.49990E+08
 
   -0.49982E+08         0.11370E+06         0.00000E+00
    0.11370E+06        -0.49998E+08         0.00000E+00
    0.00000E+00         0.00000E+00        -0.49990E+08
 
   -0.49982E+08         0.11675E+06         0.00000E+00
    0.11675E+06        -0.49998E+08         0.00000E+00
    0.00000E+00         0.00000E+00        -0.49990E+08
 
   -0.49983E+08         0.11972E+06         0.00000E+00
    0.11972E+06        -0.49997E+08         0.00000E+00
    0.00000E+00         0.00000E+00        -0.49990E+08
 
   -0.49983E+08         0.12262E+06         0.00000E+00
    0.12262E+06        -0.49997E+08         0.00000E+00
    0.00000E+00         0.00000E+00        -0.49990E+08
 
   -0.49984E+08         0.12543E+06         0.00000E+00
    0.12543E+06        -0.49997E+08         0.00000E+00
    0.00000E+00         0.00000E+00        -0.49990E+08
 
   -0.49984E+08         0.12816E+06         0.00000E+00
    0.12816E+06        -0.49997E+08         0.00000E+00
    0.00000E+00         0.00000E+00        -0.49990E+08
 
   -0.49985E+08         0.13080E+06         0.00000E+00
    0.13080E+06        -0.49997E+08         0.00000E+00
    0.00000E+00         0.00000E+00        -0.49991E+08
 
   -0.49985E+08         0.13337E+06         0.00000E+00
    0.13337E+06        -0.49997E+08         0.00000E+00
    0.00000E+00         0.00000E+00        -0.49991E+08
 
   -0.49986E+08         0.13585E+06         0.00000E+00
    0.13585E+06        -0.49996E+08         0.00000E+00
    0.00000E+00         0.00000E+00        -0.49991E+08
 
   -0.49986E+08         0.13824E+06         0.00000E+00
    0.13824E+06        -0.49996E+08         0.00000E+00
    0.00000E+00         0.00000E+00        -0.49991E+08
 
   -0.49987E+08         0.14055E+06         0.00000E+00
    0.14055E+06        -0.49996E+08         0.00000E+00
    0.00000E+00         0.00000E+00        -0.49991E+08
 
   -0.49987E+08         0.14278E+06         0.00000E+00
    0.14278E+06        -0.49996E+08         0.00000E+00
    0.00000E+00         0.00000E+00        -0.49991E+08
 
   -0.49988E+08         0.14492E+06         0.00000E+00
    0.14492E+06        -0.49996E+08         0.00000E+00
    0.00000E+00         0.00000E+00        -0.49991E+08
 
   -0.49988E+08         0.14698E+06         0.00000E+00
    0.14698E+06        -0.49996E+08         0.00000E+00
    0.00000E+00         0.00000E+00        -0.49992E+08
 
   -0.49989E+08         0.14895E+06         0.00000E+00
    0.14895E+06        -0.49995E+08         0.00000E+00
    0.00000E+00         0.00000E+00        -0.49992E+08
 
   -0.49989E+08         0.15084E+06         0.00000E+00
    0.15084E+06        -0.49995E+08         0.00000E+00
    0.00000E+00         0.00000E+00        -0.49992E+08
 
   -0.49990E+08         0.15264E+06         0.00000E+00
    0.15264E+06        -0.49995E+08         0.00000E+00
    0.00000E+00         0.00000E+00        -0.49992E+08
 
   -0.49990E+08         0.15436E+06         0.00000E+00
    0.15436E+06        -0.49995E+08         0.00000E+00
    0.00000E+00         0.00000E+00        -0.49992E+08
 
   -0.49991E+08         0.15600E+06         0.00000E+00
    0.15600E+06        -0.49995E+08         0.00000E+00
    0.00000E+00         0.00000E+00        -0.49992E+08
 
   -0.49991E+08         0.15755E+06         0.00000E+00
    0.15755E+06        -0.49994E+08         0.00000E+00
    0.00000E+00         0.00000E+00        -0.49992E+08
 
   -0.49992E+08         0.15903E+06         0.00000E+00
    0.15903E+06        -0.49994E+08         0.00000E+00
    0.00000E+00         0.00000E+00        -0.49992E+08
 
   -0.49992E+08         0.16042E+06         0.00000E+00
    0.16042E+06        -0.49994E+08         0.00000E+00
    0.00000E+00         0.00000E+00        -0.49992E+08
 
   -0.49950E+08         0.23421E+04         0.00000E+00
    0.23421E+04        -0.50000E+08         0.00000E+00
    0.00000E+00         0.00000E+00        -0.49976E+08
 
   -0.49950E+08         0.69762E+04         0.00000E+00
    0.69762E+04        -0.50000E+08         0.00000E+00
    0.00000E+00         0.00000E+00        -0.49976E+08
 
   -0.49951E+08         0.11585E+05         0.00000E+00
    0.11585E+05        -0.50000E+08         0.00000E+00
    0.00000E+00         0.00000E+00        -0.49976E+08
 
   -0.49951E+08         0.16166E+05         0.00000E+00
    0.16166E+05        -0.50000E+08         0.00000E+00
    0.00000E+00         0.00000E+00        -0.49976E+08
 
   -0.49951E+08         0.20717E+05         0.00000E+00
    0.20717E+05        -0.50000E+08         0.00000E+00
    0.00000E+00         0.00000E+00        -0.49976E+08
 
   -0.49952E+08         0.25234E+05         0.00000E+00
    0.25234E+05        -0.50000E+08         0.00000E+00
    0.00000E+00         0.00000E+00        -0.49976E+08
 
   -0.49952E+08         0.29715E+05         0.00000E+00
    0.29715E+05        -0.50000E+08         0.00000E+00
    0.00000E+00         0.00000E+00        -0.49976E+08
 
   -0.49953E+08         0.34158E+05         0.00000E+00
    0.34158E+05        -0.50000E+08         0.00000E+00
    0.00000E+00         0.00000E+00        -0.49976E+08
 
   -0.49953E+08         0.38560E+05         0.00000E+00
    0.38560E+05        -0.50000E+08         0.00000E+00
    0.00000E+00         0.00000E+00        -0.49977E+08
 
   -0.49953E+08         0.42919E+05         0.00000E+00
    0.42919E+05        -0.50000E+08         0.00000E+00
    0.00000E+00         0.00000E+00        -0.49977E+08
 
   -0.49954E+08         0.47232E+05         0.00000E+00
    0.47232E+05        -0.49999E+08         0.00000E+00
    0.00000E+00         0.00000E+00        -0.49977E+08
 
   -0.49954E+08         0.51497E+05         0.00000E+00
    0.51497E+05        -0.49999E+08         0.00000E+00
    0.00000E+00         0.00000E+00        -0.49977E+08
 
   -0.49955E+08         0.55712E+05         0.00000E+00
    0.55712E+05        -0.49999E+08         0.00000E+00
    0.00000E+00         0.00000E+00        -0.49977E+08
 
   -0.49956E+08         0.59875E+05         0.00000E+00
    0.59875E+05        -0.49999E+08         0.00000E+00
    0.00000E+00         0.00000E+00        -0.49977E+08
 
   -0.49956E+08         0.63983E+05         0.00000E+00
    0.63983E+05        -0.49999E+08         0.00000E+00
    0.00000E+00         0.00000E+00        -0.49978E+08
 
   -0.49957E+08         0.68035E+05         0.00000E+00
    0.68035E+05        -0.49999E+08         0.00000E+00
    0.00000E+00         0.00000E+00        -0.49978E+08
 
   -0.49957E+08         0.72028E+05         0.00000E+00
    0.72028E+05        -0.49999E+08         0.00000E+00
    0.00000E+00         0.00000E+00        -0.49978E+08
 
   -0.49958E+08         0.75961E+05         0.00000E+00
    0.75961E+05        -0.49998E+08         0.00000E+00
    0.00000E+00         0.00000E+00        -0.49978E+08
 
   -0.49959E+08         0.79831E+05         0.00000E+00
    0.79831E+05        -0.49998E+08         0.00000E+00
    0.00000E+00         0.00000E+00        -0.49979E+08
 
   -0.49959E+08         0.83637E+05         0.00000E+00
    0.83637E+05        -0.49998E+08         0.00000E+00
    0.00000E+00         0.00000E+00        -0.49979E+08
 
   -0.49960E+08         0.87377E+05         0.00000E+00
    0.87377E+05        -0.49998E+08         0.00000E+00
    0.00000E+00         0.00000E+00        -0.49979E+08
 
   -0.49961E+08         0.91050E+05         0.00000E+00
    0.91050E+05        -0.49998E+08         0.00000E+00
    0.00000E+00         0.00000E+00        -0.49979E+08
 
   -0.49962E+08         0.94654E+05         0.00000E+00
    0.94654E+05        -0.49997E+08         0.00000E+00
    0.00000E+00         0.00000E+00        -0.49979E+08
 
   -0.49962E+08         0.98186E+05         0.00000E+00
    0.98186E+05        -0.49997E+08         0.00000E+00
    0.00000E+00         0.00000E+00        -0.49980E+08
 
   -0.49963E+08         0.10165E+06         0.00000E+00
    0.10165E+06        -0.49997E+08         0.00000E+00
    0.00000E+00         0.00000E+00        -0.49980E+08
 
   -0.49964E+08         0.10503E+06         0.00000E+00
    0.10503E+06        -0.49997E+08         0.00000E+00
    0.00000E+00         0.00000E+00        -0.49980E+08
 
   -0.49965E+08         0.10834E+06         0.00000E+00
    0.10834E+06        -0.49996E+08         0.00000E+00
    0.00000E+00         0.00000E+00        -0.49981E+08
 
   -0.49966E+08         0.11158E+06         0.00000E+00
    0.11158E+06        -0.49996E+08         0.00000E+00
    0.00000E+00         0.00000E+00        -0.49981E+08
 
   -0.49966E+08         0.11474E+06         0.00000E+00
    0.11474E+06        -0.49996E+08         0.00000E+00
    0.00000E+00         0.00000E+00        -0.49981E+08
 
   -0.49967E+08         0.11782E+06         0.00000E+00
    0.11782E+06        -0.49996E+08         0.00000E+00
    0.00000E+00         0.00000E+00        -0.49981E+08
 
   -0.49968E+08         0.12081E+06         0.00000E+00
    0.12081E+06        -0.49995E+08         0.00000E+00
    0.00000E+00         0.00000E+00        -0.49982E+08
 
   -0.49969E+08         0.12373E+06         0.00000E+00
    0.12373E+06        -0.49995E+08         0.00000E+00
    0.00000E+00         0.00000E+00        -0.49982E+08
 
   -0.49970E+08         0.12657E+06         0.00000E+00
    0.12657E+06        -0.49995E+08         0.00000E+00
    0.00000E+00         0.00000E+00        -0.49982E+08
 
   -0.49971E+08         0.12932E+06         0.00000E+00
    0.12932E+06        -0.49994E+08         0.00000E+00
    0.00000E+00         0.00000E+00        -0.49982E+08
 
   -0.49972E+08         0.13199E+06         0.00000E+00
    0.13199E+06        -0.49994E+08         0.00000E+00
    0.00000E+00         0.00000E+00        -0.49983E+08
 
   -0.49973E+08         0.13458E+06         0.00000E+00
    0.13458E+06        -0.49994E+08         0.00000E+00
    0.00000E+00         0.00000E+00        -0.49983E+08
 
   -0.49973E+08         0.13708E+06         0.00000E+00
    0.13708E+06        -0.49994E+08         0.00000E+00
    0.00000E+00         0.00000E+00        -0.49983E+08
 
   -0.49974E+08         0.13950E+06         0.00000E+00
    0.13950E+06        -0.49993E+08         0.00000E+00
    0.00000E+00         0.00000E+00        -0.49983E+08
 
   -0.49975E+08         0.14183E+06         0.00000E+00
    0.14183E+06        -0.49993E+08         0.00000E+00
    0.00000E+00         0.00000E+00        -0.49984E+08
 
   -0.49976E+08         0.14407E+06         0.00000E+00
    0.14407E+06        -0.49993E+08         0.00000E+00
    0.00000E+00         0.00000E+00        -0.49984E+08
 
   -0.49977E+08         0.14623E+06         0.00000E+00
    0.14623E+06        -0.49992E+08         0.00000E+00
    0.00000E+00         0.00000E+00        -0.49984E+08
 
   -0.49978E+08         0.14831E+06         0.00000E+00
    0.14831E+06        -0.49992E+08         0.00000E+00
    0.00000E+00         0.00000E+00        -0.49984E+08
 
   -0.49979E+08         0.15030E+06         0.00000E+00
    0.15030E+06        -0.49992E+08         0.00000E+00
    0.00000E+00         0.00000E+00        -0.49984E+08
 
   -0.49980E+08         0.15220E+06         0.00000E+00
    0.15220E+06        -0.49991E+08         0.00000E+00
    0.00000E+00         0.00000E+00        -0.49985E+08
 
   -0.49981E+08         0.15402E+06         0.00000E+00
    0.15402E+06        -0.49991E+08         0.00000E+00
    0.00000E+00         0.00000E+00        -0.49985E+08
 
   -0.49982E+08         0.15576E+06         0.00000E+00
    0.15576E+06        -0.49990E+08         0.00000E+00
    0.00000E+00         0.00000E+00        -0.49985E+08
 
   -0.49983E+08         0.15741E+06         0.00000E+00
    0.15741E+06        -0.49990E+08         0.00000E+00
    0.00000E+00         0.00000E+00        -0.49985E+08
 
   -0.49983E+08         0.15898E+06         0.00000E+00
    0.15898E+06        -0.49990E+08         0.00000E+00
    0.00000E+00         0.00000E+00        -0.49985E+08
 
   -0.49984E+08         0.16046E+06         0.00000E+00
    0.16046E+06        -0.49989E+08         0.00000E+00
    0.00000E+00         0.00000E+00        -0.49985E+08
 
   -0.49985E+08         0.16187E+06         0.00000E+00
    0.16187E+06        -0.49989E+08         0.00000E+00
    0.00000E+00         0.00000E+00        -0.49986E+08
 
   -0.49927E+08         0.23760E+04         0.00000E+00
    0.23760E+04        -0.50000E+08         0.00000E+00
    0.00000E+00         0.00000E+00        -0.49964E+08
 
   -0.49927E+08         0.70769E+04         0.00000E+00
    0.70769E+04        -0.50000E+08         0.00000E+00
    0.00000E+00         0.00000E+00        -0.49964E+08
 
   -0.49928E+08         0.11752E+05         0.00000E+00
    0.11752E+05        -0.50000E+08         0.00000E+00
    0.00000E+00         0.00000E+00        -0.49965E+08
 
   -0.49928E+08         0.16399E+05         0.00000E+00
    0.16399E+05        -0.50000E+08         0.00000E+00
    0.00000E+00         0.00000E+00        -0.49965E+08
 
   -0.49929E+08         0.21015E+05         0.00000E+00
    0.21015E+05        -0.50000E+08         0.00000E+00
    0.00000E+00         0.00000E+00        -0.49965E+08
 
   -0.49929E+08         0.25597E+05         0.00000E+00
    0.25597E+05        -0.50000E+08         0.00000E+00
    0.00000E+00         0.00000E+00        -0.49965E+08
 
   -0.49930E+08         0.30143E+05         0.00000E+00
    0.30143E+05        -0.50000E+08         0.00000E+00
    0.00000E+00         0.00000E+00        -0.49965E+08
 
   -0.49930E+08         0.34650E+05         0.00000E+00
    0.34650E+05        -0.50000E+08         0.00000E+00
    0.00000E+00         0.00000E+00        -0.49965E+08
 
   -0.49931E+08         0.39116E+05         0.00000E+00
    0.39116E+05        -0.49999E+08         0.00000E+00
    0.00000E+00         0.00000E+00        -0.49966E+08
 
   -0.49932E+08         0.43537E+05         0.00000E+00
    0.43537E+05        -0.49999E+08         0.00000E+00
    0.00000E+00         0.00000E+00        -0.49966E+08
 
   -0.49932E+08         0.47912E+05         0.00000E+00
    0.47912E+05        -0.49999E+08         0.00000E+00
    0.00000E+00         0.00000E+00        -0.49966E+08
 
   -0.49933E+08         0.52239E+05         0.00000E+00
    0.52239E+05        -0.49999E+08         0.00000E+00
    0.00000E+00         0.00000E+00        -0.49966E+08
 
   -0.49934E+08         0.56515E+05         0.00000E+00
    0.56515E+05        -0.49999E+08         0.00000E+00
    0.00000E+00         0.00000E+00        -0.49967E+08
 
   -0.49935E+08         0.60737E+05         0.00000E+00
    0.60737E+05        -0.49999E+08         0.00000E+00
    0.00000E+00         0.00000E+00        -0.49967E+08
 
   -0.49936E+08         0.64905E+05         0.00000E+00
    0.64905E+05        -0.49998E+08         0.00000E+00
    0.00000E+00         0.00000E+00        -0.49967E+08
 
   -0.49937E+08         0.69015E+05         0.00000E+00
    0.69015E+05        -0.49998E+08         0.00000E+00
    0.00000E+00         0.00000E+00        -0.49968E+08
 
   -0.49937E+08         0.73065E+05         0.00000E+00
    0.73065E+05        -0.49998E+08         0.00000E+00
    0.00000E+00         0.00000E+00        -0.49968E+08
 
   -0.49938E+08         0.77055E+05         0.00000E+00
    0.77055E+05        -0.49998E+08         0.00000E+00
    0.00000E+00         0.00000E+00        -0.49968E+08
 
   -0.49939E+08         0.80981E+05         0.00000E+00
    0.80981E+05        -0.49997E+08         0.00000E+00
    0.00000E+00         0.00000E+00        -0.49968E+08
 
   -0.49940E+08         0.84842E+05         0.00000E+00
    0.84842E+05        -0.49997E+08         0.00000E+00
    0.00000E+00         0.00000E+00        -0.49969E+08
 
   -0.49941E+08         0.88636E+05         0.00000E+00
    0.88636E+05        -0.49997E+08         0.00000E+00
    0.00000E+00         0.00000E+00        -0.49969E+08
 
   -0.49943E+08         0.92362E+05         0.00000E+00
    0.92362E+05        -0.49997E+08         0.00000E+00
    0.00000E+00         0.00000E+00        -0.49970E+08
 
   -0.49944E+08         0.96017E+05         0.00000E+00
    0.96017E+05        -0.49996E+08         0.00000E+00
    0.00000E+00         0.00000E+00        -0.49970E+08
 
   -0.49945E+08         0.99601E+05         0.00000E+00
    0.99601E+05        -0.49996E+08         0.00000E+00
    0.00000E+00         0.00000E+00        -0.49970E+08
 
   -0.49946E+08         0.10311E+06         0.00000E+00
    0.10311E+06        -0.49996E+08         0.00000E+00
    0.00000E+00         0.00000E+00        -0.49971E+08
 
   -0.49947E+08         0.10655E+06         0.00000E+00
    0.10655E+06        -0.49995E+08         0.00000E+00
    0.00000E+00         0.00000E+00        -0.49971E+08
 
   -0.49948E+08         0.10991E+06         0.00000E+00
    0.10991E+06        -0.49995E+08         0.00000E+00
    0.00000E+00         0.00000E+00        -0.49971E+08
 
   -0.49950E+08         0.11319E+06         0.00000E+00
    0.11319E+06        -0.49994E+08         0.00000E+00
    0.00000E+00         0.00000E+00        -0.49972E+08
 
   -0.49951E+08         0.11639E+06         0.00000E+00
    0.11639E+06        -0.49994E+08         0.00000E+00
    0.00000E+00         0.00000E+00        -0.49972E+08
 
   -0.49952E+08         0.11951E+06         0.00000E+00
    0.11951E+06        -0.49994E+08         0.00000E+00
    0.00000E+00         0.00000E+00        -0.49973E+08
 
   -0.49953E+08         0.12256E+06         0.00000E+00
    0.12256E+06        -0.49993E+08         0.00000E+00
    0.00000E+00         0.00000E+00        -0.49973E+08
 
   -0.49955E+08         0.12552E+06         0.00000E+00
    0.12552E+06        -0.49993E+08         0.00000E+00
    0.00000E+00         0.00000E+00        -0.49973E+08
 
   -0.49956E+08         0.12839E+06         0.00000E+00
    0.12839E+06        -0.49992E+08         0.00000E+00
    0.00000E+00         0.00000E+00        -0.49974E+08
 
   -0.49957E+08         0.13119E+06         0.00000E+00
    0.13119E+06        -0.49992E+08         0.00000E+00
    0.00000E+00         0.00000E+00        -0.49974E+08
 
   -0.49958E+08         0.13389E+06         0.00000E+00
    0.13389E+06        -0.49992E+08         0.00000E+00
    0.00000E+00         0.00000E+00        -0.49975E+08
 
   -0.49960E+08         0.13652E+06         0.00000E+00
    0.13652E+06        -0.49991E+08         0.00000E+00
    0.00000E+00         0.00000E+00        -0.49975E+08
 
   -0.49961E+08         0.13906E+06         0.00000E+00
    0.13906E+06        -0.49991E+08         0.00000E+00
    0.00000E+00         0.00000E+00        -0.49975E+08
 
   -0.49962E+08         0.14151E+06         0.00000E+00
    0.14151E+06        -0.49990E+08         0.00000E+00
    0.00000E+00         0.00000E+00        -0.49976E+08
 
   -0.49964E+08         0.14387E+06         0.00000E+00
    0.14387E+06        -0.49990E+08         0.00000E+00
    0.00000E+00         0.00000E+00        -0.49976E+08
 
   -0.49965E+08         0.14615E+06         0.00000E+00
    0.14615E+06        -0.49989E+08         0.00000E+00
    0.00000E+00         0.00000E+00        -0.49976E+08
 
   -0.49966E+08         0.14834E+06         0.00000E+00
    0.14834E+06        -0.49989E+08         0.00000E+00
    0.00000E+00         0.00000E+00        -0.49977E+08
 
   -0.49968E+08         0.15045E+06         0.00000E+00
    0.15045E+06        -0.49988E+08         0.00000E+00
    0.00000E+00         0.00000E+00        -0.49977E+08
 
   -0.49969E+08         0.15247E+06         0.00000E+00
    0.15247E+06        -0.49988E+08         0.00000E+00
    0.00000E+00         0.00000E+00        -0.49977E+08
 
   -0.49971E+08         0.15440E+06         0.00000E+00
    0.15440E+06        -0.49987E+08         0.00000E+00
    0.00000E+00         0.00000E+00        -0.49978E+08
 
   -0.49972E+08         0.15624E+06         0.00000E+00
    0.15624E+06        -0.49987E+08         0.00000E+00
    0.00000E+00         0.00000E+00        -0.49978E+08
 
   -0.49973E+08         0.15800E+06         0.00000E+00
    0.15800E+06        -0.49986E+08         0.00000E+00
    0.00000E+00         0.00000E+00        -0.49978E+08
 
   -0.49974E+08         0.15968E+06         0.00000E+00
    0.15968E+06        -0.49986E+08         0.00000E+00
    0.00000E+00         0.00000E+00        -0.49978E+08
 
   -0.49976E+08         0.16127E+06         0.00000E+00
    0.16127E+06        -0.49985E+08         0.00000E+00
    0.00000E+00         0.00000E+00        -0.49979E+08
 
   -0.49977E+08         0.16278E+06         0.00000E+00
    0.16278E+06        -0.49984E+08         0.00000E+00
    0.00000E+00         0.00000E+00        -0.49979E+08
 
   -0.49978E+08         0.16420E+06         0.00000E+00
    0.16420E+06        -0.49984E+08         0.00000E+00
    0.00000E+00         0.00000E+00        -0.49979E+08
 
   -0.49903E+08         0.24224E+04         0.00000E+00
    0.24224E+04        -0.50000E+08         0.00000E+00
    0.00000E+00         0.00000E+00        -0.49953E+08
 
   -0.49904E+08         0.72149E+04         0.00000E+00
    0.72149E+04        -0.50000E+08         0.00000E+00
    0.00000E+00         0.00000E+00        -0.49953E+08
 
   -0.49904E+08         0.11981E+05         0.00000E+00
    0.11981E+05        -0.50000E+08         0.00000E+00
    0.00000E+00         0.00000E+00        -0.49953E+08
 
   -0.49905E+08         0.16719E+05         0.00000E+00
    0.16719E+05        -0.50000E+08         0.00000E+00
    0.00000E+00         0.00000E+00        -0.49953E+08
 
   -0.49905E+08         0.21425E+05         0.00000E+00
    0.21425E+05        -0.50000E+08         0.00000E+00
    0.00000E+00         0.00000E+00        -0.49953E+08
 
   -0.49906E+08         0.26096E+05         0.00000E+00
    0.26096E+05        -0.50000E+08         0.00000E+00
    0.00000E+00         0.00000E+00        -0.49954E+08
 
   -0.49907E+08         0.30730E+05         0.00000E+00
    0.30730E+05        -0.50000E+08         0.00000E+00
    0.00000E+00         0.00000E+00        -0.49954E+08
 
   -0.49908E+08         0.35325E+05         0.00000E+00
    0.35325E+05        -0.49999E+08         0.00000E+00
    0.00000E+00         0.00000E+00        -0.49954E+08
 
   -0.49909E+08         0.39877E+05         0.00000E+00
    0.39877E+05        -0.49999E+08         0.00000E+00
    0.00000E+00         0.00000E+00        -0.49954E+08
 
   -0.49909E+08         0.44385E+05         0.00000E+00
    0.44385E+05        -0.49999E+08         0.00000E+00
    0.00000E+00         0.00000E+00        -0.49955E+08
 
   -0.49910E+08         0.48845E+05         0.00000E+00
    0.48845E+05        -0.49999E+08         0.00000E+00
    0.00000E+00         0.00000E+00        -0.49955E+08
 
   -0.49911E+08         0.53256E+05         0.00000E+00
    0.53256E+05        -0.49999E+08         0.00000E+00
    0.00000E+00         0.00000E+00        -0.49955E+08
 
   -0.49912E+08         0.57615E+05         0.00000E+00
    0.57615E+05        -0.49998E+08         0.00000E+00
    0.00000E+00         0.00000E+00        -0.49956E+08
 
   -0.49914E+08         0.61920E+05         0.00000E+00
    0.61920E+05        -0.49998E+08         0.00000E+00
    0.00000E+00         0.00000E+00        -0.49956E+08
 
   -0.49915E+08         0.66169E+05         0.00000E+00
    0.66169E+05        -0.49998E+08         0.00000E+00
    0.00000E+00         0.00000E+00        -0.49957E+08
 
   -0.49916E+08         0.70360E+05         0.00000E+00
    0.70360E+05        -0.49998E+08         0.00000E+00
    0.00000E+00         0.00000E+00        -0.49957E+08
 
   -0.49917E+08         0.74490E+05         0.00000E+00
    0.74490E+05        -0.49997E+08         0.00000E+00
    0.00000E+00         0.00000E+00        -0.49957E+08
 
   -0.49918E+08         0.78557E+05         0.00000E+00
    0.78557E+05        -0.49997E+08         0.00000E+00
    0.00000E+00         0.00000E+00        -0.49958E+08
 
   -0.49920E+08         0.82560E+05         0.00000E+00
    0.82560E+05        -0.49997E+08         0.00000E+00
    0.00000E+00         0.00000E+00        -0.49958E+08
 
   -0.49921E+08         0.86497E+05         0.00000E+00
    0.86497E+05        -0.49996E+08         0.00000E+00
    0.00000E+00         0.00000E+00        -0.49959E+08
 
   -0.49923E+08         0.90366E+05         0.00000E+00
    0.90366E+05        -0.49996E+08         0.00000E+00
    0.00000E+00         0.00000E+00        -0.49959E+08
 
   -0.49924E+08         0.94165E+05         0.00000E+00
    0.94165E+05        -0.49995E+08         0.00000E+00
    0.00000E+00         0.00000E+00        -0.49960E+08
 
   -0.49925E+08         0.97893E+05         0.00000E+00
    0.97893E+05        -0.49995E+08         0.00000E+00
    0.00000E+00         0.00000E+00        -0.49960E+08
 
   -0.49927E+08         0.10155E+06         0.00000E+00
    0.10155E+06        -0.49995E+08         0.00000E+00
    0.00000E+00         0.00000E+00        -0.49961E+08
 
   -0.49928E+08         0.10513E+06         0.00000E+00
    0.10513E+06        -0.49994E+08         0.00000E+00
    0.00000E+00         0.00000E+00        -0.49961E+08
 
   -0.49930E+08         0.10863E+06         0.00000E+00
    0.10863E+06        -0.49994E+08         0.00000E+00
    0.00000E+00         0.00000E+00        -0.49962E+08
 
   -0.49932E+08         0.11206E+06         0.00000E+00
    0.11206E+06        -0.49993E+08         0.00000E+00
    0.00000E+00         0.00000E+00        -0.49962E+08
 
   -0.49933E+08         0.11540E+06         0.00000E+00
    0.11540E+06        -0.49993E+08         0.00000E+00
    0.00000E+00         0.00000E+00        -0.49963E+08
 
   -0.49935E+08         0.11867E+06         0.00000E+00
    0.11867E+06        -0.49992E+08         0.00000E+00
    0.00000E+00         0.00000E+00        -0.49963E+08
 
   -0.49936E+08         0.12185E+06         0.00000E+00
    0.12185E+06        -0.49992E+08         0.00000E+00
    0.00000E+00         0.00000E+00        -0.49964E+08
 
   -0.49938E+08         0.12496E+06         0.00000E+00
    0.12496E+06        -0.49991E+08         0.00000E+00
    0.00000E+00         0.00000E+00        -0.49964E+08
 
   -0.49940E+08         0.12798E+06         0.00000E+00
    0.12798E+06        -0.49991E+08         0.00000E+00
    0.00000E+00         0.00000E+00        -0.49965E+08
 
   -0.49942E+08         0.13091E+06         0.00000E+00
    0.13091E+06        -0.49990E+08         0.00000E+00
    0.00000E+00         0.00000E+00        -0.49965E+08
 
   -0.49943E+08         0.13376E+06         0.00000E+00
    0.13376E+06        -0.49989E+08         0.00000E+00
    0.00000E+00         0.00000E+00        -0.49966E+08
 
   -0.49945E+08         0.13652E+06         0.00000E+00
    0.13652E+06        -0.49989E+08         0.00000E+00
    0.00000E+00         0.00000E+00        -0.49966E+08
 
   -0.49947E+08         0.13920E+06         0.00000E+00
    0.13920E+06        -0.49988E+08         0.00000E+00
    0.00000E+00         0.00000E+00        -0.49967E+08
 
   -0.49949E+08         0.14179E+06         0.00000E+00
    0.14179E+06        -0.49988E+08         0.00000E+00
    0.00000E+00         0.00000E+00        -0.49967E+08
 
   -0.49950E+08         0.14429E+06         0.00000E+00
    0.14429E+06        -0.49987E+08         0.00000E+00
    0.00000E+00         0.00000E+00        -0.49968E+08
 
   -0.49952E+08         0.14670E+06         0.00000E+00
    0.14670E+06        -0.49986E+08         0.00000E+00
    0.00000E+00         0.00000E+00        -0.49968E+08
 
   -0.49954E+08         0.14902E+06         0.00000E+00
    0.14902E+06        -0.49986E+08         0.00000E+00
    0.00000E+00         0.00000E+00        -0.49969E+08
 
   -0.49956E+08         0.15126E+06         0.00000E+00
    0.15126E+06        -0.49985E+08         0.00000E+00
    0.00000E+00         0.00000E+00        -0.49969E+08
 
   -0.49957E+08         0.15340E+06         0.00000E+00
    0.15340E+06        -0.49984E+08         0.00000E+00
    0.00000E+00         0.00000E+00        -0.49970E+08
 
   -0.49959E+08         0.15546E+06         0.00000E+00
    0.15546E+06        -0.49984E+08         0.00000E+00
    0.00000E+00         0.00000E+00        -0.49970E+08
 
   -0.49961E+08         0.15743E+06         0.00000E+00
    0.15743E+06        -0.49983E+08         0.00000E+00
    0.00000E+00         0.00000E+00        -0.49970E+08
 
   -0.49963E+08         0.15931E+06         0.00000E+00
    0.15931E+06        -0.49982E+08         0.00000E+00
    0.00000E+00         0.00000E+00        -0.49971E+08
 
   -0.49964E+08         0.16111E+06         0.00000E+00
    0.16111E+06        -0.49982E+08         0.00000E+00
    0.00000E+00         0.00000E+00        -0.49971E+08
 
   -0.49966E+08         0.16281E+06         0.00000E+00
    0.16281E+06        -0.49981E+08         0.00000E+00
    0.00000E+00         0.00000E+00        -0.49971E+08
 
   -0.49968E+08         0.16444E+06         0.00000E+00
    0.16444E+06        -0.49980E+08         0.00000E+00
    0.00000E+00         0.00000E+00        -0.49972E+08
 
   -0.49970E+08         0.16597E+06         0.00000E+00
    0.16597E+06        -0.49979E+08         0.00000E+00
    0.00000E+00         0.00000E+00        -0.49972E+08
 
   -0.49971E+08         0.16742E+06         0.00000E+00
    0.16742E+06        -0.49979E+08         0.00000E+00
    0.00000E+00         0.00000E+00        -0.49972E+08
 
   -0.49879E+08         0.24815E+04         0.00000E+00
    0.24815E+04        -0.50000E+08         0.00000E+00
    0.00000E+00         0.00000E+00        -0.49941E+08
 
   -0.49879E+08         0.73906E+04         0.00000E+00
    0.73906E+04        -0.50000E+08         0.00000E+00
    0.00000E+00         0.00000E+00        -0.49941E+08
 
   -0.49880E+08         0.12273E+05         0.00000E+00
    0.12273E+05        -0.50000E+08         0.00000E+00
    0.00000E+00         0.00000E+00        -0.49941E+08
 
   -0.49881E+08         0.17126E+05         0.00000E+00
    0.17126E+05        -0.50000E+08         0.00000E+00
    0.00000E+00         0.00000E+00        -0.49942E+08
 
   -0.49882E+08         0.21946E+05         0.00000E+00
    0.21946E+05        -0.50000E+08         0.00000E+00
    0.00000E+00         0.00000E+00        -0.49942E+08
 
   -0.49883E+08         0.26731E+05         0.00000E+00
    0.26731E+05        -0.50000E+08         0.00000E+00
    0.00000E+00         0.00000E+00        -0.49942E+08
 
   -0.49883E+08         0.31478E+05         0.00000E+00
    0.31478E+05        -0.49999E+08         0.00000E+00
    0.00000E+00         0.00000E+00        -0.49942E+08
 
   -0.49884E+08         0.36184E+05         0.00000E+00
    0.36184E+05        -0.49999E+08         0.00000E+00
    0.00000E+00         0.00000E+00        -0.49943E+08
 
   -0.49886E+08         0.40847E+05         0.00000E+00
    0.40847E+05        -0.49999E+08         0.00000E+00
    0.00000E+00         0.00000E+00        -0.49943E+08
 
   -0.49887E+08         0.45465E+05         0.00000E+00
    0.45465E+05        -0.49999E+08         0.00000E+00
    0.00000E+00         0.00000E+00        -0.49943E+08
 
   -0.49888E+08         0.50034E+05         0.00000E+00
    0.50034E+05        -0.49999E+08         0.00000E+00
    0.00000E+00         0.00000E+00        -0.49944E+08
 
   -0.49889E+08         0.54553E+05         0.00000E+00
    0.54553E+05        -0.49998E+08         0.00000E+00
    0.00000E+00         0.00000E+00        -0.49944E+08
 
   -0.49891E+08         0.59018E+05         0.00000E+00
    0.59018E+05        -0.49998E+08         0.00000E+00
    0.00000E+00         0.00000E+00        -0.49945E+08
 
   -0.49892E+08         0.63429E+05         0.00000E+00
    0.63429E+05        -0.49998E+08         0.00000E+00
    0.00000E+00         0.00000E+00        -0.49945E+08
 
   -0.49893E+08         0.67782E+05         0.00000E+00
    0.67782E+05        -0.49997E+08         0.00000E+00
    0.00000E+00         0.00000E+00        -0.49946E+08
 
   -0.49895E+08         0.72075E+05         0.00000E+00
    0.72075E+05        -0.49997E+08         0.00000E+00
    0.00000E+00         0.00000E+00        -0.49946E+08
 
   -0.49896E+08         0.76307E+05         0.00000E+00
    0.76307E+05        -0.49997E+08         0.00000E+00
    0.00000E+00         0.00000E+00        -0.49947E+08
 
   -0.49898E+08         0.80474E+05         0.00000E+00
    0.80474E+05        -0.49996E+08         0.00000E+00
    0.00000E+00         0.00000E+00        -0.49947E+08
 
   -0.49900E+08         0.84576E+05         0.00000E+00
    0.84576E+05        -0.49996E+08         0.00000E+00
    0.00000E+00         0.00000E+00        -0.49948E+08
 
   -0.49901E+08         0.88610E+05         0.00000E+00
    0.88610E+05        -0.49995E+08         0.00000E+00
    0.00000E+00         0.00000E+00        -0.49948E+08
 
   -0.49903E+08         0.92575E+05         0.00000E+00
    0.92575E+05        -0.49995E+08         0.00000E+00
    0.00000E+00         0.00000E+00        -0.49949E+08
 
   -0.49905E+08         0.96468E+05         0.00000E+00
    0.96468E+05        -0.49994E+08         0.00000E+00
    0.00000E+00         0.00000E+00        -0.49950E+08
 
   -0.49907E+08         0.10029E+06         0.00000E+00
    0.10029E+06        -0.49994E+08         0.00000E+00
    0.00000E+00         0.00000E+00        -0.49950E+08
 
   -0.49909E+08         0.10403E+06         0.00000E+00
    0.10403E+06        -0.49993E+08         0.00000E+00
    0.00000E+00         0.00000E+00        -0.49951E+08
 
   -0.49910E+08         0.10770E+06         0.00000E+00
    0.10770E+06        -0.49993E+08         0.00000E+00
    0.00000E+00         0.00000E+00        -0.49951E+08
 
   -0.49912E+08         0.11129E+06         0.00000E+00
    0.11129E+06        -0.49992E+08         0.00000E+00
    0.00000E+00         0.00000E+00        -0.49952E+08
 
   -0.49914E+08         0.11480E+06         0.00000E+00
    0.11480E+06        -0.49992E+08         0.00000E+00
    0.00000E+00         0.00000E+00        -0.49953E+08
 
   -0.49916E+08         0.11824E+06         0.00000E+00
    0.11824E+06        -0.49991E+08         0.00000E+00
    0.00000E+00         0.00000E+00        -0.49953E+08
 
   -0.49918E+08         0.12158E+06         0.00000E+00
    0.12158E+06        -0.49990E+08         0.00000E+00
    0.00000E+00         0.00000E+00        -0.49954E+08
 
   -0.49921E+08         0.12485E+06         0.00000E+00
    0.12485E+06        -0.49990E+08         0.00000E+00
    0.00000E+00         0.00000E+00        -0.49955E+08
 
   -0.49923E+08         0.12803E+06         0.00000E+00
    0.12803E+06        -0.49989E+08         0.00000E+00
    0.00000E+00         0.00000E+00        -0.49955E+08
 
   -0.49925E+08         0.13112E+06         0.00000E+00
    0.13112E+06        -0.49988E+08         0.00000E+00
    0.00000E+00         0.00000E+00        -0.49956E+08
 
   -0.49927E+08         0.13413E+06         0.00000E+00
    0.13413E+06        -0.49988E+08         0.00000E+00
    0.00000E+00         0.00000E+00        -0.49957E+08
 
   -0.49929E+08         0.13705E+06         0.00000E+00
    0.13705E+06        -0.49987E+08         0.00000E+00
    0.00000E+00         0.00000E+00        -0.49957E+08
 
   -0.49931E+08         0.13989E+06         0.00000E+00
    0.13989E+06        -0.49986E+08         0.00000E+00
    0.00000E+00         0.00000E+00        -0.49958E+08
 
   -0.49933E+08         0.14263E+06         0.00000E+00
    0.14263E+06        -0.49985E+08         0.00000E+00
    0.00000E+00         0.00000E+00        -0.49958E+08
 
   -0.49936E+08         0.14528E+06         0.00000E+00
    0.14528E+06        -0.49985E+08         0.00000E+00
    0.00000E+00         0.00000E+00        -0.49959E+08
 
   -0.49938E+08         0.14785E+06         0.00000E+00
    0.14785E+06        -0.49984E+08         0.00000E+00
    0.00000E+00         0.00000E+00        -0.49960E+08
 
   -0.49940E+08         0.15032E+06         0.00000E+00
    0.15032E+06        -0.49983E+08         0.00000E+00
    0.00000E+00         0.00000E+00        -0.49960E+08
 
   -0.49942E+08         0.15270E+06         0.00000E+00
    0.15270E+06        -0.49982E+08         0.00000E+00
    0.00000E+00         0.00000E+00        -0.49961E+08
 
   -0.49945E+08         0.15499E+06         0.00000E+00
    0.15499E+06        -0.49981E+08         0.00000E+00
    0.00000E+00         0.00000E+00        -0.49961E+08
 
   -0.49947E+08         0.15719E+06         0.00000E+00
    0.15719E+06        -0.49980E+08         0.00000E+00
    0.00000E+00         0.00000E+00        -0.49962E+08
 
   -0.49949E+08         0.15930E+06         0.00000E+00
    0.15930E+06        -0.49980E+08         0.00000E+00
    0.00000E+00         0.00000E+00        -0.49962E+08
 
   -0.49951E+08         0.16132E+06         0.00000E+00
    0.16132E+06        -0.49979E+08         0.00000E+00
    0.00000E+00         0.00000E+00        -0.49963E+08
 
   -0.49953E+08         0.16325E+06         0.00000E+00
    0.16325E+06        -0.49978E+08         0.00000E+00
    0.00000E+00         0.00000E+00        -0.49963E+08
 
   -0.49956E+08         0.16509E+06         0.00000E+00
    0.16509E+06        -0.49977E+08         0.00000E+00
    0.00000E+00         0.00000E+00        -0.49964E+08
 
   -0.49958E+08         0.16684E+06         0.00000E+00
    0.16684E+06        -0.49976E+08         0.00000E+00
    0.00000E+00         0.00000E+00        -0.49964E+08
 
   -0.49960E+08         0.16850E+06         0.00000E+00
    0.16850E+06        -0.49975E+08         0.00000E+00
    0.00000E+00         0.00000E+00        -0.49965E+08
 
   -0.49962E+08         0.17007E+06         0.00000E+00
    0.17007E+06        -0.49974E+08         0.00000E+00
    0.00000E+00         0.00000E+00        -0.49965E+08
 
   -0.49964E+08         0.17156E+06         0.00000E+00
    0.17156E+06        -0.49973E+08         0.00000E+00
    0.00000E+00         0.00000E+00        -0.49965E+08
 
   -0.49854E+08         0.25533E+04         0.00000E+00
    0.25533E+04        -0.50000E+08         0.00000E+00
    0.00000E+00         0.00000E+00        -0.49929E+08
 
   -0.49855E+08         0.76044E+04         0.00000E+00
    0.76044E+04        -0.50000E+08         0.00000E+00
    0.00000E+00         0.00000E+00        -0.49929E+08
 
   -0.49855E+08         0.12628E+05         0.00000E+00
    0.12628E+05        -0.50000E+08         0.00000E+00
    0.00000E+00         0.00000E+00        -0.49929E+08
 
   -0.49856E+08         0.17621E+05         0.00000E+00
    0.17621E+05        -0.50000E+08         0.00000E+00
    0.00000E+00         0.00000E+00        -0.49930E+08
 
   -0.49857E+08         0.22580E+05         0.00000E+00
    0.22580E+05        -0.50000E+08         0.00000E+00
    0.00000E+00         0.00000E+00        -0.49930E+08
 
   -0.49858E+08         0.27504E+05         0.00000E+00
    0.27504E+05        -0.50000E+08         0.00000E+00
    0.00000E+00         0.00000E+00        -0.49930E+08
 
   -0.49860E+08         0.32388E+05         0.00000E+00
    0.32388E+05        -0.49999E+08         0.00000E+00
    0.00000E+00         0.00000E+00        -0.49931E+08
 
   -0.49861E+08         0.37230E+05         0.00000E+00
    0.37230E+05        -0.49999E+08         0.00000E+00
    0.00000E+00         0.00000E+00        -0.49931E+08
 
   -0.49862E+08         0.42029E+05         0.00000E+00
    0.42029E+05        -0.49999E+08         0.00000E+00
    0.00000E+00         0.00000E+00        -0.49931E+08
 
   -0.49863E+08         0.46780E+05         0.00000E+00
    0.46780E+05        -0.49999E+08         0.00000E+00
    0.00000E+00         0.00000E+00        -0.49932E+08
 
   -0.49865E+08         0.51482E+05         0.00000E+00
    0.51482E+05        -0.49998E+08         0.00000E+00
    0.00000E+00         0.00000E+00        -0.49932E+08
 
   -0.49866E+08         0.56132E+05         0.00000E+00
    0.56132E+05        -0.49998E+08         0.00000E+00
    0.00000E+00         0.00000E+00        -0.49933E+08
 
   -0.49868E+08         0.60728E+05         0.00000E+00
    0.60728E+05        -0.49998E+08         0.00000E+00
    0.00000E+00         0.00000E+00        -0.49933E+08
 
   -0.49870E+08         0.65267E+05         0.00000E+00
    0.65267E+05        -0.49997E+08         0.00000E+00
    0.00000E+00         0.00000E+00        -0.49934E+08
 
   -0.49871E+08         0.69747E+05         0.00000E+00
    0.69747E+05        -0.49997E+08         0.00000E+00
    0.00000E+00         0.00000E+00        -0.49935E+08
 
   -0.49873E+08         0.74166E+05         0.00000E+00
    0.74166E+05        -0.49996E+08         0.00000E+00
    0.00000E+00         0.00000E+00        -0.49935E+08
 
   -0.49875E+08         0.78522E+05         0.00000E+00
    0.78522E+05        -0.49996E+08         0.00000E+00
    0.00000E+00         0.00000E+00        -0.49936E+08
 
   -0.49877E+08         0.82813E+05         0.00000E+00
    0.82813E+05        -0.49995E+08         0.00000E+00
    0.00000E+00         0.00000E+00        -0.49936E+08
 
   -0.49879E+08         0.87035E+05         0.00000E+00
    0.87035E+05        -0.49995E+08         0.00000E+00
    0.00000E+00         0.00000E+00        -0.49937E+08
 
   -0.49881E+08         0.91189E+05         0.00000E+00
    0.91189E+05        -0.49994E+08         0.00000E+00
    0.00000E+00         0.00000E+00        -0.49938E+08
 
   -0.49883E+08         0.95271E+05         0.00000E+00
    0.95271E+05        -0.49994E+08         0.00000E+00
    0.00000E+00         0.00000E+00        -0.49939E+08
 
   -0.49885E+08         0.99280E+05         0.00000E+00
    0.99280E+05        -0.49993E+08         0.00000E+00
    0.00000E+00         0.00000E+00        -0.49939E+08
 
   -0.49888E+08         0.10321E+06         0.00000E+00
    0.10321E+06        -0.49993E+08         0.00000E+00
    0.00000E+00         0.00000E+00        -0.49940E+08
 
   -0.49890E+08         0.10707E+06         0.00000E+00
    0.10707E+06        -0.49992E+08         0.00000E+00
    0.00000E+00         0.00000E+00        -0.49941E+08
 
   -0.49892E+08         0.11085E+06         0.00000E+00
    0.11085E+06        -0.49991E+08         0.00000E+00
    0.00000E+00         0.00000E+00        -0.49942E+08
 
   -0.49894E+08         0.11455E+06         0.00000E+00
    0.11455E+06        -0.49991E+08         0.00000E+00
    0.00000E+00         0.00000E+00        -0.49942E+08
 
   -0.49897E+08         0.11817E+06         0.00000E+00
    0.11817E+06        -0.49990E+08         0.00000E+00
    0.00000E+00         0.00000E+00        -0.49943E+08
 
   -0.49899E+08         0.12170E+06         0.00000E+00
    0.12170E+06        -0.49989E+08         0.00000E+00
    0.00000E+00         0.00000E+00        -0.49944E+08
 
   -0.49902E+08         0.12515E+06         0.00000E+00
    0.12515E+06        -0.49988E+08         0.00000E+00
    0.00000E+00         0.00000E+00        -0.49945E+08
 
   -0.49904E+08         0.12851E+06         0.00000E+00
    0.12851E+06        -0.49987E+08         0.00000E+00
    0.00000E+00         0.00000E+00        -0.49945E+08
 
   -0.49907E+08         0.13179E+06         0.00000E+00
    0.13179E+06        -0.49987E+08         0.00000E+00
    0.00000E+00         0.00000E+00        -0.49946E+08
 
   -0.49909E+08         0.13498E+06         0.00000E+00
    0.13498E+06        -0.49986E+08         0.00000E+00
    0.00000E+00         0.00000E+00        -0.49947E+08
 
   -0.49912E+08         0.13808E+06         0.00000E+00
    0.13808E+06        -0.49985E+08         0.00000E+00
    0.00000E+00         0.00000E+00        -0.49948E+08
 
   -0.49914E+08         0.14109E+06         0.00000E+00
    0.14109E+06        -0.49984E+08         0.00000E+00
    0.00000E+00         0.00000E+00        -0.49948E+08
 
   -0.49917E+08         0.14401E+06         0.00000E+00
    0.14401E+06        -0.49983E+08         0.00000E+00
    0.00000E+00         0.00000E+00        -0.49949E+08
 
   -0.49920E+08         0.14683E+06         0.00000E+00
    0.14683E+06        -0.49982E+08         0.00000E+00
    0.00000E+00         0.00000E+00        -0.49950E+08
 
   -0.49922E+08         0.14957E+06         0.00000E+00
    0.14957E+06        -0.49981E+08         0.00000E+00
    0.00000E+00         0.00000E+00        -0.49951E+08
 
   -0.49925E+08         0.15221E+06         0.00000E+00
    0.15221E+06        -0.49980E+08         0.00000E+00
    0.00000E+00         0.00000E+00        -0.49951E+08
 
   -0.49928E+08         0.15476E+06         0.00000E+00
    0.15476E+06        -0.49979E+08         0.00000E+00
    0.00000E+00         0.00000E+00        -0.49952E+08
 
   -0.49930E+08         0.15721E+06         0.00000E+00
    0.15721E+06        -0.49979E+08         0.00000E+00
    0.00000E+00         0.00000E+00        -0.49953E+08
 
   -0.49933E+08         0.15957E+06         0.00000E+00
    0.15957E+06        -0.49978E+08         0.00000E+00
    0.00000E+00         0.00000E+00        -0.49954E+08
 
   -0.49936E+08         0.16184E+06         0.00000E+00
    0.16184E+06        -0.49977E+08         0.00000E+00
    0.00000E+00         0.00000E+00        -0.49954E+08
 
   -0.49939E+08         0.16401E+06         0.00000E+00
    0.16401E+06        -0.49975E+08         0.00000E+00
    0.00000E+00         0.00000E+00        -0.49955E+08
 
   -0.49941E+08         0.16609E+06         0.00000E+00
    0.16609E+06        -0.49974E+08         0.00000E+00
    0.00000E+00         0.00000E+00        -0.49955E+08
 
   -0.49944E+08         0.16808E+06         0.00000E+00
    0.16808E+06        -0.49973E+08         0.00000E+00
    0.00000E+00         0.00000E+00        -0.49956E+08
 
   -0.49947E+08         0.16997E+06         0.00000E+00
    0.16997E+06        -0.49972E+08         0.00000E+00
    0.00000E+00         0.00000E+00        -0.49956E+08
 
   -0.49949E+08         0.17177E+06         0.00000E+00
    0.17177E+06        -0.49971E+08         0.00000E+00
    0.00000E+00         0.00000E+00        -0.49957E+08
 
   -0.49952E+08         0.17348E+06         0.00000E+00
    0.17348E+06        -0.49970E+08         0.00000E+00
    0.00000E+00         0.00000E+00        -0.49957E+08
 
   -0.49954E+08         0.17510E+06         0.00000E+00
    0.17510E+06        -0.49969E+08         0.00000E+00
    0.00000E+00         0.00000E+00        -0.49958E+08
 
   -0.49957E+08         0.17663E+06         0.00000E+00
    0.17663E+06        -0.49968E+08         0.00000E+00
    0.00000E+00         0.00000E+00        -0.49958E+08
 
   -0.49828E+08         0.26381E+04         0.00000E+00
    0.26381E+04        -0.50000E+08         0.00000E+00
    0.00000E+00         0.00000E+00        -0.49916E+08
 
   -0.49829E+08         0.78565E+04         0.00000E+00
    0.78565E+04        -0.50000E+08         0.00000E+00
    0.00000E+00         0.00000E+00        -0.49917E+08
 
   -0.49830E+08         0.13046E+05         0.00000E+00
    0.13046E+05        -0.50000E+08         0.00000E+00
    0.00000E+00         0.00000E+00        -0.49917E+08
 
   -0.49831E+08         0.18205E+05         0.00000E+00
    0.18205E+05        -0.50000E+08         0.00000E+00
    0.00000E+00         0.00000E+00        -0.49917E+08
 
   -0.49832E+08         0.23329E+05         0.00000E+00
    0.23329E+05        -0.50000E+08         0.00000E+00
    0.00000E+00         0.00000E+00        -0.49918E+08
 
   -0.49833E+08         0.28415E+05         0.00000E+00
    0.28415E+05        -0.49999E+08         0.00000E+00
    0.00000E+00         0.00000E+00        -0.49918E+08
 
   -0.49835E+08         0.33462E+05         0.00000E+00
    0.33462E+05        -0.49999E+08         0.00000E+00
    0.00000E+00         0.00000E+00        -0.49918E+08
 
   -0.49836E+08         0.38466E+05         0.00000E+00
    0.38466E+05        -0.49999E+08         0.00000E+00
    0.00000E+00         0.00000E+00        -0.49919E+08
 
   -0.49838E+08         0.43424E+05         0.00000E+00
    0.43424E+05        -0.49999E+08         0.00000E+00
    0.00000E+00         0.00000E+00        -0.49919E+08
 
   -0.49839E+08         0.48333E+05         0.00000E+00
    0.48333E+05        -0.49998E+08         0.00000E+00
    0.00000E+00         0.00000E+00        -0.49920E+08
 
   -0.49841E+08         0.53192E+05         0.00000E+00
    0.53192E+05        -0.49998E+08         0.00000E+00
    0.00000E+00         0.00000E+00        -0.49920E+08
 
   -0.49843E+08         0.57998E+05         0.00000E+00
    0.57998E+05        -0.49998E+08         0.00000E+00
    0.00000E+00         0.00000E+00        -0.49921E+08
 
   -0.49845E+08         0.62748E+05         0.00000E+00
    0.62748E+05        -0.49997E+08         0.00000E+00
    0.00000E+00         0.00000E+00        -0.49922E+08
 
   -0.49847E+08         0.67440E+05         0.00000E+00
    0.67440E+05        -0.49997E+08         0.00000E+00
    0.00000E+00         0.00000E+00        -0.49922E+08
 
   -0.49849E+08         0.72071E+05         0.00000E+00
    0.72071E+05        -0.49996E+08         0.00000E+00
    0.00000E+00         0.00000E+00        -0.49923E+08
 
   -0.49851E+08         0.76640E+05         0.00000E+00
    0.76640E+05        -0.49996E+08         0.00000E+00
    0.00000E+00         0.00000E+00        -0.49924E+08
 
   -0.49853E+08         0.81143E+05         0.00000E+00
    0.81143E+05        -0.49995E+08         0.00000E+00
    0.00000E+00         0.00000E+00        -0.49925E+08
 
   -0.49855E+08         0.85580E+05         0.00000E+00
    0.85580E+05        -0.49995E+08         0.00000E+00
    0.00000E+00         0.00000E+00        -0.49925E+08
 
   -0.49858E+08         0.89946E+05         0.00000E+00
    0.89946E+05        -0.49994E+08         0.00000E+00
    0.00000E+00         0.00000E+00        -0.49926E+08
 
   -0.49860E+08         0.94242E+05         0.00000E+00
    0.94242E+05        -0.49993E+08         0.00000E+00
    0.00000E+00         0.00000E+00        -0.49927E+08
 
   -0.49863E+08         0.98464E+05         0.00000E+00
    0.98464E+05        -0.49993E+08         0.00000E+00
    0.00000E+00         0.00000E+00        -0.49928E+08
 
   -0.49865E+08         0.10261E+06         0.00000E+00
    0.10261E+06        -0.49992E+08         0.00000E+00
    0.00000E+00         0.00000E+00        -0.49929E+08
 
   -0.49868E+08         0.10668E+06         0.00000E+00
    0.10668E+06        -0.49991E+08         0.00000E+00
    0.00000E+00         0.00000E+00        -0.49929E+08
 
   -0.49870E+08         0.11067E+06         0.00000E+00
    0.11067E+06        -0.49991E+08         0.00000E+00
    0.00000E+00         0.00000E+00        -0.49930E+08
 
   -0.49873E+08         0.11458E+06         0.00000E+00
    0.11458E+06        -0.49990E+08         0.00000E+00
    0.00000E+00         0.00000E+00        -0.49931E+08
 
   -0.49876E+08         0.11841E+06         0.00000E+00
    0.11841E+06        -0.49989E+08         0.00000E+00
    0.00000E+00         0.00000E+00        -0.49932E+08
 
   -0.49879E+08         0.12215E+06         0.00000E+00
    0.12215E+06        -0.49988E+08         0.00000E+00
    0.00000E+00         0.00000E+00        -0.49933E+08
 
   -0.49881E+08         0.12581E+06         0.00000E+00
    0.12581E+06        -0.49987E+08         0.00000E+00
    0.00000E+00         0.00000E+00        -0.49934E+08
 
   -0.49884E+08         0.12938E+06         0.00000E+00
    0.12938E+06        -0.49986E+08         0.00000E+00
    0.00000E+00         0.00000E+00        -0.49935E+08
 
   -0.49887E+08         0.13286E+06         0.00000E+00
    0.13286E+06        -0.49985E+08         0.00000E+00
    0.00000E+00         0.00000E+00        -0.49936E+08
 
   -0.49890E+08         0.13625E+06         0.00000E+00
    0.13625E+06        -0.49984E+08         0.00000E+00
    0.00000E+00         0.00000E+00        -0.49937E+08
 
   -0.49893E+08         0.13956E+06         0.00000E+00
    0.13956E+06        -0.49983E+08         0.00000E+00
    0.00000E+00         0.00000E+00        -0.49938E+08
 
   -0.49896E+08         0.14276E+06         0.00000E+00
    0.14276E+06        -0.49982E+08         0.00000E+00
    0.00000E+00         0.00000E+00        -0.49939E+08
 
   -0.49899E+08         0.14588E+06         0.00000E+00
    0.14588E+06        -0.49981E+08         0.00000E+00
    0.00000E+00         0.00000E+00        -0.49939E+08
 
   -0.49902E+08         0.14890E+06         0.00000E+00
    0.14890E+06        -0.49980E+08         0.00000E+00
    0.00000E+00         0.00000E+00        -0.49940E+08
 
   -0.49906E+08         0.15183E+06         0.00000E+00
    0.15183E+06        -0.49979E+08         0.00000E+00
    0.00000E+00         0.00000E+00        -0.49941E+08
 
   -0.49909E+08         0.15466E+06         0.00000E+00
    0.15466E+06        -0.49978E+08         0.00000E+00
    0.00000E+00         0.00000E+00        -0.49942E+08
 
   -0.49912E+08         0.15740E+06         0.00000E+00
    0.15740E+06        -0.49977E+08         0.00000E+00
    0.00000E+00         0.00000E+00        -0.49943E+08
 
   -0.49915E+08         0.16004E+06         0.00000E+00
    0.16004E+06        -0.49976E+08         0.00000E+00
    0.00000E+00         0.00000E+00        -0.49944E+08
 
   -0.49918E+08         0.16258E+06         0.00000E+00
    0.16258E+06        -0.49975E+08         0.00000E+00
    0.00000E+00         0.00000E+00        -0.49945E+08
 
   -0.49921E+08         0.16502E+06         0.00000E+00
    0.16502E+06        -0.49974E+08         0.00000E+00
    0.00000E+00         0.00000E+00        -0.49945E+08
 
   -0.49925E+08         0.16737E+06         0.00000E+00
    0.16737E+06        -0.49972E+08         0.00000E+00
    0.00000E+00         0.00000E+00        -0.49946E+08
 
   -0.49928E+08         0.16962E+06         0.00000E+00
    0.16962E+06        -0.49971E+08         0.00000E+00
    0.00000E+00         0.00000E+00        -0.49947E+08
 
   -0.49931E+08         0.17177E+06         0.00000E+00
    0.17177E+06        -0.49970E+08         0.00000E+00
    0.00000E+00         0.00000E+00        -0.49948E+08
 
   -0.49934E+08         0.17383E+06         0.00000E+00
    0.17383E+06        -0.49969E+08         0.00000E+00
    0.00000E+00         0.00000E+00        -0.49948E+08
 
   -0.49937E+08         0.17579E+06         0.00000E+00
    0.17579E+06        -0.49968E+08         0.00000E+00
    0.00000E+00         0.00000E+00        -0.49949E+08
 
   -0.49940E+08         0.17765E+06         0.00000E+00
    0.17765E+06        -0.49966E+08         0.00000E+00
    0.00000E+00         0.00000E+00        -0.49949E+08
 
   -0.49943E+08         0.17942E+06         0.00000E+00
    0.17942E+06        -0.49965E+08         0.00000E+00
    0.00000E+00         0.00000E+00        -0.49950E+08
 
   -0.49946E+08         0.18110E+06         0.00000E+00
    0.18110E+06        -0.49964E+08         0.00000E+00
    0.00000E+00         0.00000E+00        -0.49950E+08
 
   -0.49949E+08         0.18268E+06         0.00000E+00
    0.18268E+06        -0.49962E+08         0.00000E+00
    0.00000E+00         0.00000E+00        -0.49951E+08
 
   -0.49801E+08         0.27357E+04         0.00000E+00
    0.27357E+04        -0.50000E+08         0.00000E+00
    0.00000E+00         0.00000E+00        -0.49903E+08
 
   -0.49802E+08         0.81473E+04         0.00000E+00
    0.81473E+04        -0.50000E+08         0.00000E+00
    0.00000E+00         0.00000E+00        -0.49904E+08
 
   -0.49804E+08         0.13529E+05         0.00000E+00
    0.13529E+05        -0.50000E+08         0.00000E+00
    0.00000E+00         0.00000E+00        -0.49904E+08
 
   -0.49805E+08         0.18879E+05         0.00000E+00
    0.18879E+05        -0.50000E+08         0.00000E+00
    0.00000E+00         0.00000E+00        -0.49904E+08
 
   -0.49806E+08         0.24193E+05         0.00000E+00
    0.24193E+05        -0.50000E+08         0.00000E+00
    0.00000E+00         0.00000E+00        -0.49905E+08
 
   -0.49808E+08         0.29468E+05         0.00000E+00
    0.29468E+05        -0.49999E+08         0.00000E+00
    0.00000E+00         0.00000E+00        -0.49905E+08
 
   -0.49809E+08         0.34702E+05         0.00000E+00
    0.34702E+05        -0.49999E+08         0.00000E+00
    0.00000E+00         0.00000E+00        -0.49906E+08
 
   -0.49811E+08         0.39892E+05         0.00000E+00
    0.39892E+05        -0.49999E+08         0.00000E+00
    0.00000E+00         0.00000E+00        -0.49906E+08
 
   -0.49813E+08         0.45035E+05         0.00000E+00
    0.45035E+05        -0.49999E+08         0.00000E+00
    0.00000E+00         0.00000E+00        -0.49907E+08
 
   -0.49815E+08         0.50128E+05         0.00000E+00
    0.50128E+05        -0.49998E+08         0.00000E+00
    0.00000E+00         0.00000E+00        -0.49907E+08
 
   -0.49817E+08         0.55169E+05         0.00000E+00
    0.55169E+05        -0.49998E+08         0.00000E+00
    0.00000E+00         0.00000E+00        -0.49908E+08
 
   -0.49819E+08         0.60156E+05         0.00000E+00
    0.60156E+05        -0.49997E+08         0.00000E+00
    0.00000E+00         0.00000E+00        -0.49909E+08
 
   -0.49821E+08         0.65085E+05         0.00000E+00
    0.65085E+05        -0.49997E+08         0.00000E+00
    0.00000E+00         0.00000E+00        -0.49910E+08
 
   -0.49823E+08         0.69954E+05         0.00000E+00
    0.69954E+05        -0.49996E+08         0.00000E+00
    0.00000E+00         0.00000E+00        -0.49910E+08
 
   -0.49825E+08         0.74761E+05         0.00000E+00
    0.74761E+05        -0.49996E+08         0.00000E+00
    0.00000E+00         0.00000E+00        -0.49911E+08
 
   -0.49828E+08         0.79503E+05         0.00000E+00
    0.79503E+05        -0.49995E+08         0.00000E+00
    0.00000E+00         0.00000E+00        -0.49912E+08
 
   -0.49830E+08         0.84178E+05         0.00000E+00
    0.84178E+05        -0.49995E+08         0.00000E+00
    0.00000E+00         0.00000E+00        -0.49913E+08
 
   -0.49833E+08         0.88784E+05         0.00000E+00
    0.88784E+05        -0.49994E+08         0.00000E+00
    0.00000E+00         0.00000E+00        -0.49914E+08
 
   -0.49836E+08         0.93319E+05         0.00000E+00
    0.93319E+05        -0.49993E+08         0.00000E+00
    0.00000E+00         0.00000E+00        -0.49915E+08
 
   -0.49838E+08         0.97780E+05         0.00000E+00
    0.97780E+05        -0.49992E+08         0.00000E+00
    0.00000E+00         0.00000E+00        -0.49916E+08
 
   -0.49841E+08         0.10217E+06         0.00000E+00
    0.10217E+06        -0.49992E+08         0.00000E+00
    0.00000E+00         0.00000E+00        -0.49917E+08
 
   -0.49844E+08         0.10647E+06         0.00000E+00
    0.10647E+06        -0.49991E+08         0.00000E+00
    0.00000E+00         0.00000E+00        -0.49918E+08
 
   -0.49847E+08         0.11070E+06         0.00000E+00
    0.11070E+06        -0.49990E+08         0.00000E+00
    0.00000E+00         0.00000E+00        -0.49919E+08
 
   -0.49850E+08         0.11485E+06         0.00000E+00
    0.11485E+06        -0.49989E+08         0.00000E+00
    0.00000E+00         0.00000E+00        -0.49920E+08
 
   -0.49853E+08         0.11891E+06         0.00000E+00
    0.11891E+06        -0.49988E+08         0.00000E+00
    0.00000E+00         0.00000E+00        -0.49921E+08
 
   -0.49857E+08         0.12289E+06         0.00000E+00
    0.12289E+06        -0.49987E+08         0.00000E+00
    0.00000E+00         0.00000E+00        -0.49922E+08
 
   -0.49860E+08         0.12678E+06         0.00000E+00
    0.12678E+06        -0.49986E+08         0.00000E+00
    0.00000E+00         0.00000E+00        -0.49923E+08
 
   -0.49863E+08         0.13058E+06         0.00000E+00
    0.13058E+06        -0.49985E+08         0.00000E+00
    0.00000E+00         0.00000E+00        -0.49924E+08
 
   -0.49866E+08         0.13429E+06         0.00000E+00
    0.13429E+06        -0.49984E+08         0.00000E+00
    0.00000E+00         0.00000E+00        -0.49925E+08
 
   -0.49870E+08         0.13792E+06         0.00000E+00
    0.13792E+06        -0.49983E+08         0.00000E+00
    0.00000E+00         0.00000E+00        -0.49926E+08
 
   -0.49873E+08         0.14144E+06         0.00000E+00
    0.14144E+06        -0.49982E+08         0.00000E+00
    0.00000E+00         0.00000E+00        -0.49927E+08
 
   -0.49877E+08         0.14488E+06         0.00000E+00
    0.14488E+06        -0.49981E+08         0.00000E+00
    0.00000E+00         0.00000E+00        -0.49928E+08
 
   -0.49880E+08         0.14822E+06         0.00000E+00
    0.14822E+06        -0.49980E+08         0.00000E+00
    0.00000E+00         0.00000E+00        -0.49929E+08
 
   -0.49884E+08         0.15146E+06         0.00000E+00
    0.15146E+06        -0.49979E+08         0.00000E+00
    0.00000E+00         0.00000E+00        -0.49930E+08
 
   -0.49887E+08         0.15460E+06         0.00000E+00
    0.15460E+06        -0.49977E+08         0.00000E+00
    0.00000E+00         0.00000E+00        -0.49931E+08
 
   -0.49891E+08         0.15765E+06         0.00000E+00
    0.15765E+06        -0.49976E+08         0.00000E+00
    0.00000E+00         0.00000E+00        -0.49932E+08
 
   -0.49895E+08         0.16059E+06         0.00000E+00
    0.16059E+06        -0.49975E+08         0.00000E+00
    0.00000E+00         0.00000E+00        -0.49933E+08
 
   -0.49898E+08         0.16344E+06         0.00000E+00
    0.16344E+06        -0.49974E+08         0.00000E+00
    0.00000E+00         0.00000E+00        -0.49934E+08
 
   -0.49902E+08         0.16619E+06         0.00000E+00
    0.16619E+06        -0.49972E+08         0.00000E+00
    0.00000E+00         0.00000E+00        -0.49935E+08
 
   -0.49905E+08         0.16883E+06         0.00000E+00
    0.16883E+06        -0.49971E+08         0.00000E+00
    0.00000E+00         0.00000E+00        -0.49936E+08
 
   -0.49909E+08         0.17138E+06         0.00000E+00
    0.17138E+06        -0.49970E+08         0.00000E+00
    0.00000E+00         0.00000E+00        -0.49937E+08
 
   -0.49913E+08         0.17382E+06         0.00000E+00
    0.17382E+06        -0.49968E+08         0.00000E+00
    0.00000E+00         0.00000E+00        -0.49938E+08
 
   -0.49916E+08         0.17616E+06         0.00000E+00
    0.17616E+06        -0.49967E+08         0.00000E+00
    0.00000E+00         0.00000E+00        -0.49939E+08
 
   -0.49920E+08         0.17840E+06         0.00000E+00
    0.17840E+06        -0.49965E+08         0.00000E+00
    0.00000E+00         0.00000E+00        -0.49939E+08
 
   -0.49924E+08         0.18054E+06         0.00000E+00
    0.18054E+06        -0.49964E+08         0.00000E+00
    0.00000E+00         0.00000E+00        -0.49940E+08
 
   -0.49927E+08         0.18258E+06         0.00000E+00
    0.18258E+06        -0.49963E+08         0.00000E+00
    0.00000E+00         0.00000E+00        -0.49941E+08
 
   -0.49931E+08         0.18451E+06         0.00000E+00
    0.18451E+06        -0.49961E+08         0.00000E+00
    0.00000E+00         0.00000E+00        -0.49941E+08
 
   -0.49935E+08         0.18635E+06         0.00000E+00
    0.18635E+06        -0.49960E+08         0.00000E+00
    0.00000E+00         0.00000E+00        -0.49942E+08
 
   -0.49938E+08         0.18809E+06         0.00000E+00
    0.18809E+06        -0.49958E+08         0.00000E+00
    0.00000E+00         0.00000E+00        -0.49943E+08
 
   -0.49942E+08         0.18973E+06         0.00000E+00
    0.18973E+06        -0.49957E+08         0.00000E+00
    0.00000E+00         0.00000E+00        -0.49943E+08
 
   -0.49774E+08         0.28464E+04         0.00000E+00
    0.28464E+04        -0.50000E+08         0.00000E+00
    0.00000E+00         0.00000E+00        -0.49890E+08
 
   -0.49775E+08         0.84769E+04         0.00000E+00
    0.84769E+04        -0.50000E+08         0.00000E+00
    0.00000E+00         0.00000E+00        -0.49890E+08
 
   -0.49776E+08         0.14077E+05         0.00000E+00
    0.14077E+05        -0.50000E+08         0.00000E+00
    0.00000E+00         0.00000E+00        -0.49891E+08
 
   -0.49778E+08         0.19643E+05         0.00000E+00
    0.19643E+05        -0.50000E+08         0.00000E+00
    0.00000E+00         0.00000E+00        -0.49891E+08
 
   -0.49779E+08         0.25173E+05         0.00000E+00
    0.25173E+05        -0.50000E+08         0.00000E+00
    0.00000E+00         0.00000E+00        -0.49891E+08
 
   -0.49781E+08         0.30663E+05         0.00000E+00
    0.30663E+05        -0.49999E+08         0.00000E+00
    0.00000E+00         0.00000E+00        -0.49892E+08
 
   -0.49783E+08         0.36110E+05         0.00000E+00
    0.36110E+05        -0.49999E+08         0.00000E+00
    0.00000E+00         0.00000E+00        -0.49893E+08
 
   -0.49785E+08         0.41512E+05         0.00000E+00
    0.41512E+05        -0.49999E+08         0.00000E+00
    0.00000E+00         0.00000E+00        -0.49893E+08
 
   -0.49787E+08         0.46866E+05         0.00000E+00
    0.46866E+05        -0.49998E+08         0.00000E+00
    0.00000E+00         0.00000E+00        -0.49894E+08
 
   -0.49789E+08         0.52168E+05         0.00000E+00
    0.52168E+05        -0.49998E+08         0.00000E+00
    0.00000E+00         0.00000E+00        -0.49895E+08
 
   -0.49791E+08         0.57417E+05         0.00000E+00
    0.57417E+05        -0.49997E+08         0.00000E+00
    0.00000E+00         0.00000E+00        -0.49895E+08
 
   -0.49793E+08         0.62610E+05         0.00000E+00
    0.62610E+05        -0.49997E+08         0.00000E+00
    0.00000E+00         0.00000E+00        -0.49896E+08
 
   -0.49796E+08         0.67743E+05         0.00000E+00
    0.67743E+05        -0.49996E+08         0.00000E+00
    0.00000E+00         0.00000E+00        -0.49897E+08
 
   -0.49798E+08         0.72815E+05         0.00000E+00
    0.72815E+05        -0.49996E+08         0.00000E+00
    0.00000E+00         0.00000E+00        -0.49898E+08
 
   -0.49801E+08         0.77823E+05         0.00000E+00
    0.77823E+05        -0.49995E+08         0.00000E+00
    0.00000E+00         0.00000E+00        -0.49899E+08
 
   -0.49804E+08         0.82764E+05         0.00000E+00
    0.82764E+05        -0.49995E+08         0.00000E+00
    0.00000E+00         0.00000E+00        -0.49900E+08
 
   -0.49807E+08         0.87636E+05         0.00000E+00
    0.87636E+05        -0.49994E+08         0.00000E+00
    0.00000E+00         0.00000E+00        -0.49901E+08
 
   -0.49810E+08         0.92436E+05         0.00000E+00
    0.92436E+05        -0.49993E+08         0.00000E+00
    0.00000E+00         0.00000E+00        -0.49902E+08
 
   -0.49813E+08         0.97163E+05         0.00000E+00
    0.97163E+05        -0.49992E+08         0.00000E+00
    0.00000E+00         0.00000E+00        -0.49903E+08
 
   -0.49816E+08         0.10181E+06         0.00000E+00
    0.10181E+06        -0.49991E+08         0.00000E+00
    0.00000E+00         0.00000E+00        -0.49904E+08
 
   -0.49819E+08         0.10639E+06         0.00000E+00
    0.10639E+06        -0.49991E+08         0.00000E+00
    0.00000E+00         0.00000E+00        -0.49905E+08
 
   -0.49822E+08         0.11088E+06         0.00000E+00
    0.11088E+06        -0.49990E+08         0.00000E+00
    0.00000E+00         0.00000E+00        -0.49906E+08
 
   -0.49826E+08         0.11529E+06         0.00000E+00
    0.11529E+06        -0.49989E+08         0.00000E+00
    0.00000E+00         0.00000E+00        -0.49907E+08
 
   -0.49829E+08         0.11962E+06         0.00000E+00
    0.11962E+06        -0.49988E+08         0.00000E+00
    0.00000E+00         0.00000E+00        -0.49908E+08
 
   -0.49833E+08         0.12386E+06         0.00000E+00
    0.12386E+06        -0.49987E+08         0.00000E+00
    0.00000E+00         0.00000E+00        -0.49910E+08
 
   -0.49836E+08         0.12801E+06         0.00000E+00
    0.12801E+06        -0.49986E+08         0.00000E+00
    0.00000E+00         0.00000E+00        -0.49911E+08
 
   -0.49840E+08         0.13207E+06         0.00000E+00
    0.13207E+06        -0.49984E+08         0.00000E+00
    0.00000E+00         0.00000E+00        -0.49912E+08
 
   -0.49844E+08         0.13604E+06         0.00000E+00
    0.13604E+06        -0.49983E+08         0.00000E+00
    0.00000E+00         0.00000E+00        -0.49913E+08
 
   -0.49848E+08         0.13992E+06         0.00000E+00
    0.13992E+06        -0.49982E+08         0.00000E+00
    0.00000E+00         0.00000E+00        -0.49914E+08
 
   -0.49851E+08         0.14370E+06         0.00000E+00
    0.14370E+06        -0.49981E+08         0.00000E+00
    0.00000E+00         0.00000E+00        -0.49916E+08
 
   -0.49855E+08         0.14738E+06         0.00000E+00
    0.14738E+06        -0.49980E+08         0.00000E+00
    0.00000E+00         0.00000E+00        -0.49917E+08
 
   -0.49859E+08         0.15097E+06         0.00000E+00
    0.15097E+06        -0.49978E+08         0.00000E+00
    0.00000E+00         0.00000E+00        -0.49918E+08
 
   -0.49863E+08         0.15446E+06         0.00000E+00
    0.15446E+06        -0.49977E+08         0.00000E+00
    0.00000E+00         0.00000E+00        -0.49919E+08
 
   -0.49867E+08         0.15785E+06         0.00000E+00
    0.15785E+06        -0.49976E+08         0.00000E+00
    0.00000E+00         0.00000E+00        -0.49920E+08
 
   -0.49871E+08         0.16113E+06         0.00000E+00
    0.16113E+06        -0.49974E+08         0.00000E+00
    0.00000E+00         0.00000E+00        -0.49921E+08
 
   -0.49876E+08         0.16432E+06         0.00000E+00
    0.16432E+06        -0.49973E+08         0.00000E+00
    0.00000E+00         0.00000E+00        -0.49923E+08
 
   -0.49880E+08         0.16740E+06         0.00000E+00
    0.16740E+06        -0.49972E+08         0.00000E+00
    0.00000E+00         0.00000E+00        -0.49924E+08
 
   -0.49884E+08         0.17037E+06         0.00000E+00
    0.17037E+06        -0.49970E+08         0.00000E+00
    0.00000E+00         0.00000E+00        -0.49925E+08
 
   -0.49888E+08         0.17324E+06         0.00000E+00
    0.17324E+06        -0.49969E+08         0.00000E+00
    0.00000E+00         0.00000E+00        -0.49926E+08
 
   -0.49892E+08         0.17601E+06         0.00000E+00
    0.17601E+06        -0.49967E+08         0.00000E+00
    0.00000E+00         0.00000E+00        -0.49927E+08
 
   -0.49896E+08         0.17867E+06         0.00000E+00
    0.17867E+06        -0.49966E+08         0.00000E+00
    0.00000E+00         0.00000E+00        -0.49928E+08
 
   -0.49901E+08         0.18122E+06         0.00000E+00
    0.18122E+06        -0.49964E+08         0.00000E+00
    0.00000E+00         0.00000E+00        -0.49929E+08
 
   -0.49905E+08         0.18367E+06         0.00000E+00
    0.18367E+06        -0.49962E+08         0.00000E+00
    0.00000E+00         0.00000E+00        -0.49930E+08
 
   -0.49909E+08         0.18601E+06         0.00000E+00
    0.18601E+06        -0.49961E+08         0.00000E+00
    0.00000E+00         0.00000E+00        -0.49931E+08
 
   -0.49913E+08         0.18825E+06         0.00000E+00
    0.18825E+06        -0.49959E+08         0.00000E+00
    0.00000E+00         0.00000E+00        -0.49932E+08
 
   -0.49917E+08         0.19038E+06         0.00000E+00
    0.19038E+06        -0.49957E+08         0.00000E+00
    0.00000E+00         0.00000E+00        -0.49933E+08
 
   -0.49921E+08         0.19240E+06         0.00000E+00
    0.19240E+06        -0.49956E+08         0.00000E+00
    0.00000E+00         0.00000E+00        -0.49933E+08
 
   -0.49925E+08         0.19432E+06         0.00000E+00
    0.19432E+06        -0.49954E+08         0.00000E+00
    0.00000E+00         0.00000E+00        -0.49934E+08
 
   -0.49929E+08         0.19614E+06         0.00000E+00
    0.19614E+06        -0.49952E+08         0.00000E+00
    0.00000E+00         0.00000E+00        -0.49935E+08
 
   -0.49933E+08         0.19785E+06         0.00000E+00
    0.19785E+06        -0.49951E+08         0.00000E+00
    0.00000E+00         0.00000E+00        -0.49935E+08
 
   -0.49745E+08         0.29700E+04         0.00000E+00
    0.29700E+04        -0.50000E+08         0.00000E+00
    0.00000E+00         0.00000E+00        -0.49876E+08
 
   -0.49746E+08         0.88457E+04         0.00000E+00
    0.88457E+04        -0.50000E+08         0.00000E+00
    0.00000E+00         0.00000E+00        -0.49876E+08
 
   -0.49748E+08         0.14690E+05         0.00000E+00
    0.14690E+05        -0.50000E+08         0.00000E+00
    0.00000E+00         0.00000E+00        -0.49877E+08
 
   -0.49749E+08         0.20499E+05         0.00000E+00
    0.20499E+05        -0.50000E+08         0.00000E+00
    0.00000E+00         0.00000E+00        -0.49877E+08
 
   -0.49751E+08         0.26271E+05         0.00000E+00
    0.26271E+05        -0.49999E+08         0.00000E+00
    0.00000E+00         0.00000E+00        -0.49878E+08
 
   -0.49753E+08         0.32002E+05         0.00000E+00
    0.32002E+05        -0.49999E+08         0.00000E+00
    0.00000E+00         0.00000E+00        -0.49878E+08
 
   -0.49755E+08         0.37689E+05         0.00000E+00
    0.37689E+05        -0.49999E+08         0.00000E+00
    0.00000E+00         0.00000E+00        -0.49879E+08
 
   -0.49757E+08         0.43329E+05         0.00000E+00
    0.43329E+05        -0.49999E+08         0.00000E+00
    0.00000E+00         0.00000E+00        -0.49880E+08
 
   -0.49759E+08         0.48920E+05         0.00000E+00
    0.48920E+05        -0.49998E+08         0.00000E+00
    0.00000E+00         0.00000E+00        -0.49880E+08
 
   -0.49762E+08         0.54458E+05         0.00000E+00
    0.54458E+05        -0.49998E+08         0.00000E+00
    0.00000E+00         0.00000E+00        -0.49881E+08
 
   -0.49764E+08         0.59941E+05         0.00000E+00
    0.59941E+05        -0.49997E+08         0.00000E+00
    0.00000E+00         0.00000E+00        -0.49882E+08
 
   -0.49767E+08         0.65366E+05         0.00000E+00
    0.65366E+05        -0.49997E+08         0.00000E+00
    0.00000E+00         0.00000E+00        -0.49883E+08
 
   -0.49770E+08         0.70730E+05         0.00000E+00
    0.70730E+05        -0.49996E+08         0.00000E+00
    0.00000E+00         0.00000E+00        -0.49884E+08
 
   -0.49773E+08         0.76031E+05         0.00000E+00
    0.76031E+05        -0.49995E+08         0.00000E+00
    0.00000E+00         0.00000E+00        -0.49885E+08
 
   -0.49776E+08         0.81266E+05         0.00000E+00
    0.81266E+05        -0.49995E+08         0.00000E+00
    0.00000E+00         0.00000E+00        -0.49886E+08
 
   -0.49779E+08         0.86432E+05         0.00000E+00
    0.86432E+05        -0.49994E+08         0.00000E+00
    0.00000E+00         0.00000E+00        -0.49887E+08
 
   -0.49782E+08         0.91527E+05         0.00000E+00
    0.91527E+05        -0.49993E+08         0.00000E+00
    0.00000E+00         0.00000E+00        -0.49888E+08
 
   -0.49785E+08         0.96548E+05         0.00000E+00
    0.96548E+05        -0.49992E+08         0.00000E+00
    0.00000E+00         0.00000E+00        -0.49889E+08
 
   -0.49789E+08         0.10149E+06         0.00000E+00
    0.10149E+06        -0.49991E+08         0.00000E+00
    0.00000E+00         0.00000E+00        -0.49890E+08
 
   -0.49792E+08         0.10636E+06         0.00000E+00
    0.10636E+06        -0.49990E+08         0.00000E+00
    0.00000E+00         0.00000E+00        -0.49892E+08
 
   -0.49796E+08         0.11115E+06         0.00000E+00
    0.11115E+06        -0.49989E+08         0.00000E+00
    0.00000E+00         0.00000E+00        -0.49893E+08
 
   -0.49800E+08         0.11585E+06         0.00000E+00
    0.11585E+06        -0.49988E+08         0.00000E+00
    0.00000E+00         0.00000E+00        -0.49894E+08
 
   -0.49803E+08         0.12047E+06         0.00000E+00
    0.12047E+06        -0.49987E+08         0.00000E+00
    0.00000E+00         0.00000E+00        -0.49895E+08
 
   -0.49807E+08         0.12500E+06         0.00000E+00
    0.12500E+06        -0.49986E+08         0.00000E+00
    0.00000E+00         0.00000E+00        -0.49897E+08
 
   -0.49811E+08         0.12944E+06         0.00000E+00
    0.12944E+06        -0.49985E+08         0.00000E+00
    0.00000E+00         0.00000E+00        -0.49898E+08
 
   -0.49815E+08         0.13379E+06         0.00000E+00
    0.13379E+06        -0.49984E+08         0.00000E+00
    0.00000E+00         0.00000E+00        -0.49899E+08
 
   -0.49820E+08         0.13805E+06         0.00000E+00
    0.13805E+06        -0.49983E+08         0.00000E+00
    0.00000E+00         0.00000E+00        -0.49901E+08
 
   -0.49824E+08         0.14221E+06         0.00000E+00
    0.14221E+06        -0.49981E+08         0.00000E+00
    0.00000E+00         0.00000E+00        -0.49902E+08
 
   -0.49828E+08         0.14627E+06         0.00000E+00
    0.14627E+06        -0.49980E+08         0.00000E+00
    0.00000E+00         0.00000E+00        -0.49903E+08
 
   -0.49832E+08         0.15024E+06         0.00000E+00
    0.15024E+06        -0.49979E+08         0.00000E+00
    0.00000E+00         0.00000E+00        -0.49905E+08
 
   -0.49837E+08         0.15410E+06         0.00000E+00
    0.15410E+06        -0.49977E+08         0.00000E+00
    0.00000E+00         0.00000E+00        -0.49906E+08
 
   -0.49841E+08         0.15787E+06         0.00000E+00
    0.15787E+06        -0.49976E+08         0.00000E+00
    0.00000E+00         0.00000E+00        -0.49907E+08
 
   -0.49846E+08         0.16153E+06         0.00000E+00
    0.16153E+06        -0.49974E+08         0.00000E+00
    0.00000E+00         0.00000E+00        -0.49909E+08
 
   -0.49850E+08         0.16508E+06         0.00000E+00
    0.16508E+06        -0.49973E+08         0.00000E+00
    0.00000E+00         0.00000E+00        -0.49910E+08
 
   -0.49855E+08         0.16853E+06         0.00000E+00
    0.16853E+06        -0.49971E+08         0.00000E+00
    0.00000E+00         0.00000E+00        -0.49911E+08
 
   -0.49860E+08         0.17187E+06         0.00000E+00
    0.17187E+06        -0.49970E+08         0.00000E+00
    0.00000E+00         0.00000E+00        -0.49913E+08
 
   -0.49864E+08         0.17511E+06         0.00000E+00
    0.17511E+06        -0.49968E+08         0.00000E+00
    0.00000E+00         0.00000E+00        -0.49914E+08
 
   -0.49869E+08         0.17823E+06         0.00000E+00
    0.17823E+06        -0.49966E+08         0.00000E+00
    0.00000E+00         0.00000E+00        -0.49915E+08
 
   -0.49874E+08         0.18125E+06         0.00000E+00
    0.18125E+06        -0.49965E+08         0.00000E+00
    0.00000E+00         0.00000E+00        -0.49917E+08
 
   -0.49878E+08         0.18415E+06         0.00000E+00
    0.18415E+06        -0.49963E+08         0.00000E+00
    0.00000E+00         0.00000E+00        -0.49918E+08
 
   -0.49883E+08         0.18694E+06         0.00000E+00
    0.18694E+06        -0.49961E+08         0.00000E+00
    0.00000E+00         0.00000E+00        -0.49919E+08
 
   -0.49888E+08         0.18963E+06         0.00000E+00
    0.18963E+06        -0.49959E+08         0.00000E+00
    0.00000E+00         0.00000E+00        -0.49920E+08
 
   -0.49893E+08         0.19220E+06         0.00000E+00
    0.19220E+06        -0.49958E+08         0.00000E+00
    0.00000E+00         0.00000E+00        -0.49921E+08
 
   -0.49897E+08         0.19466E+06         0.00000E+00
    0.19466E+06        -0.49956E+08         0.00000E+00
    0.00000E+00         0.00000E+00        -0.49922E+08
 
   -0.49902E+08         0.19700E+06         0.00000E+00
    0.19700E+06        -0.49954E+08         0.00000E+00
    0.00000E+00         0.00000E+00        -0.49923E+08
 
   -0.49907E+08         0.19924E+06         0.00000E+00
    0.19924E+06        -0.49952E+08         0.00000E+00
    0.00000E+00         0.00000E+00        -0.49924E+08
 
   -0.49911E+08         0.20136E+06         0.00000E+00
    0.20136E+06        -0.49950E+08         0.00000E+00
    0.00000E+00         0.00000E+00        -0.49925E+08
 
   -0.49916E+08         0.20338E+06         0.00000E+00
    0.20338E+06        -0.49948E+08         0.00000E+00
    0.00000E+00         0.00000E+00        -0.49926E+08
 
   -0.49920E+08         0.20528E+06         0.00000E+00
    0.20528E+06        -0.49946E+08         0.00000E+00
    0.00000E+00         0.00000E+00        -0.49926E+08
 
   -0.49925E+08         0.20708E+06         0.00000E+00
    0.20708E+06        -0.49944E+08         0.00000E+00
    0.00000E+00         0.00000E+00        -0.49927E+08
 
   -0.49715E+08         0.31067E+04         0.00000E+00
    0.31067E+04        -0.50000E+08         0.00000E+00
    0.00000E+00         0.00000E+00        -0.49861E+08
 
   -0.49716E+08         0.92539E+04         0.00000E+00
    0.92539E+04        -0.50000E+08         0.00000E+00
    0.00000E+00         0.00000E+00        -0.49862E+08
 
   -0.49718E+08         0.15369E+05         0.00000E+00
    0.15369E+05        -0.50000E+08         0.00000E+00
    0.00000E+00         0.00000E+00        -0.49862E+08
 
   -0.49720E+08         0.21448E+05         0.00000E+00
    0.21448E+05        -0.50000E+08         0.00000E+00
    0.00000E+00         0.00000E+00        -0.49863E+08
 
   -0.49722E+08         0.27488E+05         0.00000E+00
    0.27488E+05        -0.49999E+08         0.00000E+00
    0.00000E+00         0.00000E+00        -0.49863E+08
 
   -0.49724E+08         0.33487E+05         0.00000E+00
    0.33487E+05        -0.49999E+08         0.00000E+00
    0.00000E+00         0.00000E+00        -0.49864E+08
 
   -0.49726E+08         0.39441E+05         0.00000E+00
    0.39441E+05        -0.49999E+08         0.00000E+00
    0.00000E+00         0.00000E+00        -0.49865E+08
 
   -0.49728E+08         0.45346E+05         0.00000E+00
    0.45346E+05        -0.49998E+08         0.00000E+00
    0.00000E+00         0.00000E+00        -0.49865E+08
 
   -0.49731E+08         0.51201E+05         0.00000E+00
    0.51201E+05        -0.49998E+08         0.00000E+00
    0.00000E+00         0.00000E+00        -0.49866E+08
 
   -0.49734E+08         0.57003E+05         0.00000E+00
    0.57003E+05        -0.49997E+08         0.00000E+00
    0.00000E+00         0.00000E+00        -0.49867E+08
 
   -0.49736E+08         0.62747E+05         0.00000E+00
    0.62747E+05        -0.49997E+08         0.00000E+00
    0.00000E+00         0.00000E+00        -0.49868E+08
 
   -0.49739E+08         0.68432E+05         0.00000E+00
    0.68432E+05        -0.49996E+08         0.00000E+00
    0.00000E+00         0.00000E+00        -0.49869E+08
 
   -0.49742E+08         0.74054E+05         0.00000E+00
    0.74054E+05        -0.49996E+08         0.00000E+00
    0.00000E+00         0.00000E+00        -0.49870E+08
 
   -0.49746E+08         0.79611E+05         0.00000E+00
    0.79611E+05        -0.49995E+08         0.00000E+00
    0.00000E+00         0.00000E+00        -0.49871E+08
 
   -0.49749E+08         0.85101E+05         0.00000E+00
    0.85101E+05        -0.49994E+08         0.00000E+00
    0.00000E+00         0.00000E+00        -0.49872E+08
 
   -0.49752E+08         0.90519E+05         0.00000E+00
    0.90519E+05        -0.49993E+08         0.00000E+00
    0.00000E+00         0.00000E+00        -0.49874E+08
 
   -0.49756E+08         0.95864E+05         0.00000E+00
    0.95864E+05        -0.49992E+08         0.00000E+00
    0.00000E+00         0.00000E+00        -0.49875E+08
 
   -0.49760E+08         0.10113E+06         0.00000E+00
    0.10113E+06        -0.49991E+08         0.00000E+00
    0.00000E+00         0.00000E+00        -0.49876E+08
 
   -0.49764E+08         0.10632E+06         0.00000E+00
    0.10632E+06        -0.49990E+08         0.00000E+00
    0.00000E+00         0.00000E+00        -0.49877E+08
 
   -0.49768E+08         0.11143E+06         0.00000E+00
    0.11143E+06        -0.49989E+08         0.00000E+00
    0.00000E+00         0.00000E+00        -0.49879E+08
 
   -0.49772E+08         0.11646E+06         0.00000E+00
    0.11646E+06        -0.49988E+08         0.00000E+00
    0.00000E+00         0.00000E+00        -0.49880E+08
 
   -0.49776E+08         0.12140E+06         0.00000E+00
    0.12140E+06        -0.49987E+08         0.00000E+00
    0.00000E+00         0.00000E+00        -0.49881E+08
 
   -0.49780E+08         0.12625E+06         0.00000E+00
    0.12625E+06        -0.49986E+08         0.00000E+00
    0.00000E+00         0.00000E+00        -0.49883E+08
 
   -0.49784E+08         0.13102E+06         0.00000E+00
    0.13102E+06        -0.49985E+08         0.00000E+00
    0.00000E+00         0.00000E+00        -0.49884E+08
 
   -0.49789E+08         0.13569E+06         0.00000E+00
    0.13569E+06        -0.49983E+08         0.00000E+00
    0.00000E+00         0.00000E+00        -0.49886E+08
 
   -0.49793E+08         0.14026E+06         0.00000E+00
    0.14026E+06        -0.49982E+08         0.00000E+00
    0.00000E+00         0.00000E+00        -0.49887E+08
 
   -0.49798E+08         0.14474E+06         0.00000E+00
    0.14474E+06        -0.49981E+08         0.00000E+00
    0.00000E+00         0.00000E+00        -0.49889E+08
 
   -0.49803E+08         0.14912E+06         0.00000E+00
    0.14912E+06        -0.49979E+08         0.00000E+00
    0.00000E+00         0.00000E+00        -0.49890E+08
 
   -0.49807E+08         0.15339E+06         0.00000E+00
    0.15339E+06        -0.49978E+08         0.00000E+00
    0.00000E+00         0.00000E+00        -0.49892E+08
 
   -0.49812E+08         0.15757E+06         0.00000E+00
    0.15757E+06        -0.49976E+08         0.00000E+00
    0.00000E+00         0.00000E+00        -0.49893E+08
 
   -0.49817E+08         0.16164E+06         0.00000E+00
    0.16164E+06        -0.49975E+08         0.00000E+00
    0.00000E+00         0.00000E+00        -0.49895E+08
 
   -0.49822E+08         0.16560E+06         0.00000E+00
    0.16560E+06        -0.49973E+08         0.00000E+00
    0.00000E+00         0.00000E+00        -0.49896E+08
 
   -0.49827E+08         0.16946E+06         0.00000E+00
    0.16946E+06        -0.49971E+08         0.00000E+00
    0.00000E+00         0.00000E+00        -0.49898E+08
 
   -0.49832E+08         0.17320E+06         0.00000E+00
    0.17320E+06        -0.49970E+08         0.00000E+00
    0.00000E+00         0.00000E+00        -0.49899E+08
 
   -0.49837E+08         0.17684E+06         0.00000E+00
    0.17684E+06        -0.49968E+08         0.00000E+00
    0.00000E+00         0.00000E+00        -0.49901E+08
 
   -0.49843E+08         0.18036E+06         0.00000E+00
    0.18036E+06        -0.49966E+08         0.00000E+00
    0.00000E+00         0.00000E+00        -0.49902E+08
 
   -0.49848E+08         0.18377E+06         0.00000E+00
    0.18377E+06        -0.49964E+08         0.00000E+00
    0.00000E+00         0.00000E+00        -0.49904E+08
 
   -0.49853E+08         0.18706E+06         0.00000E+00
    0.18706E+06        -0.49963E+08         0.00000E+00
    0.00000E+00         0.00000E+00        -0.49905E+08
 
   -0.49858E+08         0.19024E+06         0.00000E+00
    0.19024E+06        -0.49961E+08         0.00000E+00
    0.00000E+00         0.00000E+00        -0.49907E+08
 
   -0.49864E+08         0.19331E+06         0.00000E+00
    0.19331E+06        -0.49959E+08         0.00000E+00
    0.00000E+00         0.00000E+00        -0.49908E+08
 
   -0.49869E+08         0.19625E+06         0.00000E+00
    0.19625E+06        -0.49957E+08         0.00000E+00
    0.00000E+00         0.00000E+00        -0.49909E+08
 
   -0.49874E+08         0.19908E+06         0.00000E+00
    0.19908E+06        -0.49955E+08         0.00000E+00
    0.00000E+00         0.00000E+00        -0.49911E+08
 
   -0.49880E+08         0.20180E+06         0.00000E+00
    0.20180E+06        -0.49953E+08         0.00000E+00
    0.00000E+00         0.00000E+00        -0.49912E+08
 
   -0.49885E+08         0.20439E+06         0.00000E+00
    0.20439E+06        -0.49951E+08         0.00000E+00
    0.00000E+00         0.00000E+00        -0.49913E+08
 
   -0.49890E+08         0.20687E+06         0.00000E+00
    0.20687E+06        -0.49949E+08         0.00000E+00
    0.00000E+00         0.00000E+00        -0.49914E+08
 
   -0.49895E+08         0.20923E+06         0.00000E+00
    0.20923E+06        -0.49947E+08         0.00000E+00
    0.00000E+00         0.00000E+00        -0.49915E+08
 
   -0.49901E+08         0.21147E+06         0.00000E+00
    0.21147E+06        -0.49944E+08         0.00000E+00
    0.00000E+00         0.00000E+00        -0.49916E+08
 
   -0.49906E+08         0.21359E+06         0.00000E+00
    0.21359E+06        -0.49942E+08         0.00000E+00
    0.00000E+00         0.00000E+00        -0.49917E+08
 
   -0.49911E+08         0.21560E+06         0.00000E+00
    0.21560E+06        -0.49940E+08         0.00000E+00
    0.00000E+00         0.00000E+00        -0.49917E+08
 
   -0.49916E+08         0.21749E+06         0.00000E+00
    0.21749E+06        -0.49938E+08         0.00000E+00
    0.00000E+00         0.00000E+00        -0.49918E+08
 
   -0.49683E+08         0.32565E+04         0.00000E+00
    0.32565E+04        -0.50000E+08         0.00000E+00
    0.00000E+00         0.00000E+00        -0.49846E+08
 
   -0.49685E+08         0.97019E+04         0.00000E+00
    0.97019E+04        -0.50000E+08         0.00000E+00
    0.00000E+00         0.00000E+00        -0.49846E+08
 
   -0.49687E+08         0.16114E+05         0.00000E+00
    0.16114E+05        -0.50000E+08         0.00000E+00
    0.00000E+00         0.00000E+00        -0.49847E+08
 
   -0.49689E+08         0.22491E+05         0.00000E+00
    0.22491E+05        -0.50000E+08         0.00000E+00
    0.00000E+00         0.00000E+00        -0.49847E+08
 
   -0.49691E+08         0.28827E+05         0.00000E+00
    0.28827E+05        -0.49999E+08         0.00000E+00
    0.00000E+00         0.00000E+00        -0.49848E+08
 
   -0.49693E+08         0.35121E+05         0.00000E+00
    0.35121E+05        -0.49999E+08         0.00000E+00
    0.00000E+00         0.00000E+00        -0.49849E+08
 
   -0.49696E+08         0.41370E+05         0.00000E+00
    0.41370E+05        -0.49999E+08         0.00000E+00
    0.00000E+00         0.00000E+00        -0.49850E+08
 
   -0.49698E+08         0.47569E+05         0.00000E+00
    0.47569E+05        -0.49998E+08         0.00000E+00
    0.00000E+00         0.00000E+00        -0.49850E+08
 
   -0.49701E+08         0.53717E+05         0.00000E+00
    0.53717E+05        -0.49998E+08         0.00000E+00
    0.00000E+00         0.00000E+00        -0.49851E+08
 
   -0.49704E+08         0.59809E+05         0.00000E+00
    0.59809E+05        -0.49997E+08         0.00000E+00
    0.00000E+00         0.00000E+00        -0.49852E+08
 
   -0.49707E+08         0.65844E+05         0.00000E+00
    0.65844E+05        -0.49997E+08         0.00000E+00
    0.00000E+00         0.00000E+00        -0.49853E+08
 
   -0.49710E+08         0.71817E+05         0.00000E+00
    0.71817E+05        -0.49996E+08         0.00000E+00
    0.00000E+00         0.00000E+00        -0.49854E+08
 
   -0.49714E+08         0.77726E+05         0.00000E+00
    0.77726E+05        -0.49995E+08         0.00000E+00
    0.00000E+00         0.00000E+00        -0.49856E+08
 
   -0.49717E+08         0.83569E+05         0.00000E+00
    0.83569E+05        -0.49994E+08         0.00000E+00
    0.00000E+00         0.00000E+00        -0.49857E+08
 
   -0.49721E+08         0.89341E+05         0.00000E+00
    0.89341E+05        -0.49994E+08         0.00000E+00
    0.00000E+00         0.00000E+00        -0.49858E+08
 
   -0.49725E+08         0.95041E+05         0.00000E+00
    0.95041E+05        -0.49993E+08         0.00000E+00
    0.00000E+00         0.00000E+00        -0.49859E+08
 
   -0.49729E+08         0.10067E+06         0.00000E+00
    0.10067E+06        -0.49992E+08         0.00000E+00
    0.00000E+00         0.00000E+00        -0.49861E+08
 
   -0.49733E+08         0.10621E+06         0.00000E+00
    0.10621E+06        -0.49991E+08         0.00000E+00
    0.00000E+00         0.00000E+00        -0.49862E+08
 
   -0.49737E+08         0.11168E+06         0.00000E+00
    0.11168E+06        -0.49989E+08         0.00000E+00
    0.00000E+00         0.00000E+00        -0.49864E+08
 
   -0.49742E+08         0.11706E+06         0.00000E+00
    0.11706E+06        -0.49988E+08         0.00000E+00
    0.00000E+00         0.00000E+00        -0.49865E+08
 
   -0.49746E+08         0.12235E+06         0.00000E+00
    0.12235E+06        -0.49987E+08         0.00000E+00
    0.00000E+00         0.00000E+00        -0.49867E+08
 
   -0.49751E+08         0.12756E+06         0.00000E+00
    0.12756E+06        -0.49986E+08         0.00000E+00
    0.00000E+00         0.00000E+00        -0.49868E+08
 
   -0.49755E+08         0.13268E+06         0.00000E+00
    0.13268E+06        -0.49985E+08         0.00000E+00
    0.00000E+00         0.00000E+00        -0.49870E+08
 
   -0.49760E+08         0.13770E+06         0.00000E+00
    0.13770E+06        -0.49983E+08         0.00000E+00
    0.00000E+00         0.00000E+00        -0.49871E+08
 
   -0.49765E+08         0.14262E+06         0.00000E+00
    0.14262E+06        -0.49982E+08         0.00000E+00
    0.00000E+00         0.00000E+00        -0.49873E+08
 
   -0.49770E+08         0.14745E+06         0.00000E+00
    0.14745E+06        -0.49980E+08         0.00000E+00
    0.00000E+00         0.00000E+00        -0.49875E+08
 
   -0.49775E+08         0.15217E+06         0.00000E+00
    0.15217E+06        -0.49979E+08         0.00000E+00
    0.00000E+00         0.00000E+00        -0.49876E+08
 
   -0.49780E+08         0.15680E+06         0.00000E+00
    0.15680E+06        -0.49977E+08         0.00000E+00
    0.00000E+00         0.00000E+00        -0.49878E+08
 
   -0.49786E+08         0.16131E+06         0.00000E+00
    0.16131E+06        -0.49975E+08         0.00000E+00
    0.00000E+00         0.00000E+00        -0.49880E+08
 
   -0.49791E+08         0.16572E+06         0.00000E+00
    0.16572E+06        -0.49974E+08         0.00000E+00
    0.00000E+00         0.00000E+00        -0.49881E+08
 
   -0.49797E+08         0.17002E+06         0.00000E+00
    0.17002E+06        -0.49972E+08         0.00000E+00
    0.00000E+00         0.00000E+00        -0.49883E+08
 
   -0.49802E+08         0.17421E+06         0.00000E+00
    0.17421E+06        -0.49970E+08         0.00000E+00
    0.00000E+00         0.00000E+00        -0.49885E+08
 
   -0.49808E+08         0.17829E+06         0.00000E+00
    0.17829E+06        -0.49968E+08         0.00000E+00
    0.00000E+00         0.00000E+00        -0.49886E+08
 
   -0.49813E+08         0.18225E+06         0.00000E+00
    0.18225E+06        -0.49967E+08         0.00000E+00
    0.00000E+00         0.00000E+00        -0.49888E+08
 
   -0.49819E+08         0.18610E+06         0.00000E+00
    0.18610E+06        -0.49965E+08         0.00000E+00
    0.00000E+00         0.00000E+00        -0.49890E+08
 
   -0.49825E+08         0.18982E+06         0.00000E+00
    0.18982E+06        -0.49963E+08         0.00000E+00
    0.00000E+00         0.00000E+00        -0.49891E+08
 
   -0.49831E+08         0.19343E+06         0.00000E+00
    0.19343E+06        -0.49961E+08         0.00000E+00
    0.00000E+00         0.00000E+00        -0.49893E+08
 
   -0.49836E+08         0.19692E+06         0.00000E+00
    0.19692E+06        -0.49959E+08         0.00000E+00
    0.00000E+00         0.00000E+00        -0.49895E+08
 
   -0.49842E+08         0.20029E+06         0.00000E+00
    0.20029E+06        -0.49956E+08         0.00000E+00
    0.00000E+00         0.00000E+00        -0.49896E+08
 
   -0.49848E+08         0.20353E+06         0.00000E+00
    0.20353E+06        -0.49954E+08         0.00000E+00
    0.00000E+00         0.00000E+00        -0.49898E+08
 
   -0.49854E+08         0.20665E+06         0.00000E+00
    0.20665E+06        -0.49952E+08         0.00000E+00
    0.00000E+00         0.00000E+00        -0.49899E+08
 
   -0.49860E+08         0.20965E+06         0.00000E+00
    0.20965E+06        -0.49950E+08         0.00000E+00
    0.00000E+00         0.00000E+00        -0.49900E+08
 
   -0.49866E+08         0.21253E+06         0.00000E+00
    0.21253E+06        -0.49948E+08         0.00000E+00
    0.00000E+00         0.00000E+00        -0.49902E+08
 
   -0.49872E+08         0.21528E+06         0.00000E+00
    0.21528E+06        -0.49945E+08         0.00000E+00
    0.00000E+00         0.00000E+00        -0.49903E+08
 
   -0.49878E+08         0.21790E+06         0.00000E+00
    0.21790E+06        -0.49943E+08         0.00000E+00
    0.00000E+00         0.00000E+00        -0.49904E+08
 
   -0.49884E+08         0.22040E+06         0.00000E+00
    0.22040E+06        -0.49941E+08         0.00000E+00
    0.00000E+00         0.00000E+00        -0.49905E+08
 
   -0.49889E+08         0.22278E+06         0.00000E+00
    0.22278E+06        -0.49938E+08         0.00000E+00
    0.00000E+00         0.00000E+00        -0.49906E+08
 
   -0.49895E+08         0.22503E+06         0.00000E+00
    0.22503E+06        -0.49936E+08         0.00000E+00
    0.00000E+00         0.00000E+00        -0.49907E+08
 
   -0.49901E+08         0.22716E+06         0.00000E+00
    0.22716E+06        -0.49934E+08         0.00000E+00
    0.00000E+00         0.00000E+00        -0.49908E+08
 
   -0.49906E+08         0.22916E+06         0.00000E+00
    0.22916E+06        -0.49931E+08         0.00000E+00
    0.00000E+00         0.00000E+00        -0.49909E+08
 
   -0.49650E+08         0.34196E+04         0.00000E+00
    0.34196E+04        -0.50000E+08         0.00000E+00
    0.00000E+00         0.00000E+00        -0.49830E+08
 
   -0.49652E+08         0.10191E+05         0.00000E+00
    0.10191E+05        -0.50000E+08         0.00000E+00
    0.00000E+00         0.00000E+00        -0.49830E+08
 
   -0.49654E+08         0.16929E+05         0.00000E+00
    0.16929E+05        -0.50000E+08         0.00000E+00
    0.00000E+00         0.00000E+00        -0.49831E+08
 
   -0.49656E+08         0.23630E+05         0.00000E+00
    0.23630E+05        -0.50000E+08         0.00000E+00
    0.00000E+00         0.00000E+00        -0.49831E+08
 
   -0.49658E+08         0.30292E+05         0.00000E+00
    0.30292E+05        -0.49999E+08         0.00000E+00
    0.00000E+00         0.00000E+00        -0.49832E+08
 
   -0.49661E+08         0.36910E+05         0.00000E+00
    0.36910E+05        -0.49999E+08         0.00000E+00
    0.00000E+00         0.00000E+00        -0.49833E+08
 
   -0.49664E+08         0.43482E+05         0.00000E+00
    0.43482E+05        -0.49999E+08         0.00000E+00
    0.00000E+00         0.00000E+00        -0.49834E+08
 
   -0.49667E+08         0.50005E+05         0.00000E+00
    0.50005E+05        -0.49998E+08         0.00000E+00
    0.00000E+00         0.00000E+00        -0.49835E+08
 
   -0.49670E+08         0.56475E+05         0.00000E+00
    0.56475E+05        -0.49998E+08         0.00000E+00
    0.00000E+00         0.00000E+00        -0.49836E+08
 
   -0.49673E+08         0.62888E+05         0.00000E+00
    0.62888E+05        -0.49997E+08         0.00000E+00
    0.00000E+00         0.00000E+00        -0.49837E+08
 
   -0.49676E+08         0.69243E+05         0.00000E+00
    0.69243E+05        -0.49996E+08         0.00000E+00
    0.00000E+00         0.00000E+00        -0.49838E+08
 
   -0.49680E+08         0.75535E+05         0.00000E+00
    0.75535E+05        -0.49996E+08         0.00000E+00
    0.00000E+00         0.00000E+00        -0.49839E+08
 
   -0.49684E+08         0.81762E+05         0.00000E+00
    0.81762E+05        -0.49995E+08         0.00000E+00
    0.00000E+00         0.00000E+00        -0.49840E+08
 
   -0.49688E+08         0.87920E+05         0.00000E+00
    0.87920E+05        -0.49994E+08         0.00000E+00
    0.00000E+00         0.00000E+00        -0.49842E+08
 
   -0.49692E+08         0.94006E+05         0.00000E+00
    0.94006E+05        -0.49993E+08         0.00000E+00
    0.00000E+00         0.00000E+00        -0.49843E+08
 
   -0.49696E+08         0.10002E+06         0.00000E+00
    0.10002E+06        -0.49992E+08         0.00000E+00
    0.00000E+00         0.00000E+00        -0.49845E+08
 
   -0.49700E+08         0.10595E+06         0.00000E+00
    0.10595E+06        -0.49991E+08         0.00000E+00
    0.00000E+00         0.00000E+00        -0.49846E+08
 
   -0.49705E+08         0.11181E+06         0.00000E+00
    0.11181E+06        -0.49990E+08         0.00000E+00
    0.00000E+00         0.00000E+00        -0.49848E+08
 
   -0.49709E+08         0.11758E+06         0.00000E+00
    0.11758E+06        -0.49988E+08         0.00000E+00
    0.00000E+00         0.00000E+00        -0.49849E+08
 
   -0.49714E+08         0.12326E+06         0.00000E+00
    0.12326E+06        -0.49987E+08         0.00000E+00
    0.00000E+00         0.00000E+00        -0.49851E+08
 
   -0.49719E+08         0.12885E+06         0.00000E+00
    0.12885E+06        -0.49986E+08         0.00000E+00
    0.00000E+00         0.00000E+00        -0.49853E+08
 
   -0.49724E+08         0.13436E+06         0.00000E+00
    0.13436E+06        -0.49984E+08         0.00000E+00
    0.00000E+00         0.00000E+00        -0.49854E+08
 
   -0.49729E+08         0.13976E+06         0.00000E+00
    0.13976E+06        -0.49983E+08         0.00000E+00
    0.00000E+00         0.00000E+00        -0.49856E+08
 
   -0.49735E+08         0.14507E+06         0.00000E+00
    0.14507E+06        -0.49981E+08         0.00000E+00
    0.00000E+00         0.00000E+00        -0.49858E+08
 
   -0.49740E+08         0.15028E+06         0.00000E+00
    0.15028E+06        -0.49980E+08         0.00000E+00
    0.00000E+00         0.00000E+00        -0.49860E+08
 
   -0.49746E+08         0.15539E+06         0.00000E+00
    0.15539E+06        -0.49978E+08         0.00000E+00
    0.00000E+00         0.00000E+00        -0.49861E+08
 
   -0.49751E+08         0.16039E+06         0.00000E+00
    0.16039E+06        -0.49977E+08         0.00000E+00
    0.00000E+00         0.00000E+00        -0.49863E+08
 
   -0.49757E+08         0.16529E+06         0.00000E+00
    0.16529E+06        -0.49975E+08         0.00000E+00
    0.00000E+00         0.00000E+00        -0.49865E+08
 
   -0.49763E+08         0.17007E+06         0.00000E+00
    0.17007E+06        -0.49973E+08         0.00000E+00
    0.00000E+00         0.00000E+00        -0.49867E+08
 
   -0.49769E+08         0.17475E+06         0.00000E+00
    0.17475E+06        -0.49971E+08         0.00000E+00
    0.00000E+00         0.00000E+00        -0.49869E+08
 
   -0.49775E+08         0.17931E+06         0.00000E+00
    0.17931E+06        -0.49969E+08         0.00000E+00
    0.00000E+00         0.00000E+00        -0.49871E+08
 
   -0.49781E+08         0.18375E+06         0.00000E+00
    0.18375E+06        -0.49967E+08         0.00000E+00
    0.00000E+00         0.00000E+00        -0.49872E+08
 
   -0.49787E+08         0.18807E+06         0.00000E+00
    0.18807E+06        -0.49965E+08         0.00000E+00
    0.00000E+00         0.00000E+00        -0.49874E+08
 
   -0.49793E+08         0.19228E+06         0.00000E+00
    0.19228E+06        -0.49963E+08         0.00000E+00
    0.00000E+00         0.00000E+00        -0.49876E+08
 
   -0.49800E+08         0.19636E+06         0.00000E+00
    0.19636E+06        -0.49961E+08         0.00000E+00
    0.00000E+00         0.00000E+00        -0.49878E+08
 
   -0.49806E+08         0.20032E+06         0.00000E+00
    0.20032E+06        -0.49959E+08         0.00000E+00
    0.00000E+00         0.00000E+00        -0.49880E+08
 
   -0.49812E+08         0.20415E+06         0.00000E+00
    0.20415E+06        -0.49957E+08         0.00000E+00
    0.00000E+00         0.00000E+00        -0.49882E+08
 
   -0.49819E+08         0.20786E+06         0.00000E+00
    0.20786E+06        -0.49954E+08         0.00000E+00
    0.00000E+00         0.00000E+00        -0.49883E+08
 
   -0.49825E+08         0.21144E+06         0.00000E+00
    0.21144E+06        -0.49952E+08         0.00000E+00
    0.00000E+00         0.00000E+00        -0.49885E+08
 
   -0.49832E+08         0.21489E+06         0.00000E+00
    0.21489E+06        -0.49950E+08         0.00000E+00
    0.00000E+00         0.00000E+00        -0.49887E+08
 
   -0.49838E+08         0.21821E+06         0.00000E+00
    0.21821E+06        -0.49947E+08         0.00000E+00
    0.00000E+00         0.00000E+00        -0.49888E+08
 
   -0.49845E+08         0.22140E+06         0.00000E+00
    0.22140E+06        -0.49945E+08         0.00000E+00
    0.00000E+00         0.00000E+00        -0.49890E+08
 
   -0.49851E+08         0.22446E+06         0.00000E+00
    0.22446E+06        -0.49942E+08         0.00000E+00
    0.00000E+00         0.00000E+00        -0.49891E+08
 
   -0.49858E+08         0.22739E+06         0.00000E+00
    0.22739E+06        -0.49940E+08         0.00000E+00
    0.00000E+00         0.00000E+00        -0.49893E+08
 
   -0.49865E+08         0.23018E+06         0.00000E+00
    0.23018E+06        -0.49937E+08         0.00000E+00
    0.00000E+00         0.00000E+00        -0.49894E+08
 
   -0.49871E+08         0.23284E+06         0.00000E+00
    0.23284E+06        -0.49935E+08         0.00000E+00
    0.00000E+00         0.00000E+00        -0.49895E+08
 
   -0.49877E+08         0.23537E+06         0.00000E+00
    0.23537E+06        -0.49932E+08         0.00000E+00
    0.00000E+00         0.00000E+00        -0.49896E+08
 
   -0.49884E+08         0.23777E+06         0.00000E+00
    0.23777E+06        -0.49929E+08         0.00000E+00
    0.00000E+00         0.00000E+00        -0.49897E+08
 
   -0.49890E+08         0.24004E+06         0.00000E+00
    0.24004E+06        -0.49927E+08         0.00000E+00
    0.00000E+00         0.00000E+00        -0.49898E+08
 
   -0.49896E+08         0.24217E+06         0.00000E+00
    0.24217E+06        -0.49924E+08         0.00000E+00
    0.00000E+00         0.00000E+00        -0.49899E+08
 
   -0.49615E+08         0.35963E+04         0.00000E+00
    0.35963E+04        -0.50000E+08         0.00000E+00
    0.00000E+00         0.00000E+00        -0.49813E+08
 
   -0.49617E+08         0.10722E+05         0.00000E+00
    0.10722E+05        -0.50000E+08         0.00000E+00
    0.00000E+00         0.00000E+00        -0.49813E+08
 
   -0.49619E+08         0.17815E+05         0.00000E+00
    0.17815E+05        -0.50000E+08         0.00000E+00
    0.00000E+00         0.00000E+00        -0.49814E+08
 
   -0.49622E+08         0.24871E+05         0.00000E+00
    0.24871E+05        -0.50000E+08         0.00000E+00
    0.00000E+00         0.00000E+00        -0.49815E+08
 
   -0.49624E+08         0.31888E+05         0.00000E+00
    0.31888E+05        -0.49999E+08         0.00000E+00
    0.00000E+00         0.00000E+00        -0.49815E+08
 
   -0.49627E+08         0.38861E+05         0.00000E+00
    0.38861E+05        -0.49999E+08         0.00000E+00
    0.00000E+00         0.00000E+00        -0.49816E+08
 
   -0.49630E+08         0.45788E+05         0.00000E+00
    0.45788E+05        -0.49998E+08         0.00000E+00
    0.00000E+00         0.00000E+00        -0.49817E+08
 
   -0.49633E+08         0.52665E+05         0.00000E+00
    0.52665E+05        -0.49998E+08         0.00000E+00
    0.00000E+00         0.00000E+00        -0.49818E+08
 
   -0.49637E+08         0.59489E+05         0.00000E+00
    0.59489E+05        -0.49997E+08         0.00000E+00
    0.00000E+00         0.00000E+00        -0.49819E+08
 
   -0.49640E+08         0.66255E+05         0.00000E+00
    0.66255E+05        -0.49997E+08         0.00000E+00
    0.00000E+00         0.00000E+00        -0.49820E+08
 
   -0.49644E+08         0.72962E+05         0.00000E+00
    0.72962E+05        -0.49996E+08         0.00000E+00
    0.00000E+00         0.00000E+00        -0.49822E+08
 
   -0.49648E+08         0.79605E+05         0.00000E+00
    0.79605E+05        -0.49995E+08         0.00000E+00
    0.00000E+00         0.00000E+00        -0.49823E+08
 
   -0.49652E+08         0.86181E+05         0.00000E+00
    0.86181E+05        -0.49994E+08         0.00000E+00
    0.00000E+00         0.00000E+00        -0.49824E+08
 
   -0.49656E+08         0.92688E+05         0.00000E+00
    0.92688E+05        -0.49993E+08         0.00000E+00
    0.00000E+00         0.00000E+00        -0.49826E+08
 
   -0.49660E+08         0.99120E+05         0.00000E+00
    0.99120E+05        -0.49992E+08         0.00000E+00
    0.00000E+00         0.00000E+00        -0.49827E+08
 
   -0.49665E+08         0.10548E+06         0.00000E+00
    0.10548E+06        -0.49991E+08         0.00000E+00
    0.00000E+00         0.00000E+00        -0.49829E+08
 
   -0.49670E+08         0.11175E+06         0.00000E+00
    0.11175E+06        -0.49990E+08         0.00000E+00
    0.00000E+00         0.00000E+00        -0.49831E+08
 
   -0.49675E+08         0.11795E+06         0.00000E+00
    0.11795E+06        -0.49989E+08         0.00000E+00
    0.00000E+00         0.00000E+00        -0.49832E+08
 
   -0.49680E+08         0.12405E+06         0.00000E+00
    0.12405E+06        -0.49987E+08         0.00000E+00
    0.00000E+00         0.00000E+00        -0.49834E+08
 
   -0.49685E+08         0.13007E+06         0.00000E+00
    0.13007E+06        -0.49986E+08         0.00000E+00
    0.00000E+00         0.00000E+00        -0.49836E+08
 
   -0.49690E+08         0.13600E+06         0.00000E+00
    0.13600E+06        -0.49985E+08         0.00000E+00
    0.00000E+00         0.00000E+00        -0.49838E+08
 
   -0.49696E+08         0.14183E+06         0.00000E+00
    0.14183E+06        -0.49983E+08         0.00000E+00
    0.00000E+00         0.00000E+00        -0.49839E+08
 
   -0.49702E+08         0.14756E+06         0.00000E+00
    0.14756E+06        -0.49981E+08         0.00000E+00
    0.00000E+00         0.00000E+00        -0.49841E+08
 
   -0.49707E+08         0.15319E+06         0.00000E+00
    0.15319E+06        -0.49980E+08         0.00000E+00
    0.00000E+00         0.00000E+00        -0.49843E+08
 
   -0.49713E+08         0.15872E+06         0.00000E+00
    0.15872E+06        -0.49978E+08         0.00000E+00
    0.00000E+00         0.00000E+00        -0.49845E+08
 
   -0.49719E+08         0.16414E+06         0.00000E+00
    0.16414E+06        -0.49976E+08         0.00000E+00
    0.00000E+00         0.00000E+00        -0.49847E+08
 
   -0.49726E+08         0.16945E+06         0.00000E+00
    0.16945E+06        -0.49974E+08         0.00000E+00
    0.00000E+00         0.00000E+00        -0.49849E+08
 
   -0.49732E+08         0.17464E+06         0.00000E+00
    0.17464E+06        -0.49972E+08         0.00000E+00
    0.00000E+00         0.00000E+00        -0.49851E+08
 
   -0.49738E+08         0.17973E+06         0.00000E+00
    0.17973E+06        -0.49970E+08         0.00000E+00
    0.00000E+00         0.00000E+00        -0.49853E+08
 
   -0.49745E+08         0.18470E+06         0.00000E+00
    0.18470E+06        -0.49968E+08         0.00000E+00
    0.00000E+00         0.00000E+00        -0.49855E+08
 
   -0.49752E+08         0.18954E+06         0.00000E+00
    0.18954E+06        -0.49966E+08         0.00000E+00
    0.00000E+00         0.00000E+00        -0.49857E+08
 
   -0.49758E+08         0.19427E+06         0.00000E+00
    0.19427E+06        -0.49964E+08         0.00000E+00
    0.00000E+00         0.00000E+00        -0.49859E+08
 
   -0.49765E+08         0.19887E+06         0.00000E+00
    0.19887E+06        -0.49962E+08         0.00000E+00
    0.00000E+00         0.00000E+00        -0.49861E+08
 
   -0.49772E+08         0.20335E+06         0.00000E+00
    0.20335E+06        -0.49960E+08         0.00000E+00
    0.00000E+00         0.00000E+00        -0.49863E+08
 
   -0.49779E+08         0.20769E+06         0.00000E+00
    0.20769E+06        -0.49957E+08         0.00000E+00
    0.00000E+00         0.00000E+00        -0.49865E+08
 
   -0.49786E+08         0.21191E+06         0.00000E+00
    0.21191E+06        -0.49955E+08         0.00000E+00
    0.00000E+00         0.00000E+00        -0.49867E+08
 
   -0.49793E+08         0.21600E+06         0.00000E+00
    0.21600E+06        -0.49952E+08         0.00000E+00
    0.00000E+00         0.00000E+00        -0.49869E+08
 
   -0.49800E+08         0.21995E+06         0.00000E+00
    0.21995E+06        -0.49950E+08         0.00000E+00
    0.00000E+00         0.00000E+00        -0.49871E+08
 
   -0.49807E+08         0.22377E+06         0.00000E+00
    0.22377E+06        -0.49947E+08         0.00000E+00
    0.00000E+00         0.00000E+00        -0.49873E+08
 
   -0.49814E+08         0.22745E+06         0.00000E+00
    0.22745E+06        -0.49945E+08         0.00000E+00
    0.00000E+00         0.00000E+00        -0.49875E+08
 
   -0.49822E+08         0.23100E+06         0.00000E+00
    0.23100E+06        -0.49942E+08         0.00000E+00
    0.00000E+00         0.00000E+00        -0.49877E+08
 
   -0.49829E+08         0.23440E+06         0.00000E+00
    0.23440E+06        -0.49939E+08         0.00000E+00
    0.00000E+00         0.00000E+00        -0.49878E+08
 
   -0.49836E+08         0.23767E+06         0.00000E+00
    0.23767E+06        -0.49936E+08         0.00000E+00
    0.00000E+00         0.00000E+00        -0.49880E+08
 
   -0.49843E+08         0.24080E+06         0.00000E+00
    0.24080E+06        -0.49934E+08         0.00000E+00
    0.00000E+00         0.00000E+00        -0.49882E+08
 
   -0.49850E+08         0.24379E+06         0.00000E+00
    0.24379E+06        -0.49931E+08         0.00000E+00
    0.00000E+00         0.00000E+00        -0.49883E+08
 
   -0.49858E+08         0.24663E+06         0.00000E+00
    0.24663E+06        -0.49928E+08         0.00000E+00
    0.00000E+00         0.00000E+00        -0.49884E+08
 
   -0.49865E+08         0.24934E+06         0.00000E+00
    0.24934E+06        -0.49925E+08         0.00000E+00
    0.00000E+00         0.00000E+00        -0.49886E+08
 
   -0.49872E+08         0.25191E+06         0.00000E+00
    0.25191E+06        -0.49922E+08         0.00000E+00
    0.00000E+00         0.00000E+00        -0.49887E+08
 
   -0.49879E+08         0.25433E+06         0.00000E+00
    0.25433E+06        -0.49919E+08         0.00000E+00
    0.00000E+00         0.00000E+00        -0.49888E+08
 
   -0.49886E+08         0.25661E+06         0.00000E+00
    0.25661E+06        -0.49916E+08         0.00000E+00
    0.00000E+00         0.00000E+00        -0.49889E+08
 
   -0.49579E+08         0.37875E+04         0.00000E+00
    0.37875E+04        -0.50000E+08         0.00000E+00
    0.00000E+00         0.00000E+00        -0.49795E+08
 
   -0.49581E+08         0.11298E+05         0.00000E+00
    0.11298E+05        -0.50000E+08         0.00000E+00
    0.00000E+00         0.00000E+00        -0.49796E+08
 
   -0.49583E+08         0.18777E+05         0.00000E+00
    0.18777E+05        -0.50000E+08         0.00000E+00
    0.00000E+00         0.00000E+00        -0.49796E+08
 
   -0.49586E+08         0.26220E+05         0.00000E+00
    0.26220E+05        -0.50000E+08         0.00000E+00
    0.00000E+00         0.00000E+00        -0.49797E+08
 
   -0.49588E+08         0.33624E+05         0.00000E+00
    0.33624E+05        -0.49999E+08         0.00000E+00
    0.00000E+00         0.00000E+00        -0.49798E+08
 
   -0.49591E+08         0.40986E+05         0.00000E+00
    0.40986E+05        -0.49999E+08         0.00000E+00
    0.00000E+00         0.00000E+00        -0.49799E+08
 
   -0.49595E+08         0.48301E+05         0.00000E+00
    0.48301E+05        -0.49998E+08         0.00000E+00
    0.00000E+00         0.00000E+00        -0.49800E+08
 
   -0.49598E+08         0.55566E+05         0.00000E+00
    0.55566E+05        -0.49998E+08         0.00000E+00
    0.00000E+00         0.00000E+00        -0.49801E+08
 
   -0.49602E+08         0.62777E+05         0.00000E+00
    0.62777E+05        -0.49997E+08         0.00000E+00
    0.00000E+00         0.00000E+00        -0.49802E+08
 
   -0.49605E+08         0.69932E+05         0.00000E+00
    0.69932E+05        -0.49996E+08         0.00000E+00
    0.00000E+00         0.00000E+00        -0.49803E+08
 
   -0.49609E+08         0.77025E+05         0.00000E+00
    0.77025E+05        -0.49996E+08         0.00000E+00
    0.00000E+00         0.00000E+00        -0.49804E+08
 
   -0.49614E+08         0.84054E+05         0.00000E+00
    0.84054E+05        -0.49995E+08         0.00000E+00
    0.00000E+00         0.00000E+00        -0.49806E+08
 
   -0.49618E+08         0.91015E+05         0.00000E+00
    0.91015E+05        -0.49994E+08         0.00000E+00
    0.00000E+00         0.00000E+00        -0.49807E+08
 
   -0.49623E+08         0.97905E+05         0.00000E+00
    0.97905E+05        -0.49993E+08         0.00000E+00
    0.00000E+00         0.00000E+00        -0.49809E+08
 
   -0.49628E+08         0.10472E+06         0.00000E+00
    0.10472E+06        -0.49992E+08         0.00000E+00
    0.00000E+00         0.00000E+00        -0.49811E+08
 
   -0.49633E+08         0.11145E+06         0.00000E+00
    0.11145E+06        -0.49990E+08         0.00000E+00
    0.00000E+00         0.00000E+00        -0.49812E+08
 
   -0.49638E+08         0.11811E+06         0.00000E+00
    0.11811E+06        -0.49989E+08         0.00000E+00
    0.00000E+00         0.00000E+00        -0.49814E+08
 
   -0.49643E+08         0.12468E+06         0.00000E+00
    0.12468E+06        -0.49988E+08         0.00000E+00
    0.00000E+00         0.00000E+00        -0.49816E+08
 
   -0.49649E+08         0.13115E+06         0.00000E+00
    0.13115E+06        -0.49986E+08         0.00000E+00
    0.00000E+00         0.00000E+00        -0.49818E+08
 
   -0.49654E+08         0.13754E+06         0.00000E+00
    0.13754E+06        -0.49985E+08         0.00000E+00
    0.00000E+00         0.00000E+00        -0.49820E+08
 
   -0.49660E+08         0.14383E+06         0.00000E+00
    0.14383E+06        -0.49983E+08         0.00000E+00
    0.00000E+00         0.00000E+00        -0.49822E+08
 
   -0.49666E+08         0.15002E+06         0.00000E+00
    0.15002E+06        -0.49981E+08         0.00000E+00
    0.00000E+00         0.00000E+00        -0.49824E+08
 
   -0.49672E+08         0.15611E+06         0.00000E+00
    0.15611E+06        -0.49980E+08         0.00000E+00
    0.00000E+00         0.00000E+00        -0.49826E+08
 
   -0.49679E+08         0.16210E+06         0.00000E+00
    0.16210E+06        -0.49978E+08         0.00000E+00
    0.00000E+00         0.00000E+00        -0.49828E+08
 
   -0.49685E+08         0.16797E+06         0.00000E+00
    0.16797E+06        -0.49976E+08         0.00000E+00
    0.00000E+00         0.00000E+00        -0.49830E+08
 
   -0.49692E+08         0.17374E+06         0.00000E+00
    0.17374E+06        -0.49974E+08         0.00000E+00
    0.00000E+00         0.00000E+00        -0.49832E+08
 
   -0.49699E+08         0.17939E+06         0.00000E+00
    0.17939E+06        -0.49972E+08         0.00000E+00
    0.00000E+00         0.00000E+00        -0.49834E+08
 
   -0.49705E+08         0.18492E+06         0.00000E+00
    0.18492E+06        -0.49970E+08         0.00000E+00
    0.00000E+00         0.00000E+00        -0.49837E+08
 
   -0.49712E+08         0.19034E+06         0.00000E+00
    0.19034E+06        -0.49968E+08         0.00000E+00
    0.00000E+00         0.00000E+00        -0.49839E+08
 
   -0.49720E+08         0.19563E+06         0.00000E+00
    0.19563E+06        -0.49965E+08         0.00000E+00
    0.00000E+00         0.00000E+00        -0.49841E+08
 
   -0.49727E+08         0.20080E+06         0.00000E+00
    0.20080E+06        -0.49963E+08         0.00000E+00
    0.00000E+00         0.00000E+00        -0.49843E+08
 
   -0.49734E+08         0.20584E+06         0.00000E+00
    0.20584E+06        -0.49961E+08         0.00000E+00
    0.00000E+00         0.00000E+00        -0.49845E+08
 
   -0.49742E+08         0.21075E+06         0.00000E+00
    0.21075E+06        -0.49958E+08         0.00000E+00
    0.00000E+00         0.00000E+00        -0.49848E+08
 
   -0.49749E+08         0.21552E+06         0.00000E+00
    0.21552E+06        -0.49956E+08         0.00000E+00
    0.00000E+00         0.00000E+00        -0.49850E+08
 
   -0.49757E+08         0.22016E+06         0.00000E+00
    0.22016E+06        -0.49953E+08         0.00000E+00
    0.00000E+00         0.00000E+00        -0.49852E+08
 
   -0.49764E+08         0.22467E+06         0.00000E+00
    0.22467E+06        -0.49950E+08         0.00000E+00
    0.00000E+00         0.00000E+00        -0.49854E+08
 
   -0.49772E+08         0.22904E+06         0.00000E+00
    0.22904E+06        -0.49948E+08         0.00000E+00
    0.00000E+00         0.00000E+00        -0.49856E+08
 
   -0.49780E+08         0.23327E+06         0.00000E+00
    0.23327E+06        -0.49945E+08         0.00000E+00
    0.00000E+00         0.00000E+00        -0.49858E+08
 
   -0.49788E+08         0.23735E+06         0.00000E+00
    0.23735E+06        -0.49942E+08         0.00000E+00
    0.00000E+00         0.00000E+00        -0.49860E+08
 
   -0.49796E+08         0.24129E+06         0.00000E+00
    0.24129E+06        -0.49939E+08         0.00000E+00
    0.00000E+00         0.00000E+00        -0.49862E+08
 
   -0.49804E+08         0.24509E+06         0.00000E+00
    0.24509E+06        -0.49936E+08         0.00000E+00
    0.00000E+00         0.00000E+00        -0.49864E+08
 
   -0.49811E+08         0.24874E+06         0.00000E+00
    0.24874E+06        -0.49933E+08         0.00000E+00
    0.00000E+00         0.00000E+00        -0.49866E+08
 
   -0.49819E+08         0.25225E+06         0.00000E+00
    0.25225E+06        -0.49930E+08         0.00000E+00
    0.00000E+00         0.00000E+00        -0.49868E+08
 
   -0.49827E+08         0.25560E+06         0.00000E+00
    0.25560E+06        -0.49927E+08         0.00000E+00
    0.00000E+00         0.00000E+00        -0.49870E+08
 
   -0.49835E+08         0.25881E+06         0.00000E+00
    0.25881E+06        -0.49924E+08         0.00000E+00
    0.00000E+00         0.00000E+00        -0.49871E+08
 
   -0.49843E+08         0.26187E+06         0.00000E+00
    0.26187E+06        -0.49921E+08         0.00000E+00
    0.00000E+00         0.00000E+00        -0.49873E+08
 
   -0.49851E+08         0.26477E+06         0.00000E+00
    0.26477E+06        -0.49918E+08         0.00000E+00
    0.00000E+00         0.00000E+00        -0.49874E+08
 
   -0.49859E+08         0.26753E+06         0.00000E+00
    0.26753E+06        -0.49914E+08         0.00000E+00
    0.00000E+00         0.00000E+00        -0.49876E+08
 
   -0.49867E+08         0.27014E+06         0.00000E+00
    0.27014E+06        -0.49911E+08         0.00000E+00
    0.00000E+00         0.00000E+00        -0.49877E+08
 
   -0.49874E+08         0.27260E+06         0.00000E+00
    0.27260E+06        -0.49908E+08         0.00000E+00
    0.00000E+00         0.00000E+00        -0.49878E+08
 
   -0.49540E+08         0.39943E+04         0.00000E+00
    0.39943E+04        -0.50000E+08         0.00000E+00
    0.00000E+00         0.00000E+00        -0.49776E+08
 
   -0.49542E+08         0.11924E+05         0.00000E+00
    0.11924E+05        -0.50000E+08         0.00000E+00
    0.00000E+00         0.00000E+00        -0.49777E+08
 
   -0.49545E+08         0.19823E+05         0.00000E+00
    0.19823E+05        -0.50000E+08         0.00000E+00
    0.00000E+00         0.00000E+00        -0.49777E+08
 
   -0.49547E+08         0.27688E+05         0.00000E+00
    0.27688E+05        -0.49999E+08         0.00000E+00
    0.00000E+00         0.00000E+00        -0.49778E+08
 
   -0.49550E+08         0.35516E+05         0.00000E+00
    0.35516E+05        -0.49999E+08         0.00000E+00
    0.00000E+00         0.00000E+00        -0.49779E+08
 
   -0.49554E+08         0.43302E+05         0.00000E+00
    0.43302E+05        -0.49999E+08         0.00000E+00
    0.00000E+00         0.00000E+00        -0.49780E+08
 
   -0.49557E+08         0.51042E+05         0.00000E+00
    0.51042E+05        -0.49998E+08         0.00000E+00
    0.00000E+00         0.00000E+00        -0.49781E+08
 
   -0.49561E+08         0.58733E+05         0.00000E+00
    0.58733E+05        -0.49998E+08         0.00000E+00
    0.00000E+00         0.00000E+00        -0.49782E+08
 
   -0.49565E+08         0.66370E+05         0.00000E+00
    0.66370E+05        -0.49997E+08         0.00000E+00
    0.00000E+00         0.00000E+00        -0.49783E+08
 
   -0.49569E+08         0.73950E+05         0.00000E+00
    0.73950E+05        -0.49996E+08         0.00000E+00
    0.00000E+00         0.00000E+00        -0.49785E+08
 
   -0.49573E+08         0.81469E+05         0.00000E+00
    0.81469E+05        -0.49995E+08         0.00000E+00
    0.00000E+00         0.00000E+00        -0.49786E+08
 
   -0.49578E+08         0.88922E+05         0.00000E+00
    0.88922E+05        -0.49994E+08         0.00000E+00
    0.00000E+00         0.00000E+00        -0.49788E+08
 
   -0.49582E+08         0.96306E+05         0.00000E+00
    0.96306E+05        -0.49993E+08         0.00000E+00
    0.00000E+00         0.00000E+00        -0.49789E+08
 
   -0.49587E+08         0.10362E+06         0.00000E+00
    0.10362E+06        -0.49992E+08         0.00000E+00
    0.00000E+00         0.00000E+00        -0.49791E+08
 
   -0.49593E+08         0.11085E+06         0.00000E+00
    0.11085E+06        -0.49991E+08         0.00000E+00
    0.00000E+00         0.00000E+00        -0.49793E+08
 
   -0.49598E+08         0.11800E+06         0.00000E+00
    0.11800E+06        -0.49989E+08         0.00000E+00
    0.00000E+00         0.00000E+00        -0.49795E+08
 
   -0.49604E+08         0.12507E+06         0.00000E+00
    0.12507E+06        -0.49988E+08         0.00000E+00
    0.00000E+00         0.00000E+00        -0.49797E+08
 
   -0.49609E+08         0.13205E+06         0.00000E+00
    0.13205E+06        -0.49986E+08         0.00000E+00
    0.00000E+00         0.00000E+00        -0.49799E+08
 
   -0.49615E+08         0.13894E+06         0.00000E+00
    0.13894E+06        -0.49985E+08         0.00000E+00
    0.00000E+00         0.00000E+00        -0.49801E+08
 
   -0.49622E+08         0.14573E+06         0.00000E+00
    0.14573E+06        -0.49983E+08         0.00000E+00
    0.00000E+00         0.00000E+00        -0.49803E+08
 
   -0.49628E+08         0.15242E+06         0.00000E+00
    0.15242E+06        -0.49981E+08         0.00000E+00
    0.00000E+00         0.00000E+00        -0.49805E+08
 
   -0.49635E+08         0.15901E+06         0.00000E+00
    0.15901E+06        -0.49980E+08         0.00000E+00
    0.00000E+00         0.00000E+00        -0.49807E+08
 
   -0.49641E+08         0.16550E+06         0.00000E+00
    0.16550E+06        -0.49978E+08         0.00000E+00
    0.00000E+00         0.00000E+00        -0.49809E+08
 
   -0.49648E+08         0.17187E+06         0.00000E+00
    0.17187E+06        -0.49976E+08         0.00000E+00
    0.00000E+00         0.00000E+00        -0.49812E+08
 
   -0.49655E+08         0.17813E+06         0.00000E+00
    0.17813E+06        -0.49974E+08         0.00000E+00
    0.00000E+00         0.00000E+00        -0.49814E+08
 
   -0.49662E+08         0.18428E+06         0.00000E+00
    0.18428E+06        -0.49971E+08         0.00000E+00
    0.00000E+00         0.00000E+00        -0.49816E+08
 
   -0.49670E+08         0.19030E+06         0.00000E+00
    0.19030E+06        -0.49969E+08         0.00000E+00
    0.00000E+00         0.00000E+00        -0.49819E+08
 
   -0.49677E+08         0.19620E+06         0.00000E+00
    0.19620E+06        -0.49967E+08         0.00000E+00
    0.00000E+00         0.00000E+00        -0.49821E+08
 
   -0.49685E+08         0.20198E+06         0.00000E+00
    0.20198E+06        -0.49964E+08         0.00000E+00
    0.00000E+00         0.00000E+00        -0.49823E+08
 
   -0.49693E+08         0.20763E+06         0.00000E+00
    0.20763E+06        -0.49962E+08         0.00000E+00
    0.00000E+00         0.00000E+00        -0.49826E+08
 
   -0.49700E+08         0.21315E+06         0.00000E+00
    0.21315E+06        -0.49959E+08         0.00000E+00
    0.00000E+00         0.00000E+00        -0.49828E+08
 
   -0.49708E+08         0.21853E+06         0.00000E+00
    0.21853E+06        -0.49957E+08         0.00000E+00
    0.00000E+00         0.00000E+00        -0.49831E+08
 
   -0.49717E+08         0.22378E+06         0.00000E+00
    0.22378E+06        -0.49954E+08         0.00000E+00
    0.00000E+00         0.00000E+00        -0.49833E+08
 
   -0.49725E+08         0.22889E+06         0.00000E+00
    0.22889E+06        -0.49951E+08         0.00000E+00
    0.00000E+00         0.00000E+00        -0.49835E+08
 
   -0.49733E+08         0.23386E+06         0.00000E+00
    0.23386E+06        -0.49949E+08         0.00000E+00
    0.00000E+00         0.00000E+00        -0.49838E+08
 
   -0.49741E+08         0.23868E+06         0.00000E+00
    0.23868E+06        -0.49946E+08         0.00000E+00
    0.00000E+00         0.00000E+00        -0.49840E+08
 
   -0.49750E+08         0.24336E+06         0.00000E+00
    0.24336E+06        -0.49943E+08         0.00000E+00
    0.00000E+00         0.00000E+00        -0.49842E+08
 
   -0.49758E+08         0.24789E+06         0.00000E+00
    0.24789E+06        -0.49940E+08         0.00000E+00
    0.00000E+00         0.00000E+00        -0.49845E+08
 
   -0.49767E+08         0.25227E+06         0.00000E+00
    0.25227E+06        -0.49937E+08         0.00000E+00
    0.00000E+00         0.00000E+00        -0.49847E+08
 
   -0.49776E+08         0.25650E+06         0.00000E+00
    0.25650E+06        -0.49933E+08         0.00000E+00
    0.00000E+00         0.00000E+00        -0.49849E+08
 
   -0.49784E+08         0.26058E+06         0.00000E+00
    0.26058E+06        -0.49930E+08         0.00000E+00
    0.00000E+00         0.00000E+00        -0.49851E+08
 
   -0.49793E+08         0.26451E+06         0.00000E+00
    0.26451E+06        -0.49927E+08         0.00000E+00
    0.00000E+00         0.00000E+00        -0.49853E+08
 
   -0.49802E+08         0.26827E+06         0.00000E+00
    0.26827E+06        -0.49924E+08         0.00000E+00
    0.00000E+00         0.00000E+00        -0.49855E+08
 
   -0.49810E+08         0.27189E+06         0.00000E+00
    0.27189E+06        -0.49920E+08         0.00000E+00
    0.00000E+00         0.00000E+00        -0.49857E+08
 
   -0.49819E+08         0.27534E+06         0.00000E+00
    0.27534E+06        -0.49917E+08         0.00000E+00
    0.00000E+00         0.00000E+00        -0.49859E+08
 
   -0.49828E+08         0.27864E+06         0.00000E+00
    0.27864E+06        -0.49913E+08         0.00000E+00
    0.00000E+00         0.00000E+00        -0.49860E+08
 
   -0.49836E+08         0.28177E+06         0.00000E+00
    0.28177E+06        -0.49910E+08         0.00000E+00
    0.00000E+00         0.00000E+00        -0.49862E+08
 
   -0.49845E+08         0.28475E+06         0.00000E+00
    0.28475E+06        -0.49906E+08         0.00000E+00
    0.00000E+00         0.00000E+00        -0.49863E+08
 
   -0.49853E+08         0.28757E+06         0.00000E+00
    0.28757E+06        -0.49902E+08         0.00000E+00
    0.00000E+00         0.00000E+00        -0.49864E+08
 
   -0.49862E+08         0.29023E+06         0.00000E+00
    0.29023E+06        -0.49899E+08         0.00000E+00
    0.00000E+00         0.00000E+00        -0.49866E+08
 
   -0.49499E+08         0.42189E+04         0.00000E+00
    0.42189E+04        -0.50000E+08         0.00000E+00
    0.00000E+00         0.00000E+00        -0.49756E+08
 
   -0.49502E+08         0.12605E+05         0.00000E+00
    0.12605E+05        -0.50000E+08         0.00000E+00
    0.00000E+00         0.00000E+00        -0.49757E+08
 
   -0.49504E+08         0.20964E+05         0.00000E+00
    0.20964E+05        -0.50000E+08         0.00000E+00
    0.00000E+00         0.00000E+00        -0.49757E+08
 
   -0.49507E+08         0.29292E+05         0.00000E+00
    0.29292E+05        -0.49999E+08         0.00000E+00
    0.00000E+00         0.00000E+00        -0.49758E+08
 
   -0.49510E+08         0.37584E+05         0.00000E+00
    0.37584E+05        -0.49999E+08         0.00000E+00
    0.00000E+00         0.00000E+00        -0.49759E+08
 
   -0.49514E+08         0.45836E+05         0.00000E+00
    0.45836E+05        -0.49999E+08         0.00000E+00
    0.00000E+00         0.00000E+00        -0.49760E+08
 
   -0.49517E+08         0.54044E+05         0.00000E+00
    0.54044E+05        -0.49998E+08         0.00000E+00
    0.00000E+00         0.00000E+00        -0.49761E+08
 
   -0.49521E+08         0.62203E+05         0.00000E+00
    0.62203E+05        -0.49997E+08         0.00000E+00
    0.00000E+00         0.00000E+00        -0.49762E+08
 
   -0.49525E+08         0.70308E+05         0.00000E+00
    0.70308E+05        -0.49997E+08         0.00000E+00
    0.00000E+00         0.00000E+00        -0.49764E+08
 
   -0.49530E+08         0.78356E+05         0.00000E+00
    0.78356E+05        -0.49996E+08         0.00000E+00
    0.00000E+00         0.00000E+00        -0.49765E+08
 
   -0.49535E+08         0.86343E+05         0.00000E+00
    0.86343E+05        -0.49995E+08         0.00000E+00
    0.00000E+00         0.00000E+00        -0.49767E+08
 
   -0.49539E+08         0.94263E+05         0.00000E+00
    0.94263E+05        -0.49994E+08         0.00000E+00
    0.00000E+00         0.00000E+00        -0.49768E+08
 
   -0.49545E+08         0.10211E+06         0.00000E+00
    0.10211E+06        -0.49992E+08         0.00000E+00
    0.00000E+00         0.00000E+00        -0.49770E+08
 
   -0.49550E+08         0.10989E+06         0.00000E+00
    0.10989E+06        -0.49991E+08         0.00000E+00
    0.00000E+00         0.00000E+00        -0.49772E+08
 
   -0.49556E+08         0.11758E+06         0.00000E+00
    0.11758E+06        -0.49990E+08         0.00000E+00
    0.00000E+00         0.00000E+00        -0.49774E+08
 
   -0.49561E+08         0.12519E+06         0.00000E+00
    0.12519E+06        -0.49988E+08         0.00000E+00
    0.00000E+00         0.00000E+00        -0.49776E+08
 
   -0.49567E+08         0.13272E+06         0.00000E+00
    0.13272E+06        -0.49987E+08         0.00000E+00
    0.00000E+00         0.00000E+00        -0.49778E+08
 
   -0.49574E+08         0.14015E+06         0.00000E+00
    0.14015E+06        -0.49985E+08         0.00000E+00
    0.00000E+00         0.00000E+00        -0.49780E+08
 
   -0.49580E+08         0.14749E+06         0.00000E+00
    0.14749E+06        -0.49983E+08         0.00000E+00
    0.00000E+00         0.00000E+00        -0.49782E+08
 
   -0.49587E+08         0.15472E+06         0.00000E+00
    0.15472E+06        -0.49982E+08         0.00000E+00
    0.00000E+00         0.00000E+00        -0.49784E+08
 
   -0.49594E+08         0.16186E+06         0.00000E+00
    0.16186E+06        -0.49980E+08         0.00000E+00
    0.00000E+00         0.00000E+00        -0.49787E+08
 
   -0.49601E+08         0.16888E+06         0.00000E+00
    0.16888E+06        -0.49978E+08         0.00000E+00
    0.00000E+00         0.00000E+00        -0.49789E+08
 
   -0.49608E+08         0.17580E+06         0.00000E+00
    0.17580E+06        -0.49975E+08         0.00000E+00
    0.00000E+00         0.00000E+00        -0.49792E+08
 
   -0.49615E+08         0.18259E+06         0.00000E+00
    0.18259E+06        -0.49973E+08         0.00000E+00
    0.00000E+00         0.00000E+00        -0.49794E+08
 
   -0.49623E+08         0.18928E+06         0.00000E+00
    0.18928E+06        -0.49971E+08         0.00000E+00
    0.00000E+00         0.00000E+00        -0.49796E+08
 
   -0.49631E+08         0.19583E+06         0.00000E+00
    0.19583E+06        -0.49969E+08         0.00000E+00
    0.00000E+00         0.00000E+00        -0.49799E+08
 
   -0.49639E+08         0.20227E+06         0.00000E+00
    0.20227E+06        -0.49966E+08         0.00000E+00
    0.00000E+00         0.00000E+00        -0.49801E+08
 
   -0.49647E+08         0.20857E+06         0.00000E+00
    0.20857E+06        -0.49964E+08         0.00000E+00
    0.00000E+00         0.00000E+00        -0.49804E+08
 
   -0.49655E+08         0.21475E+06         0.00000E+00
    0.21475E+06        -0.49961E+08         0.00000E+00
    0.00000E+00         0.00000E+00        -0.49807E+08
 
   -0.49664E+08         0.22079E+06         0.00000E+00
    0.22079E+06        -0.49958E+08         0.00000E+00
    0.00000E+00         0.00000E+00        -0.49809E+08
 
   -0.49672E+08         0.22669E+06         0.00000E+00
    0.22669E+06        -0.49955E+08         0.00000E+00
    0.00000E+00         0.00000E+00        -0.49812E+08
 
   -0.49681E+08         0.23245E+06         0.00000E+00
    0.23245E+06        -0.49953E+08         0.00000E+00
    0.00000E+00         0.00000E+00        -0.49814E+08
 
   -0.49690E+08         0.23807E+06         0.00000E+00
    0.23807E+06        -0.49950E+08         0.00000E+00
    0.00000E+00         0.00000E+00        -0.49817E+08
 
   -0.49699E+08         0.24354E+06         0.00000E+00
    0.24354E+06        -0.49947E+08         0.00000E+00
    0.00000E+00         0.00000E+00        -0.49820E+08
 
   -0.49708E+08         0.24886E+06         0.00000E+00
    0.24886E+06        -0.49944E+08         0.00000E+00
    0.00000E+00         0.00000E+00        -0.49822E+08
 
   -0.49717E+08         0.25403E+06         0.00000E+00
    0.25403E+06        -0.49940E+08         0.00000E+00
    0.00000E+00         0.00000E+00        -0.49825E+08
 
   -0.49726E+08         0.25905E+06         0.00000E+00
    0.25905E+06        -0.49937E+08         0.00000E+00
    0.00000E+00         0.00000E+00        -0.49827E+08
 
   -0.49735E+08         0.26392E+06         0.00000E+00
    0.26392E+06        -0.49934E+08         0.00000E+00
    0.00000E+00         0.00000E+00        -0.49830E+08
 
   -0.49745E+08         0.26863E+06         0.00000E+00
    0.26863E+06        -0.49930E+08         0.00000E+00
    0.00000E+00         0.00000E+00        -0.49832E+08
 
   -0.49754E+08         0.27318E+06         0.00000E+00
    0.27318E+06        -0.49927E+08         0.00000E+00
    0.00000E+00         0.00000E+00        -0.49834E+08
 
   -0.49763E+08         0.27757E+06         0.00000E+00
    0.27757E+06        -0.49923E+08         0.00000E+00
    0.00000E+00         0.00000E+00        -0.49837E+08
 
   -0.49773E+08         0.28179E+06         0.00000E+00
    0.28179E+06        -0.49920E+08         0.00000E+00
    0.00000E+00         0.00000E+00        -0.49839E+08
 
   -0.49782E+08         0.28586E+06         0.00000E+00
    0.28586E+06        -0.49916E+08         0.00000E+00
    0.00000E+00         0.00000E+00        -0.49841E+08
 
   -0.49792E+08         0.28975E+06         0.00000E+00
    0.28975E+06        -0.49912E+08         0.00000E+00
    0.00000E+00         0.00000E+00        -0.49843E+08
 
   -0.49801E+08         0.29348E+06         0.00000E+00
    0.29348E+06        -0.49909E+08         0.00000E+00
    0.00000E+00         0.00000E+00        -0.49845E+08
 
   -0.49811E+08         0.29705E+06         0.00000E+00
    0.29705E+06        -0.49905E+08         0.00000E+00
    0.00000E+00         0.00000E+00        -0.49847E+08
 
   -0.49820E+08         0.30045E+06         0.00000E+00
    0.30045E+06        -0.49901E+08         0.00000E+00
    0.00000E+00         0.00000E+00        -0.49848E+08
 
   -0.49830E+08         0.30367E+06         0.00000E+00
    0.30367E+06        -0.49897E+08         0.00000E+00
    0.00000E+00         0.00000E+00        -0.49850E+08
 
   -0.49839E+08         0.30673E+06         0.00000E+00
    0.30673E+06        -0.49893E+08         0.00000E+00
    0.00000E+00         0.00000E+00        -0.49851E+08
 
   -0.49848E+08         0.30962E+06         0.00000E+00
    0.30962E+06        -0.49889E+08         0.00000E+00
    0.00000E+00         0.00000E+00        -0.49853E+08
 
   -0.49456E+08         0.44646E+04         0.00000E+00
    0.44646E+04        -0.50000E+08         0.00000E+00
    0.00000E+00         0.00000E+00        -0.49735E+08
 
   -0.49458E+08         0.13353E+05         0.00000E+00
    0.13353E+05        -0.50000E+08         0.00000E+00
    0.00000E+00         0.00000E+00        -0.49735E+08
 
   -0.49461E+08         0.22219E+05         0.00000E+00
    0.22219E+05        -0.50000E+08         0.00000E+00
    0.00000E+00         0.00000E+00        -0.49736E+08
 
   -0.49464E+08         0.31056E+05         0.00000E+00
    0.31056E+05        -0.49999E+08         0.00000E+00
    0.00000E+00         0.00000E+00        -0.49737E+08
 
   -0.49468E+08         0.39861E+05         0.00000E+00
    0.39861E+05        -0.49999E+08         0.00000E+00
    0.00000E+00         0.00000E+00        -0.49738E+08
 
   -0.49471E+08         0.48627E+05         0.00000E+00
    0.48627E+05        -0.49998E+08         0.00000E+00
    0.00000E+00         0.00000E+00        -0.49739E+08
 
   -0.49475E+08         0.57351E+05         0.00000E+00
    0.57351E+05        -0.49998E+08         0.00000E+00
    0.00000E+00         0.00000E+00        -0.49740E+08
 
   -0.49479E+08         0.66028E+05         0.00000E+00
    0.66028E+05        -0.49997E+08         0.00000E+00
    0.00000E+00         0.00000E+00        -0.49741E+08
 
   -0.49484E+08         0.74651E+05         0.00000E+00
    0.74651E+05        -0.49996E+08         0.00000E+00
    0.00000E+00         0.00000E+00        -0.49743E+08
 
   -0.49488E+08         0.83216E+05         0.00000E+00
    0.83216E+05        -0.49995E+08         0.00000E+00
    0.00000E+00         0.00000E+00        -0.49744E+08
 
   -0.49493E+08         0.91719E+05         0.00000E+00
    0.91719E+05        -0.49994E+08         0.00000E+00
    0.00000E+00         0.00000E+00        -0.49746E+08
 
   -0.49499E+08         0.10015E+06         0.00000E+00
    0.10015E+06        -0.49993E+08         0.00000E+00
    0.00000E+00         0.00000E+00        -0.49748E+08
 
   -0.49504E+08         0.10852E+06         0.00000E+00
    0.10852E+06        -0.49992E+08         0.00000E+00
    0.00000E+00         0.00000E+00        -0.49750E+08
 
   -0.49510E+08         0.11680E+06         0.00000E+00
    0.11680E+06        -0.49990E+08         0.00000E+00
    0.00000E+00         0.00000E+00        -0.49752E+08
 
   -0.49516E+08         0.12501E+06         0.00000E+00
    0.12501E+06        -0.49989E+08         0.00000E+00
    0.00000E+00         0.00000E+00        -0.49754E+08
 
   -0.49522E+08         0.13312E+06         0.00000E+00
    0.13312E+06        -0.49987E+08         0.00000E+00
    0.00000E+00         0.00000E+00        -0.49756E+08
 
   -0.49529E+08         0.14115E+06         0.00000E+00
    0.14115E+06        -0.49985E+08         0.00000E+00
    0.00000E+00         0.00000E+00        -0.49758E+08
 
   -0.49536E+08         0.14907E+06         0.00000E+00
    0.14907E+06        -0.49984E+08         0.00000E+00
    0.00000E+00         0.00000E+00        -0.49760E+08
 
   -0.49543E+08         0.15690E+06         0.00000E+00
    0.15690E+06        -0.49982E+08         0.00000E+00
    0.00000E+00         0.00000E+00        -0.49763E+08
 
   -0.49550E+08         0.16463E+06         0.00000E+00
    0.16463E+06        -0.49980E+08         0.00000E+00
    0.00000E+00         0.00000E+00        -0.49765E+08
 
   -0.49557E+08         0.17224E+06         0.00000E+00
    0.17224E+06        -0.49977E+08         0.00000E+00
    0.00000E+00         0.00000E+00        -0.49767E+08
 
   -0.49565E+08         0.17974E+06         0.00000E+00
    0.17974E+06        -0.49975E+08         0.00000E+00
    0.00000E+00         0.00000E+00        -0.49770E+08
 
   -0.49573E+08         0.18712E+06         0.00000E+00
    0.18712E+06        -0.49973E+08         0.00000E+00
    0.00000E+00         0.00000E+00        -0.49772E+08
 
   -0.49581E+08         0.19439E+06         0.00000E+00
    0.19439E+06        -0.49970E+08         0.00000E+00
    0.00000E+00         0.00000E+00        -0.49775E+08
 
   -0.49589E+08         0.20152E+06         0.00000E+00
    0.20152E+06        -0.49968E+08         0.00000E+00
    0.00000E+00         0.00000E+00        -0.49778E+08
 
   -0.49597E+08         0.20853E+06         0.00000E+00
    0.20853E+06        -0.49965E+08         0.00000E+00
    0.00000E+00         0.00000E+00        -0.49780E+08
 
   -0.49606E+08         0.21541E+06         0.00000E+00
    0.21541E+06        -0.49963E+08         0.00000E+00
    0.00000E+00         0.00000E+00        -0.49783E+08
 
   -0.49615E+08         0.22215E+06         0.00000E+00
    0.22215E+06        -0.49960E+08         0.00000E+00
    0.00000E+00         0.00000E+00        -0.49786E+08
 
   -0.49624E+08         0.22876E+06         0.00000E+00
    0.22876E+06        -0.49957E+08         0.00000E+00
    0.00000E+00         0.00000E+00        -0.49789E+08
 
   -0.49633E+08         0.23522E+06         0.00000E+00
    0.23522E+06        -0.49954E+08         0.00000E+00
    0.00000E+00         0.00000E+00        -0.49791E+08
 
   -0.49642E+08         0.24153E+06         0.00000E+00
    0.24153E+06        -0.49951E+08         0.00000E+00
    0.00000E+00         0.00000E+00        -0.49794E+08
 
   -0.49651E+08         0.24770E+06         0.00000E+00
    0.24770E+06        -0.49948E+08         0.00000E+00
    0.00000E+00         0.00000E+00        -0.49797E+08
 
   -0.49661E+08         0.25372E+06         0.00000E+00
    0.25372E+06        -0.49945E+08         0.00000E+00
    0.00000E+00         0.00000E+00        -0.49800E+08
 
   -0.49671E+08         0.25958E+06         0.00000E+00
    0.25958E+06        -0.49941E+08         0.00000E+00
    0.00000E+00         0.00000E+00        -0.49803E+08
 
   -0.49680E+08         0.26529E+06         0.00000E+00
    0.26529E+06        -0.49938E+08         0.00000E+00
    0.00000E+00         0.00000E+00        -0.49805E+08
 
   -0.49690E+08         0.27084E+06         0.00000E+00
    0.27084E+06        -0.49934E+08         0.00000E+00
    0.00000E+00         0.00000E+00        -0.49808E+08
 
   -0.49700E+08         0.27623E+06         0.00000E+00
    0.27623E+06        -0.49931E+08         0.00000E+00
    0.00000E+00         0.00000E+00        -0.49811E+08
 
   -0.49710E+08         0.28146E+06         0.00000E+00
    0.28146E+06        -0.49927E+08         0.00000E+00
    0.00000E+00         0.00000E+00        -0.49814E+08
 
   -0.49721E+08         0.28652E+06         0.00000E+00
    0.28652E+06        -0.49923E+08         0.00000E+00
    0.00000E+00         0.00000E+00        -0.49816E+08
 
   -0.49731E+08         0.29142E+06         0.00000E+00
    0.29142E+06        -0.49920E+08         0.00000E+00
    0.00000E+00         0.00000E+00        -0.49819E+08
 
   -0.49741E+08         0.29615E+06         0.00000E+00
    0.29615E+06        -0.49916E+08         0.00000E+00
    0.00000E+00         0.00000E+00        -0.49821E+08
 
   -0.49751E+08         0.30070E+06         0.00000E+00
    0.30070E+06        -0.49912E+08         0.00000E+00
    0.00000E+00         0.00000E+00        -0.49824E+08
 
   -0.49762E+08         0.30509E+06         0.00000E+00
    0.30509E+06        -0.49908E+08         0.00000E+00
    0.00000E+00         0.00000E+00        -0.49826E+08
 
   -0.49772E+08         0.30930E+06         0.00000E+00
    0.30930E+06        -0.49904E+08         0.00000E+00
    0.00000E+00         0.00000E+00        -0.49828E+08
 
   -0.49782E+08         0.31334E+06         0.00000E+00
    0.31334E+06        -0.49900E+08         0.00000E+00
    0.00000E+00         0.00000E+00        -0.49830E+08
 
   -0.49793E+08         0.31721E+06         0.00000E+00
    0.31721E+06        -0.49896E+08         0.00000E+00
    0.00000E+00         0.00000E+00        -0.49832E+08
 
   -0.49803E+08         0.32089E+06         0.00000E+00
    0.32089E+06        -0.49891E+08         0.00000E+00
    0.00000E+00         0.00000E+00        -0.49834E+08
 
   -0.49813E+08         0.32440E+06         0.00000E+00
    0.32440E+06        -0.49887E+08         0.00000E+00
    0.00000E+00         0.00000E+00        -0.49835E+08
 
   -0.49824E+08         0.32774E+06         0.00000E+00
    0.32774E+06        -0.49883E+08         0.00000E+00
    0.00000E+00         0.00000E+00        -0.49837E+08
 
   -0.49834E+08         0.33089E+06         0.00000E+00
    0.33089E+06        -0.49878E+08         0.00000E+00
    0.00000E+00         0.00000E+00        -0.49838E+08
 
   -0.49410E+08         0.47362E+04         0.00000E+00
    0.47362E+04        -0.50000E+08         0.00000E+00
    0.00000E+00         0.00000E+00        -0.49712E+08
 
   -0.49413E+08         0.14183E+05         0.00000E+00
    0.14183E+05        -0.50000E+08         0.00000E+00
    0.00000E+00         0.00000E+00        -0.49712E+08
 
   -0.49416E+08         0.23611E+05         0.00000E+00
    0.23611E+05        -0.50000E+08         0.00000E+00
    0.00000E+00         0.00000E+00        -0.49713E+08
 
   -0.49419E+08         0.33016E+05         0.00000E+00
    0.33016E+05        -0.49999E+08         0.00000E+00
    0.00000E+00         0.00000E+00        -0.49714E+08
 
   -0.49422E+08         0.42391E+05         0.00000E+00
    0.42391E+05        -0.49999E+08         0.00000E+00
    0.00000E+00         0.00000E+00        -0.49715E+08
 
   -0.49426E+08         0.51731E+05         0.00000E+00
    0.51731E+05        -0.49998E+08         0.00000E+00
    0.00000E+00         0.00000E+00        -0.49716E+08
 
   -0.49430E+08         0.61030E+05         0.00000E+00
    0.61030E+05        -0.49998E+08         0.00000E+00
    0.00000E+00         0.00000E+00        -0.49718E+08
 
   -0.49435E+08         0.70281E+05         0.00000E+00
    0.70281E+05        -0.49997E+08         0.00000E+00
    0.00000E+00         0.00000E+00        -0.49719E+08
 
   -0.49439E+08         0.79480E+05         0.00000E+00
    0.79480E+05        -0.49996E+08         0.00000E+00
    0.00000E+00         0.00000E+00        -0.49720E+08
 
   -0.49444E+08         0.88621E+05         0.00000E+00
    0.88621E+05        -0.49995E+08         0.00000E+00
    0.00000E+00         0.00000E+00        -0.49722E+08
 
   -0.49450E+08         0.97697E+05         0.00000E+00
    0.97697E+05        -0.49993E+08         0.00000E+00
    0.00000E+00         0.00000E+00        -0.49724E+08
 
   -0.49455E+08         0.10670E+06         0.00000E+00
    0.10670E+06        -0.49992E+08         0.00000E+00
    0.00000E+00         0.00000E+00        -0.49726E+08
 
   -0.49461E+08         0.11563E+06         0.00000E+00
    0.11563E+06        -0.49991E+08         0.00000E+00
    0.00000E+00         0.00000E+00        -0.49728E+08
 
   -0.49467E+08         0.12448E+06         0.00000E+00
    0.12448E+06        -0.49989E+08         0.00000E+00
    0.00000E+00         0.00000E+00        -0.49730E+08
 
   -0.49474E+08         0.13325E+06         0.00000E+00
    0.13325E+06        -0.49987E+08         0.00000E+00
    0.00000E+00         0.00000E+00        -0.49732E+08
 
   -0.49481E+08         0.14192E+06         0.00000E+00
    0.14192E+06        -0.49986E+08         0.00000E+00
    0.00000E+00         0.00000E+00        -0.49734E+08
 
   -0.49488E+08         0.15049E+06         0.00000E+00
    0.15049E+06        -0.49984E+08         0.00000E+00
    0.00000E+00         0.00000E+00        -0.49736E+08
 
   -0.49495E+08         0.15897E+06         0.00000E+00
    0.15897E+06        -0.49982E+08         0.00000E+00
    0.00000E+00         0.00000E+00        -0.49739E+08
 
   -0.49502E+08         0.16733E+06         0.00000E+00
    0.16733E+06        -0.49980E+08         0.00000E+00
    0.00000E+00         0.00000E+00        -0.49741E+08
 
   -0.49510E+08         0.17559E+06         0.00000E+00
    0.17559E+06        -0.49977E+08         0.00000E+00
    0.00000E+00         0.00000E+00        -0.49744E+08
 
   -0.49518E+08         0.18372E+06         0.00000E+00
    0.18372E+06        -0.49975E+08         0.00000E+00
    0.00000E+00         0.00000E+00        -0.49746E+08
 
   -0.49526E+08         0.19174E+06         0.00000E+00
    0.19174E+06        -0.49972E+08         0.00000E+00
    0.00000E+00         0.00000E+00        -0.49749E+08
 
   -0.49535E+08         0.19963E+06         0.00000E+00
    0.19963E+06        -0.49970E+08         0.00000E+00
    0.00000E+00         0.00000E+00        -0.49752E+08
 
   -0.49543E+08         0.20740E+06         0.00000E+00
    0.20740E+06        -0.49967E+08         0.00000E+00
    0.00000E+00         0.00000E+00        -0.49755E+08
 
   -0.49552E+08         0.21503E+06         0.00000E+00
    0.21503E+06        -0.49964E+08         0.00000E+00
    0.00000E+00         0.00000E+00        -0.49758E+08
 
   -0.49561E+08         0.22252E+06         0.00000E+00
    0.22252E+06        -0.49961E+08         0.00000E+00
    0.00000E+00         0.00000E+00        -0.49760E+08
 
   -0.49571E+08         0.22988E+06         0.00000E+00
    0.22988E+06        -0.49959E+08         0.00000E+00
    0.00000E+00         0.00000E+00        -0.49763E+08
 
   -0.49580E+08         0.23709E+06         0.00000E+00
    0.23709E+06        -0.49955E+08         0.00000E+00
    0.00000E+00         0.00000E+00        -0.49766E+08
 
   -0.49590E+08         0.24415E+06         0.00000E+00
    0.24415E+06        -0.49952E+08         0.00000E+00
    0.00000E+00         0.00000E+00        -0.49769E+08
 
   -0.49600E+08         0.25106E+06         0.00000E+00
    0.25106E+06        -0.49949E+08         0.00000E+00
    0.00000E+00         0.00000E+00        -0.49772E+08
 
   -0.49610E+08         0.25782E+06         0.00000E+00
    0.25782E+06        -0.49946E+08         0.00000E+00
    0.00000E+00         0.00000E+00        -0.49775E+08
 
   -0.49620E+08         0.26442E+06         0.00000E+00
    0.26442E+06        -0.49942E+08         0.00000E+00
    0.00000E+00         0.00000E+00        -0.49778E+08
 
   -0.49630E+08         0.27087E+06         0.00000E+00
    0.27087E+06        -0.49939E+08         0.00000E+00
    0.00000E+00         0.00000E+00        -0.49781E+08
 
   -0.49641E+08         0.27715E+06         0.00000E+00
    0.27715E+06        -0.49935E+08         0.00000E+00
    0.00000E+00         0.00000E+00        -0.49784E+08
 
   -0.49651E+08         0.28327E+06         0.00000E+00
    0.28327E+06        -0.49931E+08         0.00000E+00
    0.00000E+00         0.00000E+00        -0.49787E+08
 
   -0.49662E+08         0.28922E+06         0.00000E+00
    0.28922E+06        -0.49927E+08         0.00000E+00
    0.00000E+00         0.00000E+00        -0.49790E+08
 
   -0.49673E+08         0.29501E+06         0.00000E+00
    0.29501E+06        -0.49924E+08         0.00000E+00
    0.00000E+00         0.00000E+00        -0.49793E+08
 
   -0.49684E+08         0.30062E+06         0.00000E+00
    0.30062E+06        -0.49920E+08         0.00000E+00
    0.00000E+00         0.00000E+00        -0.49796E+08
 
   -0.49695E+08         0.30607E+06         0.00000E+00
    0.30607E+06        -0.49916E+08         0.00000E+00
    0.00000E+00         0.00000E+00        -0.49799E+08
 
   -0.49706E+08         0.31134E+06         0.00000E+00
    0.31134E+06        -0.49911E+08         0.00000E+00
    0.00000E+00         0.00000E+00        -0.49801E+08
 
   -0.49717E+08         0.31643E+06         0.00000E+00
    0.31643E+06        -0.49907E+08         0.00000E+00
    0.00000E+00         0.00000E+00        -0.49804E+08
 
   -0.49728E+08         0.32135E+06         0.00000E+00
    0.32135E+06        -0.49903E+08         0.00000E+00
    0.00000E+00         0.00000E+00        -0.49807E+08
 
   -0.49739E+08         0.32608E+06         0.00000E+00
    0.32608E+06        -0.49899E+08         0.00000E+00
    0.00000E+00         0.00000E+00        -0.49809E+08
 
   -0.49751E+08         0.33064E+06         0.00000E+00
    0.33064E+06        -0.49894E+08         0.00000E+00
    0.00000E+00         0.00000E+00        -0.49812E+08
 
   -0.49762E+08         0.33502E+06         0.00000E+00
    0.33502E+06        -0.49890E+08         0.00000E+00
    0.00000E+00         0.00000E+00        -0.49814E+08
 
   -0.49773E+08         0.33921E+06         0.00000E+00
    0.33921E+06        -0.49885E+08         0.00000E+00
    0.00000E+00         0.00000E+00        -0.49816E+08
 
   -0.49784E+08         0.34322E+06         0.00000E+00
    0.34322E+06        -0.49881E+08         0.00000E+00
    0.00000E+00         0.00000E+00        -0.49818E+08
 
   -0.49796E+08         0.34705E+06         0.00000E+00
    0.34705E+06        -0.49876E+08         0.00000E+00
    0.00000E+00         0.00000E+00        -0.49820E+08
 
   -0.49807E+08         0.35068E+06         0.00000E+00
    0.35068E+06        -0.49871E+08         0.00000E+00
    0.00000E+00         0.00000E+00        -0.49821E+08
 
   -0.49818E+08         0.35414E+06         0.00000E+00
    0.35414E+06        -0.49866E+08         0.00000E+00
    0.00000E+00         0.00000E+00        -0.49823E+08
 
   -0.49361E+08         0.50409E+04         0.00000E+00
    0.50409E+04        -0.50000E+08         0.00000E+00
    0.00000E+00         0.00000E+00        -0.49688E+08
 
   -0.49364E+08         0.15115E+05         0.00000E+00
    0.15115E+05        -0.50000E+08         0.00000E+00
    0.00000E+00         0.00000E+00        -0.49688E+08
 
   -0.49367E+08         0.25177E+05         0.00000E+00
    0.25177E+05        -0.50000E+08         0.00000E+00
    0.00000E+00         0.00000E+00        -0.49689E+08
 
   -0.49370E+08         0.35220E+05         0.00000E+00
    0.35220E+05        -0.49999E+08         0.00000E+00
    0.00000E+00         0.00000E+00        -0.49690E+08
 
   -0.49374E+08         0.45238E+05         0.00000E+00
    0.45238E+05        -0.49999E+08         0.00000E+00
    0.00000E+00         0.00000E+00        -0.49691E+08
 
   -0.49378E+08         0.55222E+05         0.00000E+00
    0.55222E+05        -0.49998E+08         0.00000E+00
    0.00000E+00         0.00000E+00        -0.49692E+08
 
   -0.49382E+08         0.65167E+05         0.00000E+00
    0.65167E+05        -0.49997E+08         0.00000E+00
    0.00000E+00         0.00000E+00        -0.49693E+08
 
   -0.49387E+08         0.75065E+05         0.00000E+00
    0.75065E+05        -0.49996E+08         0.00000E+00
    0.00000E+00         0.00000E+00        -0.49695E+08
 
   -0.49392E+08         0.84909E+05         0.00000E+00
    0.84909E+05        -0.49995E+08         0.00000E+00
    0.00000E+00         0.00000E+00        -0.49696E+08
 
   -0.49397E+08         0.94693E+05         0.00000E+00
    0.94693E+05        -0.49994E+08         0.00000E+00
    0.00000E+00         0.00000E+00        -0.49698E+08
 
   -0.49403E+08         0.10441E+06         0.00000E+00
    0.10441E+06        -0.49993E+08         0.00000E+00
    0.00000E+00         0.00000E+00        -0.49700E+08
 
   -0.49409E+08         0.11405E+06         0.00000E+00
    0.11405E+06        -0.49991E+08         0.00000E+00
    0.00000E+00         0.00000E+00        -0.49702E+08
 
   -0.49415E+08         0.12361E+06         0.00000E+00
    0.12361E+06        -0.49989E+08         0.00000E+00
    0.00000E+00         0.00000E+00        -0.49704E+08
 
   -0.49422E+08         0.13309E+06         0.00000E+00
    0.13309E+06        -0.49988E+08         0.00000E+00
    0.00000E+00         0.00000E+00        -0.49706E+08
 
   -0.49429E+08         0.14247E+06         0.00000E+00
    0.14247E+06        -0.49986E+08         0.00000E+00
    0.00000E+00         0.00000E+00        -0.49708E+08
 
   -0.49436E+08         0.15176E+06         0.00000E+00
    0.15176E+06        -0.49984E+08         0.00000E+00
    0.00000E+00         0.00000E+00        -0.49711E+08
 
   -0.49443E+08         0.16093E+06         0.00000E+00
    0.16093E+06        -0.49982E+08         0.00000E+00
    0.00000E+00         0.00000E+00        -0.49713E+08
 
   -0.49451E+08         0.17000E+06         0.00000E+00
    0.17000E+06        -0.49979E+08         0.00000E+00
    0.00000E+00         0.00000E+00        -0.49716E+08
 
   -0.49459E+08         0.17896E+06         0.00000E+00
    0.17896E+06        -0.49977E+08         0.00000E+00
    0.00000E+00         0.00000E+00        -0.49718E+08
 
   -0.49468E+08         0.18779E+06         0.00000E+00
    0.18779E+06        -0.49974E+08         0.00000E+00
    0.00000E+00         0.00000E+00        -0.49721E+08
 
   -0.49476E+08         0.19650E+06         0.00000E+00
    0.19650E+06        -0.49972E+08         0.00000E+00
    0.00000E+00         0.00000E+00        -0.49724E+08
 
   -0.49485E+08         0.20507E+06         0.00000E+00
    0.20507E+06        -0.49969E+08         0.00000E+00
    0.00000E+00         0.00000E+00        -0.49727E+08
 
   -0.49494E+08         0.21351E+06         0.00000E+00
    0.21351E+06        -0.49966E+08         0.00000E+00
    0.00000E+00         0.00000E+00        -0.49730E+08
 
   -0.49504E+08         0.22182E+06         0.00000E+00
    0.22182E+06        -0.49963E+08         0.00000E+00
    0.00000E+00         0.00000E+00        -0.49733E+08
 
   -0.49513E+08         0.22997E+06         0.00000E+00
    0.22997E+06        -0.49960E+08         0.00000E+00
    0.00000E+00         0.00000E+00        -0.49736E+08
 
   -0.49523E+08         0.23799E+06         0.00000E+00
    0.23799E+06        -0.49957E+08         0.00000E+00
    0.00000E+00         0.00000E+00        -0.49739E+08
 
   -0.49533E+08         0.24585E+06         0.00000E+00
    0.24585E+06        -0.49954E+08         0.00000E+00
    0.00000E+00         0.00000E+00        -0.49742E+08
 
   -0.49543E+08         0.25355E+06         0.00000E+00
    0.25355E+06        -0.49950E+08         0.00000E+00
    0.00000E+00         0.00000E+00        -0.49745E+08
 
   -0.49554E+08         0.26110E+06         0.00000E+00
    0.26110E+06        -0.49947E+08         0.00000E+00
    0.00000E+00         0.00000E+00        -0.49748E+08
 
   -0.49564E+08         0.26849E+06         0.00000E+00
    0.26849E+06        -0.49943E+08         0.00000E+00
    0.00000E+00         0.00000E+00        -0.49751E+08
 
   -0.49575E+08         0.27572E+06         0.00000E+00
    0.27572E+06        -0.49939E+08         0.00000E+00
    0.00000E+00         0.00000E+00        -0.49755E+08
 
   -0.49586E+08         0.28278E+06         0.00000E+00
    0.28278E+06        -0.49936E+08         0.00000E+00
    0.00000E+00         0.00000E+00        -0.49758E+08
 
   -0.49597E+08         0.28967E+06         0.00000E+00
    0.28967E+06        -0.49932E+08         0.00000E+00
    0.00000E+00         0.00000E+00        -0.49761E+08
 
   -0.49609E+08         0.29640E+06         0.00000E+00
    0.29640E+06        -0.49928E+08         0.00000E+00
    0.00000E+00         0.00000E+00        -0.49764E+08
 
   -0.49620E+08         0.30295E+06         0.00000E+00
    0.30295E+06        -0.49924E+08         0.00000E+00
    0.00000E+00         0.00000E+00        -0.49767E+08
 
   -0.49632E+08         0.30932E+06         0.00000E+00
    0.30932E+06        -0.49919E+08         0.00000E+00
    0.00000E+00         0.00000E+00        -0.49771E+08
 
   -0.49643E+08         0.31552E+06         0.00000E+00
    0.31552E+06        -0.49915E+08         0.00000E+00
    0.00000E+00         0.00000E+00        -0.49774E+08
 
   -0.49655E+08         0.32154E+06         0.00000E+00
    0.32154E+06        -0.49911E+08         0.00000E+00
    0.00000E+00         0.00000E+00        -0.49777E+08
 
   -0.49667E+08         0.32739E+06         0.00000E+00
    0.32739E+06        -0.49906E+08         0.00000E+00
    0.00000E+00         0.00000E+00        -0.49780E+08
 
   -0.49679E+08         0.33305E+06         0.00000E+00
    0.33305E+06        -0.49902E+08         0.00000E+00
    0.00000E+00         0.00000E+00        -0.49783E+08
 
   -0.49691E+08         0.33853E+06         0.00000E+00
    0.33853E+06        -0.49897E+08         0.00000E+00
    0.00000E+00         0.00000E+00        -0.49786E+08
 
   -0.49703E+08         0.34382E+06         0.00000E+00
    0.34382E+06        -0.49893E+08         0.00000E+00
    0.00000E+00         0.00000E+00        -0.49788E+08
 
   -0.49715E+08         0.34894E+06         0.00000E+00
    0.34894E+06        -0.49888E+08         0.00000E+00
    0.00000E+00         0.00000E+00        -0.49791E+08
 
   -0.49727E+08         0.35386E+06         0.00000E+00
    0.35386E+06        -0.49883E+08         0.00000E+00
    0.00000E+00         0.00000E+00        -0.49793E+08
 
   -0.49740E+08         0.35860E+06         0.00000E+00
    0.35860E+06        -0.49878E+08         0.00000E+00
    0.00000E+00         0.00000E+00        -0.49796E+08
 
   -0.49752E+08         0.36315E+06         0.00000E+00
    0.36315E+06        -0.49873E+08         0.00000E+00
    0.00000E+00         0.00000E+00        -0.49798E+08
 
   -0.49764E+08         0.36751E+06         0.00000E+00
    0.36751E+06        -0.49868E+08         0.00000E+00
    0.00000E+00         0.00000E+00        -0.49800E+08
 
   -0.49776E+08         0.37169E+06         0.00000E+00
    0.37169E+06        -0.49863E+08         0.00000E+00
    0.00000E+00         0.00000E+00        -0.49802E+08
 
   -0.49788E+08         0.37567E+06         0.00000E+00
    0.37567E+06        -0.49858E+08         0.00000E+00
    0.00000E+00         0.00000E+00        -0.49804E+08
 
   -0.49800E+08         0.37945E+06         0.00000E+00
    0.37945E+06        -0.49853E+08         0.00000E+00
    0.00000E+00         0.00000E+00        -0.49805E+08
 
   -0.49309E+08         0.53886E+04         0.00000E+00
    0.53886E+04        -0.50000E+08         0.00000E+00
    0.00000E+00         0.00000E+00        -0.49661E+08
 
   -0.49312E+08         0.16179E+05         0.00000E+00
    0.16179E+05        -0.50000E+08         0.00000E+00
    0.00000E+00         0.00000E+00        -0.49662E+08
 
   -0.49315E+08         0.26965E+05         0.00000E+00
    0.26965E+05        -0.50000E+08         0.00000E+00
    0.00000E+00         0.00000E+00        -0.49663E+08
 
   -0.49318E+08         0.37737E+05         0.00000E+00
    0.37737E+05        -0.49999E+08         0.00000E+00
    0.00000E+00         0.00000E+00        -0.49664E+08
 
   -0.49322E+08         0.48486E+05         0.00000E+00
    0.48486E+05        -0.49998E+08         0.00000E+00
    0.00000E+00         0.00000E+00        -0.49665E+08
 
   -0.49326E+08         0.59204E+05         0.00000E+00
    0.59204E+05        -0.49998E+08         0.00000E+00
    0.00000E+00         0.00000E+00        -0.49666E+08
 
   -0.49331E+08         0.69883E+05         0.00000E+00
    0.69883E+05        -0.49997E+08         0.00000E+00
    0.00000E+00         0.00000E+00        -0.49667E+08
 
   -0.49336E+08         0.80513E+05         0.00000E+00
    0.80513E+05        -0.49996E+08         0.00000E+00
    0.00000E+00         0.00000E+00        -0.49669E+08
 
   -0.49341E+08         0.91087E+05         0.00000E+00
    0.91087E+05        -0.49994E+08         0.00000E+00
    0.00000E+00         0.00000E+00        -0.49671E+08
 
   -0.49347E+08         0.10160E+06         0.00000E+00
    0.10160E+06        -0.49993E+08         0.00000E+00
    0.00000E+00         0.00000E+00        -0.49672E+08
 
   -0.49353E+08         0.11203E+06         0.00000E+00
    0.11203E+06        -0.49991E+08         0.00000E+00
    0.00000E+00         0.00000E+00        -0.49674E+08
 
   -0.49359E+08         0.12239E+06         0.00000E+00
    0.12239E+06        -0.49990E+08         0.00000E+00
    0.00000E+00         0.00000E+00        -0.49676E+08
 
   -0.49366E+08         0.13266E+06         0.00000E+00
    0.13266E+06        -0.49988E+08         0.00000E+00
    0.00000E+00         0.00000E+00        -0.49679E+08
 
   -0.49373E+08         0.14283E+06         0.00000E+00
    0.14283E+06        -0.49986E+08         0.00000E+00
    0.00000E+00         0.00000E+00        -0.49681E+08
 
   -0.49380E+08         0.15290E+06         0.00000E+00
    0.15290E+06        -0.49984E+08         0.00000E+00
    0.00000E+00         0.00000E+00        -0.49683E+08
 
   -0.49388E+08         0.16286E+06         0.00000E+00
    0.16286E+06        -0.49981E+08         0.00000E+00
    0.00000E+00         0.00000E+00        -0.49686E+08
 
   -0.49396E+08         0.17270E+06         0.00000E+00
    0.17270E+06        -0.49979E+08         0.00000E+00
    0.00000E+00         0.00000E+00        -0.49688E+08
 
   -0.49405E+08         0.18242E+06         0.00000E+00
    0.18242E+06        -0.49976E+08         0.00000E+00
    0.00000E+00         0.00000E+00        -0.49691E+08
 
   -0.49413E+08         0.19202E+06         0.00000E+00
    0.19202E+06        -0.49974E+08         0.00000E+00
    0.00000E+00         0.00000E+00        -0.49694E+08
 
   -0.49422E+08         0.20148E+06         0.00000E+00
    0.20148E+06        -0.49971E+08         0.00000E+00
    0.00000E+00         0.00000E+00        -0.49697E+08
 
   -0.49432E+08         0.21080E+06         0.00000E+00
    0.21080E+06        -0.49968E+08         0.00000E+00
    0.00000E+00         0.00000E+00        -0.49700E+08
 
   -0.49441E+08         0.21998E+06         0.00000E+00
    0.21998E+06        -0.49965E+08         0.00000E+00
    0.00000E+00         0.00000E+00        -0.49703E+08
 
   -0.49451E+08         0.22901E+06         0.00000E+00
    0.22901E+06        -0.49962E+08         0.00000E+00
    0.00000E+00         0.00000E+00        -0.49706E+08
 
   -0.49461E+08         0.23788E+06         0.00000E+00
    0.23788E+06        -0.49958E+08         0.00000E+00
    0.00000E+00         0.00000E+00        -0.49709E+08
 
   -0.49471E+08         0.24660E+06         0.00000E+00
    0.24660E+06        -0.49955E+08         0.00000E+00
    0.00000E+00         0.00000E+00        -0.49712E+08
 
   -0.49482E+08         0.25516E+06         0.00000E+00
    0.25516E+06        -0.49951E+08         0.00000E+00
    0.00000E+00         0.00000E+00        -0.49715E+08
 
   -0.49493E+08         0.26355E+06         0.00000E+00
    0.26355E+06        -0.49948E+08         0.00000E+00
    0.00000E+00         0.00000E+00        -0.49719E+08
 
   -0.49504E+08         0.27178E+06         0.00000E+00
    0.27178E+06        -0.49944E+08         0.00000E+00
    0.00000E+00         0.00000E+00        -0.49722E+08
 
   -0.49515E+08         0.27984E+06         0.00000E+00
    0.27984E+06        -0.49940E+08         0.00000E+00
    0.00000E+00         0.00000E+00        -0.49725E+08
 
   -0.49527E+08         0.28772E+06         0.00000E+00
    0.28772E+06        -0.49936E+08         0.00000E+00
    0.00000E+00         0.00000E+00        -0.49729E+08
 
   -0.49538E+08         0.29543E+06         0.00000E+00
    0.29543E+06        -0.49932E+08         0.00000E+00
    0.00000E+00         0.00000E+00        -0.49732E+08
 
   -0.49550E+08         0.30296E+06         0.00000E+00
    0.30296E+06        -0.49928E+08         0.00000E+00
    0.00000E+00         0.00000E+00        -0.49736E+08
 
   -0.49562E+08         0.31032E+06         0.00000E+00
    0.31032E+06        -0.49923E+08         0.00000E+00
    0.00000E+00         0.00000E+00        -0.49739E+08
 
   -0.49574E+08         0.31749E+06         0.00000E+00
    0.31749E+06        -0.49919E+08         0.00000E+00
    0.00000E+00         0.00000E+00        -0.49742E+08
 
   -0.49587E+08         0.32448E+06         0.00000E+00
    0.32448E+06        -0.49914E+08         0.00000E+00
    0.00000E+00         0.00000E+00        -0.49746E+08
 
   -0.49599E+08         0.33129E+06         0.00000E+00
    0.33129E+06        -0.49910E+08         0.00000E+00
    0.00000E+00         0.00000E+00        -0.49749E+08
 
   -0.49612E+08         0.33792E+06         0.00000E+00
    0.33792E+06        -0.49905E+08         0.00000E+00
    0.00000E+00         0.00000E+00        -0.49753E+08
 
   -0.49624E+08         0.34435E+06         0.00000E+00
    0.34435E+06        -0.49901E+08         0.00000E+00
    0.00000E+00         0.00000E+00        -0.49756E+08
 
   -0.49637E+08         0.35061E+06         0.00000E+00
    0.35061E+06        -0.49896E+08         0.00000E+00
    0.00000E+00         0.00000E+00        -0.49759E+08
 
   -0.49650E+08         0.35667E+06         0.00000E+00
    0.35667E+06        -0.49891E+08         0.00000E+00
    0.00000E+00         0.00000E+00        -0.49762E+08
 
   -0.49663E+08         0.36255E+06         0.00000E+00
    0.36255E+06        -0.49886E+08         0.00000E+00
    0.00000E+00         0.00000E+00        -0.49765E+08
 
   -0.49676E+08         0.36824E+06         0.00000E+00
    0.36824E+06        -0.49881E+08         0.00000E+00
    0.00000E+00         0.00000E+00        -0.49768E+08
 
   -0.49689E+08         0.37374E+06         0.00000E+00
    0.37374E+06        -0.49876E+08         0.00000E+00
    0.00000E+00         0.00000E+00        -0.49771E+08
 
   -0.49702E+08         0.37905E+06         0.00000E+00
    0.37905E+06        -0.49871E+08         0.00000E+00
    0.00000E+00         0.00000E+00        -0.49774E+08
 
   -0.49715E+08         0.38417E+06         0.00000E+00
    0.38417E+06        -0.49865E+08         0.00000E+00
    0.00000E+00         0.00000E+00        -0.49776E+08
 
   -0.49729E+08         0.38911E+06         0.00000E+00
    0.38911E+06        -0.49860E+08         0.00000E+00
    0.00000E+00         0.00000E+00        -0.49779E+08
 
   -0.49742E+08         0.39385E+06         0.00000E+00
    0.39385E+06        -0.49854E+08         0.00000E+00
    0.00000E+00         0.00000E+00        -0.49781E+08
 
   -0.49755E+08         0.39839E+06         0.00000E+00
    0.39839E+06        -0.49849E+08         0.00000E+00
    0.00000E+00         0.00000E+00        -0.49783E+08
 
   -0.49768E+08         0.40275E+06         0.00000E+00
    0.40275E+06        -0.49843E+08         0.00000E+00
    0.00000E+00         0.00000E+00        -0.49785E+08
 
   -0.49781E+08         0.40691E+06         0.00000E+00
    0.40691E+06        -0.49838E+08         0.00000E+00
    0.00000E+00         0.00000E+00        -0.49787E+08
 
   -0.49253E+08         0.57928E+04         0.00000E+00
    0.57928E+04        -0.50000E+08         0.00000E+00
    0.00000E+00         0.00000E+00        -0.49633E+08
 
   -0.49256E+08         0.17415E+05         0.00000E+00
    0.17415E+05        -0.50000E+08         0.00000E+00
    0.00000E+00         0.00000E+00        -0.49634E+08
 
   -0.49259E+08         0.29040E+05         0.00000E+00
    0.29040E+05        -0.49999E+08         0.00000E+00
    0.00000E+00         0.00000E+00        -0.49635E+08
 
   -0.49262E+08         0.40654E+05         0.00000E+00
    0.40654E+05        -0.49999E+08         0.00000E+00
    0.00000E+00         0.00000E+00        -0.49636E+08
 
   -0.49266E+08         0.52249E+05         0.00000E+00
    0.52249E+05        -0.49998E+08         0.00000E+00
    0.00000E+00         0.00000E+00        -0.49637E+08
 
   -0.49271E+08         0.63812E+05         0.00000E+00
    0.63812E+05        -0.49997E+08         0.00000E+00
    0.00000E+00         0.00000E+00        -0.49638E+08
 
   -0.49275E+08         0.75334E+05         0.00000E+00
    0.75334E+05        -0.49996E+08         0.00000E+00
    0.00000E+00         0.00000E+00        -0.49639E+08
 
   -0.49281E+08         0.86803E+05         0.00000E+00
    0.86803E+05        -0.49995E+08         0.00000E+00
    0.00000E+00         0.00000E+00        -0.49641E+08
 
   -0.49286E+08         0.98210E+05         0.00000E+00
    0.98210E+05        -0.49994E+08         0.00000E+00
    0.00000E+00         0.00000E+00        -0.49643E+08
 
   -0.49292E+08         0.10954E+06         0.00000E+00
    0.10954E+06        -0.49992E+08         0.00000E+00
    0.00000E+00         0.00000E+00        -0.49645E+08
 
   -0.49299E+08         0.12080E+06         0.00000E+00
    0.12080E+06        -0.49990E+08         0.00000E+00
    0.00000E+00         0.00000E+00        -0.49647E+08
 
   -0.49306E+08         0.13196E+06         0.00000E+00
    0.13196E+06        -0.49988E+08         0.00000E+00
    0.00000E+00         0.00000E+00        -0.49649E+08
 
   -0.49313E+08         0.14302E+06         0.00000E+00
    0.14302E+06        -0.49986E+08         0.00000E+00
    0.00000E+00         0.00000E+00        -0.49651E+08
 
   -0.49320E+08         0.15397E+06         0.00000E+00
    0.15397E+06        -0.49984E+08         0.00000E+00
    0.00000E+00         0.00000E+00        -0.49653E+08
 
   -0.49328E+08         0.16480E+06         0.00000E+00
    0.16480E+06        -0.49981E+08         0.00000E+00
    0.00000E+00         0.00000E+00        -0.49656E+08
 
   -0.49337E+08         0.17551E+06         0.00000E+00
    0.17551E+06        -0.49979E+08         0.00000E+00
    0.00000E+00         0.00000E+00        -0.49659E+08
 
   -0.49345E+08         0.18609E+06         0.00000E+00
    0.18609E+06        -0.49976E+08         0.00000E+00
    0.00000E+00         0.00000E+00        -0.49661E+08
 
   -0.49355E+08         0.19653E+06         0.00000E+00
    0.19653E+06        -0.49973E+08         0.00000E+00
    0.00000E+00         0.00000E+00        -0.49664E+08
 
   -0.49364E+08         0.20682E+06         0.00000E+00
    0.20682E+06        -0.49970E+08         0.00000E+00
    0.00000E+00         0.00000E+00        -0.49667E+08
 
   -0.49374E+08         0.21696E+06         0.00000E+00
    0.21696E+06        -0.49967E+08         0.00000E+00
    0.00000E+00         0.00000E+00        -0.49670E+08
 
   -0.49384E+08         0.22694E+06         0.00000E+00
    0.22694E+06        -0.49963E+08         0.00000E+00
    0.00000E+00         0.00000E+00        -0.49673E+08
 
   -0.49394E+08         0.23676E+06         0.00000E+00
    0.23676E+06        -0.49960E+08         0.00000E+00
    0.00000E+00         0.00000E+00        -0.49676E+08
 
   -0.49405E+08         0.24642E+06         0.00000E+00
    0.24642E+06        -0.49956E+08         0.00000E+00
    0.00000E+00         0.00000E+00        -0.49680E+08
 
   -0.49416E+08         0.25590E+06         0.00000E+00
    0.25590E+06        -0.49952E+08         0.00000E+00
    0.00000E+00         0.00000E+00        -0.49683E+08
 
   -0.49427E+08         0.26520E+06         0.00000E+00
    0.26520E+06        -0.49948E+08         0.00000E+00
    0.00000E+00         0.00000E+00        -0.49686E+08
 
   -0.49438E+08         0.27433E+06         0.00000E+00
    0.27433E+06        -0.49944E+08         0.00000E+00
    0.00000E+00         0.00000E+00        -0.49690E+08
 
   -0.49450E+08         0.28328E+06         0.00000E+00
    0.28328E+06        -0.49940E+08         0.00000E+00
    0.00000E+00         0.00000E+00        -0.49693E+08
 
   -0.49462E+08         0.29204E+06         0.00000E+00
    0.29204E+06        -0.49936E+08         0.00000E+00
    0.00000E+00         0.00000E+00        -0.49697E+08
 
   -0.49474E+08         0.30061E+06         0.00000E+00
    0.30061E+06        -0.49932E+08         0.00000E+00
    0.00000E+00         0.00000E+00        -0.49701E+08
 
   -0.49486E+08         0.30900E+06         0.00000E+00
    0.30900E+06        -0.49927E+08         0.00000E+00
    0.00000E+00         0.00000E+00        -0.49704E+08
 
   -0.49499E+08         0.31720E+06         0.00000E+00
    0.31720E+06        -0.49923E+08         0.00000E+00
    0.00000E+00         0.00000E+00        -0.49708E+08
 
   -0.49512E+08         0.32521E+06         0.00000E+00
    0.32521E+06        -0.49918E+08         0.00000E+00
    0.00000E+00         0.00000E+00        -0.49711E+08
 
   -0.49525E+08         0.33302E+06         0.00000E+00
    0.33302E+06        -0.49913E+08         0.00000E+00
    0.00000E+00         0.00000E+00        -0.49715E+08
 
   -0.49538E+08         0.34064E+06         0.00000E+00
    0.34064E+06        -0.49909E+08         0.00000E+00
    0.00000E+00         0.00000E+00        -0.49719E+08
 
   -0.49551E+08         0.34807E+06         0.00000E+00
    0.34807E+06        -0.49904E+08         0.00000E+00
    0.00000E+00         0.00000E+00        -0.49722E+08
 
   -0.49565E+08         0.35531E+06         0.00000E+00
    0.35531E+06        -0.49899E+08         0.00000E+00
    0.00000E+00         0.00000E+00        -0.49726E+08
 
   -0.49578E+08         0.36235E+06         0.00000E+00
    0.36235E+06        -0.49894E+08         0.00000E+00
    0.00000E+00         0.00000E+00        -0.49729E+08
 
   -0.49592E+08         0.36920E+06         0.00000E+00
    0.36920E+06        -0.49888E+08         0.00000E+00
    0.00000E+00         0.00000E+00        -0.49733E+08
 
   -0.49605E+08         0.37586E+06         0.00000E+00
    0.37586E+06        -0.49883E+08         0.00000E+00
    0.00000E+00         0.00000E+00        -0.49736E+08
 
   -0.49619E+08         0.38233E+06         0.00000E+00
    0.38233E+06        -0.49878E+08         0.00000E+00
    0.00000E+00         0.00000E+00        -0.49740E+08
 
   -0.49633E+08         0.38860E+06         0.00000E+00
    0.38860E+06        -0.49873E+08         0.00000E+00
    0.00000E+00         0.00000E+00        -0.49743E+08
 
   -0.49647E+08         0.39469E+06         0.00000E+00
    0.39469E+06        -0.49867E+08         0.00000E+00
    0.00000E+00         0.00000E+00        -0.49746E+08
 
   -0.49661E+08         0.40058E+06         0.00000E+00
    0.40058E+06        -0.49862E+08         0.00000E+00
    0.00000E+00         0.00000E+00        -0.49749E+08
 
   -0.49675E+08         0.40628E+06         0.00000E+00
    0.40628E+06        -0.49856E+08         0.00000E+00
    0.00000E+00         0.00000E+00        -0.49752E+08
 
   -0.49689E+08         0.41179E+06         0.00000E+00
    0.41179E+06        -0.49850E+08         0.00000E+00
    0.00000E+00         0.00000E+00        -0.49755E+08
 
   -0.49703E+08         0.41712E+06         0.00000E+00
    0.41712E+06        -0.49845E+08         0.00000E+00
    0.00000E+00         0.00000E+00        -0.49757E+08
 
   -0.49717E+08         0.42225E+06         0.00000E+00
    0.42225E+06        -0.49839E+08         0.00000E+00
    0.00000E+00         0.00000E+00        -0.49760E+08
 
   -0.49732E+08         0.42719E+06         0.00000E+00
    0.42719E+06        -0.49833E+08         0.00000E+00
    0.00000E+00         0.00000E+00        -0.49762E+08
 
   -0.49746E+08         0.43195E+06         0.00000E+00
    0.43195E+06        -0.49827E+08         0.00000E+00
    0.00000E+00         0.00000E+00        -0.49764E+08
 
   -0.49759E+08         0.43651E+06         0.00000E+00
    0.43651E+06        -0.49821E+08         0.00000E+00
    0.00000E+00         0.00000E+00        -0.49766E+08
 
   -0.49193E+08         0.62714E+04         0.00000E+00
    0.62714E+04        -0.50000E+08         0.00000E+00
    0.00000E+00         0.00000E+00        -0.49603E+08
 
   -0.49195E+08         0.18875E+05         0.00000E+00
    0.18875E+05        -0.50000E+08         0.00000E+00
    0.00000E+00         0.00000E+00        -0.49603E+08
 
   -0.49198E+08         0.31485E+05         0.00000E+00
    0.31485E+05        -0.49999E+08         0.00000E+00
    0.00000E+00         0.00000E+00        -0.49604E+08
 
   -0.49202E+08         0.44089E+05         0.00000E+00
    0.44089E+05        -0.49999E+08         0.00000E+00
    0.00000E+00         0.00000E+00        -0.49605E+08
 
   -0.49206E+08         0.56672E+05         0.00000E+00
    0.56672E+05        -0.49998E+08         0.00000E+00
    0.00000E+00         0.00000E+00        -0.49606E+08
 
   -0.49211E+08         0.69221E+05         0.00000E+00
    0.69221E+05        -0.49997E+08         0.00000E+00
    0.00000E+00         0.00000E+00        -0.49607E+08
 
   -0.49216E+08         0.81722E+05         0.00000E+00
    0.81722E+05        -0.49996E+08         0.00000E+00
    0.00000E+00         0.00000E+00        -0.49609E+08
 
   -0.49221E+08         0.94162E+05         0.00000E+00
    0.94162E+05        -0.49994E+08         0.00000E+00
    0.00000E+00         0.00000E+00        -0.49611E+08
 
   -0.49227E+08         0.10653E+06         0.00000E+00
    0.10653E+06        -0.49992E+08         0.00000E+00
    0.00000E+00         0.00000E+00        -0.49612E+08
 
   -0.49234E+08         0.11881E+06         0.00000E+00
    0.11881E+06        -0.49990E+08         0.00000E+00
    0.00000E+00         0.00000E+00        -0.49614E+08
 
   -0.49240E+08         0.13099E+06         0.00000E+00
    0.13099E+06        -0.49988E+08         0.00000E+00
    0.00000E+00         0.00000E+00        -0.49616E+08
 
   -0.49248E+08         0.14307E+06         0.00000E+00
    0.14307E+06        -0.49986E+08         0.00000E+00
    0.00000E+00         0.00000E+00        -0.49619E+08
 
   -0.49256E+08         0.15503E+06         0.00000E+00
    0.15503E+06        -0.49984E+08         0.00000E+00
    0.00000E+00         0.00000E+00        -0.49621E+08
 
   -0.49264E+08         0.16685E+06         0.00000E+00
    0.16685E+06        -0.49981E+08         0.00000E+00
    0.00000E+00         0.00000E+00        -0.49624E+08
 
   -0.49273E+08         0.17854E+06         0.00000E+00
    0.17854E+06        -0.49978E+08         0.00000E+00
    0.00000E+00         0.00000E+00        -0.49626E+08
 
   -0.49282E+08         0.19008E+06         0.00000E+00
    0.19008E+06        -0.49975E+08         0.00000E+00
    0.00000E+00         0.00000E+00        -0.49629E+08
 
   -0.49291E+08         0.20146E+06         0.00000E+00
    0.20146E+06        -0.49972E+08         0.00000E+00
    0.00000E+00         0.00000E+00        -0.49632E+08
 
   -0.49301E+08         0.21269E+06         0.00000E+00
    0.21269E+06        -0.49968E+08         0.00000E+00
    0.00000E+00         0.00000E+00        -0.49635E+08
 
   -0.49311E+08         0.22374E+06         0.00000E+00
    0.22374E+06        -0.49965E+08         0.00000E+00
    0.00000E+00         0.00000E+00        -0.49638E+08
 
   -0.49322E+08         0.23461E+06         0.00000E+00
    0.23461E+06        -0.49961E+08         0.00000E+00
    0.00000E+00         0.00000E+00        -0.49641E+08
 
   -0.49332E+08         0.24530E+06         0.00000E+00
    0.24530E+06        -0.49957E+08         0.00000E+00
    0.00000E+00         0.00000E+00        -0.49645E+08
 
   -0.49344E+08         0.25580E+06         0.00000E+00
    0.25580E+06        -0.49953E+08         0.00000E+00
    0.00000E+00         0.00000E+00        -0.49648E+08
 
   -0.49355E+08         0.26611E+06         0.00000E+00
    0.26611E+06        -0.49949E+08         0.00000E+00
    0.00000E+00         0.00000E+00        -0.49651E+08
 
   -0.49367E+08         0.27623E+06         0.00000E+00
    0.27623E+06        -0.49945E+08         0.00000E+00
    0.00000E+00         0.00000E+00        -0.49655E+08
 
   -0.49379E+08         0.28614E+06         0.00000E+00
    0.28614E+06        -0.49940E+08         0.00000E+00
    0.00000E+00         0.00000E+00        -0.49659E+08
 
   -0.49392E+08         0.29585E+06         0.00000E+00
    0.29585E+06        -0.49936E+08         0.00000E+00
    0.00000E+00         0.00000E+00        -0.49662E+08
 
   -0.49404E+08         0.30536E+06         0.00000E+00
    0.30536E+06        -0.49931E+08         0.00000E+00
    0.00000E+00         0.00000E+00        -0.49666E+08
 
   -0.49417E+08         0.31466E+06         0.00000E+00
    0.31466E+06        -0.49927E+08         0.00000E+00
    0.00000E+00         0.00000E+00        -0.49670E+08
 
   -0.49430E+08         0.32375E+06         0.00000E+00
    0.32375E+06        -0.49922E+08         0.00000E+00
    0.00000E+00         0.00000E+00        -0.49674E+08
 
   -0.49444E+08         0.33263E+06         0.00000E+00
    0.33263E+06        -0.49917E+08         0.00000E+00
    0.00000E+00         0.00000E+00        -0.49677E+08
 
   -0.49457E+08         0.34131E+06         0.00000E+00
    0.34131E+06        -0.49912E+08         0.00000E+00
    0.00000E+00         0.00000E+00        -0.49681E+08
 
   -0.49471E+08         0.34977E+06         0.00000E+00
    0.34977E+06        -0.49907E+08         0.00000E+00
    0.00000E+00         0.00000E+00        -0.49685E+08
 
   -0.49485E+08         0.35803E+06         0.00000E+00
    0.35803E+06        -0.49901E+08         0.00000E+00
    0.00000E+00         0.00000E+00        -0.49689E+08
 
   -0.49499E+08         0.36608E+06         0.00000E+00
    0.36608E+06        -0.49896E+08         0.00000E+00
    0.00000E+00         0.00000E+00        -0.49693E+08
 
   -0.49513E+08         0.37393E+06         0.00000E+00
    0.37393E+06        -0.49891E+08         0.00000E+00
    0.00000E+00         0.00000E+00        -0.49697E+08
 
   -0.49528E+08         0.38157E+06         0.00000E+00
    0.38157E+06        -0.49885E+08         0.00000E+00
    0.00000E+00         0.00000E+00        -0.49700E+08
 
   -0.49542E+08         0.38901E+06         0.00000E+00
    0.38901E+06        -0.49880E+08         0.00000E+00
    0.00000E+00         0.00000E+00        -0.49704E+08
 
   -0.49557E+08         0.39625E+06         0.00000E+00
    0.39625E+06        -0.49874E+08         0.00000E+00
    0.00000E+00         0.00000E+00        -0.49708E+08
 
   -0.49572E+08         0.40328E+06         0.00000E+00
    0.40328E+06        -0.49868E+08         0.00000E+00
    0.00000E+00         0.00000E+00        -0.49712E+08
 
   -0.49587E+08         0.41013E+06         0.00000E+00
    0.41013E+06        -0.49863E+08         0.00000E+00
    0.00000E+00         0.00000E+00        -0.49715E+08
 
   -0.49601E+08         0.41678E+06         0.00000E+00
    0.41678E+06        -0.49857E+08         0.00000E+00
    0.00000E+00         0.00000E+00        -0.49718E+08
 
   -0.49616E+08         0.42323E+06         0.00000E+00
    0.42323E+06        -0.49851E+08         0.00000E+00
    0.00000E+00         0.00000E+00        -0.49722E+08
 
   -0.49631E+08         0.42950E+06         0.00000E+00
    0.42950E+06        -0.49845E+08         0.00000E+00
    0.00000E+00         0.00000E+00        -0.49725E+08
 
   -0.49646E+08         0.43558E+06         0.00000E+00
    0.43558E+06        -0.49839E+08         0.00000E+00
    0.00000E+00         0.00000E+00        -0.49728E+08
 
   -0.49661E+08         0.44148E+06         0.00000E+00
    0.44148E+06        -0.49833E+08         0.00000E+00
    0.00000E+00         0.00000E+00        -0.49731E+08
 
   -0.49676E+08         0.44719E+06         0.00000E+00
    0.44719E+06        -0.49827E+08         0.00000E+00
    0.00000E+00         0.00000E+00        -0.49734E+08
 
   -0.49691E+08         0.45271E+06         0.00000E+00
    0.45271E+06        -0.49821E+08         0.00000E+00
    0.00000E+00         0.00000E+00        -0.49736E+08
 
   -0.49706E+08         0.45806E+06         0.00000E+00
    0.45806E+06        -0.49814E+08         0.00000E+00
    0.00000E+00         0.00000E+00        -0.49739E+08
 
   -0.49721E+08         0.46323E+06         0.00000E+00
    0.46323E+06        -0.49808E+08         0.00000E+00
    0.00000E+00         0.00000E+00        -0.49741E+08
 
   -0.49736E+08         0.46821E+06         0.00000E+00
    0.46821E+06        -0.49801E+08         0.00000E+00
    0.00000E+00         0.00000E+00        -0.49743E+08
 
   -0.49127E+08         0.68476E+04         0.00000E+00
    0.68476E+04        -0.50000E+08         0.00000E+00
    0.00000E+00         0.00000E+00        -0.49569E+08
 
   -0.49129E+08         0.20623E+05         0.00000E+00
    0.20623E+05        -0.50000E+08         0.00000E+00
    0.00000E+00         0.00000E+00        -0.49570E+08
 
   -0.49132E+08         0.34409E+05         0.00000E+00
    0.34409E+05        -0.49999E+08         0.00000E+00
    0.00000E+00         0.00000E+00        -0.49571E+08
 
   -0.49136E+08         0.48188E+05         0.00000E+00
    0.48188E+05        -0.49998E+08         0.00000E+00
    0.00000E+00         0.00000E+00        -0.49571E+08
 
   -0.49140E+08         0.61940E+05         0.00000E+00
    0.61940E+05        -0.49997E+08         0.00000E+00
    0.00000E+00         0.00000E+00        -0.49573E+08
 
   -0.49145E+08         0.75650E+05         0.00000E+00
    0.75650E+05        -0.49996E+08         0.00000E+00
    0.00000E+00         0.00000E+00        -0.49574E+08
 
   -0.49150E+08         0.89299E+05         0.00000E+00
    0.89299E+05        -0.49995E+08         0.00000E+00
    0.00000E+00         0.00000E+00        -0.49576E+08
 
   -0.49156E+08         0.10287E+06         0.00000E+00
    0.10287E+06        -0.49993E+08         0.00000E+00
    0.00000E+00         0.00000E+00        -0.49577E+08
 
   -0.49163E+08         0.11635E+06         0.00000E+00
    0.11635E+06        -0.49991E+08         0.00000E+00
    0.00000E+00         0.00000E+00        -0.49579E+08
 
   -0.49170E+08         0.12973E+06         0.00000E+00
    0.12973E+06        -0.49989E+08         0.00000E+00
    0.00000E+00         0.00000E+00        -0.49581E+08
 
   -0.49177E+08         0.14298E+06         0.00000E+00
    0.14298E+06        -0.49986E+08         0.00000E+00
    0.00000E+00         0.00000E+00        -0.49583E+08
 
   -0.49185E+08         0.15610E+06         0.00000E+00
    0.15610E+06        -0.49983E+08         0.00000E+00
    0.00000E+00         0.00000E+00        -0.49586E+08
 
   -0.49194E+08         0.16908E+06         0.00000E+00
    0.16908E+06        -0.49980E+08         0.00000E+00
    0.00000E+00         0.00000E+00        -0.49588E+08
 
   -0.49203E+08         0.18189E+06         0.00000E+00
    0.18189E+06        -0.49977E+08         0.00000E+00
    0.00000E+00         0.00000E+00        -0.49591E+08
 
   -0.49212E+08         0.19453E+06         0.00000E+00
    0.19453E+06        -0.49974E+08         0.00000E+00
    0.00000E+00         0.00000E+00        -0.49594E+08
 
   -0.49222E+08         0.20700E+06         0.00000E+00
    0.20700E+06        -0.49970E+08         0.00000E+00
    0.00000E+00         0.00000E+00        -0.49597E+08
 
   -0.49232E+08         0.21927E+06         0.00000E+00
    0.21927E+06        -0.49967E+08         0.00000E+00
    0.00000E+00         0.00000E+00        -0.49600E+08
 
   -0.49243E+08         0.23135E+06         0.00000E+00
    0.23135E+06        -0.49963E+08         0.00000E+00
    0.00000E+00         0.00000E+00        -0.49603E+08
 
   -0.49254E+08         0.24323E+06         0.00000E+00
    0.24323E+06        -0.49959E+08         0.00000E+00
    0.00000E+00         0.00000E+00        -0.49606E+08
 
   -0.49266E+08         0.25489E+06         0.00000E+00
    0.25489E+06        -0.49954E+08         0.00000E+00
    0.00000E+00         0.00000E+00        -0.49610E+08
 
   -0.49278E+08         0.26633E+06         0.00000E+00
    0.26633E+06        -0.49950E+08         0.00000E+00
    0.00000E+00         0.00000E+00        -0.49613E+08
 
   -0.49290E+08         0.27755E+06         0.00000E+00
    0.27755E+06        -0.49945E+08         0.00000E+00
    0.00000E+00         0.00000E+00        -0.49617E+08
 
   -0.49303E+08         0.28854E+06         0.00000E+00
    0.28854E+06        -0.49941E+08         0.00000E+00
    0.00000E+00         0.00000E+00        -0.49621E+08
 
   -0.49315E+08         0.29931E+06         0.00000E+00
    0.29931E+06        -0.49936E+08         0.00000E+00
    0.00000E+00         0.00000E+00        -0.49624E+08
 
   -0.49329E+08         0.30984E+06         0.00000E+00
    0.30984E+06        -0.49931E+08         0.00000E+00
    0.00000E+00         0.00000E+00        -0.49628E+08
 
   -0.49342E+08         0.32013E+06         0.00000E+00
    0.32013E+06        -0.49926E+08         0.00000E+00
    0.00000E+00         0.00000E+00        -0.49632E+08
 
   -0.49356E+08         0.33019E+06         0.00000E+00
    0.33019E+06        -0.49920E+08         0.00000E+00
    0.00000E+00         0.00000E+00        -0.49636E+08
 
   -0.49370E+08         0.34002E+06         0.00000E+00
    0.34002E+06        -0.49915E+08         0.00000E+00
    0.00000E+00         0.00000E+00        -0.49640E+08
 
   -0.49384E+08         0.34961E+06         0.00000E+00
    0.34961E+06        -0.49910E+08         0.00000E+00
    0.00000E+00         0.00000E+00        -0.49644E+08
 
   -0.49399E+08         0.35896E+06         0.00000E+00
    0.35896E+06        -0.49904E+08         0.00000E+00
    0.00000E+00         0.00000E+00        -0.49648E+08
 
   -0.49413E+08         0.36808E+06         0.00000E+00
    0.36808E+06        -0.49898E+08         0.00000E+00
    0.00000E+00         0.00000E+00        -0.49652E+08
 
   -0.49428E+08         0.37697E+06         0.00000E+00
    0.37697E+06        -0.49893E+08         0.00000E+00
    0.00000E+00         0.00000E+00        -0.49657E+08
 
   -0.49443E+08         0.38563E+06         0.00000E+00
    0.38563E+06        -0.49887E+08         0.00000E+00
    0.00000E+00         0.00000E+00        -0.49661E+08
 
   -0.49458E+08         0.39407E+06         0.00000E+00
    0.39407E+06        -0.49881E+08         0.00000E+00
    0.00000E+00         0.00000E+00        -0.49665E+08
 
   -0.49474E+08         0.40228E+06         0.00000E+00
    0.40228E+06        -0.49875E+08         0.00000E+00
    0.00000E+00         0.00000E+00        -0.49669E+08
 
   -0.49489E+08         0.41028E+06         0.00000E+00
    0.41028E+06        -0.49869E+08         0.00000E+00
    0.00000E+00         0.00000E+00        -0.49673E+08
 
   -0.49505E+08         0.41806E+06         0.00000E+00
    0.41806E+06        -0.49863E+08         0.00000E+00
    0.00000E+00         0.00000E+00        -0.49677E+08
 
   -0.49520E+08         0.42563E+06         0.00000E+00
    0.42563E+06        -0.49857E+08         0.00000E+00
    0.00000E+00         0.00000E+00        -0.49681E+08
 
   -0.49536E+08         0.43300E+06         0.00000E+00
    0.43300E+06        -0.49851E+08         0.00000E+00
    0.00000E+00         0.00000E+00        -0.49685E+08
 
   -0.49552E+08         0.44017E+06         0.00000E+00
    0.44017E+06        -0.49845E+08         0.00000E+00
    0.00000E+00         0.00000E+00        -0.49688E+08
 
   -0.49568E+08         0.44715E+06         0.00000E+00
    0.44715E+06        -0.49839E+08         0.00000E+00
    0.00000E+00         0.00000E+00        -0.49692E+08
 
   -0.49584E+08         0.45393E+06         0.00000E+00
    0.45393E+06        -0.49832E+08         0.00000E+00
    0.00000E+00         0.00000E+00        -0.49695E+08
 
   -0.49600E+08         0.46053E+06         0.00000E+00
    0.46053E+06        -0.49826E+08         0.00000E+00
    0.00000E+00         0.00000E+00        -0.49699E+08
 
   -0.49615E+08         0.46695E+06         0.00000E+00
    0.46695E+06        -0.49819E+08         0.00000E+00
    0.00000E+00         0.00000E+00        -0.49702E+08
 
   -0.49631E+08         0.47319E+06         0.00000E+00
    0.47319E+06        -0.49813E+08         0.00000E+00
    0.00000E+00         0.00000E+00        -0.49705E+08
 
   -0.49647E+08         0.47926E+06         0.00000E+00
    0.47926E+06        -0.49806E+08         0.00000E+00
    0.00000E+00         0.00000E+00        -0.49708E+08
 
   -0.49663E+08         0.48517E+06         0.00000E+00
    0.48517E+06        -0.49800E+08         0.00000E+00
    0.00000E+00         0.00000E+00        -0.49711E+08
 
   -0.49679E+08         0.49090E+06         0.00000E+00
    0.49090E+06        -0.49793E+08         0.00000E+00
    0.00000E+00         0.00000E+00        -0.49713E+08
 
   -0.49695E+08         0.49648E+06         0.00000E+00
    0.49648E+06        -0.49786E+08         0.00000E+00
    0.00000E+00         0.00000E+00        -0.49715E+08
 
   -0.49711E+08         0.50189E+06         0.00000E+00
    0.50189E+06        -0.49779E+08         0.00000E+00
    0.00000E+00         0.00000E+00        -0.49717E+08
 
   -0.49055E+08         0.75503E+04         0.00000E+00
    0.75503E+04        -0.50000E+08         0.00000E+00
    0.00000E+00         0.00000E+00        -0.49532E+08
 
   -0.49057E+08         0.22743E+05         0.00000E+00
    0.22743E+05        -0.50000E+08         0.00000E+00
    0.00000E+00         0.00000E+00        -0.49533E+08
 
   -0.49060E+08         0.37944E+05         0.00000E+00
    0.37944E+05        -0.49999E+08         0.00000E+00
    0.00000E+00         0.00000E+00        -0.49534E+08
 
   -0.49064E+08         0.53130E+05         0.00000E+00
    0.53130E+05        -0.49998E+08         0.00000E+00
    0.00000E+00         0.00000E+00        -0.49535E+08
 
   -0.49068E+08         0.68278E+05         0.00000E+00
    0.68278E+05        -0.49997E+08         0.00000E+00
    0.00000E+00         0.00000E+00        -0.49536E+08
 
   -0.49073E+08         0.83365E+05         0.00000E+00
    0.83365E+05        -0.49995E+08         0.00000E+00
    0.00000E+00         0.00000E+00        -0.49537E+08
 
   -0.49079E+08         0.98372E+05         0.00000E+00
    0.98372E+05        -0.49994E+08         0.00000E+00
    0.00000E+00         0.00000E+00        -0.49539E+08
 
   -0.49085E+08         0.11328E+06         0.00000E+00
    0.11328E+06        -0.49991E+08         0.00000E+00
    0.00000E+00         0.00000E+00        -0.49541E+08
 
   -0.49092E+08         0.12806E+06         0.00000E+00
    0.12806E+06        -0.49989E+08         0.00000E+00
    0.00000E+00         0.00000E+00        -0.49543E+08
 
   -0.49100E+08         0.14271E+06         0.00000E+00
    0.14271E+06        -0.49986E+08         0.00000E+00
    0.00000E+00         0.00000E+00        -0.49545E+08
 
   -0.49108E+08         0.15720E+06         0.00000E+00
    0.15720E+06        -0.49983E+08         0.00000E+00
    0.00000E+00         0.00000E+00        -0.49547E+08
 
   -0.49117E+08         0.17152E+06         0.00000E+00
    0.17152E+06        -0.49980E+08         0.00000E+00
    0.00000E+00         0.00000E+00        -0.49550E+08
 
   -0.49126E+08         0.18565E+06         0.00000E+00
    0.18565E+06        -0.49977E+08         0.00000E+00
    0.00000E+00         0.00000E+00        -0.49553E+08
 
   -0.49136E+08         0.19958E+06         0.00000E+00
    0.19958E+06        -0.49973E+08         0.00000E+00
    0.00000E+00         0.00000E+00        -0.49556E+08
 
   -0.49147E+08         0.21330E+06         0.00000E+00
    0.21330E+06        -0.49969E+08         0.00000E+00
    0.00000E+00         0.00000E+00        -0.49559E+08
 
   -0.49158E+08         0.22679E+06         0.00000E+00
    0.22679E+06        -0.49965E+08         0.00000E+00
    0.00000E+00         0.00000E+00        -0.49562E+08
 
   -0.49169E+08         0.24005E+06         0.00000E+00
    0.24005E+06        -0.49960E+08         0.00000E+00
    0.00000E+00         0.00000E+00        -0.49565E+08
 
   -0.49181E+08         0.25307E+06         0.00000E+00
    0.25307E+06        -0.49956E+08         0.00000E+00
    0.00000E+00         0.00000E+00        -0.49568E+08
 
   -0.49193E+08         0.26583E+06         0.00000E+00
    0.26583E+06        -0.49951E+08         0.00000E+00
    0.00000E+00         0.00000E+00        -0.49572E+08
 
   -0.49206E+08         0.27833E+06         0.00000E+00
    0.27833E+06        -0.49946E+08         0.00000E+00
    0.00000E+00         0.00000E+00        -0.49576E+08
 
   -0.49219E+08         0.29057E+06         0.00000E+00
    0.29057E+06        -0.49941E+08         0.00000E+00
    0.00000E+00         0.00000E+00        -0.49580E+08
 
   -0.49233E+08         0.30254E+06         0.00000E+00
    0.30254E+06        -0.49936E+08         0.00000E+00
    0.00000E+00         0.00000E+00        -0.49583E+08
 
   -0.49246E+08         0.31423E+06         0.00000E+00
    0.31423E+06        -0.49930E+08         0.00000E+00
    0.00000E+00         0.00000E+00        -0.49587E+08
 
   -0.49261E+08         0.32565E+06         0.00000E+00
    0.32565E+06        -0.49925E+08         0.00000E+00
    0.00000E+00         0.00000E+00        -0.49591E+08
 
   -0.49275E+08         0.33680E+06         0.00000E+00
    0.33680E+06        -0.49919E+08         0.00000E+00
    0.00000E+00         0.00000E+00        -0.49596E+08
 
   -0.49290E+08         0.34766E+06         0.00000E+00
    0.34766E+06        -0.49913E+08         0.00000E+00
    0.00000E+00         0.00000E+00        -0.49600E+08
 
   -0.49305E+08         0.35825E+06         0.00000E+00
    0.35825E+06        -0.49907E+08         0.00000E+00
    0.00000E+00         0.00000E+00        -0.49604E+08
 
   -0.49320E+08         0.36857E+06         0.00000E+00
    0.36857E+06        -0.49901E+08         0.00000E+00
    0.00000E+00         0.00000E+00        -0.49608E+08
 
   -0.49336E+08         0.37861E+06         0.00000E+00
    0.37861E+06        -0.49895E+08         0.00000E+00
    0.00000E+00         0.00000E+00        -0.49613E+08
 
   -0.49351E+08         0.38838E+06         0.00000E+00
    0.38838E+06        -0.49889E+08         0.00000E+00
    0.00000E+00         0.00000E+00        -0.49617E+08
 
   -0.49367E+08         0.39789E+06         0.00000E+00
    0.39789E+06        -0.49883E+08         0.00000E+00
    0.00000E+00         0.00000E+00        -0.49621E+08
 
   -0.49383E+08         0.40714E+06         0.00000E+00
    0.40714E+06        -0.49876E+08         0.00000E+00
    0.00000E+00         0.00000E+00        -0.49626E+08
 
   -0.49400E+08         0.41614E+06         0.00000E+00
    0.41614E+06        -0.49870E+08         0.00000E+00
    0.00000E+00         0.00000E+00        -0.49630E+08
 
   -0.49416E+08         0.42488E+06         0.00000E+00
    0.42488E+06        -0.49863E+08         0.00000E+00
    0.00000E+00         0.00000E+00        -0.49634E+08
 
   -0.49433E+08         0.43339E+06         0.00000E+00
    0.43339E+06        -0.49857E+08         0.00000E+00
    0.00000E+00         0.00000E+00        -0.49639E+08
 
   -0.49449E+08         0.44166E+06         0.00000E+00
    0.44166E+06        -0.49850E+08         0.00000E+00
    0.00000E+00         0.00000E+00        -0.49643E+08
 
   -0.49466E+08         0.44970E+06         0.00000E+00
    0.44970E+06        -0.49844E+08         0.00000E+00
    0.00000E+00         0.00000E+00        -0.49647E+08
 
   -0.49482E+08         0.45752E+06         0.00000E+00
    0.45752E+06        -0.49837E+08         0.00000E+00
    0.00000E+00         0.00000E+00        -0.49651E+08
 
   -0.49499E+08         0.46514E+06         0.00000E+00
    0.46514E+06        -0.49830E+08         0.00000E+00
    0.00000E+00         0.00000E+00        -0.49655E+08
 
   -0.49516E+08         0.47255E+06         0.00000E+00
    0.47255E+06        -0.49824E+08         0.00000E+00
    0.00000E+00         0.00000E+00        -0.49659E+08
 
   -0.49533E+08         0.47976E+06         0.00000E+00
    0.47976E+06        -0.49817E+08         0.00000E+00
    0.00000E+00         0.00000E+00        -0.49663E+08
 
   -0.49550E+08         0.48679E+06         0.00000E+00
    0.48679E+06        -0.49810E+08         0.00000E+00
    0.00000E+00         0.00000E+00        -0.49667E+08
 
   -0.49566E+08         0.49365E+06         0.00000E+00
    0.49365E+06        -0.49803E+08         0.00000E+00
    0.00000E+00         0.00000E+00        -0.49671E+08
 
   -0.49583E+08         0.50033E+06         0.00000E+00
    0.50033E+06        -0.49797E+08         0.00000E+00
    0.00000E+00         0.00000E+00        -0.49674E+08
 
   -0.49600E+08         0.50685E+06         0.00000E+00
    0.50685E+06        -0.49790E+08         0.00000E+00
    0.00000E+00         0.00000E+00        -0.49677E+08
 
   -0.49617E+08         0.51322E+06         0.00000E+00
    0.51322E+06        -0.49783E+08         0.00000E+00
    0.00000E+00         0.00000E+00        -0.49680E+08
 
   -0.49633E+08         0.51944E+06         0.00000E+00
    0.51944E+06        -0.49776E+08         0.00000E+00
    0.00000E+00         0.00000E+00        -0.49683E+08
 
   -0.49650E+08         0.52553E+06         0.00000E+00
    0.52553E+06        -0.49769E+08         0.00000E+00
    0.00000E+00         0.00000E+00        -0.49686E+08
 
   -0.49666E+08         0.53148E+06         0.00000E+00
    0.53148E+06        -0.49762E+08         0.00000E+00
    0.00000E+00         0.00000E+00        -0.49688E+08
 
   -0.49683E+08         0.53730E+06         0.00000E+00
    0.53730E+06        -0.49754E+08         0.00000E+00
    0.00000E+00         0.00000E+00        -0.49690E+08
 
   -0.48974E+08         0.84150E+04         0.00000E+00
    0.84150E+04        -0.50000E+08         0.00000E+00
    0.00000E+00         0.00000E+00        -0.49492E+08
 
   -0.48977E+08         0.25333E+05         0.00000E+00
    0.25333E+05        -0.50000E+08         0.00000E+00
    0.00000E+00         0.00000E+00        -0.49492E+08
 
   -0.48980E+08         0.42249E+05         0.00000E+00
    0.42249E+05        -0.49999E+08         0.00000E+00
    0.00000E+00         0.00000E+00        -0.49493E+08
 
   -0.48984E+08         0.59132E+05         0.00000E+00
    0.59132E+05        -0.49998E+08         0.00000E+00
    0.00000E+00         0.00000E+00        -0.49494E+08
 
   -0.48989E+08         0.75953E+05         0.00000E+00
    0.75953E+05        -0.49996E+08         0.00000E+00
    0.00000E+00         0.00000E+00        -0.49495E+08
 
   -0.48994E+08         0.92687E+05         0.00000E+00
    0.92687E+05        -0.49994E+08         0.00000E+00
    0.00000E+00         0.00000E+00        -0.49497E+08
 
   -0.49000E+08         0.10930E+06         0.00000E+00
    0.10930E+06        -0.49992E+08         0.00000E+00
    0.00000E+00         0.00000E+00        -0.49499E+08
 
   -0.49007E+08         0.12578E+06         0.00000E+00
    0.12578E+06        -0.49990E+08         0.00000E+00
    0.00000E+00         0.00000E+00        -0.49501E+08
 
   -0.49015E+08         0.14210E+06         0.00000E+00
    0.14210E+06        -0.49987E+08         0.00000E+00
    0.00000E+00         0.00000E+00        -0.49503E+08
 
   -0.49024E+08         0.15823E+06         0.00000E+00
    0.15823E+06        -0.49983E+08         0.00000E+00
    0.00000E+00         0.00000E+00        -0.49505E+08
 
   -0.49033E+08         0.17415E+06         0.00000E+00
    0.17415E+06        -0.49980E+08         0.00000E+00
    0.00000E+00         0.00000E+00        -0.49508E+08
 
   -0.49043E+08         0.18985E+06         0.00000E+00
    0.18985E+06        -0.49976E+08         0.00000E+00
    0.00000E+00         0.00000E+00        -0.49511E+08
 
   -0.49053E+08         0.20531E+06         0.00000E+00
    0.20531E+06        -0.49972E+08         0.00000E+00
    0.00000E+00         0.00000E+00        -0.49513E+08
 
   -0.49064E+08         0.22051E+06         0.00000E+00
    0.22051E+06        -0.49967E+08         0.00000E+00
    0.00000E+00         0.00000E+00        -0.49517E+08
 
   -0.49076E+08         0.23543E+06         0.00000E+00
    0.23543E+06        -0.49963E+08         0.00000E+00
    0.00000E+00         0.00000E+00        -0.49520E+08
 
   -0.49088E+08         0.25007E+06         0.00000E+00
    0.25007E+06        -0.49958E+08         0.00000E+00
    0.00000E+00         0.00000E+00        -0.49523E+08
 
   -0.49101E+08         0.26441E+06         0.00000E+00
    0.26441E+06        -0.49953E+08         0.00000E+00
    0.00000E+00         0.00000E+00        -0.49527E+08
 
   -0.49114E+08         0.27845E+06         0.00000E+00
    0.27845E+06        -0.49947E+08         0.00000E+00
    0.00000E+00         0.00000E+00        -0.49531E+08
 
   -0.49128E+08         0.29216E+06         0.00000E+00
    0.29216E+06        -0.49942E+08         0.00000E+00
    0.00000E+00         0.00000E+00        -0.49535E+08
 
   -0.49142E+08         0.30556E+06         0.00000E+00
    0.30556E+06        -0.49936E+08         0.00000E+00
    0.00000E+00         0.00000E+00        -0.49539E+08
 
   -0.49157E+08         0.31863E+06         0.00000E+00
    0.31863E+06        -0.49930E+08         0.00000E+00
    0.00000E+00         0.00000E+00        -0.49543E+08
 
   -0.49172E+08         0.33137E+06         0.00000E+00
    0.33137E+06        -0.49924E+08         0.00000E+00
    0.00000E+00         0.00000E+00        -0.49547E+08
 
   -0.49187E+08         0.34377E+06         0.00000E+00
    0.34377E+06        -0.49918E+08         0.00000E+00
    0.00000E+00         0.00000E+00        -0.49551E+08
 
   -0.49203E+08         0.35584E+06         0.00000E+00
    0.35584E+06        -0.49911E+08         0.00000E+00
    0.00000E+00         0.00000E+00        -0.49556E+08
 
   -0.49219E+08         0.36758E+06         0.00000E+00
    0.36758E+06        -0.49905E+08         0.00000E+00
    0.00000E+00         0.00000E+00        -0.49560E+08
 
   -0.49235E+08         0.37898E+06         0.00000E+00
    0.37898E+06        -0.49898E+08         0.00000E+00
    0.00000E+00         0.00000E+00        -0.49565E+08
 
   -0.49252E+08         0.39006E+06         0.00000E+00
    0.39006E+06        -0.49891E+08         0.00000E+00
    0.00000E+00         0.00000E+00        -0.49569E+08
 
   -0.49268E+08         0.40081E+06         0.00000E+00
    0.40081E+06        -0.49884E+08         0.00000E+00
    0.00000E+00         0.00000E+00        -0.49574E+08
 
   -0.49285E+08         0.41123E+06         0.00000E+00
    0.41123E+06        -0.49878E+08         0.00000E+00
    0.00000E+00         0.00000E+00        -0.49579E+08
 
   -0.49302E+08         0.42135E+06         0.00000E+00
    0.42135E+06        -0.49871E+08         0.00000E+00
    0.00000E+00         0.00000E+00        -0.49583E+08
 
   -0.49320E+08         0.43116E+06         0.00000E+00
    0.43116E+06        -0.49864E+08         0.00000E+00
    0.00000E+00         0.00000E+00        -0.49588E+08
 
   -0.49337E+08         0.44067E+06         0.00000E+00
    0.44067E+06        -0.49857E+08         0.00000E+00
    0.00000E+00         0.00000E+00        -0.49593E+08
 
   -0.49355E+08         0.44989E+06         0.00000E+00
    0.44989E+06        -0.49849E+08         0.00000E+00
    0.00000E+00         0.00000E+00        -0.49597E+08
 
   -0.49372E+08         0.45884E+06         0.00000E+00
    0.45884E+06        -0.49842E+08         0.00000E+00
    0.00000E+00         0.00000E+00        -0.49602E+08
 
   -0.49390E+08         0.46751E+06         0.00000E+00
    0.46751E+06        -0.49835E+08         0.00000E+00
    0.00000E+00         0.00000E+00        -0.49607E+08
 
   -0.49408E+08         0.47593E+06         0.00000E+00
    0.47593E+06        -0.49828E+08         0.00000E+00
    0.00000E+00         0.00000E+00        -0.49611E+08
 
   -0.49426E+08         0.48411E+06         0.00000E+00
    0.48411E+06        -0.49821E+08         0.00000E+00
    0.00000E+00         0.00000E+00        -0.49616E+08
 
   -0.49444E+08         0.49205E+06         0.00000E+00
    0.49205E+06        -0.49814E+08         0.00000E+00
    0.00000E+00         0.00000E+00        -0.49620E+08
 
   -0.49461E+08         0.49978E+06         0.00000E+00
    0.49978E+06        -0.49806E+08         0.00000E+00
    0.00000E+00         0.00000E+00        -0.49624E+08
 
   -0.49479E+08         0.50730E+06         0.00000E+00
    0.50730E+06        -0.49799E+08         0.00000E+00
    0.00000E+00         0.00000E+00        -0.49629E+08
 
   -0.49497E+08         0.51462E+06         0.00000E+00
    0.51462E+06        -0.49792E+08         0.00000E+00
    0.00000E+00         0.00000E+00        -0.49633E+08
 
   -0.49515E+08         0.52177E+06         0.00000E+00
    0.52177E+06        -0.49785E+08         0.00000E+00
    0.00000E+00         0.00000E+00        -0.49636E+08
 
   -0.49532E+08         0.52875E+06         0.00000E+00
    0.52875E+06        -0.49778E+08         0.00000E+00
    0.00000E+00         0.00000E+00        -0.49640E+08
 
   -0.49550E+08         0.53558E+06         0.00000E+00
    0.53558E+06        -0.49771E+08         0.00000E+00
    0.00000E+00         0.00000E+00        -0.49644E+08
 
   -0.49567E+08         0.54227E+06         0.00000E+00
    0.54227E+06        -0.49763E+08         0.00000E+00
    0.00000E+00         0.00000E+00        -0.49647E+08
 
   -0.49585E+08         0.54883E+06         0.00000E+00
    0.54883E+06        -0.49756E+08         0.00000E+00
    0.00000E+00         0.00000E+00        -0.49650E+08
 
   -0.49602E+08         0.55528E+06         0.00000E+00
    0.55528E+06        -0.49749E+08         0.00000E+00
    0.00000E+00         0.00000E+00        -0.49653E+08
 
   -0.49619E+08         0.56163E+06         0.00000E+00
    0.56163E+06        -0.49741E+08         0.00000E+00
    0.00000E+00         0.00000E+00        -0.49656E+08
 
   -0.49636E+08         0.56788E+06         0.00000E+00
    0.56788E+06        -0.49734E+08         0.00000E+00
    0.00000E+00         0.00000E+00        -0.49658E+08
 
   -0.49653E+08         0.57405E+06         0.00000E+00
    0.57405E+06        -0.49727E+08         0.00000E+00
    0.00000E+00         0.00000E+00        -0.49661E+08
 
   -0.48885E+08         0.94837E+04         0.00000E+00
    0.94837E+04        -0.50000E+08         0.00000E+00
    0.00000E+00         0.00000E+00        -0.49447E+08
 
   -0.48887E+08         0.28509E+05         0.00000E+00
    0.28509E+05        -0.50000E+08         0.00000E+00
    0.00000E+00         0.00000E+00        -0.49447E+08
 
   -0.48890E+08         0.47507E+05         0.00000E+00
    0.47507E+05        -0.49999E+08         0.00000E+00
    0.00000E+00         0.00000E+00        -0.49448E+08
 
   -0.48895E+08         0.66442E+05         0.00000E+00
    0.66442E+05        -0.49997E+08         0.00000E+00
    0.00000E+00         0.00000E+00        -0.49449E+08
 
   -0.48900E+08         0.85277E+05         0.00000E+00
    0.85277E+05        -0.49995E+08         0.00000E+00
    0.00000E+00         0.00000E+00        -0.49450E+08
 
   -0.48906E+08         0.10398E+06         0.00000E+00
    0.10398E+06        -0.49993E+08         0.00000E+00
    0.00000E+00         0.00000E+00        -0.49452E+08
 
   -0.48913E+08         0.12251E+06         0.00000E+00
    0.12251E+06        -0.49990E+08         0.00000E+00
    0.00000E+00         0.00000E+00        -0.49454E+08
 
   -0.48921E+08         0.14085E+06         0.00000E+00
    0.14085E+06        -0.49987E+08         0.00000E+00
    0.00000E+00         0.00000E+00        -0.49456E+08
 
   -0.48930E+08         0.15896E+06         0.00000E+00
    0.15896E+06        -0.49984E+08         0.00000E+00
    0.00000E+00         0.00000E+00        -0.49459E+08
 
   -0.48939E+08         0.17683E+06         0.00000E+00
    0.17683E+06        -0.49980E+08         0.00000E+00
    0.00000E+00         0.00000E+00        -0.49461E+08
 
   -0.48950E+08         0.19441E+06         0.00000E+00
    0.19441E+06        -0.49976E+08         0.00000E+00
    0.00000E+00         0.00000E+00        -0.49464E+08
 
   -0.48961E+08         0.21170E+06         0.00000E+00
    0.21170E+06        -0.49971E+08         0.00000E+00
    0.00000E+00         0.00000E+00        -0.49467E+08
 
   -0.48973E+08         0.22867E+06         0.00000E+00
    0.22867E+06        -0.49966E+08         0.00000E+00
    0.00000E+00         0.00000E+00        -0.49470E+08
 
   -0.48985E+08         0.24530E+06         0.00000E+00
    0.24530E+06        -0.49961E+08         0.00000E+00
    0.00000E+00         0.00000E+00        -0.49474E+08
 
   -0.48999E+08         0.26158E+06         0.00000E+00
    0.26158E+06        -0.49955E+08         0.00000E+00
    0.00000E+00         0.00000E+00        -0.49478E+08
 
   -0.49013E+08         0.27750E+06         0.00000E+00
    0.27750E+06        -0.49950E+08         0.00000E+00
    0.00000E+00         0.00000E+00        -0.49481E+08
 
   -0.49027E+08         0.29303E+06         0.00000E+00
    0.29303E+06        -0.49943E+08         0.00000E+00
    0.00000E+00         0.00000E+00        -0.49485E+08
 
   -0.49042E+08         0.30817E+06         0.00000E+00
    0.30817E+06        -0.49937E+08         0.00000E+00
    0.00000E+00         0.00000E+00        -0.49490E+08
 
   -0.49058E+08         0.32292E+06         0.00000E+00
    0.32292E+06        -0.49931E+08         0.00000E+00
    0.00000E+00         0.00000E+00        -0.49494E+08
 
   -0.49074E+08         0.33726E+06         0.00000E+00
    0.33726E+06        -0.49924E+08         0.00000E+00
    0.00000E+00         0.00000E+00        -0.49498E+08
 
   -0.49090E+08         0.35119E+06         0.00000E+00
    0.35119E+06        -0.49917E+08         0.00000E+00
    0.00000E+00         0.00000E+00        -0.49503E+08
 
   -0.49107E+08         0.36471E+06         0.00000E+00
    0.36471E+06        -0.49910E+08         0.00000E+00
    0.00000E+00         0.00000E+00        -0.49508E+08
 
   -0.49124E+08         0.37782E+06         0.00000E+00
    0.37782E+06        -0.49903E+08         0.00000E+00
    0.00000E+00         0.00000E+00        -0.49512E+08
 
   -0.49142E+08         0.39051E+06         0.00000E+00
    0.39051E+06        -0.49895E+08         0.00000E+00
    0.00000E+00         0.00000E+00        -0.49517E+08
 
   -0.49160E+08         0.40280E+06         0.00000E+00
    0.40280E+06        -0.49888E+08         0.00000E+00
    0.00000E+00         0.00000E+00        -0.49522E+08
 
   -0.49178E+08         0.41469E+06         0.00000E+00
    0.41469E+06        -0.49880E+08         0.00000E+00
    0.00000E+00         0.00000E+00        -0.49527E+08
 
   -0.49196E+08         0.42617E+06         0.00000E+00
    0.42617E+06        -0.49872E+08         0.00000E+00
    0.00000E+00         0.00000E+00        -0.49532E+08
 
   -0.49215E+08         0.43727E+06         0.00000E+00
    0.43727E+06        -0.49865E+08         0.00000E+00
    0.00000E+00         0.00000E+00        -0.49537E+08
 
   -0.49233E+08         0.44798E+06         0.00000E+00
    0.44798E+06        -0.49857E+08         0.00000E+00
    0.00000E+00         0.00000E+00        -0.49542E+08
 
   -0.49252E+08         0.45832E+06         0.00000E+00
    0.45832E+06        -0.49849E+08         0.00000E+00
    0.00000E+00         0.00000E+00        -0.49547E+08
 
   -0.49271E+08         0.46831E+06         0.00000E+00
    0.46831E+06        -0.49841E+08         0.00000E+00
    0.00000E+00         0.00000E+00        -0.49553E+08
 
   -0.49290E+08         0.47794E+06         0.00000E+00
    0.47794E+06        -0.49833E+08         0.00000E+00
    0.00000E+00         0.00000E+00        -0.49558E+08
 
   -0.49309E+08         0.48725E+06         0.00000E+00
    0.48725E+06        -0.49826E+08         0.00000E+00
    0.00000E+00         0.00000E+00        -0.49563E+08
 
   -0.49328E+08         0.49623E+06         0.00000E+00
    0.49623E+06        -0.49818E+08         0.00000E+00
    0.00000E+00         0.00000E+00        -0.49568E+08
 
   -0.49347E+08         0.50491E+06         0.00000E+00
    0.50491E+06        -0.49810E+08         0.00000E+00
    0.00000E+00         0.00000E+00        -0.49573E+08
 
   -0.49366E+08         0.51331E+06         0.00000E+00
    0.51331E+06        -0.49802E+08         0.00000E+00
    0.00000E+00         0.00000E+00        -0.49578E+08
 
   -0.49386E+08         0.52145E+06         0.00000E+00
    0.52145E+06        -0.49794E+08         0.00000E+00
    0.00000E+00         0.00000E+00        -0.49582E+08
 
   -0.49404E+08         0.52933E+06         0.00000E+00
    0.52933E+06        -0.49787E+08         0.00000E+00
    0.00000E+00         0.00000E+00        -0.49587E+08
 
   -0.49423E+08         0.53698E+06         0.00000E+00
    0.53698E+06        -0.49779E+08         0.00000E+00
    0.00000E+00         0.00000E+00        -0.49592E+08
 
   -0.49442E+08         0.54443E+06         0.00000E+00
    0.54443E+06        -0.49771E+08         0.00000E+00
    0.00000E+00         0.00000E+00        -0.49596E+08
 
   -0.49461E+08         0.55168E+06         0.00000E+00
    0.55168E+06        -0.49764E+08         0.00000E+00
    0.00000E+00         0.00000E+00        -0.49600E+08
 
   -0.49479E+08         0.55876E+06         0.00000E+00
    0.55876E+06        -0.49756E+08         0.00000E+00
    0.00000E+00         0.00000E+00        -0.49604E+08
 
   -0.49498E+08         0.56569E+06         0.00000E+00
    0.56569E+06        -0.49748E+08         0.00000E+00
    0.00000E+00         0.00000E+00        -0.49608E+08
 
   -0.49516E+08         0.57249E+06         0.00000E+00
    0.57249E+06        -0.49741E+08         0.00000E+00
    0.00000E+00         0.00000E+00        -0.49612E+08
 
   -0.49534E+08         0.57918E+06         0.00000E+00
    0.57918E+06        -0.49733E+08         0.00000E+00
    0.00000E+00         0.00000E+00        -0.49615E+08
 
   -0.49552E+08         0.58577E+06         0.00000E+00
    0.58577E+06        -0.49726E+08         0.00000E+00
    0.00000E+00         0.00000E+00        -0.49619E+08
 
   -0.49570E+08         0.59229E+06         0.00000E+00
    0.59229E+06        -0.49718E+08         0.00000E+00
    0.00000E+00         0.00000E+00        -0.49622E+08
 
   -0.49587E+08         0.59876E+06         0.00000E+00
    0.59876E+06        -0.49711E+08         0.00000E+00
    0.00000E+00         0.00000E+00        -0.49625E+08
 
   -0.49604E+08         0.60518E+06         0.00000E+00
    0.60518E+06        -0.49703E+08         0.00000E+00
    0.00000E+00         0.00000E+00        -0.49627E+08
 
   -0.49622E+08         0.61159E+06         0.00000E+00
    0.61159E+06        -0.49696E+08         0.00000E+00
    0.00000E+00         0.00000E+00        -0.49629E+08
 
   -0.48783E+08         0.10804E+05         0.00000E+00
    0.10804E+05        -0.50000E+08         0.00000E+00
    0.00000E+00         0.00000E+00        -0.49396E+08
 
   -0.48786E+08         0.32400E+05         0.00000E+00
    0.32400E+05        -0.50000E+08         0.00000E+00
    0.00000E+00         0.00000E+00        -0.49396E+08
 
   -0.48789E+08         0.53927E+05         0.00000E+00
    0.53927E+05        -0.49998E+08         0.00000E+00
    0.00000E+00         0.00000E+00        -0.49397E+08
 
   -0.48794E+08         0.75338E+05         0.00000E+00
    0.75338E+05        -0.49997E+08         0.00000E+00
    0.00000E+00         0.00000E+00        -0.49399E+08
 
   -0.48800E+08         0.96589E+05         0.00000E+00
    0.96589E+05        -0.49994E+08         0.00000E+00
    0.00000E+00         0.00000E+00        -0.49400E+08
 
   -0.48807E+08         0.11764E+06         0.00000E+00
    0.11764E+06        -0.49992E+08         0.00000E+00
    0.00000E+00         0.00000E+00        -0.49402E+08
 
   -0.48815E+08         0.13845E+06         0.00000E+00
    0.13845E+06        -0.49988E+08         0.00000E+00
    0.00000E+00         0.00000E+00        -0.49404E+08
 
   -0.48825E+08         0.15898E+06         0.00000E+00
    0.15898E+06        -0.49985E+08         0.00000E+00
    0.00000E+00         0.00000E+00        -0.49407E+08
 
   -0.48835E+08         0.17920E+06         0.00000E+00
    0.17920E+06        -0.49980E+08         0.00000E+00
    0.00000E+00         0.00000E+00        -0.49409E+08
 
   -0.48846E+08         0.19909E+06         0.00000E+00
    0.19909E+06        -0.49976E+08         0.00000E+00
    0.00000E+00         0.00000E+00        -0.49412E+08
 
   -0.48858E+08         0.21860E+06         0.00000E+00
    0.21860E+06        -0.49971E+08         0.00000E+00
    0.00000E+00         0.00000E+00        -0.49416E+08
 
   -0.48871E+08         0.23771E+06         0.00000E+00
    0.23771E+06        -0.49965E+08         0.00000E+00
    0.00000E+00         0.00000E+00        -0.49419E+08
 
   -0.48885E+08         0.25641E+06         0.00000E+00
    0.25641E+06        -0.49959E+08         0.00000E+00
    0.00000E+00         0.00000E+00        -0.49423E+08
 
   -0.48899E+08         0.27466E+06         0.00000E+00
    0.27466E+06        -0.49953E+08         0.00000E+00
    0.00000E+00         0.00000E+00        -0.49427E+08
 
   -0.48915E+08         0.29246E+06         0.00000E+00
    0.29246E+06        -0.49947E+08         0.00000E+00
    0.00000E+00         0.00000E+00        -0.49431E+08
 
   -0.48931E+08         0.30979E+06         0.00000E+00
    0.30979E+06        -0.49940E+08         0.00000E+00
    0.00000E+00         0.00000E+00        -0.49436E+08
 
   -0.48947E+08         0.32662E+06         0.00000E+00
    0.32662E+06        -0.49933E+08         0.00000E+00
    0.00000E+00         0.00000E+00        -0.49440E+08
 
   -0.48964E+08         0.34297E+06         0.00000E+00
    0.34297E+06        -0.49925E+08         0.00000E+00
    0.00000E+00         0.00000E+00        -0.49445E+08
 
   -0.48982E+08         0.35880E+06         0.00000E+00
    0.35880E+06        -0.49918E+08         0.00000E+00
    0.00000E+00         0.00000E+00        -0.49450E+08
 
   -0.49001E+08         0.37413E+06         0.00000E+00
    0.37413E+06        -0.49910E+08         0.00000E+00
    0.00000E+00         0.00000E+00        -0.49455E+08
 
   -0.49019E+08         0.38895E+06         0.00000E+00
    0.38895E+06        -0.49902E+08         0.00000E+00
    0.00000E+00         0.00000E+00        -0.49460E+08
 
   -0.49038E+08         0.40325E+06         0.00000E+00
    0.40325E+06        -0.49894E+08         0.00000E+00
    0.00000E+00         0.00000E+00        -0.49465E+08
 
   -0.49058E+08         0.41704E+06         0.00000E+00
    0.41704E+06        -0.49885E+08         0.00000E+00
    0.00000E+00         0.00000E+00        -0.49471E+08
 
   -0.49078E+08         0.43032E+06         0.00000E+00
    0.43032E+06        -0.49877E+08         0.00000E+00
    0.00000E+00         0.00000E+00        -0.49476E+08
 
   -0.49098E+08         0.44309E+06         0.00000E+00
    0.44309E+06        -0.49868E+08         0.00000E+00
    0.00000E+00         0.00000E+00        -0.49482E+08
 
   -0.49118E+08         0.45538E+06         0.00000E+00
    0.45538E+06        -0.49860E+08         0.00000E+00
    0.00000E+00         0.00000E+00        -0.49487E+08
 
   -0.49139E+08         0.46717E+06         0.00000E+00
    0.46717E+06        -0.49851E+08         0.00000E+00
    0.00000E+00         0.00000E+00        -0.49493E+08
 
   -0.49159E+08         0.47850E+06         0.00000E+00
    0.47850E+06        -0.49842E+08         0.00000E+00
    0.00000E+00         0.00000E+00        -0.49499E+08
 
   -0.49180E+08         0.48936E+06         0.00000E+00
    0.48936E+06        -0.49833E+08         0.00000E+00
    0.00000E+00         0.00000E+00        -0.49504E+08
 
   -0.49201E+08         0.49978E+06         0.00000E+00
    0.49978E+06        -0.49825E+08         0.00000E+00
    0.00000E+00         0.00000E+00        -0.49510E+08
 
   -0.49222E+08         0.50977E+06         0.00000E+00
    0.50977E+06        -0.49816E+08         0.00000E+00
    0.00000E+00         0.00000E+00        -0.49515E+08
 
   -0.49243E+08         0.51935E+06         0.00000E+00
    0.51935E+06        -0.49807E+08         0.00000E+00
    0.00000E+00         0.00000E+00        -0.49521E+08
 
   -0.49264E+08         0.52854E+06         0.00000E+00
    0.52854E+06        -0.49798E+08         0.00000E+00
    0.00000E+00         0.00000E+00        -0.49526E+08
 
   -0.49285E+08         0.53736E+06         0.00000E+00
    0.53736E+06        -0.49790E+08         0.00000E+00
    0.00000E+00         0.00000E+00        -0.49532E+08
 
   -0.49305E+08         0.54584E+06         0.00000E+00
    0.54584E+06        -0.49781E+08         0.00000E+00
    0.00000E+00         0.00000E+00        -0.49537E+08
 
   -0.49326E+08         0.55399E+06         0.00000E+00
    0.55399E+06        -0.49773E+08         0.00000E+00
    0.00000E+00         0.00000E+00        -0.49543E+08
 
   -0.49346E+08         0.56185E+06         0.00000E+00
    0.56185E+06        -0.49764E+08         0.00000E+00
    0.00000E+00         0.00000E+00        -0.49548E+08
 
   -0.49366E+08         0.56943E+06         0.00000E+00
    0.56943E+06        -0.49756E+08         0.00000E+00
    0.00000E+00         0.00000E+00        -0.49553E+08
 
   -0.49386E+08         0.57677E+06         0.00000E+00
    0.57677E+06        -0.49748E+08         0.00000E+00
    0.00000E+00         0.00000E+00        -0.49558E+08
 
   -0.49406E+08         0.58389E+06         0.00000E+00
    0.58389E+06        -0.49739E+08         0.00000E+00
    0.00000E+00         0.00000E+00        -0.49562E+08
 
   -0.49426E+08         0.59082E+06         0.00000E+00
    0.59082E+06        -0.49731E+08         0.00000E+00
    0.00000E+00         0.00000E+00        -0.49567E+08
 
   -0.49445E+08         0.59758E+06         0.00000E+00
    0.59758E+06        -0.49723E+08         0.00000E+00
    0.00000E+00         0.00000E+00        -0.49571E+08
 
   -0.49464E+08         0.60421E+06         0.00000E+00
    0.60421E+06        -0.49715E+08         0.00000E+00
    0.00000E+00         0.00000E+00        -0.49575E+08
 
   -0.49483E+08         0.61074E+06         0.00000E+00
    0.61074E+06        -0.49708E+08         0.00000E+00
    0.00000E+00         0.00000E+00        -0.49579E+08
 
   -0.49501E+08         0.61718E+06         0.00000E+00
    0.61718E+06        -0.49700E+08         0.00000E+00
    0.00000E+00         0.00000E+00        -0.49583E+08
 
   -0.49519E+08         0.62357E+06         0.00000E+00
    0.62357E+06        -0.49692E+08         0.00000E+00
    0.00000E+00         0.00000E+00        -0.49586E+08
 
   -0.49537E+08         0.62994E+06         0.00000E+00
    0.62994E+06        -0.49685E+08         0.00000E+00
    0.00000E+00         0.00000E+00        -0.49589E+08
 
   -0.49555E+08         0.63631E+06         0.00000E+00
    0.63631E+06        -0.49677E+08         0.00000E+00
    0.00000E+00         0.00000E+00        -0.49592E+08
 
   -0.49572E+08         0.64271E+06         0.00000E+00
    0.64271E+06        -0.49670E+08         0.00000E+00
    0.00000E+00         0.00000E+00        -0.49595E+08
 
   -0.49589E+08         0.64917E+06         0.00000E+00
    0.64917E+06        -0.49662E+08         0.00000E+00
    0.00000E+00         0.00000E+00        -0.49597E+08
 
   -0.48668E+08         0.12428E+05         0.00000E+00
    0.12428E+05        -0.50000E+08         0.00000E+00
    0.00000E+00         0.00000E+00        -0.49339E+08
 
   -0.48670E+08         0.37145E+05         0.00000E+00
    0.37145E+05        -0.49999E+08         0.00000E+00
    0.00000E+00         0.00000E+00        -0.49339E+08
 
   -0.48675E+08         0.61724E+05         0.00000E+00
    0.61724E+05        -0.49998E+08         0.00000E+00
    0.00000E+00         0.00000E+00        -0.49340E+08
 
   -0.48680E+08         0.86108E+05         0.00000E+00
    0.86108E+05        -0.49996E+08         0.00000E+00
    0.00000E+00         0.00000E+00        -0.49342E+08
 
   -0.48687E+08         0.11024E+06         0.00000E+00
    0.11024E+06        -0.49993E+08         0.00000E+00
    0.00000E+00         0.00000E+00        -0.49344E+08
 
   -0.48696E+08         0.13408E+06         0.00000E+00
    0.13408E+06        -0.49990E+08         0.00000E+00
    0.00000E+00         0.00000E+00        -0.49346E+08
 
   -0.48706E+08         0.15758E+06         0.00000E+00
    0.15758E+06        -0.49986E+08         0.00000E+00
    0.00000E+00         0.00000E+00        -0.49349E+08
 
   -0.48716E+08         0.18069E+06         0.00000E+00
    0.18069E+06        -0.49982E+08         0.00000E+00
    0.00000E+00         0.00000E+00        -0.49352E+08
 
   -0.48729E+08         0.20337E+06         0.00000E+00
    0.20337E+06        -0.49977E+08         0.00000E+00
    0.00000E+00         0.00000E+00        -0.49355E+08
 
   -0.48742E+08         0.22559E+06         0.00000E+00
    0.22559E+06        -0.49971E+08         0.00000E+00
    0.00000E+00         0.00000E+00        -0.49358E+08
 
   -0.48756E+08         0.24732E+06         0.00000E+00
    0.24732E+06        -0.49965E+08         0.00000E+00
    0.00000E+00         0.00000E+00        -0.49362E+08
 
   -0.48771E+08         0.26852E+06         0.00000E+00
    0.26852E+06        -0.49959E+08         0.00000E+00
    0.00000E+00         0.00000E+00        -0.49367E+08
 
   -0.48788E+08         0.28918E+06         0.00000E+00
    0.28918E+06        -0.49952E+08         0.00000E+00
    0.00000E+00         0.00000E+00        -0.49371E+08
 
   -0.48805E+08         0.30926E+06         0.00000E+00
    0.30926E+06        -0.49944E+08         0.00000E+00
    0.00000E+00         0.00000E+00        -0.49376E+08
 
   -0.48823E+08         0.32875E+06         0.00000E+00
    0.32875E+06        -0.49937E+08         0.00000E+00
    0.00000E+00         0.00000E+00        -0.49381E+08
 
   -0.48841E+08         0.34763E+06         0.00000E+00
    0.34763E+06        -0.49929E+08         0.00000E+00
    0.00000E+00         0.00000E+00        -0.49386E+08
 
   -0.48861E+08         0.36589E+06         0.00000E+00
    0.36589E+06        -0.49920E+08         0.00000E+00
    0.00000E+00         0.00000E+00        -0.49391E+08
 
   -0.48881E+08         0.38352E+06         0.00000E+00
    0.38352E+06        -0.49912E+08         0.00000E+00
    0.00000E+00         0.00000E+00        -0.49397E+08
 
   -0.48902E+08         0.40051E+06         0.00000E+00
    0.40051E+06        -0.49903E+08         0.00000E+00
    0.00000E+00         0.00000E+00        -0.49402E+08
 
   -0.48923E+08         0.41686E+06         0.00000E+00
    0.41686E+06        -0.49894E+08         0.00000E+00
    0.00000E+00         0.00000E+00        -0.49408E+08
 
   -0.48944E+08         0.43257E+06         0.00000E+00
    0.43257E+06        -0.49885E+08         0.00000E+00
    0.00000E+00         0.00000E+00        -0.49414E+08
 
   -0.48966E+08         0.44764E+06         0.00000E+00
    0.44764E+06        -0.49875E+08         0.00000E+00
    0.00000E+00         0.00000E+00        -0.49420E+08
 
   -0.48989E+08         0.46207E+06         0.00000E+00
    0.46207E+06        -0.49866E+08         0.00000E+00
    0.00000E+00         0.00000E+00        -0.49427E+08
 
   -0.49012E+08         0.47587E+06         0.00000E+00
    0.47587E+06        -0.49856E+08         0.00000E+00
    0.00000E+00         0.00000E+00        -0.49433E+08
 
   -0.49034E+08         0.48905E+06         0.00000E+00
    0.48905E+06        -0.49846E+08         0.00000E+00
    0.00000E+00         0.00000E+00        -0.49439E+08
 
   -0.49057E+08         0.50162E+06         0.00000E+00
    0.50162E+06        -0.49836E+08         0.00000E+00
    0.00000E+00         0.00000E+00        -0.49445E+08
 
   -0.49081E+08         0.51359E+06         0.00000E+00
    0.51359E+06        -0.49826E+08         0.00000E+00
    0.00000E+00         0.00000E+00        -0.49452E+08
 
   -0.49104E+08         0.52499E+06         0.00000E+00
    0.52499E+06        -0.49817E+08         0.00000E+00
    0.00000E+00         0.00000E+00        -0.49458E+08
 
   -0.49127E+08         0.53583E+06         0.00000E+00
    0.53583E+06        -0.49807E+08         0.00000E+00
    0.00000E+00         0.00000E+00        -0.49465E+08
 
   -0.49150E+08         0.54614E+06         0.00000E+00
    0.54614E+06        -0.49797E+08         0.00000E+00
    0.00000E+00         0.00000E+00        -0.49471E+08
 
   -0.49174E+08         0.55593E+06         0.00000E+00
    0.55593E+06        -0.49787E+08         0.00000E+00
    0.00000E+00         0.00000E+00        -0.49477E+08
 
   -0.49197E+08         0.56523E+06         0.00000E+00
    0.56523E+06        -0.49777E+08         0.00000E+00
    0.00000E+00         0.00000E+00        -0.49483E+08
 
   -0.49220E+08         0.57407E+06         0.00000E+00
    0.57407E+06        -0.49768E+08         0.00000E+00
    0.00000E+00         0.00000E+00        -0.49490E+08
 
   -0.49242E+08         0.58247E+06         0.00000E+00
    0.58247E+06        -0.49758E+08         0.00000E+00
    0.00000E+00         0.00000E+00        -0.49496E+08
 
   -0.49265E+08         0.59047E+06         0.00000E+00
    0.59047E+06        -0.49749E+08         0.00000E+00
    0.00000E+00         0.00000E+00        -0.49501E+08
 
   -0.49287E+08         0.59810E+06         0.00000E+00
    0.59810E+06        -0.49740E+08         0.00000E+00
    0.00000E+00         0.00000E+00        -0.49507E+08
 
   -0.49309E+08         0.60539E+06         0.00000E+00
    0.60539E+06        -0.49731E+08         0.00000E+00
    0.00000E+00         0.00000E+00        -0.49513E+08
 
   -0.49330E+08         0.61237E+06         0.00000E+00
    0.61237E+06        -0.49722E+08         0.00000E+00
    0.00000E+00         0.00000E+00        -0.49518E+08
 
   -0.49352E+08         0.61908E+06         0.00000E+00
    0.61908E+06        -0.49713E+08         0.00000E+00
    0.00000E+00         0.00000E+00        -0.49524E+08
 
   -0.49373E+08         0.62556E+06         0.00000E+00
    0.62556E+06        -0.49704E+08         0.00000E+00
    0.00000E+00         0.00000E+00        -0.49529E+08
 
   -0.49393E+08         0.63184E+06         0.00000E+00
    0.63184E+06        -0.49696E+08         0.00000E+00
    0.00000E+00         0.00000E+00        -0.49533E+08
 
   -0.49413E+08         0.63796E+06         0.00000E+00
    0.63796E+06        -0.49687E+08         0.00000E+00
    0.00000E+00         0.00000E+00        -0.49538E+08
 
   -0.49433E+08         0.64396E+06         0.00000E+00
    0.64396E+06        -0.49679E+08         0.00000E+00
    0.00000E+00         0.00000E+00        -0.49542E+08
 
   -0.49452E+08         0.64988E+06         0.00000E+00
    0.64988E+06        -0.49671E+08         0.00000E+00
    0.00000E+00         0.00000E+00        -0.49546E+08
 
   -0.49470E+08         0.65576E+06         0.00000E+00
    0.65576E+06        -0.49664E+08         0.00000E+00
    0.00000E+00         0.00000E+00        -0.49550E+08
 
   -0.49489E+08         0.66163E+06         0.00000E+00
    0.66163E+06        -0.49656E+08         0.00000E+00
    0.00000E+00         0.00000E+00        -0.49554E+08
 
   -0.49506E+08         0.66754E+06         0.00000E+00
    0.66754E+06        -0.49648E+08         0.00000E+00
    0.00000E+00         0.00000E+00        -0.49557E+08
 
   -0.49524E+08         0.67352E+06         0.00000E+00
    0.67352E+06        -0.49641E+08         0.00000E+00
    0.00000E+00         0.00000E+00        -0.49560E+08
 
   -0.49541E+08         0.67960E+06         0.00000E+00
    0.67960E+06        -0.49634E+08         0.00000E+00
    0.00000E+00         0.00000E+00        -0.49562E+08
 
   -0.49557E+08         0.68584E+06         0.00000E+00
    0.68584E+06        -0.49627E+08         0.00000E+00
    0.00000E+00         0.00000E+00        -0.49564E+08
 
   -0.48535E+08         0.14410E+05         0.00000E+00
    0.14410E+05        -0.50000E+08         0.00000E+00
    0.00000E+00         0.00000E+00        -0.49274E+08
 
   -0.48538E+08         0.42883E+05         0.00000E+00
    0.42883E+05        -0.49999E+08         0.00000E+00
    0.00000E+00         0.00000E+00        -0.49275E+08
 
   -0.48543E+08         0.71114E+05         0.00000E+00
    0.71114E+05        -0.49998E+08         0.00000E+00
    0.00000E+00         0.00000E+00        -0.49276E+08
 
   -0.48551E+08         0.99036E+05         0.00000E+00
    0.99036E+05        -0.49995E+08         0.00000E+00
    0.00000E+00         0.00000E+00        -0.49278E+08
 
   -0.48559E+08         0.12659E+06         0.00000E+00
    0.12659E+06        -0.49992E+08         0.00000E+00
    0.00000E+00         0.00000E+00        -0.49281E+08
 
   -0.48570E+08         0.15371E+06         0.00000E+00
    0.15371E+06        -0.49988E+08         0.00000E+00
    0.00000E+00         0.00000E+00        -0.49283E+08
 
   -0.48581E+08         0.18035E+06         0.00000E+00
    0.18035E+06        -0.49983E+08         0.00000E+00
    0.00000E+00         0.00000E+00        -0.49287E+08
 
   -0.48595E+08         0.20645E+06         0.00000E+00
    0.20645E+06        -0.49978E+08         0.00000E+00
    0.00000E+00         0.00000E+00        -0.49290E+08
 
   -0.48609E+08         0.23198E+06         0.00000E+00
    0.23198E+06        -0.49972E+08         0.00000E+00
    0.00000E+00         0.00000E+00        -0.49294E+08
 
   -0.48625E+08         0.25689E+06         0.00000E+00
    0.25689E+06        -0.49966E+08         0.00000E+00
    0.00000E+00         0.00000E+00        -0.49299E+08
 
   -0.48643E+08         0.28115E+06         0.00000E+00
    0.28115E+06        -0.49959E+08         0.00000E+00
    0.00000E+00         0.00000E+00        -0.49303E+08
 
   -0.48661E+08         0.30472E+06         0.00000E+00
    0.30472E+06        -0.49951E+08         0.00000E+00
    0.00000E+00         0.00000E+00        -0.49309E+08
 
   -0.48681E+08         0.32757E+06         0.00000E+00
    0.32757E+06        -0.49943E+08         0.00000E+00
    0.00000E+00         0.00000E+00        -0.49314E+08
 
   -0.48701E+08         0.34969E+06         0.00000E+00
    0.34969E+06        -0.49935E+08         0.00000E+00
    0.00000E+00         0.00000E+00        -0.49320E+08
 
   -0.48722E+08         0.37105E+06         0.00000E+00
    0.37105E+06        -0.49926E+08         0.00000E+00
    0.00000E+00         0.00000E+00        -0.49326E+08
 
   -0.48745E+08         0.39163E+06         0.00000E+00
    0.39163E+06        -0.49916E+08         0.00000E+00
    0.00000E+00         0.00000E+00        -0.49332E+08
 
   -0.48768E+08         0.41143E+06         0.00000E+00
    0.41143E+06        -0.49907E+08         0.00000E+00
    0.00000E+00         0.00000E+00        -0.49338E+08
 
   -0.48791E+08         0.43043E+06         0.00000E+00
    0.43043E+06        -0.49897E+08         0.00000E+00
    0.00000E+00         0.00000E+00        -0.49345E+08
 
   -0.48815E+08         0.44863E+06         0.00000E+00
    0.44863E+06        -0.49887E+08         0.00000E+00
    0.00000E+00         0.00000E+00        -0.49352E+08
 
   -0.48840E+08         0.46603E+06         0.00000E+00
    0.46603E+06        -0.49876E+08         0.00000E+00
    0.00000E+00         0.00000E+00        -0.49359E+08
 
   -0.48865E+08         0.48262E+06         0.00000E+00
    0.48262E+06        -0.49866E+08         0.00000E+00
    0.00000E+00         0.00000E+00        -0.49366E+08
 
   -0.48891E+08         0.49842E+06         0.00000E+00
    0.49842E+06        -0.49855E+08         0.00000E+00
    0.00000E+00         0.00000E+00        -0.49373E+08
 
   -0.48917E+08         0.51343E+06         0.00000E+00
    0.51343E+06        -0.49844E+08         0.00000E+00
    0.00000E+00         0.00000E+00        -0.49380E+08
 
   -0.48943E+08         0.52767E+06         0.00000E+00
    0.52767E+06        -0.49833E+08         0.00000E+00
    0.00000E+00         0.00000E+00        -0.49388E+08
 
   -0.48969E+08         0.54114E+06         0.00000E+00
    0.54114E+06        -0.49822E+08         0.00000E+00
    0.00000E+00         0.00000E+00        -0.49395E+08
 
   -0.48996E+08         0.55386E+06         0.00000E+00
    0.55386E+06        -0.49811E+08         0.00000E+00
    0.00000E+00         0.00000E+00        -0.49402E+08
 
   -0.49022E+08         0.56586E+06         0.00000E+00
    0.56586E+06        -0.49800E+08         0.00000E+00
    0.00000E+00         0.00000E+00        -0.49410E+08
 
   -0.49049E+08         0.57715E+06         0.00000E+00
    0.57715E+06        -0.49789E+08         0.00000E+00
    0.00000E+00         0.00000E+00        -0.49417E+08
 
   -0.49075E+08         0.58777E+06         0.00000E+00
    0.58777E+06        -0.49778E+08         0.00000E+00
    0.00000E+00         0.00000E+00        -0.49424E+08
 
   -0.49101E+08         0.59773E+06         0.00000E+00
    0.59773E+06        -0.49767E+08         0.00000E+00
    0.00000E+00         0.00000E+00        -0.49432E+08
 
   -0.49127E+08         0.60708E+06         0.00000E+00
    0.60708E+06        -0.49756E+08         0.00000E+00
    0.00000E+00         0.00000E+00        -0.49439E+08
 
   -0.49153E+08         0.61583E+06         0.00000E+00
    0.61583E+06        -0.49745E+08         0.00000E+00
    0.00000E+00         0.00000E+00        -0.49446E+08
 
   -0.49178E+08         0.62403E+06         0.00000E+00
    0.62403E+06        -0.49735E+08         0.00000E+00
    0.00000E+00         0.00000E+00        -0.49453E+08
 
   -0.49203E+08         0.63171E+06         0.00000E+00
    0.63171E+06        -0.49724E+08         0.00000E+00
    0.00000E+00         0.00000E+00        -0.49460E+08
 
   -0.49228E+08         0.63892E+06         0.00000E+00
    0.63892E+06        -0.49714E+08         0.00000E+00
    0.00000E+00         0.00000E+00        -0.49466E+08
 
   -0.49252E+08         0.64568E+06         0.00000E+00
    0.64568E+06        -0.49704E+08         0.00000E+00
    0.00000E+00         0.00000E+00        -0.49473E+08
 
   -0.49275E+08         0.65205E+06         0.00000E+00
    0.65205E+06        -0.49695E+08         0.00000E+00
    0.00000E+00         0.00000E+00        -0.49479E+08
 
   -0.49299E+08         0.65806E+06         0.00000E+00
    0.65806E+06        -0.49685E+08         0.00000E+00
    0.00000E+00         0.00000E+00        -0.49485E+08
 
   -0.49321E+08         0.66377E+06         0.00000E+00
    0.66377E+06        -0.49676E+08         0.00000E+00
    0.00000E+00         0.00000E+00        -0.49491E+08
 
   -0.49343E+08         0.66922E+06         0.00000E+00
    0.66922E+06        -0.49667E+08         0.00000E+00
    0.00000E+00         0.00000E+00        -0.49496E+08
 
   -0.49364E+08         0.67446E+06         0.00000E+00
    0.67446E+06        -0.49658E+08         0.00000E+00
    0.00000E+00         0.00000E+00        -0.49501E+08
 
   -0.49385E+08         0.67953E+06         0.00000E+00
    0.67953E+06        -0.49649E+08         0.00000E+00
    0.00000E+00         0.00000E+00        -0.49506E+08
 
   -0.49405E+08         0.68449E+06         0.00000E+00
    0.68449E+06        -0.49641E+08         0.00000E+00
    0.00000E+00         0.00000E+00        -0.49511E+08
 
   -0.49425E+08         0.68939E+06         0.00000E+00
    0.68939E+06        -0.49633E+08         0.00000E+00
    0.00000E+00         0.00000E+00        -0.49515E+08
 
   -0.49443E+08         0.69428E+06         0.00000E+00
    0.69428E+06        -0.49625E+08         0.00000E+00
    0.00000E+00         0.00000E+00        -0.49519E+08
 
   -0.49461E+08         0.69922E+06         0.00000E+00
    0.69922E+06        -0.49618E+08         0.00000E+00
    0.00000E+00         0.00000E+00        -0.49523E+08
 
   -0.49479E+08         0.70425E+06         0.00000E+00
    0.70425E+06        -0.49611E+08         0.00000E+00
    0.00000E+00         0.00000E+00        -0.49526E+08
 
   -0.49495E+08         0.70942E+06         0.00000E+00
    0.70942E+06        -0.49603E+08         0.00000E+00
    0.00000E+00         0.00000E+00        -0.49529E+08
 
   -0.49511E+08         0.71480E+06         0.00000E+00
    0.71480E+06        -0.49597E+08         0.00000E+00
    0.00000E+00         0.00000E+00        -0.49531E+08
 
   -0.49527E+08         0.72043E+06         0.00000E+00
    0.72043E+06        -0.49590E+08         0.00000E+00
    0.00000E+00         0.00000E+00        -0.49533E+08
 
   -0.48381E+08         0.16797E+05         0.00000E+00
    0.16797E+05        -0.50000E+08         0.00000E+00
    0.00000E+00         0.00000E+00        -0.49201E+08
 
   -0.48386E+08         0.49735E+05         0.00000E+00
    0.49735E+05        -0.49999E+08         0.00000E+00
    0.00000E+00         0.00000E+00        -0.49202E+08
 
   -0.48393E+08         0.82281E+05         0.00000E+00
    0.82281E+05        -0.49997E+08         0.00000E+00
    0.00000E+00         0.00000E+00        -0.49204E+08
 
   -0.48402E+08         0.11436E+06         0.00000E+00
    0.11436E+06        -0.49994E+08         0.00000E+00
    0.00000E+00         0.00000E+00        -0.49206E+08
 
   -0.48413E+08         0.14590E+06         0.00000E+00
    0.14590E+06        -0.49991E+08         0.00000E+00
    0.00000E+00         0.00000E+00        -0.49209E+08
 
   -0.48426E+08         0.17683E+06         0.00000E+00
    0.17683E+06        -0.49986E+08         0.00000E+00
    0.00000E+00         0.00000E+00        -0.49213E+08
 
   -0.48441E+08         0.20710E+06         0.00000E+00
    0.20710E+06        -0.49981E+08         0.00000E+00
    0.00000E+00         0.00000E+00        -0.49217E+08
 
   -0.48457E+08         0.23664E+06         0.00000E+00
    0.23664E+06        -0.49974E+08         0.00000E+00
    0.00000E+00         0.00000E+00        -0.49222E+08
 
   -0.48476E+08         0.26542E+06         0.00000E+00
    0.26542E+06        -0.49968E+08         0.00000E+00
    0.00000E+00         0.00000E+00        -0.49227E+08
 
   -0.48495E+08         0.29338E+06         0.00000E+00
    0.29338E+06        -0.49960E+08         0.00000E+00
    0.00000E+00         0.00000E+00        -0.49233E+08
 
   -0.48516E+08         0.32049E+06         0.00000E+00
    0.32049E+06        -0.49952E+08         0.00000E+00
    0.00000E+00         0.00000E+00        -0.49239E+08
 
   -0.48539E+08         0.34670E+06         0.00000E+00
    0.34670E+06        -0.49943E+08         0.00000E+00
    0.00000E+00         0.00000E+00        -0.49245E+08
 
   -0.48562E+08         0.37201E+06         0.00000E+00
    0.37201E+06        -0.49934E+08         0.00000E+00
    0.00000E+00         0.00000E+00        -0.49252E+08
 
   -0.48587E+08         0.39636E+06         0.00000E+00
    0.39636E+06        -0.49924E+08         0.00000E+00
    0.00000E+00         0.00000E+00        -0.49259E+08
 
   -0.48613E+08         0.41976E+06         0.00000E+00
    0.41976E+06        -0.49914E+08         0.00000E+00
    0.00000E+00         0.00000E+00        -0.49266E+08
 
   -0.48639E+08         0.44219E+06         0.00000E+00
    0.44219E+06        -0.49903E+08         0.00000E+00
    0.00000E+00         0.00000E+00        -0.49274E+08
 
   -0.48667E+08         0.46362E+06         0.00000E+00
    0.46362E+06        -0.49892E+08         0.00000E+00
    0.00000E+00         0.00000E+00        -0.49282E+08
 
   -0.48695E+08         0.48406E+06         0.00000E+00
    0.48406E+06        -0.49881E+08         0.00000E+00
    0.00000E+00         0.00000E+00        -0.49290E+08
 
   -0.48724E+08         0.50351E+06         0.00000E+00
    0.50351E+06        -0.49869E+08         0.00000E+00
    0.00000E+00         0.00000E+00        -0.49298E+08
 
   -0.48753E+08         0.52196E+06         0.00000E+00
    0.52196E+06        -0.49858E+08         0.00000E+00
    0.00000E+00         0.00000E+00        -0.49307E+08
 
   -0.48783E+08         0.53942E+06         0.00000E+00
    0.53942E+06        -0.49846E+08         0.00000E+00
    0.00000E+00         0.00000E+00        -0.49315E+08
 
   -0.48813E+08         0.55590E+06         0.00000E+00
    0.55590E+06        -0.49834E+08         0.00000E+00
    0.00000E+00         0.00000E+00        -0.49324E+08
 
   -0.48843E+08         0.57141E+06         0.00000E+00
    0.57141E+06        -0.49821E+08         0.00000E+00
    0.00000E+00         0.00000E+00        -0.49333E+08
 
   -0.48873E+08         0.58597E+06         0.00000E+00
    0.58597E+06        -0.49809E+08         0.00000E+00
    0.00000E+00         0.00000E+00        -0.49341E+08
 
   -0.48904E+08         0.59960E+06         0.00000E+00
    0.59960E+06        -0.49797E+08         0.00000E+00
    0.00000E+00         0.00000E+00        -0.49350E+08
 
   -0.48934E+08         0.61233E+06         0.00000E+00
    0.61233E+06        -0.49784E+08         0.00000E+00
    0.00000E+00         0.00000E+00        -0.49359E+08
 
   -0.48965E+08         0.62416E+06         0.00000E+00
    0.62416E+06        -0.49772E+08         0.00000E+00
    0.00000E+00         0.00000E+00        -0.49368E+08
 
   -0.48995E+08         0.63515E+06         0.00000E+00
    0.63515E+06        -0.49760E+08         0.00000E+00
    0.00000E+00         0.00000E+00        -0.49376E+08
 
   -0.49025E+08         0.64531E+06         0.00000E+00
    0.64531E+06        -0.49748E+08         0.00000E+00
    0.00000E+00         0.00000E+00        -0.49385E+08
 
   -0.49054E+08         0.65468E+06         0.00000E+00
    0.65468E+06        -0.49736E+08         0.00000E+00
    0.00000E+00         0.00000E+00        -0.49393E+08
 
   -0.49084E+08         0.66330E+06         0.00000E+00
    0.66330E+06        -0.49724E+08         0.00000E+00
    0.00000E+00         0.00000E+00        -0.49402E+08
 
   -0.49112E+08         0.67121E+06         0.00000E+00
    0.67121E+06        -0.49712E+08         0.00000E+00
    0.00000E+00         0.00000E+00        -0.49410E+08
 
   -0.49141E+08         0.67845E+06         0.00000E+00
    0.67845E+06        -0.49701E+08         0.00000E+00
    0.00000E+00         0.00000E+00        -0.49418E+08
 
   -0.49169E+08         0.68507E+06         0.00000E+00
    0.68507E+06        -0.49690E+08         0.00000E+00
    0.00000E+00         0.00000E+00        -0.49426E+08
 
   -0.49196E+08         0.69112E+06         0.00000E+00
    0.69112E+06        -0.49679E+08         0.00000E+00
    0.00000E+00         0.00000E+00        -0.49433E+08
 
   -0.49222E+08         0.69664E+06         0.00000E+00
    0.69664E+06        -0.49668E+08         0.00000E+00
    0.00000E+00         0.00000E+00        -0.49441E+08
 
   -0.49248E+08         0.70168E+06         0.00000E+00
    0.70168E+06        -0.49658E+08         0.00000E+00
    0.00000E+00         0.00000E+00        -0.49448E+08
 
   -0.49273E+08         0.70631E+06         0.00000E+00
    0.70631E+06        -0.49648E+08         0.00000E+00
    0.00000E+00         0.00000E+00        -0.49454E+08
 
   -0.49297E+08         0.71058E+06         0.00000E+00
    0.71058E+06        -0.49638E+08         0.00000E+00
    0.00000E+00         0.00000E+00        -0.49461E+08
 
   -0.49320E+08         0.71454E+06         0.00000E+00
    0.71454E+06        -0.49629E+08         0.00000E+00
    0.00000E+00         0.00000E+00        -0.49467E+08
 
   -0.49342E+08         0.71826E+06         0.00000E+00
    0.71826E+06        -0.49620E+08         0.00000E+00
    0.00000E+00         0.00000E+00        -0.49473E+08
 
   -0.49364E+08         0.72181E+06         0.00000E+00
    0.72181E+06        -0.49611E+08         0.00000E+00
    0.00000E+00         0.00000E+00        -0.49478E+08
 
   -0.49384E+08         0.72523E+06         0.00000E+00
    0.72523E+06        -0.49603E+08         0.00000E+00
    0.00000E+00         0.00000E+00        -0.49483E+08
 
   -0.49404E+08         0.72861E+06         0.00000E+00
    0.72861E+06        -0.49595E+08         0.00000E+00
    0.00000E+00         0.00000E+00        -0.49488E+08
 
   -0.49422E+08         0.73200E+06         0.00000E+00
    0.73200E+06        -0.49587E+08         0.00000E+00
    0.00000E+00         0.00000E+00        -0.49492E+08
 
   -0.49440E+08         0.73547E+06         0.00000E+00
    0.73547E+06        -0.49580E+08         0.00000E+00
    0.00000E+00         0.00000E+00        -0.49496E+08
 
   -0.49456E+08         0.73910E+06         0.00000E+00
    0.73910E+06        -0.49573E+08         0.00000E+00
    0.00000E+00         0.00000E+00        -0.49499E+08
 
   -0.49472E+08         0.74295E+06         0.00000E+00
    0.74295E+06        -0.49566E+08         0.00000E+00
    0.00000E+00         0.00000E+00        -0.49502E+08
 
   -0.49487E+08         0.74709E+06         0.00000E+00
    0.74709E+06        -0.49560E+08         0.00000E+00
    0.00000E+00         0.00000E+00        -0.49504E+08
 
   -0.49500E+08         0.75160E+06         0.00000E+00
    0.75160E+06        -0.49554E+08         0.00000E+00
    0.00000E+00         0.00000E+00        -0.49506E+08
 
   -0.48202E+08         0.19630E+05         0.00000E+00
    0.19630E+05        -0.50000E+08         0.00000E+00
    0.00000E+00         0.00000E+00        -0.49118E+08
 
   -0.48209E+08         0.57787E+05         0.00000E+00
    0.57787E+05        -0.49999E+08         0.00000E+00
    0.00000E+00         0.00000E+00        -0.49120E+08
 
   -0.48219E+08         0.95349E+05         0.00000E+00
    0.95349E+05        -0.49997E+08         0.00000E+00
    0.00000E+00         0.00000E+00        -0.49123E+08
 
   -0.48231E+08         0.13223E+06         0.00000E+00
    0.13223E+06        -0.49993E+08         0.00000E+00
    0.00000E+00         0.00000E+00        -0.49126E+08
 
   -0.48246E+08         0.16835E+06         0.00000E+00
    0.16835E+06        -0.49989E+08         0.00000E+00
    0.00000E+00         0.00000E+00        -0.49130E+08
 
   -0.48263E+08         0.20363E+06         0.00000E+00
    0.20363E+06        -0.49984E+08         0.00000E+00
    0.00000E+00         0.00000E+00        -0.49135E+08
 
   -0.48281E+08         0.23801E+06         0.00000E+00
    0.23801E+06        -0.49978E+08         0.00000E+00
    0.00000E+00         0.00000E+00        -0.49140E+08
 
   -0.48302E+08         0.27144E+06         0.00000E+00
    0.27144E+06        -0.49971E+08         0.00000E+00
    0.00000E+00         0.00000E+00        -0.49146E+08
 
   -0.48325E+08         0.30385E+06         0.00000E+00
    0.30385E+06        -0.49963E+08         0.00000E+00
    0.00000E+00         0.00000E+00        -0.49153E+08
 
   -0.48349E+08         0.33521E+06         0.00000E+00
    0.33521E+06        -0.49954E+08         0.00000E+00
    0.00000E+00         0.00000E+00        -0.49160E+08
 
   -0.48376E+08         0.36547E+06         0.00000E+00
    0.36547E+06        -0.49945E+08         0.00000E+00
    0.00000E+00         0.00000E+00        -0.49167E+08
 
   -0.48403E+08         0.39459E+06         0.00000E+00
    0.39459E+06        -0.49935E+08         0.00000E+00
    0.00000E+00         0.00000E+00        -0.49176E+08
 
   -0.48432E+08         0.42256E+06         0.00000E+00
    0.42256E+06        -0.49925E+08         0.00000E+00
    0.00000E+00         0.00000E+00        -0.49184E+08
 
   -0.48462E+08         0.44935E+06         0.00000E+00
    0.44935E+06        -0.49914E+08         0.00000E+00
    0.00000E+00         0.00000E+00        -0.49193E+08
 
   -0.48493E+08         0.47493E+06         0.00000E+00
    0.47493E+06        -0.49902E+08         0.00000E+00
    0.00000E+00         0.00000E+00        -0.49202E+08
 
   -0.48525E+08         0.49930E+06         0.00000E+00
    0.49930E+06        -0.49890E+08         0.00000E+00
    0.00000E+00         0.00000E+00        -0.49212E+08
 
   -0.48558E+08         0.52245E+06         0.00000E+00
    0.52245E+06        -0.49878E+08         0.00000E+00
    0.00000E+00         0.00000E+00        -0.49222E+08
 
   -0.48592E+08         0.54438E+06         0.00000E+00
    0.54438E+06        -0.49865E+08         0.00000E+00
    0.00000E+00         0.00000E+00        -0.49232E+08
 
   -0.48626E+08         0.56508E+06         0.00000E+00
    0.56508E+06        -0.49853E+08         0.00000E+00
    0.00000E+00         0.00000E+00        -0.49242E+08
 
   -0.48661E+08         0.58457E+06         0.00000E+00
    0.58457E+06        -0.49840E+08         0.00000E+00
    0.00000E+00         0.00000E+00        -0.49253E+08
 
   -0.48696E+08         0.60286E+06         0.00000E+00
    0.60286E+06        -0.49826E+08         0.00000E+00
    0.00000E+00         0.00000E+00        -0.49263E+08
 
   -0.48731E+08         0.61995E+06         0.00000E+00
    0.61995E+06        -0.49813E+08         0.00000E+00
    0.00000E+00         0.00000E+00        -0.49274E+08
 
   -0.48767E+08         0.63587E+06         0.00000E+00
    0.63587E+06        -0.49799E+08         0.00000E+00
    0.00000E+00         0.00000E+00        -0.49285E+08
 
   -0.48802E+08         0.65064E+06         0.00000E+00
    0.65064E+06        -0.49786E+08         0.00000E+00
    0.00000E+00         0.00000E+00        -0.49295E+08
 
   -0.48838E+08         0.66429E+06         0.00000E+00
    0.66429E+06        -0.49772E+08         0.00000E+00
    0.00000E+00         0.00000E+00        -0.49306E+08
 
   -0.48873E+08         0.67683E+06         0.00000E+00
    0.67683E+06        -0.49759E+08         0.00000E+00
    0.00000E+00         0.00000E+00        -0.49317E+08
 
   -0.48908E+08         0.68832E+06         0.00000E+00
    0.68832E+06        -0.49745E+08         0.00000E+00
    0.00000E+00         0.00000E+00        -0.49327E+08
 
   -0.48943E+08         0.69877E+06         0.00000E+00
    0.69877E+06        -0.49732E+08         0.00000E+00
    0.00000E+00         0.00000E+00        -0.49338E+08
 
   -0.48978E+08         0.70824E+06         0.00000E+00
    0.70824E+06        -0.49719E+08         0.00000E+00
    0.00000E+00         0.00000E+00        -0.49348E+08
 
   -0.49012E+08         0.71675E+06         0.00000E+00
    0.71675E+06        -0.49706E+08         0.00000E+00
    0.00000E+00         0.00000E+00        -0.49358E+08
 
   -0.49045E+08         0.72437E+06         0.00000E+00
    0.72437E+06        -0.49693E+08         0.00000E+00
    0.00000E+00         0.00000E+00        -0.49368E+08
 
   -0.49078E+08         0.73113E+06         0.00000E+00
    0.73113E+06        -0.49681E+08         0.00000E+00
    0.00000E+00         0.00000E+00        -0.49378E+08
 
   -0.49109E+08         0.73708E+06         0.00000E+00
    0.73708E+06        -0.49668E+08         0.00000E+00
    0.00000E+00         0.00000E+00        -0.49387E+08
 
   -0.49140E+08         0.74228E+06         0.00000E+00
    0.74228E+06        -0.49656E+08         0.00000E+00
    0.00000E+00         0.00000E+00        -0.49396E+08
 
   -0.49171E+08         0.74679E+06         0.00000E+00
    0.74679E+06        -0.49645E+08         0.00000E+00
    0.00000E+00         0.00000E+00        -0.49405E+08
 
   -0.49200E+08         0.75066E+06         0.00000E+00
    0.75066E+06        -0.49633E+08         0.00000E+00
    0.00000E+00         0.00000E+00        -0.49414E+08
 
   -0.49228E+08         0.75396E+06         0.00000E+00
    0.75396E+06        -0.49623E+08         0.00000E+00
    0.00000E+00         0.00000E+00        -0.49422E+08
 
   -0.49255E+08         0.75675E+06         0.00000E+00
    0.75675E+06        -0.49612E+08         0.00000E+00
    0.00000E+00         0.00000E+00        -0.49429E+08
 
   -0.49281E+08         0.75910E+06         0.00000E+00
    0.75910E+06        -0.49602E+08         0.00000E+00
    0.00000E+00         0.00000E+00        -0.49437E+08
 
   -0.49306E+08         0.76108E+06         0.00000E+00
    0.76108E+06        -0.49592E+08         0.00000E+00
    0.00000E+00         0.00000E+00        -0.49444E+08
 
   -0.49329E+08         0.76276E+06         0.00000E+00
    0.76276E+06        -0.49583E+08         0.00000E+00
    0.00000E+00         0.00000E+00        -0.49450E+08
 
   -0.49351E+08         0.76422E+06         0.00000E+00
    0.76422E+06        -0.49575E+08         0.00000E+00
    0.00000E+00         0.00000E+00        -0.49456E+08
 
   -0.49372E+08         0.76555E+06         0.00000E+00
    0.76555E+06        -0.49566E+08         0.00000E+00
    0.00000E+00         0.00000E+00        -0.49462E+08
 
   -0.49392E+08         0.76680E+06         0.00000E+00
    0.76680E+06        -0.49559E+08         0.00000E+00
    0.00000E+00         0.00000E+00        -0.49467E+08
 
   -0.49410E+08         0.76808E+06         0.00000E+00
    0.76808E+06        -0.49551E+08         0.00000E+00
    0.00000E+00         0.00000E+00        -0.49471E+08
 
   -0.49427E+08         0.76947E+06         0.00000E+00
    0.76947E+06        -0.49545E+08         0.00000E+00
    0.00000E+00         0.00000E+00        -0.49475E+08
 
   -0.49442E+08         0.77105E+06         0.00000E+00
    0.77105E+06        -0.49538E+08         0.00000E+00
    0.00000E+00         0.00000E+00        -0.49479E+08
 
   -0.49457E+08         0.77292E+06         0.00000E+00
    0.77292E+06        -0.49533E+08         0.00000E+00
    0.00000E+00         0.00000E+00        -0.49481E+08
 
   -0.49469E+08         0.77516E+06         0.00000E+00
    0.77516E+06        -0.49527E+08         0.00000E+00
    0.00000E+00         0.00000E+00        -0.49484E+08
 
   -0.49481E+08         0.77788E+06         0.00000E+00
    0.77788E+06        -0.49522E+08         0.00000E+00
    0.00000E+00         0.00000E+00        -0.49485E+08
 
   -0.47995E+08         0.22925E+05         0.00000E+00
    0.22925E+05        -0.50000E+08         0.00000E+00
    0.00000E+00         0.00000E+00        -0.49025E+08
 
   -0.48006E+08         0.67061E+05         0.00000E+00
    0.67061E+05        -0.49999E+08         0.00000E+00
    0.00000E+00         0.00000E+00        -0.49028E+08
 
   -0.48019E+08         0.11033E+06         0.00000E+00
    0.11033E+06        -0.49996E+08         0.00000E+00
    0.00000E+00         0.00000E+00        -0.49031E+08
 
   -0.48036E+08         0.15264E+06         0.00000E+00
    0.15264E+06        -0.49992E+08         0.00000E+00
    0.00000E+00         0.00000E+00        -0.49036E+08
 
   -0.48055E+08         0.19390E+06         0.00000E+00
    0.19390E+06        -0.49988E+08         0.00000E+00
    0.00000E+00         0.00000E+00        -0.49041E+08
 
   -0.48077E+08         0.23404E+06         0.00000E+00
    0.23404E+06        -0.49982E+08         0.00000E+00
    0.00000E+00         0.00000E+00        -0.49047E+08
 
   -0.48101E+08         0.27298E+06         0.00000E+00
    0.27298E+06        -0.49975E+08         0.00000E+00
    0.00000E+00         0.00000E+00        -0.49055E+08
 
   -0.48128E+08         0.31068E+06         0.00000E+00
    0.31068E+06        -0.49967E+08         0.00000E+00
    0.00000E+00         0.00000E+00        -0.49062E+08
 
   -0.48156E+08         0.34708E+06         0.00000E+00
    0.34708E+06        -0.49958E+08         0.00000E+00
    0.00000E+00         0.00000E+00        -0.49071E+08
 
   -0.48187E+08         0.38212E+06         0.00000E+00
    0.38212E+06        -0.49949E+08         0.00000E+00
    0.00000E+00         0.00000E+00        -0.49080E+08
 
   -0.48219E+08         0.41578E+06         0.00000E+00
    0.41578E+06        -0.49938E+08         0.00000E+00
    0.00000E+00         0.00000E+00        -0.49090E+08
 
   -0.48253E+08         0.44802E+06         0.00000E+00
    0.44802E+06        -0.49928E+08         0.00000E+00
    0.00000E+00         0.00000E+00        -0.49101E+08
 
   -0.48288E+08         0.47882E+06         0.00000E+00
    0.47882E+06        -0.49916E+08         0.00000E+00
    0.00000E+00         0.00000E+00        -0.49112E+08
 
   -0.48325E+08         0.50816E+06         0.00000E+00
    0.50816E+06        -0.49904E+08         0.00000E+00
    0.00000E+00         0.00000E+00        -0.49123E+08
 
   -0.48363E+08         0.53602E+06         0.00000E+00
    0.53602E+06        -0.49892E+08         0.00000E+00
    0.00000E+00         0.00000E+00        -0.49135E+08
 
   -0.48402E+08         0.56240E+06         0.00000E+00
    0.56240E+06        -0.49879E+08         0.00000E+00
    0.00000E+00         0.00000E+00        -0.49147E+08
 
   -0.48441E+08         0.58730E+06         0.00000E+00
    0.58730E+06        -0.49865E+08         0.00000E+00
    0.00000E+00         0.00000E+00        -0.49159E+08
 
   -0.48482E+08         0.61072E+06         0.00000E+00
    0.61072E+06        -0.49852E+08         0.00000E+00
    0.00000E+00         0.00000E+00        -0.49172E+08
 
   -0.48523E+08         0.63266E+06         0.00000E+00
    0.63266E+06        -0.49838E+08         0.00000E+00
    0.00000E+00         0.00000E+00        -0.49185E+08
 
   -0.48564E+08         0.65315E+06         0.00000E+00
    0.65315E+06        -0.49824E+08         0.00000E+00
    0.00000E+00         0.00000E+00        -0.49198E+08
 
   -0.48606E+08         0.67219E+06         0.00000E+00
    0.67219E+06        -0.49809E+08         0.00000E+00
    0.00000E+00         0.00000E+00        -0.49211E+08
 
   -0.48648E+08         0.68981E+06         0.00000E+00
    0.68981E+06        -0.49795E+08         0.00000E+00
    0.00000E+00         0.00000E+00        -0.49224E+08
 
   -0.48689E+08         0.70603E+06         0.00000E+00
    0.70603E+06        -0.49780E+08         0.00000E+00
    0.00000E+00         0.00000E+00        -0.49238E+08
 
   -0.48731E+08         0.72088E+06         0.00000E+00
    0.72088E+06        -0.49766E+08         0.00000E+00
    0.00000E+00         0.00000E+00        -0.49251E+08
 
   -0.48773E+08         0.73439E+06         0.00000E+00
    0.73439E+06        -0.49751E+08         0.00000E+00
    0.00000E+00         0.00000E+00        -0.49264E+08
 
   -0.48814E+08         0.74660E+06         0.00000E+00
    0.74660E+06        -0.49737E+08         0.00000E+00
    0.00000E+00         0.00000E+00        -0.49277E+08
 
   -0.48855E+08         0.75754E+06         0.00000E+00
    0.75754E+06        -0.49723E+08         0.00000E+00
    0.00000E+00         0.00000E+00        -0.49290E+08
 
   -0.48895E+08         0.76726E+06         0.00000E+00
    0.76726E+06        -0.49708E+08         0.00000E+00
    0.00000E+00         0.00000E+00        -0.49303E+08
 
   -0.48935E+08         0.77581E+06         0.00000E+00
    0.77581E+06        -0.49694E+08         0.00000E+00
    0.00000E+00         0.00000E+00        -0.49315E+08
 
   -0.48974E+08         0.78323E+06         0.00000E+00
    0.78323E+06        -0.49681E+08         0.00000E+00
    0.00000E+00         0.00000E+00        -0.49328E+08
 
   -0.49012E+08         0.78957E+06         0.00000E+00
    0.78957E+06        -0.49667E+08         0.00000E+00
    0.00000E+00         0.00000E+00        -0.49340E+08
 
   -0.49049E+08         0.79489E+06         0.00000E+00
    0.79489E+06        -0.49654E+08         0.00000E+00
    0.00000E+00         0.00000E+00        -0.49351E+08
 
   -0.49086E+08         0.79924E+06         0.00000E+00
    0.79924E+06        -0.49641E+08         0.00000E+00
    0.00000E+00         0.00000E+00        -0.49363E+08
 
   -0.49121E+08         0.80269E+06         0.00000E+00
    0.80269E+06        -0.49628E+08         0.00000E+00
    0.00000E+00         0.00000E+00        -0.49374E+08
 
   -0.49154E+08         0.80530E+06         0.00000E+00
    0.80530E+06        -0.49616E+08         0.00000E+00
    0.00000E+00         0.00000E+00        -0.49384E+08
 
   -0.49187E+08         0.80714E+06         0.00000E+00
    0.80714E+06        -0.49605E+08         0.00000E+00
    0.00000E+00         0.00000E+00        -0.49394E+08
 
   -0.49218E+08         0.80827E+06         0.00000E+00
    0.80827E+06        -0.49593E+08         0.00000E+00
    0.00000E+00         0.00000E+00        -0.49404E+08
 
   -0.49248E+08         0.80878E+06         0.00000E+00
    0.80878E+06        -0.49583E+08         0.00000E+00
    0.00000E+00         0.00000E+00        -0.49413E+08
 
   -0.49276E+08         0.80874E+06         0.00000E+00
    0.80874E+06        -0.49572E+08         0.00000E+00
    0.00000E+00         0.00000E+00        -0.49422E+08
 
   -0.49303E+08         0.80822E+06         0.00000E+00
    0.80822E+06        -0.49563E+08         0.00000E+00
    0.00000E+00         0.00000E+00        -0.49430E+08
 
   -0.49327E+08         0.80733E+06         0.00000E+00
    0.80733E+06        -0.49553E+08         0.00000E+00
    0.00000E+00         0.00000E+00        -0.49437E+08
 
   -0.49351E+08         0.80614E+06         0.00000E+00
    0.80614E+06        -0.49545E+08         0.00000E+00
    0.00000E+00         0.00000E+00        -0.49444E+08
 
   -0.49372E+08         0.80474E+06         0.00000E+00
    0.80474E+06        -0.49537E+08         0.00000E+00
    0.00000E+00         0.00000E+00        -0.49450E+08
 
   -0.49392E+08         0.80324E+06         0.00000E+00
    0.80324E+06        -0.49529E+08         0.00000E+00
    0.00000E+00         0.00000E+00        -0.49456E+08
 
   -0.49410E+08         0.80173E+06         0.00000E+00
    0.80173E+06        -0.49523E+08         0.00000E+00
    0.00000E+00         0.00000E+00        -0.49461E+08
 
   -0.49426E+08         0.80031E+06         0.00000E+00
    0.80031E+06        -0.49517E+08         0.00000E+00
    0.00000E+00         0.00000E+00        -0.49465E+08
 
   -0.49440E+08         0.79910E+06         0.00000E+00
    0.79910E+06        -0.49511E+08         0.00000E+00
    0.00000E+00         0.00000E+00        -0.49469E+08
 
   -0.49453E+08         0.79821E+06         0.00000E+00
    0.79821E+06        -0.49506E+08         0.00000E+00
    0.00000E+00         0.00000E+00        -0.49472E+08
 
   -0.49463E+08         0.79774E+06         0.00000E+00
    0.79774E+06        -0.49502E+08         0.00000E+00
    0.00000E+00         0.00000E+00        -0.49474E+08
 
   -0.49472E+08         0.79783E+06         0.00000E+00
    0.79783E+06        -0.49498E+08         0.00000E+00
    0.00000E+00         0.00000E+00        -0.49475E+08
 
   -0.47756E+08         0.26667E+05         0.00000E+00
    0.26667E+05        -0.50000E+08         0.00000E+00
    0.00000E+00         0.00000E+00        -0.48921E+08
 
   -0.47771E+08         0.77478E+05         0.00000E+00
    0.77478E+05        -0.49999E+08         0.00000E+00
    0.00000E+00         0.00000E+00        -0.48924E+08
 
   -0.47790E+08         0.12707E+06         0.00000E+00
    0.12707E+06        -0.49996E+08         0.00000E+00
    0.00000E+00         0.00000E+00        -0.48929E+08
 
   -0.47812E+08         0.17534E+06         0.00000E+00
    0.17534E+06        -0.49992E+08         0.00000E+00
    0.00000E+00         0.00000E+00        -0.48936E+08
 
   -0.47838E+08         0.22222E+06         0.00000E+00
    0.22222E+06        -0.49986E+08         0.00000E+00
    0.00000E+00         0.00000E+00        -0.48943E+08
 
   -0.47866E+08         0.26762E+06         0.00000E+00
    0.26762E+06        -0.49980E+08         0.00000E+00
    0.00000E+00         0.00000E+00        -0.48951E+08
 
   -0.47898E+08         0.31147E+06         0.00000E+00
    0.31147E+06        -0.49972E+08         0.00000E+00
    0.00000E+00         0.00000E+00        -0.48961E+08
 
   -0.47931E+08         0.35373E+06         0.00000E+00
    0.35373E+06        -0.49964E+08         0.00000E+00
    0.00000E+00         0.00000E+00        -0.48971E+08
 
   -0.47967E+08         0.39434E+06         0.00000E+00
    0.39434E+06        -0.49955E+08         0.00000E+00
    0.00000E+00         0.00000E+00        -0.48982E+08
 
   -0.48006E+08         0.43326E+06         0.00000E+00
    0.43326E+06        -0.49944E+08         0.00000E+00
    0.00000E+00         0.00000E+00        -0.48994E+08
 
   -0.48046E+08         0.47046E+06         0.00000E+00
    0.47046E+06        -0.49933E+08         0.00000E+00
    0.00000E+00         0.00000E+00        -0.49007E+08
 
   -0.48088E+08         0.50592E+06         0.00000E+00
    0.50592E+06        -0.49922E+08         0.00000E+00
    0.00000E+00         0.00000E+00        -0.49021E+08
 
   -0.48131E+08         0.53962E+06         0.00000E+00
    0.53962E+06        -0.49910E+08         0.00000E+00
    0.00000E+00         0.00000E+00        -0.49035E+08
 
   -0.48176E+08         0.57154E+06         0.00000E+00
    0.57154E+06        -0.49897E+08         0.00000E+00
    0.00000E+00         0.00000E+00        -0.49049E+08
 
   -0.48222E+08         0.60169E+06         0.00000E+00
    0.60169E+06        -0.49884E+08         0.00000E+00
    0.00000E+00         0.00000E+00        -0.49064E+08
 
   -0.48269E+08         0.63007E+06         0.00000E+00
    0.63007E+06        -0.49870E+08         0.00000E+00
    0.00000E+00         0.00000E+00        -0.49080E+08
 
   -0.48316E+08         0.65667E+06         0.00000E+00
    0.65667E+06        -0.49856E+08         0.00000E+00
    0.00000E+00         0.00000E+00        -0.49096E+08
 
   -0.48365E+08         0.68152E+06         0.00000E+00
    0.68152E+06        -0.49842E+08         0.00000E+00
    0.00000E+00         0.00000E+00        -0.49112E+08
 
   -0.48414E+08         0.70463E+06         0.00000E+00
    0.70463E+06        -0.49827E+08         0.00000E+00
    0.00000E+00         0.00000E+00        -0.49128E+08
 
   -0.48463E+08         0.72602E+06         0.00000E+00
    0.72602E+06        -0.49812E+08         0.00000E+00
    0.00000E+00         0.00000E+00        -0.49144E+08
 
   -0.48513E+08         0.74572E+06         0.00000E+00
    0.74572E+06        -0.49797E+08         0.00000E+00
    0.00000E+00         0.00000E+00        -0.49161E+08
 
   -0.48562E+08         0.76375E+06         0.00000E+00
    0.76375E+06        -0.49782E+08         0.00000E+00
    0.00000E+00         0.00000E+00        -0.49178E+08
 
   -0.48612E+08         0.78015E+06         0.00000E+00
    0.78015E+06        -0.49767E+08         0.00000E+00
    0.00000E+00         0.00000E+00        -0.49194E+08
 
   -0.48661E+08         0.79495E+06         0.00000E+00
    0.79495E+06        -0.49752E+08         0.00000E+00
    0.00000E+00         0.00000E+00        -0.49211E+08
 
   -0.48709E+08         0.80819E+06         0.00000E+00
    0.80819E+06        -0.49737E+08         0.00000E+00
    0.00000E+00         0.00000E+00        -0.49227E+08
 
   -0.48758E+08         0.81992E+06         0.00000E+00
    0.81992E+06        -0.49722E+08         0.00000E+00
    0.00000E+00         0.00000E+00        -0.49243E+08
 
   -0.48805E+08         0.83017E+06         0.00000E+00
    0.83017E+06        -0.49708E+08         0.00000E+00
    0.00000E+00         0.00000E+00        -0.49259E+08
 
   -0.48852E+08         0.83900E+06         0.00000E+00
    0.83900E+06        -0.49693E+08         0.00000E+00
    0.00000E+00         0.00000E+00        -0.49275E+08
 
   -0.48898E+08         0.84646E+06         0.00000E+00
    0.84646E+06        -0.49679E+08         0.00000E+00
    0.00000E+00         0.00000E+00        -0.49290E+08
 
   -0.48943E+08         0.85259E+06         0.00000E+00
    0.85259E+06        -0.49664E+08         0.00000E+00
    0.00000E+00         0.00000E+00        -0.49305E+08
 
   -0.48987E+08         0.85747E+06         0.00000E+00
    0.85747E+06        -0.49651E+08         0.00000E+00
    0.00000E+00         0.00000E+00        -0.49320E+08
 
   -0.49029E+08         0.86113E+06         0.00000E+00
    0.86113E+06        -0.49637E+08         0.00000E+00
    0.00000E+00         0.00000E+00        -0.49334E+08
 
   -0.49071E+08         0.86365E+06         0.00000E+00
    0.86365E+06        -0.49624E+08         0.00000E+00
    0.00000E+00         0.00000E+00        -0.49348E+08
 
   -0.49110E+08         0.86510E+06         0.00000E+00
    0.86510E+06        -0.49611E+08         0.00000E+00
    0.00000E+00         0.00000E+00        -0.49361E+08
 
   -0.49149E+08         0.86553E+06         0.00000E+00
    0.86553E+06        -0.49599E+08         0.00000E+00
    0.00000E+00         0.00000E+00        -0.49374E+08
 
   -0.49185E+08         0.86503E+06         0.00000E+00
    0.86503E+06        -0.49587E+08         0.00000E+00
    0.00000E+00         0.00000E+00        -0.49386E+08
 
   -0.49220E+08         0.86366E+06         0.00000E+00
    0.86366E+06        -0.49575E+08         0.00000E+00
    0.00000E+00         0.00000E+00        -0.49398E+08
 
   -0.49253E+08         0.86152E+06         0.00000E+00
    0.86152E+06        -0.49565E+08         0.00000E+00
    0.00000E+00         0.00000E+00        -0.49409E+08
 
   -0.49284E+08         0.85867E+06         0.00000E+00
    0.85867E+06        -0.49554E+08         0.00000E+00
    0.00000E+00         0.00000E+00        -0.49419E+08
 
   -0.49313E+08         0.85521E+06         0.00000E+00
    0.85521E+06        -0.49545E+08         0.00000E+00
    0.00000E+00         0.00000E+00        -0.49429E+08
 
   -0.49340E+08         0.85124E+06         0.00000E+00
    0.85124E+06        -0.49536E+08         0.00000E+00
    0.00000E+00         0.00000E+00        -0.49437E+08
 
   -0.49365E+08         0.84685E+06         0.00000E+00
    0.84685E+06        -0.49527E+08         0.00000E+00
    0.00000E+00         0.00000E+00        -0.49445E+08
 
   -0.49388E+08         0.84214E+06         0.00000E+00
    0.84214E+06        -0.49520E+08         0.00000E+00
    0.00000E+00         0.00000E+00        -0.49453E+08
 
   -0.49408E+08         0.83722E+06         0.00000E+00
    0.83722E+06        -0.49513E+08         0.00000E+00
    0.00000E+00         0.00000E+00        -0.49459E+08
 
   -0.49426E+08         0.83222E+06         0.00000E+00
    0.83222E+06        -0.49507E+08         0.00000E+00
    0.00000E+00         0.00000E+00        -0.49465E+08
 
   -0.49441E+08         0.82724E+06         0.00000E+00
    0.82724E+06        -0.49501E+08         0.00000E+00
    0.00000E+00         0.00000E+00        -0.49470E+08
 
   -0.49454E+08         0.82242E+06         0.00000E+00
    0.82242E+06        -0.49497E+08         0.00000E+00
    0.00000E+00         0.00000E+00        -0.49474E+08
 
   -0.49465E+08         0.81788E+06         0.00000E+00
    0.81788E+06        -0.49493E+08         0.00000E+00
    0.00000E+00         0.00000E+00        -0.49477E+08
 
   -0.49473E+08         0.81378E+06         0.00000E+00
    0.81378E+06        -0.49490E+08         0.00000E+00
    0.00000E+00         0.00000E+00        -0.49479E+08
 
   -0.49478E+08         0.81025E+06         0.00000E+00
    0.81025E+06        -0.49488E+08         0.00000E+00
    0.00000E+00         0.00000E+00        -0.49480E+08
 
   -0.47480E+08         0.30792E+05         0.00000E+00
    0.30792E+05        -0.50000E+08         0.00000E+00
    0.00000E+00         0.00000E+00        -0.48805E+08
 
   -0.47503E+08         0.88815E+05         0.00000E+00
    0.88815E+05        -0.49999E+08         0.00000E+00
    0.00000E+00         0.00000E+00        -0.48810E+08
 
   -0.47529E+08         0.14518E+06         0.00000E+00
    0.14518E+06        -0.49996E+08         0.00000E+00
    0.00000E+00         0.00000E+00        -0.48817E+08
 
   -0.47559E+08         0.19979E+06         0.00000E+00
    0.19979E+06        -0.49991E+08         0.00000E+00
    0.00000E+00         0.00000E+00        -0.48826E+08
 
   -0.47593E+08         0.25256E+06         0.00000E+00
    0.25256E+06        -0.49986E+08         0.00000E+00
    0.00000E+00         0.00000E+00        -0.48835E+08
 
   -0.47630E+08         0.30344E+06         0.00000E+00
    0.30344E+06        -0.49979E+08         0.00000E+00
    0.00000E+00         0.00000E+00        -0.48847E+08
 
   -0.47670E+08         0.35236E+06         0.00000E+00
    0.35236E+06        -0.49971E+08         0.00000E+00
    0.00000E+00         0.00000E+00        -0.48859E+08
 
   -0.47713E+08         0.39927E+06         0.00000E+00
    0.39927E+06        -0.49962E+08         0.00000E+00
    0.00000E+00         0.00000E+00        -0.48873E+08
 
   -0.47758E+08         0.44414E+06         0.00000E+00
    0.44414E+06        -0.49952E+08         0.00000E+00
    0.00000E+00         0.00000E+00        -0.48887E+08
 
   -0.47806E+08         0.48694E+06         0.00000E+00
    0.48694E+06        -0.49942E+08         0.00000E+00
    0.00000E+00         0.00000E+00        -0.48903E+08
 
   -0.47856E+08         0.52764E+06         0.00000E+00
    0.52764E+06        -0.49931E+08         0.00000E+00
    0.00000E+00         0.00000E+00        -0.48920E+08
 
   -0.47907E+08         0.56625E+06         0.00000E+00
    0.56625E+06        -0.49919E+08         0.00000E+00
    0.00000E+00         0.00000E+00        -0.48937E+08
 
   -0.47960E+08         0.60274E+06         0.00000E+00
    0.60274E+06        -0.49907E+08         0.00000E+00
    0.00000E+00         0.00000E+00        -0.48955E+08
 
   -0.48015E+08         0.63714E+06         0.00000E+00
    0.63714E+06        -0.49894E+08         0.00000E+00
    0.00000E+00         0.00000E+00        -0.48974E+08
 
   -0.48070E+08         0.66944E+06         0.00000E+00
    0.66944E+06        -0.49880E+08         0.00000E+00
    0.00000E+00         0.00000E+00        -0.48993E+08
 
   -0.48127E+08         0.69966E+06         0.00000E+00
    0.69966E+06        -0.49867E+08         0.00000E+00
    0.00000E+00         0.00000E+00        -0.49012E+08
 
   -0.48184E+08         0.72781E+06         0.00000E+00
    0.72781E+06        -0.49853E+08         0.00000E+00
    0.00000E+00         0.00000E+00        -0.49032E+08
 
   -0.48242E+08         0.75394E+06         0.00000E+00
    0.75394E+06        -0.49838E+08         0.00000E+00
    0.00000E+00         0.00000E+00        -0.49053E+08
 
   -0.48300E+08         0.77806E+06         0.00000E+00
    0.77806E+06        -0.49824E+08         0.00000E+00
    0.00000E+00         0.00000E+00        -0.49073E+08
 
   -0.48359E+08         0.80020E+06         0.00000E+00
    0.80020E+06        -0.49809E+08         0.00000E+00
    0.00000E+00         0.00000E+00        -0.49094E+08
 
   -0.48417E+08         0.82041E+06         0.00000E+00
    0.82041E+06        -0.49795E+08         0.00000E+00
    0.00000E+00         0.00000E+00        -0.49115E+08
 
   -0.48476E+08         0.83872E+06         0.00000E+00
    0.83872E+06        -0.49780E+08         0.00000E+00
    0.00000E+00         0.00000E+00        -0.49136E+08
 
   -0.48534E+08         0.85517E+06         0.00000E+00
    0.85517E+06        -0.49765E+08         0.00000E+00
    0.00000E+00         0.00000E+00        -0.49156E+08
 
   -0.48591E+08         0.86981E+06         0.00000E+00
    0.86981E+06        -0.49750E+08         0.00000E+00
    0.00000E+00         0.00000E+00        -0.49177E+08
 
   -0.48648E+08         0.88268E+06         0.00000E+00
    0.88268E+06        -0.49735E+08         0.00000E+00
    0.00000E+00         0.00000E+00        -0.49197E+08
 
   -0.48704E+08         0.89383E+06         0.00000E+00
    0.89383E+06        -0.49721E+08         0.00000E+00
    0.00000E+00         0.00000E+00        -0.49217E+08
 
   -0.48760E+08         0.90332E+06         0.00000E+00
    0.90332E+06        -0.49706E+08         0.00000E+00
    0.00000E+00         0.00000E+00        -0.49237E+08
 
   -0.48814E+08         0.91118E+06         0.00000E+00
    0.91118E+06        -0.49692E+08         0.00000E+00
    0.00000E+00         0.00000E+00        -0.49257E+08
 
   -0.48867E+08         0.91748E+06         0.00000E+00
    0.91748E+06        -0.49678E+08         0.00000E+00
    0.00000E+00         0.00000E+00        -0.49276E+08
 
   -0.48919E+08         0.92227E+06         0.00000E+00
    0.92227E+06        -0.49664E+08         0.00000E+00
    0.00000E+00         0.00000E+00        -0.49295E+08
 
   -0.48969E+08         0.92561E+06         0.00000E+00
    0.92561E+06        -0.49650E+08         0.00000E+00
    0.00000E+00         0.00000E+00        -0.49313E+08
 
   -0.49018E+08         0.92756E+06         0.00000E+00
    0.92756E+06        -0.49637E+08         0.00000E+00
    0.00000E+00         0.00000E+00        -0.49330E+08
 
   -0.49066E+08         0.92818E+06         0.00000E+00
    0.92818E+06        -0.49624E+08         0.00000E+00
    0.00000E+00         0.00000E+00        -0.49347E+08
 
   -0.49111E+08         0.92753E+06         0.00000E+00
    0.92753E+06        -0.49612E+08         0.00000E+00
    0.00000E+00         0.00000E+00        -0.49364E+08
 
   -0.49155E+08         0.92568E+06         0.00000E+00
    0.92568E+06        -0.49600E+08         0.00000E+00
    0.00000E+00         0.00000E+00        -0.49379E+08
 
   -0.49196E+08         0.92271E+06         0.00000E+00
    0.92271E+06        -0.49588E+08         0.00000E+00
    0.00000E+00         0.00000E+00        -0.49394E+08
 
   -0.49236E+08         0.91868E+06         0.00000E+00
    0.91868E+06        -0.49577E+08         0.00000E+00
    0.00000E+00         0.00000E+00        -0.49408E+08
 
   -0.49273E+08         0.91367E+06         0.00000E+00
    0.91367E+06        -0.49566E+08         0.00000E+00
    0.00000E+00         0.00000E+00        -0.49421E+08
 
   -0.49308E+08         0.90778E+06         0.00000E+00
    0.90778E+06        -0.49556E+08         0.00000E+00
    0.00000E+00         0.00000E+00        -0.49434E+08
 
   -0.49340E+08         0.90108E+06         0.00000E+00
    0.90108E+06        -0.49547E+08         0.00000E+00
    0.00000E+00         0.00000E+00        -0.49446E+08
 
   -0.49370E+08         0.89368E+06         0.00000E+00
    0.89368E+06        -0.49538E+08         0.00000E+00
    0.00000E+00         0.00000E+00        -0.49456E+08
 
   -0.49397E+08         0.88567E+06         0.00000E+00
    0.88567E+06        -0.49530E+08         0.00000E+00
    0.00000E+00         0.00000E+00        -0.49466E+08
 
   -0.49421E+08         0.87717E+06         0.00000E+00
    0.87717E+06        -0.49523E+08         0.00000E+00
    0.00000E+00         0.00000E+00        -0.49475E+08
 
   -0.49443E+08         0.86828E+06         0.00000E+00
    0.86828E+06        -0.49517E+08         0.00000E+00
    0.00000E+00         0.00000E+00        -0.49482E+08
 
   -0.49461E+08         0.85914E+06         0.00000E+00
    0.85914E+06        -0.49512E+08         0.00000E+00
    0.00000E+00         0.00000E+00        -0.49489E+08
 
   -0.49476E+08         0.84987E+06         0.00000E+00
    0.84987E+06        -0.49507E+08         0.00000E+00
    0.00000E+00         0.00000E+00        -0.49495E+08
 
   -0.49489E+08         0.84062E+06         0.00000E+00
    0.84062E+06        -0.49503E+08         0.00000E+00
    0.00000E+00         0.00000E+00        -0.49499E+08
 
   -0.49498E+08         0.83154E+06         0.00000E+00
    0.83154E+06        -0.49501E+08         0.00000E+00
    0.00000E+00         0.00000E+00        -0.49502E+08
 
   -0.49503E+08         0.82278E+06         0.00000E+00
    0.82278E+06        -0.49499E+08         0.00000E+00
    0.00000E+00         0.00000E+00        -0.49505E+08
 
   -0.49506E+08         0.81453E+06         0.00000E+00
    0.81453E+06        -0.49498E+08         0.00000E+00
    0.00000E+00         0.00000E+00        -0.49506E+08
 
   -0.47167E+08         0.35174E+05         0.00000E+00
    0.35174E+05        -0.50000E+08         0.00000E+00
    0.00000E+00         0.00000E+00        -0.48678E+08
 
   -0.47199E+08         0.10067E+06         0.00000E+00
    0.10067E+06        -0.49999E+08         0.00000E+00
    0.00000E+00         0.00000E+00        -0.48686E+08
 
   -0.47235E+08         0.16396E+06         0.00000E+00
    0.16396E+06        -0.49996E+08         0.00000E+00
    0.00000E+00         0.00000E+00        -0.48695E+08
 
   -0.47275E+08         0.22497E+06         0.00000E+00
    0.22497E+06        -0.49991E+08         0.00000E+00
    0.00000E+00         0.00000E+00        -0.48707E+08
 
   -0.47320E+08         0.28364E+06         0.00000E+00
    0.28364E+06        -0.49985E+08         0.00000E+00
    0.00000E+00         0.00000E+00        -0.48720E+08
 
   -0.47368E+08         0.33991E+06         0.00000E+00
    0.33991E+06        -0.49979E+08         0.00000E+00
    0.00000E+00         0.00000E+00        -0.48735E+08
 
   -0.47419E+08         0.39374E+06         0.00000E+00
    0.39374E+06        -0.49971E+08         0.00000E+00
    0.00000E+00         0.00000E+00        -0.48751E+08
 
   -0.47473E+08         0.44511E+06         0.00000E+00
    0.44511E+06        -0.49962E+08         0.00000E+00
    0.00000E+00         0.00000E+00        -0.48769E+08
 
   -0.47530E+08         0.49399E+06         0.00000E+00
    0.49399E+06        -0.49953E+08         0.00000E+00
    0.00000E+00         0.00000E+00        -0.48788E+08
 
   -0.47589E+08         0.54037E+06         0.00000E+00
    0.54037E+06        -0.49943E+08         0.00000E+00
    0.00000E+00         0.00000E+00        -0.48808E+08
 
   -0.47650E+08         0.58427E+06         0.00000E+00
    0.58427E+06        -0.49932E+08         0.00000E+00
    0.00000E+00         0.00000E+00        -0.48829E+08
 
   -0.47713E+08         0.62568E+06         0.00000E+00
    0.62568E+06        -0.49921E+08         0.00000E+00
    0.00000E+00         0.00000E+00        -0.48851E+08
 
   -0.47777E+08         0.66463E+06         0.00000E+00
    0.66463E+06        -0.49909E+08         0.00000E+00
    0.00000E+00         0.00000E+00        -0.48874E+08
 
   -0.47843E+08         0.70113E+06         0.00000E+00
    0.70113E+06        -0.49897E+08         0.00000E+00
    0.00000E+00         0.00000E+00        -0.48898E+08
 
   -0.47910E+08         0.73523E+06         0.00000E+00
    0.73523E+06        -0.49885E+08         0.00000E+00
    0.00000E+00         0.00000E+00        -0.48922E+08
 
   -0.47977E+08         0.76695E+06         0.00000E+00
    0.76695E+06        -0.49872E+08         0.00000E+00
    0.00000E+00         0.00000E+00        -0.48947E+08
 
   -0.48046E+08         0.79634E+06         0.00000E+00
    0.79634E+06        -0.49859E+08         0.00000E+00
    0.00000E+00         0.00000E+00        -0.48972E+08
 
   -0.48114E+08         0.82344E+06         0.00000E+00
    0.82344E+06        -0.49846E+08         0.00000E+00
    0.00000E+00         0.00000E+00        -0.48998E+08
 
   -0.48183E+08         0.84829E+06         0.00000E+00
    0.84829E+06        -0.49832E+08         0.00000E+00
    0.00000E+00         0.00000E+00        -0.49024E+08
 
   -0.48252E+08         0.87094E+06         0.00000E+00
    0.87094E+06        -0.49819E+08         0.00000E+00
    0.00000E+00         0.00000E+00        -0.49050E+08
 
   -0.48320E+08         0.89145E+06         0.00000E+00
    0.89145E+06        -0.49806E+08         0.00000E+00
    0.00000E+00         0.00000E+00        -0.49076E+08
 
   -0.48388E+08         0.90987E+06         0.00000E+00
    0.90987E+06        -0.49792E+08         0.00000E+00
    0.00000E+00         0.00000E+00        -0.49102E+08
 
   -0.48456E+08         0.92624E+06         0.00000E+00
    0.92624E+06        -0.49779E+08         0.00000E+00
    0.00000E+00         0.00000E+00        -0.49128E+08
 
   -0.48523E+08         0.94063E+06         0.00000E+00
    0.94063E+06        -0.49766E+08         0.00000E+00
    0.00000E+00         0.00000E+00        -0.49153E+08
 
   -0.48589E+08         0.95309E+06         0.00000E+00
    0.95309E+06        -0.49752E+08         0.00000E+00
    0.00000E+00         0.00000E+00        -0.49179E+08
 
   -0.48654E+08         0.96366E+06         0.00000E+00
    0.96366E+06        -0.49739E+08         0.00000E+00
    0.00000E+00         0.00000E+00        -0.49204E+08
 
   -0.48718E+08         0.97241E+06         0.00000E+00
    0.97241E+06        -0.49726E+08         0.00000E+00
    0.00000E+00         0.00000E+00        -0.49228E+08
 
   -0.48781E+08         0.97938E+06         0.00000E+00
    0.97938E+06        -0.49713E+08         0.00000E+00
    0.00000E+00         0.00000E+00        -0.49253E+08
 
   -0.48842E+08         0.98463E+06         0.00000E+00
    0.98463E+06        -0.49700E+08         0.00000E+00
    0.00000E+00         0.00000E+00        -0.49276E+08
 
   -0.48902E+08         0.98822E+06         0.00000E+00
    0.98822E+06        -0.49688E+08         0.00000E+00
    0.00000E+00         0.00000E+00        -0.49299E+08
 
   -0.48960E+08         0.99019E+06         0.00000E+00
    0.99019E+06        -0.49676E+08         0.00000E+00
    0.00000E+00         0.00000E+00        -0.49322E+08
 
   -0.49016E+08         0.99060E+06         0.00000E+00
    0.99060E+06        -0.49663E+08         0.00000E+00
    0.00000E+00         0.00000E+00        -0.49343E+08
 
   -0.49070E+08         0.98950E+06         0.00000E+00
    0.98950E+06        -0.49652E+08         0.00000E+00
    0.00000E+00         0.00000E+00        -0.49364E+08
 
   -0.49122E+08         0.98695E+06         0.00000E+00
    0.98695E+06        -0.49640E+08         0.00000E+00
    0.00000E+00         0.00000E+00        -0.49384E+08
 
   -0.49172E+08         0.98301E+06         0.00000E+00
    0.98301E+06        -0.49629E+08         0.00000E+00
    0.00000E+00         0.00000E+00        -0.49404E+08
 
   -0.49220E+08         0.97774E+06         0.00000E+00
    0.97774E+06        -0.49618E+08         0.00000E+00
    0.00000E+00         0.00000E+00        -0.49422E+08
 
   -0.49265E+08         0.97120E+06         0.00000E+00
    0.97120E+06        -0.49608E+08         0.00000E+00
    0.00000E+00         0.00000E+00        -0.49440E+08
 
   -0.49307E+08         0.96346E+06         0.00000E+00
    0.96346E+06        -0.49598E+08         0.00000E+00
    0.00000E+00         0.00000E+00        -0.49456E+08
 
   -0.49347E+08         0.95459E+06         0.00000E+00
    0.95459E+06        -0.49589E+08         0.00000E+00
    0.00000E+00         0.00000E+00        -0.49471E+08
 
   -0.49383E+08         0.94467E+06         0.00000E+00
    0.94467E+06        -0.49580E+08         0.00000E+00
    0.00000E+00         0.00000E+00        -0.49485E+08
 
   -0.49417E+08         0.93379E+06         0.00000E+00
    0.93379E+06        -0.49572E+08         0.00000E+00
    0.00000E+00         0.00000E+00        -0.49499E+08
 
   -0.49448E+08         0.92204E+06         0.00000E+00
    0.92204E+06        -0.49565E+08         0.00000E+00
    0.00000E+00         0.00000E+00        -0.49510E+08
 
   -0.49475E+08         0.90951E+06         0.00000E+00
    0.90951E+06        -0.49558E+08         0.00000E+00
    0.00000E+00         0.00000E+00        -0.49521E+08
 
   -0.49498E+08         0.89633E+06         0.00000E+00
    0.89633E+06        -0.49552E+08         0.00000E+00
    0.00000E+00         0.00000E+00        -0.49531E+08
 
   -0.49519E+08         0.88261E+06         0.00000E+00
    0.88261E+06        -0.49547E+08         0.00000E+00
    0.00000E+00         0.00000E+00        -0.49539E+08
 
   -0.49535E+08         0.86849E+06         0.00000E+00
    0.86849E+06        -0.49543E+08         0.00000E+00
    0.00000E+00         0.00000E+00        -0.49545E+08
 
   -0.49547E+08         0.85411E+06         0.00000E+00
    0.85411E+06        -0.49541E+08         0.00000E+00
    0.00000E+00         0.00000E+00        -0.49551E+08
 
   -0.49556E+08         0.83964E+06         0.00000E+00
    0.83964E+06        -0.49539E+08         0.00000E+00
    0.00000E+00         0.00000E+00        -0.49555E+08
 
   -0.49560E+08         0.82525E+06         0.00000E+00
    0.82525E+06        -0.49538E+08         0.00000E+00
    0.00000E+00         0.00000E+00        -0.49557E+08
 
   -0.49559E+08         0.81114E+06         0.00000E+00
    0.81114E+06        -0.49539E+08         0.00000E+00
    0.00000E+00         0.00000E+00        -0.49558E+08
 
   -0.46815E+08         0.39609E+05         0.00000E+00
    0.39609E+05        -0.50000E+08         0.00000E+00
    0.00000E+00         0.00000E+00        -0.48542E+08
 
   -0.46859E+08         0.11240E+06         0.00000E+00
    0.11240E+06        -0.49999E+08         0.00000E+00
    0.00000E+00         0.00000E+00        -0.48553E+08
 
   -0.46908E+08         0.18234E+06         0.00000E+00
    0.18234E+06        -0.49996E+08         0.00000E+00
    0.00000E+00         0.00000E+00        -0.48565E+08
 
   -0.46962E+08         0.24939E+06         0.00000E+00
    0.24939E+06        -0.49992E+08         0.00000E+00
    0.00000E+00         0.00000E+00        -0.48581E+08
 
   -0.47019E+08         0.31349E+06         0.00000E+00
    0.31349E+06        -0.49986E+08         0.00000E+00
    0.00000E+00         0.00000E+00        -0.48598E+08
 
   -0.47081E+08         0.37462E+06         0.00000E+00
    0.37462E+06        -0.49980E+08         0.00000E+00
    0.00000E+00         0.00000E+00        -0.48617E+08
 
   -0.47145E+08         0.43277E+06         0.00000E+00
    0.43277E+06        -0.49973E+08         0.00000E+00
    0.00000E+00         0.00000E+00        -0.48638E+08
 
   -0.47213E+08         0.48794E+06         0.00000E+00
    0.48794E+06        -0.49966E+08         0.00000E+00
    0.00000E+00         0.00000E+00        -0.48661E+08
 
   -0.47283E+08         0.54015E+06         0.00000E+00
    0.54015E+06        -0.49957E+08         0.00000E+00
    0.00000E+00         0.00000E+00        -0.48685E+08
 
   -0.47356E+08         0.58942E+06         0.00000E+00
    0.58942E+06        -0.49948E+08         0.00000E+00
    0.00000E+00         0.00000E+00        -0.48711E+08
 
   -0.47431E+08         0.63577E+06         0.00000E+00
    0.63577E+06        -0.49939E+08         0.00000E+00
    0.00000E+00         0.00000E+00        -0.48738E+08
 
   -0.47507E+08         0.67927E+06         0.00000E+00
    0.67927E+06        -0.49930E+08         0.00000E+00
    0.00000E+00         0.00000E+00        -0.48766E+08
 
   -0.47584E+08         0.71995E+06         0.00000E+00
    0.71995E+06        -0.49920E+08         0.00000E+00
    0.00000E+00         0.00000E+00        -0.48795E+08
 
   -0.47663E+08         0.75787E+06         0.00000E+00
    0.75787E+06        -0.49910E+08         0.00000E+00
    0.00000E+00         0.00000E+00        -0.48825E+08
 
   -0.47742E+08         0.79310E+06         0.00000E+00
    0.79310E+06        -0.49900E+08         0.00000E+00
    0.00000E+00         0.00000E+00        -0.48856E+08
 
   -0.47822E+08         0.82570E+06         0.00000E+00
    0.82570E+06        -0.49889E+08         0.00000E+00
    0.00000E+00         0.00000E+00        -0.48887E+08
 
   -0.47903E+08         0.85574E+06         0.00000E+00
    0.85574E+06        -0.49879E+08         0.00000E+00
    0.00000E+00         0.00000E+00        -0.48919E+08
 
   -0.47983E+08         0.88329E+06         0.00000E+00
    0.88329E+06        -0.49868E+08         0.00000E+00
    0.00000E+00         0.00000E+00        -0.48951E+08
 
   -0.48063E+08         0.90842E+06         0.00000E+00
    0.90842E+06        -0.49858E+08         0.00000E+00
    0.00000E+00         0.00000E+00        -0.48983E+08
 
   -0.48143E+08         0.93121E+06         0.00000E+00
    0.93121E+06        -0.49848E+08         0.00000E+00
    0.00000E+00         0.00000E+00        -0.49015E+08
 
   -0.48223E+08         0.95172E+06         0.00000E+00
    0.95172E+06        -0.49837E+08         0.00000E+00
    0.00000E+00         0.00000E+00        -0.49047E+08
 
   -0.48302E+08         0.97003E+06         0.00000E+00
    0.97003E+06        -0.49827E+08         0.00000E+00
    0.00000E+00         0.00000E+00        -0.49080E+08
 
   -0.48380E+08         0.98619E+06         0.00000E+00
    0.98619E+06        -0.49817E+08         0.00000E+00
    0.00000E+00         0.00000E+00        -0.49112E+08
 
   -0.48457E+08         0.10003E+07         0.00000E+00
    0.10003E+07        -0.49806E+08         0.00000E+00
    0.00000E+00         0.00000E+00        -0.49143E+08
 
   -0.48532E+08         0.10124E+07         0.00000E+00
    0.10124E+07        -0.49796E+08         0.00000E+00
    0.00000E+00         0.00000E+00        -0.49175E+08
 
   -0.48607E+08         0.10225E+07         0.00000E+00
    0.10225E+07        -0.49786E+08         0.00000E+00
    0.00000E+00         0.00000E+00        -0.49206E+08
 
   -0.48680E+08         0.10307E+07         0.00000E+00
    0.10307E+07        -0.49776E+08         0.00000E+00
    0.00000E+00         0.00000E+00        -0.49236E+08
 
   -0.48752E+08         0.10371E+07         0.00000E+00
    0.10371E+07        -0.49766E+08         0.00000E+00
    0.00000E+00         0.00000E+00        -0.49266E+08
 
   -0.48822E+08         0.10417E+07         0.00000E+00
    0.10417E+07        -0.49756E+08         0.00000E+00
    0.00000E+00         0.00000E+00        -0.49295E+08
 
   -0.48890E+08         0.10445E+07         0.00000E+00
    0.10445E+07        -0.49747E+08         0.00000E+00
    0.00000E+00         0.00000E+00        -0.49324E+08
 
   -0.48956E+08         0.10456E+07         0.00000E+00
    0.10456E+07        -0.49737E+08         0.00000E+00
    0.00000E+00         0.00000E+00        -0.49351E+08
 
   -0.49020E+08         0.10450E+07         0.00000E+00
    0.10450E+07        -0.49727E+08         0.00000E+00
    0.00000E+00         0.00000E+00        -0.49378E+08
 
   -0.49082E+08         0.10428E+07         0.00000E+00
    0.10428E+07        -0.49718E+08         0.00000E+00
    0.00000E+00         0.00000E+00        -0.49404E+08
 
   -0.49142E+08         0.10390E+07         0.00000E+00
    0.10390E+07        -0.49709E+08         0.00000E+00
    0.00000E+00         0.00000E+00        -0.49429E+08
 
   -0.49199E+08         0.10336E+07         0.00000E+00
    0.10336E+07        -0.49699E+08         0.00000E+00
    0.00000E+00         0.00000E+00        -0.49453E+08
 
   -0.49253E+08         0.10267E+07         0.00000E+00
    0.10267E+07        -0.49690E+08         0.00000E+00
    0.00000E+00         0.00000E+00        -0.49475E+08
 
   -0.49305E+08         0.10183E+07         0.00000E+00
    0.10183E+07        -0.49682E+08         0.00000E+00
    0.00000E+00         0.00000E+00        -0.49497E+08
 
   -0.49354E+08         0.10084E+07         0.00000E+00
    0.10084E+07        -0.49673E+08         0.00000E+00
    0.00000E+00         0.00000E+00        -0.49517E+08
 
   -0.49400E+08         0.99718E+06         0.00000E+00
    0.99718E+06        -0.49665E+08         0.00000E+00
    0.00000E+00         0.00000E+00        -0.49536E+08
 
   -0.49442E+08         0.98458E+06         0.00000E+00
    0.98458E+06        -0.49657E+08         0.00000E+00
    0.00000E+00         0.00000E+00        -0.49554E+08
 
   -0.49482E+08         0.97068E+06         0.00000E+00
    0.97068E+06        -0.49650E+08         0.00000E+00
    0.00000E+00         0.00000E+00        -0.49570E+08
 
   -0.49517E+08         0.95555E+06         0.00000E+00
    0.95555E+06        -0.49643E+08         0.00000E+00
    0.00000E+00         0.00000E+00        -0.49585E+08
 
   -0.49549E+08         0.93926E+06         0.00000E+00
    0.93926E+06        -0.49637E+08         0.00000E+00
    0.00000E+00         0.00000E+00        -0.49598E+08
 
   -0.49576E+08         0.92192E+06         0.00000E+00
    0.92192E+06        -0.49632E+08         0.00000E+00
    0.00000E+00         0.00000E+00        -0.49610E+08
 
   -0.49600E+08         0.90360E+06         0.00000E+00
    0.90360E+06        -0.49627E+08         0.00000E+00
    0.00000E+00         0.00000E+00        -0.49620E+08
 
   -0.49619E+08         0.88445E+06         0.00000E+00
    0.88445E+06        -0.49623E+08         0.00000E+00
    0.00000E+00         0.00000E+00        -0.49628E+08
 
   -0.49633E+08         0.86458E+06         0.00000E+00
    0.86458E+06        -0.49621E+08         0.00000E+00
    0.00000E+00         0.00000E+00        -0.49635E+08
 
   -0.49643E+08         0.84415E+06         0.00000E+00
    0.84415E+06        -0.49619E+08         0.00000E+00
    0.00000E+00         0.00000E+00        -0.49640E+08
 
   -0.49647E+08         0.82334E+06         0.00000E+00
    0.82334E+06        -0.49619E+08         0.00000E+00
    0.00000E+00         0.00000E+00        -0.49643E+08
 
   -0.49646E+08         0.80234E+06         0.00000E+00
    0.80234E+06        -0.49620E+08         0.00000E+00
    0.00000E+00         0.00000E+00        -0.49644E+08
 
   -0.46427E+08         0.43812E+05         0.00000E+00
    0.43812E+05        -0.50000E+08         0.00000E+00
    0.00000E+00         0.00000E+00        -0.48400E+08
 
   -0.46487E+08         0.12313E+06         0.00000E+00
    0.12313E+06        -0.49999E+08         0.00000E+00
    0.00000E+00         0.00000E+00        -0.48414E+08
 
   -0.46552E+08         0.19883E+06         0.00000E+00
    0.19883E+06        -0.49996E+08         0.00000E+00
    0.00000E+00         0.00000E+00        -0.48431E+08
 
   -0.46622E+08         0.27091E+06         0.00000E+00
    0.27091E+06        -0.49993E+08         0.00000E+00
    0.00000E+00         0.00000E+00        -0.48451E+08
 
   -0.46696E+08         0.33936E+06         0.00000E+00
    0.33936E+06        -0.49989E+08         0.00000E+00
    0.00000E+00         0.00000E+00        -0.48473E+08
 
   -0.46774E+08         0.40419E+06         0.00000E+00
    0.40419E+06        -0.49984E+08         0.00000E+00
    0.00000E+00         0.00000E+00        -0.48498E+08
 
   -0.46855E+08         0.46544E+06         0.00000E+00
    0.46544E+06        -0.49978E+08         0.00000E+00
    0.00000E+00         0.00000E+00        -0.48525E+08
 
   -0.46938E+08         0.52315E+06         0.00000E+00
    0.52315E+06        -0.49973E+08         0.00000E+00
    0.00000E+00         0.00000E+00        -0.48554E+08
 
   -0.47025E+08         0.57739E+06         0.00000E+00
    0.57739E+06        -0.49967E+08         0.00000E+00
    0.00000E+00         0.00000E+00        -0.48585E+08
 
   -0.47113E+08         0.62822E+06         0.00000E+00
    0.62822E+06        -0.49960E+08         0.00000E+00
    0.00000E+00         0.00000E+00        -0.48617E+08
 
   -0.47203E+08         0.67575E+06         0.00000E+00
    0.67575E+06        -0.49954E+08         0.00000E+00
    0.00000E+00         0.00000E+00        -0.48651E+08
 
   -0.47294E+08         0.72005E+06         0.00000E+00
    0.72005E+06        -0.49948E+08         0.00000E+00
    0.00000E+00         0.00000E+00        -0.48687E+08
 
   -0.47386E+08         0.76123E+06         0.00000E+00
    0.76123E+06        -0.49941E+08         0.00000E+00
    0.00000E+00         0.00000E+00        -0.48723E+08
 
   -0.47479E+08         0.79939E+06         0.00000E+00
    0.79939E+06        -0.49935E+08         0.00000E+00
    0.00000E+00         0.00000E+00        -0.48760E+08
 
   -0.47573E+08         0.83464E+06         0.00000E+00
    0.83464E+06        -0.49929E+08         0.00000E+00
    0.00000E+00         0.00000E+00        -0.48798E+08
 
   -0.47666E+08         0.86710E+06         0.00000E+00
    0.86710E+06        -0.49923E+08         0.00000E+00
    0.00000E+00         0.00000E+00        -0.48837E+08
 
   -0.47759E+08         0.89687E+06         0.00000E+00
    0.89687E+06        -0.49918E+08         0.00000E+00
    0.00000E+00         0.00000E+00        -0.48876E+08
 
   -0.47852E+08         0.92407E+06         0.00000E+00
    0.92407E+06        -0.49912E+08         0.00000E+00
    0.00000E+00         0.00000E+00        -0.48915E+08
 
   -0.47944E+08         0.94879E+06         0.00000E+00
    0.94879E+06        -0.49907E+08         0.00000E+00
    0.00000E+00         0.00000E+00        -0.48955E+08
 
   -0.48036E+08         0.97115E+06         0.00000E+00
    0.97115E+06        -0.49902E+08         0.00000E+00
    0.00000E+00         0.00000E+00        -0.48995E+08
 
   -0.48127E+08         0.99124E+06         0.00000E+00
    0.99124E+06        -0.49897E+08         0.00000E+00
    0.00000E+00         0.00000E+00        -0.49034E+08
 
   -0.48216E+08         0.10092E+07         0.00000E+00
    0.10092E+07        -0.49892E+08         0.00000E+00
    0.00000E+00         0.00000E+00        -0.49074E+08
 
   -0.48305E+08         0.10250E+07         0.00000E+00
    0.10250E+07        -0.49887E+08         0.00000E+00
    0.00000E+00         0.00000E+00        -0.49113E+08
 
   -0.48392E+08         0.10388E+07         0.00000E+00
    0.10388E+07        -0.49882E+08         0.00000E+00
    0.00000E+00         0.00000E+00        -0.49152E+08
 
   -0.48477E+08         0.10507E+07         0.00000E+00
    0.10507E+07        -0.49878E+08         0.00000E+00
    0.00000E+00         0.00000E+00        -0.49190E+08
 
   -0.48561E+08         0.10606E+07         0.00000E+00
    0.10606E+07        -0.49873E+08         0.00000E+00
    0.00000E+00         0.00000E+00        -0.49228E+08
 
   -0.48644E+08         0.10688E+07         0.00000E+00
    0.10688E+07        -0.49868E+08         0.00000E+00
    0.00000E+00         0.00000E+00        -0.49265E+08
 
   -0.48724E+08         0.10752E+07         0.00000E+00
    0.10752E+07        -0.49863E+08         0.00000E+00
    0.00000E+00         0.00000E+00        -0.49302E+08
 
   -0.48803E+08         0.10798E+07         0.00000E+00
    0.10798E+07        -0.49858E+08         0.00000E+00
    0.00000E+00         0.00000E+00        -0.49337E+08
 
   -0.48880E+08         0.10827E+07         0.00000E+00
    0.10827E+07        -0.49853E+08         0.00000E+00
    0.00000E+00         0.00000E+00        -0.49372E+08
 
   -0.48955E+08         0.10839E+07         0.00000E+00
    0.10839E+07        -0.49848E+08         0.00000E+00
    0.00000E+00         0.00000E+00        -0.49406E+08
 
   -0.49027E+08         0.10835E+07         0.00000E+00
    0.10835E+07        -0.49843E+08         0.00000E+00
    0.00000E+00         0.00000E+00        -0.49438E+08
 
   -0.49097E+08         0.10813E+07         0.00000E+00
    0.10813E+07        -0.49837E+08         0.00000E+00
    0.00000E+00         0.00000E+00        -0.49470E+08
 
   -0.49165E+08         0.10775E+07         0.00000E+00
    0.10775E+07        -0.49831E+08         0.00000E+00
    0.00000E+00         0.00000E+00        -0.49500E+08
 
   -0.49230E+08         0.10720E+07         0.00000E+00
    0.10720E+07        -0.49825E+08         0.00000E+00
    0.00000E+00         0.00000E+00        -0.49530E+08
 
   -0.49293E+08         0.10648E+07         0.00000E+00
    0.10648E+07        -0.49819E+08         0.00000E+00
    0.00000E+00         0.00000E+00        -0.49557E+08
 
   -0.49353E+08         0.10559E+07         0.00000E+00
    0.10559E+07        -0.49813E+08         0.00000E+00
    0.00000E+00         0.00000E+00        -0.49584E+08
 
   -0.49409E+08         0.10454E+07         0.00000E+00
    0.10454E+07        -0.49807E+08         0.00000E+00
    0.00000E+00         0.00000E+00        -0.49609E+08
 
   -0.49463E+08         0.10331E+07         0.00000E+00
    0.10331E+07        -0.49801E+08         0.00000E+00
    0.00000E+00         0.00000E+00        -0.49632E+08
 
   -0.49513E+08         0.10192E+07         0.00000E+00
    0.10192E+07        -0.49794E+08         0.00000E+00
    0.00000E+00         0.00000E+00        -0.49654E+08
 
   -0.49559E+08         0.10035E+07         0.00000E+00
    0.10035E+07        -0.49788E+08         0.00000E+00
    0.00000E+00         0.00000E+00        -0.49674E+08
 
   -0.49602E+08         0.98618E+06         0.00000E+00
    0.98618E+06        -0.49782E+08         0.00000E+00
    0.00000E+00         0.00000E+00        -0.49693E+08
 
   -0.49640E+08         0.96718E+06         0.00000E+00
    0.96718E+06        -0.49776E+08         0.00000E+00
    0.00000E+00         0.00000E+00        -0.49709E+08
 
   -0.49675E+08         0.94657E+06         0.00000E+00
    0.94657E+06        -0.49771E+08         0.00000E+00
    0.00000E+00         0.00000E+00        -0.49724E+08
 
   -0.49704E+08         0.92438E+06         0.00000E+00
    0.92438E+06        -0.49766E+08         0.00000E+00
    0.00000E+00         0.00000E+00        -0.49737E+08
 
   -0.49729E+08         0.90070E+06         0.00000E+00
    0.90070E+06        -0.49762E+08         0.00000E+00
    0.00000E+00         0.00000E+00        -0.49748E+08
 
   -0.49748E+08         0.87560E+06         0.00000E+00
    0.87560E+06        -0.49759E+08         0.00000E+00
    0.00000E+00         0.00000E+00        -0.49757E+08
 
   -0.49761E+08         0.84921E+06         0.00000E+00
    0.84921E+06        -0.49757E+08         0.00000E+00
    0.00000E+00         0.00000E+00        -0.49763E+08
 
   -0.49769E+08         0.82167E+06         0.00000E+00
    0.82167E+06        -0.49756E+08         0.00000E+00
    0.00000E+00         0.00000E+00        -0.49767E+08
 
   -0.49770E+08         0.79315E+06         0.00000E+00
    0.79315E+06        -0.49756E+08         0.00000E+00
    0.00000E+00         0.00000E+00        -0.49769E+08
 
   -0.46007E+08         0.47420E+05         0.00000E+00
    0.47420E+05        -0.50000E+08         0.00000E+00
    0.00000E+00         0.00000E+00        -0.48255E+08
 
   -0.46087E+08         0.13170E+06         0.00000E+00
    0.13170E+06        -0.49999E+08         0.00000E+00
    0.00000E+00         0.00000E+00        -0.48274E+08
 
   -0.46173E+08         0.21146E+06         0.00000E+00
    0.21146E+06        -0.49997E+08         0.00000E+00
    0.00000E+00         0.00000E+00        -0.48296E+08
 
   -0.46263E+08         0.28675E+06         0.00000E+00
    0.28675E+06        -0.49995E+08         0.00000E+00
    0.00000E+00         0.00000E+00        -0.48322E+08
 
   -0.46357E+08         0.35760E+06         0.00000E+00
    0.35760E+06        -0.49993E+08         0.00000E+00
    0.00000E+00         0.00000E+00        -0.48350E+08
 
   -0.46454E+08         0.42411E+06         0.00000E+00
    0.42411E+06        -0.49990E+08         0.00000E+00
    0.00000E+00         0.00000E+00        -0.48382E+08
 
   -0.46555E+08         0.48637E+06         0.00000E+00
    0.48637E+06        -0.49987E+08         0.00000E+00
    0.00000E+00         0.00000E+00        -0.48416E+08
 
   -0.46657E+08         0.54450E+06         0.00000E+00
    0.54450E+06        -0.49985E+08         0.00000E+00
    0.00000E+00         0.00000E+00        -0.48453E+08
 
   -0.46762E+08         0.59864E+06         0.00000E+00
    0.59864E+06        -0.49983E+08         0.00000E+00
    0.00000E+00         0.00000E+00        -0.48491E+08
 
   -0.46868E+08         0.64893E+06         0.00000E+00
    0.64893E+06        -0.49981E+08         0.00000E+00
    0.00000E+00         0.00000E+00        -0.48532E+08
 
   -0.46975E+08         0.69554E+06         0.00000E+00
    0.69554E+06        -0.49979E+08         0.00000E+00
    0.00000E+00         0.00000E+00        -0.48574E+08
 
   -0.47083E+08         0.73863E+06         0.00000E+00
    0.73863E+06        -0.49978E+08         0.00000E+00
    0.00000E+00         0.00000E+00        -0.48617E+08
 
   -0.47191E+08         0.77838E+06         0.00000E+00
    0.77838E+06        -0.49978E+08         0.00000E+00
    0.00000E+00         0.00000E+00        -0.48662E+08
 
   -0.47299E+08         0.81496E+06         0.00000E+00
    0.81496E+06        -0.49978E+08         0.00000E+00
    0.00000E+00         0.00000E+00        -0.48708E+08
 
   -0.47407E+08         0.84855E+06         0.00000E+00
    0.84855E+06        -0.49978E+08         0.00000E+00
    0.00000E+00         0.00000E+00        -0.48754E+08
 
   -0.47514E+08         0.87933E+06         0.00000E+00
    0.87933E+06        -0.49980E+08         0.00000E+00
    0.00000E+00         0.00000E+00        -0.48802E+08
 
   -0.47620E+08         0.90746E+06         0.00000E+00
    0.90746E+06        -0.49981E+08         0.00000E+00
    0.00000E+00         0.00000E+00        -0.48849E+08
 
   -0.47725E+08         0.93311E+06         0.00000E+00
    0.93311E+06        -0.49984E+08         0.00000E+00
    0.00000E+00         0.00000E+00        -0.48897E+08
 
   -0.47829E+08         0.95644E+06         0.00000E+00
    0.95644E+06        -0.49986E+08         0.00000E+00
    0.00000E+00         0.00000E+00        -0.48945E+08
 
   -0.47932E+08         0.97758E+06         0.00000E+00
    0.97758E+06        -0.49989E+08         0.00000E+00
    0.00000E+00         0.00000E+00        -0.48993E+08
 
   -0.48033E+08         0.99668E+06         0.00000E+00
    0.99668E+06        -0.49993E+08         0.00000E+00
    0.00000E+00         0.00000E+00        -0.49041E+08
 
   -0.48133E+08         0.10139E+07         0.00000E+00
    0.10139E+07        -0.49996E+08         0.00000E+00
    0.00000E+00         0.00000E+00        -0.49089E+08
 
   -0.48231E+08         0.10292E+07         0.00000E+00
    0.10292E+07        -0.50000E+08         0.00000E+00
    0.00000E+00         0.00000E+00        -0.49136E+08
 
   -0.48327E+08         0.10428E+07         0.00000E+00
    0.10428E+07        -0.50004E+08         0.00000E+00
    0.00000E+00         0.00000E+00        -0.49183E+08
 
   -0.48422E+08         0.10548E+07         0.00000E+00
    0.10548E+07        -0.50007E+08         0.00000E+00
    0.00000E+00         0.00000E+00        -0.49229E+08
 
   -0.48514E+08         0.10653E+07         0.00000E+00
    0.10653E+07        -0.50011E+08         0.00000E+00
    0.00000E+00         0.00000E+00        -0.49274E+08
 
   -0.48605E+08         0.10742E+07         0.00000E+00
    0.10742E+07        -0.50014E+08         0.00000E+00
    0.00000E+00         0.00000E+00        -0.49319E+08
 
   -0.48694E+08         0.10815E+07         0.00000E+00
    0.10815E+07        -0.50018E+08         0.00000E+00
    0.00000E+00         0.00000E+00        -0.49363E+08
 
   -0.48781E+08         0.10875E+07         0.00000E+00
    0.10875E+07        -0.50020E+08         0.00000E+00
    0.00000E+00         0.00000E+00        -0.49406E+08
 
   -0.48866E+08         0.10919E+07         0.00000E+00
    0.10919E+07        -0.50023E+08         0.00000E+00
    0.00000E+00         0.00000E+00        -0.49447E+08
 
   -0.48948E+08         0.10948E+07         0.00000E+00
    0.10948E+07        -0.50024E+08         0.00000E+00
    0.00000E+00         0.00000E+00        -0.49488E+08
 
   -0.49029E+08         0.10963E+07         0.00000E+00
    0.10963E+07        -0.50025E+08         0.00000E+00
    0.00000E+00         0.00000E+00        -0.49527E+08
 
   -0.49107E+08         0.10962E+07         0.00000E+00
    0.10962E+07        -0.50026E+08         0.00000E+00
    0.00000E+00         0.00000E+00        -0.49565E+08
 
   -0.49183E+08         0.10944E+07         0.00000E+00
    0.10944E+07        -0.50026E+08         0.00000E+00
    0.00000E+00         0.00000E+00        -0.49602E+08
 
   -0.49257E+08         0.10911E+07         0.00000E+00
    0.10911E+07        -0.50025E+08         0.00000E+00
    0.00000E+00         0.00000E+00        -0.49637E+08
 
   -0.49328E+08         0.10860E+07         0.00000E+00
    0.10860E+07        -0.50023E+08         0.00000E+00
    0.00000E+00         0.00000E+00        -0.49671E+08
 
   -0.49397E+08         0.10790E+07         0.00000E+00
    0.10790E+07        -0.50021E+08         0.00000E+00
    0.00000E+00         0.00000E+00        -0.49703E+08
 
   -0.49463E+08         0.10702E+07         0.00000E+00
    0.10702E+07        -0.50017E+08         0.00000E+00
    0.00000E+00         0.00000E+00        -0.49734E+08
 
   -0.49525E+08         0.10594E+07         0.00000E+00
    0.10594E+07        -0.50014E+08         0.00000E+00
    0.00000E+00         0.00000E+00        -0.49762E+08
 
   -0.49585E+08         0.10466E+07         0.00000E+00
    0.10466E+07        -0.50009E+08         0.00000E+00
    0.00000E+00         0.00000E+00        -0.49789E+08
 
   -0.49641E+08         0.10316E+07         0.00000E+00
    0.10316E+07        -0.50004E+08         0.00000E+00
    0.00000E+00         0.00000E+00        -0.49814E+08
 
   -0.49693E+08         0.10144E+07         0.00000E+00
    0.10144E+07        -0.49999E+08         0.00000E+00
    0.00000E+00         0.00000E+00        -0.49837E+08
 
   -0.49742E+08         0.99497E+06         0.00000E+00
    0.99497E+06        -0.49993E+08         0.00000E+00
    0.00000E+00         0.00000E+00        -0.49858E+08
 
   -0.49786E+08         0.97316E+06         0.00000E+00
    0.97316E+06        -0.49987E+08         0.00000E+00
    0.00000E+00         0.00000E+00        -0.49877E+08
 
   -0.49825E+08         0.94897E+06         0.00000E+00
    0.94897E+06        -0.49982E+08         0.00000E+00
    0.00000E+00         0.00000E+00        -0.49893E+08
 
   -0.49859E+08         0.92239E+06         0.00000E+00
    0.92239E+06        -0.49976E+08         0.00000E+00
    0.00000E+00         0.00000E+00        -0.49907E+08
 
   -0.49888E+08         0.89341E+06         0.00000E+00
    0.89341E+06        -0.49971E+08         0.00000E+00
    0.00000E+00         0.00000E+00        -0.49918E+08
 
   -0.49910E+08         0.86206E+06         0.00000E+00
    0.86206E+06        -0.49966E+08         0.00000E+00
    0.00000E+00         0.00000E+00        -0.49927E+08
 
   -0.49926E+08         0.82840E+06         0.00000E+00
    0.82840E+06        -0.49962E+08         0.00000E+00
    0.00000E+00         0.00000E+00        -0.49933E+08
 
   -0.49935E+08         0.79254E+06         0.00000E+00
    0.79254E+06        -0.49960E+08         0.00000E+00
    0.00000E+00         0.00000E+00        -0.49936E+08
 
   -0.45566E+08         0.50003E+05         0.00000E+00
    0.50003E+05        -0.50000E+08         0.00000E+00
    0.00000E+00         0.00000E+00        -0.48115E+08
 
   -0.45672E+08         0.13668E+06         0.00000E+00
    0.13668E+06        -0.50000E+08         0.00000E+00
    0.00000E+00         0.00000E+00        -0.48140E+08
 
   -0.45782E+08         0.21774E+06         0.00000E+00
    0.21774E+06        -0.49999E+08         0.00000E+00
    0.00000E+00         0.00000E+00        -0.48169E+08
 
   -0.45897E+08         0.29330E+06         0.00000E+00
    0.29330E+06        -0.49999E+08         0.00000E+00
    0.00000E+00         0.00000E+00        -0.48201E+08
 
   -0.46015E+08         0.36350E+06         0.00000E+00
    0.36350E+06        -0.49999E+08         0.00000E+00
    0.00000E+00         0.00000E+00        -0.48238E+08
 
   -0.46136E+08         0.42851E+06         0.00000E+00
    0.42851E+06        -0.50000E+08         0.00000E+00
    0.00000E+00         0.00000E+00        -0.48277E+08
 
   -0.46259E+08         0.48856E+06         0.00000E+00
    0.48856E+06        -0.50001E+08         0.00000E+00
    0.00000E+00         0.00000E+00        -0.48320E+08
 
   -0.46383E+08         0.54385E+06         0.00000E+00
    0.54385E+06        -0.50004E+08         0.00000E+00
    0.00000E+00         0.00000E+00        -0.48365E+08
 
   -0.46509E+08         0.59465E+06         0.00000E+00
    0.59465E+06        -0.50007E+08         0.00000E+00
    0.00000E+00         0.00000E+00        -0.48413E+08
 
   -0.46634E+08         0.64121E+06         0.00000E+00
    0.64121E+06        -0.50012E+08         0.00000E+00
    0.00000E+00         0.00000E+00        -0.48462E+08
 
   -0.46760E+08         0.68381E+06         0.00000E+00
    0.68381E+06        -0.50018E+08         0.00000E+00
    0.00000E+00         0.00000E+00        -0.48514E+08
 
   -0.46885E+08         0.72273E+06         0.00000E+00
    0.72273E+06        -0.50025E+08         0.00000E+00
    0.00000E+00         0.00000E+00        -0.48567E+08
 
   -0.47010E+08         0.75824E+06         0.00000E+00
    0.75824E+06        -0.50033E+08         0.00000E+00
    0.00000E+00         0.00000E+00        -0.48621E+08
 
   -0.47133E+08         0.79062E+06         0.00000E+00
    0.79062E+06        -0.50042E+08         0.00000E+00
    0.00000E+00         0.00000E+00        -0.48676E+08
 
   -0.47255E+08         0.82015E+06         0.00000E+00
    0.82015E+06        -0.50053E+08         0.00000E+00
    0.00000E+00         0.00000E+00        -0.48732E+08
 
   -0.47375E+08         0.84708E+06         0.00000E+00
    0.84708E+06        -0.50065E+08         0.00000E+00
    0.00000E+00         0.00000E+00        -0.48788E+08
 
   -0.47493E+08         0.87167E+06         0.00000E+00
    0.87167E+06        -0.50077E+08         0.00000E+00
    0.00000E+00         0.00000E+00        -0.48845E+08
 
   -0.47610E+08         0.89416E+06         0.00000E+00
    0.89416E+06        -0.50091E+08         0.00000E+00
    0.00000E+00         0.00000E+00        -0.48902E+08
 
   -0.47724E+08         0.91476E+06         0.00000E+00
    0.91476E+06        -0.50105E+08         0.00000E+00
    0.00000E+00         0.00000E+00        -0.48959E+08
 
   -0.47836E+08         0.93367E+06         0.00000E+00
    0.93367E+06        -0.50120E+08         0.00000E+00
    0.00000E+00         0.00000E+00        -0.49016E+08
 
   -0.47946E+08         0.95108E+06         0.00000E+00
    0.95108E+06        -0.50135E+08         0.00000E+00
    0.00000E+00         0.00000E+00        -0.49073E+08
 
   -0.48053E+08         0.96713E+06         0.00000E+00
    0.96713E+06        -0.50151E+08         0.00000E+00
    0.00000E+00         0.00000E+00        -0.49129E+08
 
   -0.48159E+08         0.98198E+06         0.00000E+00
    0.98198E+06        -0.50167E+08         0.00000E+00
    0.00000E+00         0.00000E+00        -0.49185E+08
 
   -0.48262E+08         0.99573E+06         0.00000E+00
    0.99573E+06        -0.50183E+08         0.00000E+00
    0.00000E+00         0.00000E+00        -0.49240E+08
 
   -0.48363E+08         0.10085E+07         0.00000E+00
    0.10085E+07        -0.50199E+08         0.00000E+00
    0.00000E+00         0.00000E+00        -0.49294E+08
 
   -0.48462E+08         0.10202E+07         0.00000E+00
    0.10202E+07        -0.50214E+08         0.00000E+00
    0.00000E+00         0.00000E+00        -0.49348E+08
 
   -0.48559E+08         0.10311E+07         0.00000E+00
    0.10311E+07        -0.50229E+08         0.00000E+00
    0.00000E+00         0.00000E+00        -0.49400E+08
 
   -0.48654E+08         0.10411E+07         0.00000E+00
    0.10411E+07        -0.50244E+08         0.00000E+00
    0.00000E+00         0.00000E+00        -0.49452E+08
 
   -0.48747E+08         0.10502E+07         0.00000E+00
    0.10502E+07        -0.50257E+08         0.00000E+00
    0.00000E+00         0.00000E+00        -0.49502E+08
 
   -0.48838E+08         0.10583E+07         0.00000E+00
    0.10583E+07        -0.50270E+08         0.00000E+00
    0.00000E+00         0.00000E+00        -0.49551E+08
 
   -0.48927E+08         0.10654E+07         0.00000E+00
    0.10654E+07        -0.50282E+08         0.00000E+00
    0.00000E+00         0.00000E+00        -0.49599E+08
 
   -0.49014E+08         0.10715E+07         0.00000E+00
    0.10715E+07        -0.50292E+08         0.00000E+00
    0.00000E+00         0.00000E+00        -0.49645E+08
 
   -0.49100E+08         0.10763E+07         0.00000E+00
    0.10763E+07        -0.50301E+08         0.00000E+00
    0.00000E+00         0.00000E+00        -0.49690E+08
 
   -0.49183E+08         0.10799E+07         0.00000E+00
    0.10799E+07        -0.50308E+08         0.00000E+00
    0.00000E+00         0.00000E+00        -0.49733E+08
 
   -0.49265E+08         0.10820E+07         0.00000E+00
    0.10820E+07        -0.50315E+08         0.00000E+00
    0.00000E+00         0.00000E+00        -0.49775E+08
 
   -0.49345E+08         0.10825E+07         0.00000E+00
    0.10825E+07        -0.50319E+08         0.00000E+00
    0.00000E+00         0.00000E+00        -0.49815E+08
 
   -0.49423E+08         0.10813E+07         0.00000E+00
    0.10813E+07        -0.50322E+08         0.00000E+00
    0.00000E+00         0.00000E+00        -0.49853E+08
 
   -0.49499E+08         0.10781E+07         0.00000E+00
    0.10781E+07        -0.50323E+08         0.00000E+00
    0.00000E+00         0.00000E+00        -0.49890E+08
 
   -0.49572E+08         0.10727E+07         0.00000E+00
    0.10727E+07        -0.50323E+08         0.00000E+00
    0.00000E+00         0.00000E+00        -0.49924E+08
 
   -0.49643E+08         0.10650E+07         0.00000E+00
    0.10650E+07        -0.50321E+08         0.00000E+00
    0.00000E+00         0.00000E+00        -0.49957E+08
 
   -0.49711E+08         0.10547E+07         0.00000E+00
    0.10547E+07        -0.50318E+08         0.00000E+00
    0.00000E+00         0.00000E+00        -0.49987E+08
 
   -0.49777E+08         0.10416E+07         0.00000E+00
    0.10416E+07        -0.50313E+08         0.00000E+00
    0.00000E+00         0.00000E+00        -0.50015E+08
 
   -0.49838E+08         0.10256E+07         0.00000E+00
    0.10256E+07        -0.50306E+08         0.00000E+00
    0.00000E+00         0.00000E+00        -0.50041E+08
 
   -0.49896E+08         0.10063E+07         0.00000E+00
    0.10063E+07        -0.50299E+08         0.00000E+00
    0.00000E+00         0.00000E+00        -0.50065E+08
 
   -0.49950E+08         0.98369E+06         0.00000E+00
    0.98369E+06        -0.50291E+08         0.00000E+00
    0.00000E+00         0.00000E+00        -0.50085E+08
 
   -0.49999E+08         0.95753E+06         0.00000E+00
    0.95753E+06        -0.50282E+08         0.00000E+00
    0.00000E+00         0.00000E+00        -0.50103E+08
 
   -0.50043E+08         0.92767E+06         0.00000E+00
    0.92767E+06        -0.50273E+08         0.00000E+00
    0.00000E+00         0.00000E+00        -0.50118E+08
 
   -0.50081E+08         0.89399E+06         0.00000E+00
    0.89399E+06        -0.50263E+08         0.00000E+00
    0.00000E+00         0.00000E+00        -0.50130E+08
 
   -0.50112E+08         0.85639E+06         0.00000E+00
    0.85639E+06        -0.50254E+08         0.00000E+00
    0.00000E+00         0.00000E+00        -0.50139E+08
 
   -0.50136E+08         0.81483E+06         0.00000E+00
    0.81483E+06        -0.50245E+08         0.00000E+00
    0.00000E+00         0.00000E+00        -0.50144E+08
 
   -0.45119E+08         0.51079E+05         0.00000E+00
    0.51079E+05        -0.50000E+08         0.00000E+00
    0.00000E+00         0.00000E+00        -0.47989E+08
 
   -0.45256E+08         0.13630E+06         0.00000E+00
    0.13630E+06        -0.50000E+08         0.00000E+00
    0.00000E+00         0.00000E+00        -0.48021E+08
 
   -0.45398E+08         0.21451E+06         0.00000E+00
    0.21451E+06        -0.50002E+08         0.00000E+00
    0.00000E+00         0.00000E+00        -0.48058E+08
 
   -0.45543E+08         0.28595E+06         0.00000E+00
    0.28595E+06        -0.50004E+08         0.00000E+00
    0.00000E+00         0.00000E+00        -0.48099E+08
 
   -0.45690E+08         0.35092E+06         0.00000E+00
    0.35092E+06        -0.50008E+08         0.00000E+00
    0.00000E+00         0.00000E+00        -0.48144E+08
 
   -0.45838E+08         0.40976E+06         0.00000E+00
    0.40976E+06        -0.50014E+08         0.00000E+00
    0.00000E+00         0.00000E+00        -0.48193E+08
 
   -0.45987E+08         0.46285E+06         0.00000E+00
    0.46285E+06        -0.50021E+08         0.00000E+00
    0.00000E+00         0.00000E+00        -0.48245E+08
 
   -0.46136E+08         0.51059E+06         0.00000E+00
    0.51059E+06        -0.50031E+08         0.00000E+00
    0.00000E+00         0.00000E+00        -0.48301E+08
 
   -0.46284E+08         0.55340E+06         0.00000E+00
    0.55340E+06        -0.50043E+08         0.00000E+00
    0.00000E+00         0.00000E+00        -0.48358E+08
 
   -0.46431E+08         0.59171E+06         0.00000E+00
    0.59171E+06        -0.50057E+08         0.00000E+00
    0.00000E+00         0.00000E+00        -0.48418E+08
 
   -0.46576E+08         0.62597E+06         0.00000E+00
    0.62597E+06        -0.50073E+08         0.00000E+00
    0.00000E+00         0.00000E+00        -0.48479E+08
 
   -0.46718E+08         0.65661E+06         0.00000E+00
    0.65661E+06        -0.50092E+08         0.00000E+00
    0.00000E+00         0.00000E+00        -0.48543E+08
 
   -0.46858E+08         0.68406E+06         0.00000E+00
    0.68406E+06        -0.50112E+08         0.00000E+00
    0.00000E+00         0.00000E+00        -0.48607E+08
 
   -0.46996E+08         0.70874E+06         0.00000E+00
    0.70874E+06        -0.50135E+08         0.00000E+00
    0.00000E+00         0.00000E+00        -0.48672E+08
 
   -0.47130E+08         0.73104E+06         0.00000E+00
    0.73104E+06        -0.50159E+08         0.00000E+00
    0.00000E+00         0.00000E+00        -0.48738E+08
 
   -0.47261E+08         0.75134E+06         0.00000E+00
    0.75134E+06        -0.50185E+08         0.00000E+00
    0.00000E+00         0.00000E+00        -0.48804E+08
 
   -0.47388E+08         0.76999E+06         0.00000E+00
    0.76999E+06        -0.50213E+08         0.00000E+00
    0.00000E+00         0.00000E+00        -0.48870E+08
 
   -0.47513E+08         0.78732E+06         0.00000E+00
    0.78732E+06        -0.50242E+08         0.00000E+00
    0.00000E+00         0.00000E+00        -0.48936E+08
 
   -0.47634E+08         0.80362E+06         0.00000E+00
    0.80362E+06        -0.50273E+08         0.00000E+00
    0.00000E+00         0.00000E+00        -0.49003E+08
 
   -0.47752E+08         0.81915E+06         0.00000E+00
    0.81915E+06        -0.50304E+08         0.00000E+00
    0.00000E+00         0.00000E+00        -0.49068E+08
 
   -0.47866E+08         0.83416E+06         0.00000E+00
    0.83416E+06        -0.50336E+08         0.00000E+00
    0.00000E+00         0.00000E+00        -0.49134E+08
 
   -0.47978E+08         0.84883E+06         0.00000E+00
    0.84883E+06        -0.50368E+08         0.00000E+00
    0.00000E+00         0.00000E+00        -0.49198E+08
 
   -0.48087E+08         0.86333E+06         0.00000E+00
    0.86333E+06        -0.50400E+08         0.00000E+00
    0.00000E+00         0.00000E+00        -0.49262E+08
 
   -0.48193E+08         0.87778E+06         0.00000E+00
    0.87778E+06        -0.50433E+08         0.00000E+00
    0.00000E+00         0.00000E+00        -0.49325E+08
 
   -0.48296E+08         0.89228E+06         0.00000E+00
    0.89228E+06        -0.50465E+08         0.00000E+00
    0.00000E+00         0.00000E+00        -0.49387E+08
 
   -0.48397E+08         0.90688E+06         0.00000E+00
    0.90688E+06        -0.50496E+08         0.00000E+00
    0.00000E+00         0.00000E+00        -0.49448E+08
 
   -0.48496E+08         0.92160E+06         0.00000E+00
    0.92160E+06        -0.50527E+08         0.00000E+00
    0.00000E+00         0.00000E+00        -0.49508E+08
 
   -0.48593E+08         0.93643E+06         0.00000E+00
    0.93643E+06        -0.50556E+08         0.00000E+00
    0.00000E+00         0.00000E+00        -0.49566E+08
 
   -0.48689E+08         0.95131E+06         0.00000E+00
    0.95131E+06        -0.50584E+08         0.00000E+00
    0.00000E+00         0.00000E+00        -0.49623E+08
 
   -0.48782E+08         0.96618E+06         0.00000E+00
    0.96618E+06        -0.50610E+08         0.00000E+00
    0.00000E+00         0.00000E+00        -0.49679E+08
 
   -0.48875E+08         0.98090E+06         0.00000E+00
    0.98090E+06        -0.50635E+08         0.00000E+00
    0.00000E+00         0.00000E+00        -0.49733E+08
 
   -0.48966E+08         0.99533E+06         0.00000E+00
    0.99533E+06        -0.50657E+08         0.00000E+00
    0.00000E+00         0.00000E+00        -0.49786E+08
 
   -0.49056E+08         0.10093E+07         0.00000E+00
    0.10093E+07        -0.50677E+08         0.00000E+00
    0.00000E+00         0.00000E+00        -0.49838E+08
 
   -0.49145E+08         0.10226E+07         0.00000E+00
    0.10226E+07        -0.50695E+08         0.00000E+00
    0.00000E+00         0.00000E+00        -0.49887E+08
 
   -0.49234E+08         0.10349E+07         0.00000E+00
    0.10349E+07        -0.50711E+08         0.00000E+00
    0.00000E+00         0.00000E+00        -0.49935E+08
 
   -0.49321E+08         0.10461E+07         0.00000E+00
    0.10461E+07        -0.50723E+08         0.00000E+00
    0.00000E+00         0.00000E+00        -0.49982E+08
 
   -0.49408E+08         0.10558E+07         0.00000E+00
    0.10558E+07        -0.50733E+08         0.00000E+00
    0.00000E+00         0.00000E+00        -0.50026E+08
 
   -0.49494E+08         0.10636E+07         0.00000E+00
    0.10636E+07        -0.50740E+08         0.00000E+00
    0.00000E+00         0.00000E+00        -0.50068E+08
 
   -0.49579E+08         0.10694E+07         0.00000E+00
    0.10694E+07        -0.50744E+08         0.00000E+00
    0.00000E+00         0.00000E+00        -0.50109E+08
 
   -0.49663E+08         0.10726E+07         0.00000E+00
    0.10726E+07        -0.50745E+08         0.00000E+00
    0.00000E+00         0.00000E+00        -0.50147E+08
 
   -0.49745E+08         0.10729E+07         0.00000E+00
    0.10729E+07        -0.50743E+08         0.00000E+00
    0.00000E+00         0.00000E+00        -0.50183E+08
 
   -0.49826E+08         0.10700E+07         0.00000E+00
    0.10700E+07        -0.50738E+08         0.00000E+00
    0.00000E+00         0.00000E+00        -0.50217E+08
 
   -0.49906E+08         0.10634E+07         0.00000E+00
    0.10634E+07        -0.50731E+08         0.00000E+00
    0.00000E+00         0.00000E+00        -0.50248E+08
 
   -0.49983E+08         0.10527E+07         0.00000E+00
    0.10527E+07        -0.50721E+08         0.00000E+00
    0.00000E+00         0.00000E+00        -0.50277E+08
 
   -0.50057E+08         0.10375E+07         0.00000E+00
    0.10375E+07        -0.50708E+08         0.00000E+00
    0.00000E+00         0.00000E+00        -0.50302E+08
 
   -0.50128E+08         0.10175E+07         0.00000E+00
    0.10175E+07        -0.50694E+08         0.00000E+00
    0.00000E+00         0.00000E+00        -0.50325E+08
 
   -0.50194E+08         0.99215E+06         0.00000E+00
    0.99215E+06        -0.50677E+08         0.00000E+00
    0.00000E+00         0.00000E+00        -0.50344E+08
 
   -0.50256E+08         0.96119E+06         0.00000E+00
    0.96119E+06        -0.50659E+08         0.00000E+00
    0.00000E+00         0.00000E+00        -0.50361E+08
 
   -0.50312E+08         0.92423E+06         0.00000E+00
    0.92423E+06        -0.50640E+08         0.00000E+00
    0.00000E+00         0.00000E+00        -0.50373E+08
 
   -0.50362E+08         0.88098E+06         0.00000E+00
    0.88098E+06        -0.50621E+08         0.00000E+00
    0.00000E+00         0.00000E+00        -0.50382E+08
 
   -0.44688E+08         0.50059E+05         0.00000E+00
    0.50059E+05        -0.50000E+08         0.00000E+00
    0.00000E+00         0.00000E+00        -0.47888E+08
 
   -0.44865E+08         0.12824E+06         0.00000E+00
    0.12824E+06        -0.50001E+08         0.00000E+00
    0.00000E+00         0.00000E+00        -0.47928E+08
 
   -0.45046E+08         0.19755E+06         0.00000E+00
    0.19755E+06        -0.50005E+08         0.00000E+00
    0.00000E+00         0.00000E+00        -0.47975E+08
 
   -0.45227E+08         0.25850E+06         0.00000E+00
    0.25850E+06        -0.50011E+08         0.00000E+00
    0.00000E+00         0.00000E+00        -0.48026E+08
 
   -0.45408E+08         0.31167E+06         0.00000E+00
    0.31167E+06        -0.50021E+08         0.00000E+00
    0.00000E+00         0.00000E+00        -0.48082E+08
 
   -0.45589E+08         0.35766E+06         0.00000E+00
    0.35766E+06        -0.50034E+08         0.00000E+00
    0.00000E+00         0.00000E+00        -0.48142E+08
 
   -0.45767E+08         0.39714E+06         0.00000E+00
    0.39714E+06        -0.50050E+08         0.00000E+00
    0.00000E+00         0.00000E+00        -0.48205E+08
 
   -0.45943E+08         0.43079E+06         0.00000E+00
    0.43079E+06        -0.50070E+08         0.00000E+00
    0.00000E+00         0.00000E+00        -0.48270E+08
 
   -0.46115E+08         0.45930E+06         0.00000E+00
    0.45930E+06        -0.50093E+08         0.00000E+00
    0.00000E+00         0.00000E+00        -0.48339E+08
 
   -0.46282E+08         0.48335E+06         0.00000E+00
    0.48335E+06        -0.50121E+08         0.00000E+00
    0.00000E+00         0.00000E+00        -0.48409E+08
 
   -0.46446E+08         0.50361E+06         0.00000E+00
    0.50361E+06        -0.50151E+08         0.00000E+00
    0.00000E+00         0.00000E+00        -0.48481E+08
 
   -0.46604E+08         0.52073E+06         0.00000E+00
    0.52073E+06        -0.50185E+08         0.00000E+00
    0.00000E+00         0.00000E+00        -0.48554E+08
 
   -0.46757E+08         0.53534E+06         0.00000E+00
    0.53534E+06        -0.50223E+08         0.00000E+00
    0.00000E+00         0.00000E+00        -0.48628E+08
 
   -0.46905E+08         0.54803E+06         0.00000E+00
    0.54803E+06        -0.50263E+08         0.00000E+00
    0.00000E+00         0.00000E+00        -0.48703E+08
 
   -0.47048E+08         0.55934E+06         0.00000E+00
    0.55934E+06        -0.50306E+08         0.00000E+00
    0.00000E+00         0.00000E+00        -0.48778E+08
 
   -0.47185E+08         0.56980E+06         0.00000E+00
    0.56980E+06        -0.50352E+08         0.00000E+00
    0.00000E+00         0.00000E+00        -0.48853E+08
 
   -0.47317E+08         0.57985E+06         0.00000E+00
    0.57985E+06        -0.50399E+08         0.00000E+00
    0.00000E+00         0.00000E+00        -0.48928E+08
 
   -0.47444E+08         0.58993E+06         0.00000E+00
    0.58993E+06        -0.50449E+08         0.00000E+00
    0.00000E+00         0.00000E+00        -0.49002E+08
 
   -0.47566E+08         0.60040E+06         0.00000E+00
    0.60040E+06        -0.50500E+08         0.00000E+00
    0.00000E+00         0.00000E+00        -0.49076E+08
 
   -0.47684E+08         0.61159E+06         0.00000E+00
    0.61159E+06        -0.50552E+08         0.00000E+00
    0.00000E+00         0.00000E+00        -0.49150E+08
 
   -0.47797E+08         0.62378E+06         0.00000E+00
    0.62378E+06        -0.50604E+08         0.00000E+00
    0.00000E+00         0.00000E+00        -0.49222E+08
 
   -0.47906E+08         0.63718E+06         0.00000E+00
    0.63718E+06        -0.50658E+08         0.00000E+00
    0.00000E+00         0.00000E+00        -0.49293E+08
 
   -0.48011E+08         0.65197E+06         0.00000E+00
    0.65197E+06        -0.50711E+08         0.00000E+00
    0.00000E+00         0.00000E+00        -0.49364E+08
 
   -0.48114E+08         0.66829E+06         0.00000E+00
    0.66829E+06        -0.50763E+08         0.00000E+00
    0.00000E+00         0.00000E+00        -0.49433E+08
 
   -0.48213E+08         0.68622E+06         0.00000E+00
    0.68622E+06        -0.50816E+08         0.00000E+00
    0.00000E+00         0.00000E+00        -0.49501E+08
 
   -0.48310E+08         0.70580E+06         0.00000E+00
    0.70580E+06        -0.50867E+08         0.00000E+00
    0.00000E+00         0.00000E+00        -0.49568E+08
 
   -0.48405E+08         0.72700E+06         0.00000E+00
    0.72700E+06        -0.50916E+08         0.00000E+00
    0.00000E+00         0.00000E+00        -0.49633E+08
 
   -0.48498E+08         0.74980E+06         0.00000E+00
    0.74980E+06        -0.50964E+08         0.00000E+00
    0.00000E+00         0.00000E+00        -0.49697E+08
 
   -0.48590E+08         0.77407E+06         0.00000E+00
    0.77407E+06        -0.51009E+08         0.00000E+00
    0.00000E+00         0.00000E+00        -0.49759E+08
 
   -0.48681E+08         0.79968E+06         0.00000E+00
    0.79968E+06        -0.51052E+08         0.00000E+00
    0.00000E+00         0.00000E+00        -0.49820E+08
 
   -0.48771E+08         0.82646E+06         0.00000E+00
    0.82646E+06        -0.51093E+08         0.00000E+00
    0.00000E+00         0.00000E+00        -0.49880E+08
 
   -0.48861E+08         0.85416E+06         0.00000E+00
    0.85416E+06        -0.51130E+08         0.00000E+00
    0.00000E+00         0.00000E+00        -0.49937E+08
 
   -0.48952E+08         0.88252E+06         0.00000E+00
    0.88252E+06        -0.51164E+08         0.00000E+00
    0.00000E+00         0.00000E+00        -0.49994E+08
 
   -0.49043E+08         0.91122E+06         0.00000E+00
    0.91122E+06        -0.51194E+08         0.00000E+00
    0.00000E+00         0.00000E+00        -0.50048E+08
 
   -0.49134E+08         0.93993E+06         0.00000E+00
    0.93993E+06        -0.51221E+08         0.00000E+00
    0.00000E+00         0.00000E+00        -0.50101E+08
 
   -0.49227E+08         0.96825E+06         0.00000E+00
    0.96825E+06        -0.51243E+08         0.00000E+00
    0.00000E+00         0.00000E+00        -0.50152E+08
 
   -0.49321E+08         0.99574E+06         0.00000E+00
    0.99574E+06        -0.51261E+08         0.00000E+00
    0.00000E+00         0.00000E+00        -0.50202E+08
 
   -0.49415E+08         0.10219E+07         0.00000E+00
    0.10219E+07        -0.51275E+08         0.00000E+00
    0.00000E+00         0.00000E+00        -0.50249E+08
 
   -0.49511E+08         0.10463E+07         0.00000E+00
    0.10463E+07        -0.51284E+08         0.00000E+00
    0.00000E+00         0.00000E+00        -0.50294E+08
 
   -0.49609E+08         0.10684E+07         0.00000E+00
    0.10684E+07        -0.51288E+08         0.00000E+00
    0.00000E+00         0.00000E+00        -0.50338E+08
 
   -0.49707E+08         0.10875E+07         0.00000E+00
    0.10875E+07        -0.51288E+08         0.00000E+00
    0.00000E+00         0.00000E+00        -0.50379E+08
 
   -0.49807E+08         0.11031E+07         0.00000E+00
    0.11031E+07        -0.51283E+08         0.00000E+00
    0.00000E+00         0.00000E+00        -0.50418E+08
 
   -0.49907E+08         0.11145E+07         0.00000E+00
    0.11145E+07        -0.51273E+08         0.00000E+00
    0.00000E+00         0.00000E+00        -0.50454E+08
 
   -0.50008E+08         0.11211E+07         0.00000E+00
    0.11211E+07        -0.51258E+08         0.00000E+00
    0.00000E+00         0.00000E+00        -0.50488E+08
 
   -0.50108E+08         0.11222E+07         0.00000E+00
    0.11222E+07        -0.51240E+08         0.00000E+00
    0.00000E+00         0.00000E+00        -0.50519E+08
 
   -0.50208E+08         0.11170E+07         0.00000E+00
    0.11170E+07        -0.51216E+08         0.00000E+00
    0.00000E+00         0.00000E+00        -0.50547E+08
 
   -0.50307E+08         0.11048E+07         0.00000E+00
    0.11048E+07        -0.51189E+08         0.00000E+00
    0.00000E+00         0.00000E+00        -0.50572E+08
 
   -0.50404E+08         0.10850E+07         0.00000E+00
    0.10850E+07        -0.51159E+08         0.00000E+00
    0.00000E+00         0.00000E+00        -0.50593E+08
 
   -0.50497E+08         0.10567E+07         0.00000E+00
    0.10567E+07        -0.51125E+08         0.00000E+00
    0.00000E+00         0.00000E+00        -0.50610E+08
 
   -0.50586E+08         0.10194E+07         0.00000E+00
    0.10194E+07        -0.51088E+08         0.00000E+00
    0.00000E+00         0.00000E+00        -0.50624E+08
 
   -0.44305E+08         0.46010E+05         0.00000E+00
    0.46010E+05        -0.49999E+08         0.00000E+00
    0.00000E+00         0.00000E+00        -0.47821E+08
 
   -0.44534E+08         0.10896E+06         0.00000E+00
    0.10896E+06        -0.50002E+08         0.00000E+00
    0.00000E+00         0.00000E+00        -0.47873E+08
 
   -0.44763E+08         0.16061E+06         0.00000E+00
    0.16061E+06        -0.50009E+08         0.00000E+00
    0.00000E+00         0.00000E+00        -0.47931E+08
 
   -0.44989E+08         0.20197E+06         0.00000E+00
    0.20197E+06        -0.50022E+08         0.00000E+00
    0.00000E+00         0.00000E+00        -0.47994E+08
 
   -0.45211E+08         0.23410E+06         0.00000E+00
    0.23410E+06        -0.50039E+08         0.00000E+00
    0.00000E+00         0.00000E+00        -0.48062E+08
 
   -0.45427E+08         0.25810E+06         0.00000E+00
    0.25810E+06        -0.50062E+08         0.00000E+00
    0.00000E+00         0.00000E+00        -0.48133E+08
 
   -0.45637E+08         0.27508E+06         0.00000E+00
    0.27508E+06        -0.50091E+08         0.00000E+00
    0.00000E+00         0.00000E+00        -0.48207E+08
 
   -0.45840E+08         0.28614E+06         0.00000E+00
    0.28614E+06        -0.50125E+08         0.00000E+00
    0.00000E+00         0.00000E+00        -0.48284E+08
 
   -0.46035E+08         0.29234E+06         0.00000E+00
    0.29234E+06        -0.50165E+08         0.00000E+00
    0.00000E+00         0.00000E+00        -0.48363E+08
 
   -0.46222E+08         0.29472E+06         0.00000E+00
    0.29472E+06        -0.50210E+08         0.00000E+00
    0.00000E+00         0.00000E+00        -0.48443E+08
 
   -0.46400E+08         0.29424E+06         0.00000E+00
    0.29424E+06        -0.50260E+08         0.00000E+00
    0.00000E+00         0.00000E+00        -0.48524E+08
 
   -0.46569E+08         0.29182E+06         0.00000E+00
    0.29182E+06        -0.50314E+08         0.00000E+00
    0.00000E+00         0.00000E+00        -0.48606E+08
 
   -0.46730E+08         0.28831E+06         0.00000E+00
    0.28831E+06        -0.50373E+08         0.00000E+00
    0.00000E+00         0.00000E+00        -0.48688E+08
 
   -0.46882E+08         0.28449E+06         0.00000E+00
    0.28449E+06        -0.50436E+08         0.00000E+00
    0.00000E+00         0.00000E+00        -0.48771E+08
 
   -0.47026E+08         0.28107E+06         0.00000E+00
    0.28107E+06        -0.50503E+08         0.00000E+00
    0.00000E+00         0.00000E+00        -0.48853E+08
 
   -0.47162E+08         0.27867E+06         0.00000E+00
    0.27867E+06        -0.50572E+08         0.00000E+00
    0.00000E+00         0.00000E+00        -0.48934E+08
 
   -0.47290E+08         0.27787E+06         0.00000E+00
    0.27787E+06        -0.50644E+08         0.00000E+00
    0.00000E+00         0.00000E+00        -0.49015E+08
 
   -0.47411E+08         0.27915E+06         0.00000E+00
    0.27915E+06        -0.50719E+08         0.00000E+00
    0.00000E+00         0.00000E+00        -0.49095E+08
 
   -0.47525E+08         0.28292E+06         0.00000E+00
    0.28292E+06        -0.50794E+08         0.00000E+00
    0.00000E+00         0.00000E+00        -0.49173E+08
 
   -0.47633E+08         0.28955E+06         0.00000E+00
    0.28955E+06        -0.50871E+08         0.00000E+00
    0.00000E+00         0.00000E+00        -0.49251E+08
 
   -0.47736E+08         0.29932E+06         0.00000E+00
    0.29932E+06        -0.50948E+08         0.00000E+00
    0.00000E+00         0.00000E+00        -0.49327E+08
 
   -0.47833E+08         0.31245E+06         0.00000E+00
    0.31245E+06        -0.51026E+08         0.00000E+00
    0.00000E+00         0.00000E+00        -0.49402E+08
 
   -0.47926E+08         0.32911E+06         0.00000E+00
    0.32911E+06        -0.51103E+08         0.00000E+00
    0.00000E+00         0.00000E+00        -0.49476E+08
 
   -0.48016E+08         0.34940E+06         0.00000E+00
    0.34940E+06        -0.51179E+08         0.00000E+00
    0.00000E+00         0.00000E+00        -0.49548E+08
 
   -0.48102E+08         0.37337E+06         0.00000E+00
    0.37337E+06        -0.51254E+08         0.00000E+00
    0.00000E+00         0.00000E+00        -0.49618E+08
 
   -0.48186E+08         0.40101E+06         0.00000E+00
    0.40101E+06        -0.51327E+08         0.00000E+00
    0.00000E+00         0.00000E+00        -0.49687E+08
 
   -0.48268E+08         0.43228E+06         0.00000E+00
    0.43228E+06        -0.51398E+08         0.00000E+00
    0.00000E+00         0.00000E+00        -0.49755E+08
 
   -0.48349E+08         0.46706E+06         0.00000E+00
    0.46706E+06        -0.51467E+08         0.00000E+00
    0.00000E+00         0.00000E+00        -0.49821E+08
 
   -0.48429E+08         0.50520E+06         0.00000E+00
    0.50520E+06        -0.51532E+08         0.00000E+00
    0.00000E+00         0.00000E+00        -0.49885E+08
 
   -0.48509E+08         0.54650E+06         0.00000E+00
    0.54650E+06        -0.51594E+08         0.00000E+00
    0.00000E+00         0.00000E+00        -0.49948E+08
 
   -0.48591E+08         0.59069E+06         0.00000E+00
    0.59069E+06        -0.51651E+08         0.00000E+00
    0.00000E+00         0.00000E+00        -0.50009E+08
 
   -0.48673E+08         0.63749E+06         0.00000E+00
    0.63749E+06        -0.51705E+08         0.00000E+00
    0.00000E+00         0.00000E+00        -0.50068E+08
 
   -0.48757E+08         0.68653E+06         0.00000E+00
    0.68653E+06        -0.51754E+08         0.00000E+00
    0.00000E+00         0.00000E+00        -0.50126E+08
 
   -0.48844E+08         0.73742E+06         0.00000E+00
    0.73742E+06        -0.51798E+08         0.00000E+00
    0.00000E+00         0.00000E+00        -0.50183E+08
 
   -0.48933E+08         0.78970E+06         0.00000E+00
    0.78970E+06        -0.51837E+08         0.00000E+00
    0.00000E+00         0.00000E+00        -0.50238E+08
 
   -0.49026E+08         0.84288E+06         0.00000E+00
    0.84288E+06        -0.51870E+08         0.00000E+00
    0.00000E+00         0.00000E+00        -0.50291E+08
 
   -0.49122E+08         0.89639E+06         0.00000E+00
    0.89639E+06        -0.51897E+08         0.00000E+00
    0.00000E+00         0.00000E+00        -0.50343E+08
 
   -0.49223E+08         0.94962E+06         0.00000E+00
    0.94962E+06        -0.51917E+08         0.00000E+00
    0.00000E+00         0.00000E+00        -0.50393E+08
 
   -0.49327E+08         0.10019E+07         0.00000E+00
    0.10019E+07        -0.51932E+08         0.00000E+00
    0.00000E+00         0.00000E+00        -0.50441E+08
 
   -0.49437E+08         0.10525E+07         0.00000E+00
    0.10525E+07        -0.51939E+08         0.00000E+00
    0.00000E+00         0.00000E+00        -0.50488E+08
 
   -0.49551E+08         0.11007E+07         0.00000E+00
    0.11007E+07        -0.51940E+08         0.00000E+00
    0.00000E+00         0.00000E+00        -0.50532E+08
 
   -0.49669E+08         0.11455E+07         0.00000E+00
    0.11455E+07        -0.51934E+08         0.00000E+00
    0.00000E+00         0.00000E+00        -0.50575E+08
 
   -0.49793E+08         0.11862E+07         0.00000E+00
    0.11862E+07        -0.51921E+08         0.00000E+00
    0.00000E+00         0.00000E+00        -0.50615E+08
 
   -0.49921E+08         0.12217E+07         0.00000E+00
    0.12217E+07        -0.51900E+08         0.00000E+00
    0.00000E+00         0.00000E+00        -0.50654E+08
 
   -0.50053E+08         0.12510E+07         0.00000E+00
    0.12510E+07        -0.51872E+08         0.00000E+00
    0.00000E+00         0.00000E+00        -0.50689E+08
 
   -0.50189E+08         0.12730E+07         0.00000E+00
    0.12730E+07        -0.51838E+08         0.00000E+00
    0.00000E+00         0.00000E+00        -0.50722E+08
 
   -0.50329E+08         0.12867E+07         0.00000E+00
    0.12867E+07        -0.51796E+08         0.00000E+00
    0.00000E+00         0.00000E+00        -0.50752E+08
 
   -0.50471E+08         0.12907E+07         0.00000E+00
    0.12907E+07        -0.51748E+08         0.00000E+00
    0.00000E+00         0.00000E+00        -0.50779E+08
 
   -0.50615E+08         0.12840E+07         0.00000E+00
    0.12840E+07        -0.51693E+08         0.00000E+00
    0.00000E+00         0.00000E+00        -0.50803E+08
 
   -0.50760E+08         0.12652E+07         0.00000E+00
    0.12652E+07        -0.51633E+08         0.00000E+00
    0.00000E+00         0.00000E+00        -0.50823E+08
 
   -0.44018E+08         0.37050E+05         0.00000E+00
    0.37050E+05        -0.49997E+08         0.00000E+00
    0.00000E+00         0.00000E+00        -0.47792E+08
 
   -0.44315E+08         0.72442E+05         0.00000E+00
    0.72442E+05        -0.50003E+08         0.00000E+00
    0.00000E+00         0.00000E+00        -0.47859E+08
 
   -0.44603E+08         0.93681E+05         0.00000E+00
    0.93681E+05        -0.50016E+08         0.00000E+00
    0.00000E+00         0.00000E+00        -0.47931E+08
 
   -0.44882E+08         0.10268E+06         0.00000E+00
    0.10268E+06        -0.50037E+08         0.00000E+00
    0.00000E+00         0.00000E+00        -0.48007E+08
 
   -0.45149E+08         0.10131E+06         0.00000E+00
    0.10131E+06        -0.50067E+08         0.00000E+00
    0.00000E+00         0.00000E+00        -0.48086E+08
 
   -0.45404E+08         0.91436E+05         0.00000E+00
    0.91436E+05        -0.50104E+08         0.00000E+00
    0.00000E+00         0.00000E+00        -0.48169E+08
 
   -0.45645E+08         0.74813E+05         0.00000E+00
    0.74813E+05        -0.50150E+08         0.00000E+00
    0.00000E+00         0.00000E+00        -0.48253E+08
 
   -0.45873E+08         0.53114E+05         0.00000E+00
    0.53114E+05        -0.50204E+08         0.00000E+00
    0.00000E+00         0.00000E+00        -0.48339E+08
 
   -0.46086E+08         0.27894E+05         0.00000E+00
    0.27894E+05        -0.50265E+08         0.00000E+00
    0.00000E+00         0.00000E+00        -0.48426E+08
 
   -0.46285E+08         0.58648E+03         0.00000E+00
    0.58648E+03        -0.50333E+08         0.00000E+00
    0.00000E+00         0.00000E+00        -0.48514E+08
 
   -0.46470E+08        -0.27501E+05         0.00000E+00
   -0.27501E+05        -0.50407E+08         0.00000E+00
    0.00000E+00         0.00000E+00        -0.48601E+08
 
   -0.46641E+08        -0.55191E+05         0.00000E+00
   -0.55191E+05        -0.50488E+08         0.00000E+00
    0.00000E+00         0.00000E+00        -0.48688E+08
 
   -0.46799E+08        -0.81435E+05         0.00000E+00
   -0.81435E+05        -0.50573E+08         0.00000E+00
    0.00000E+00         0.00000E+00        -0.48774E+08
 
   -0.46945E+08        -0.10531E+06         0.00000E+00
   -0.10531E+06        -0.50663E+08         0.00000E+00
    0.00000E+00         0.00000E+00        -0.48860E+08
 
   -0.47078E+08        -0.12600E+06         0.00000E+00
   -0.12600E+06        -0.50757E+08         0.00000E+00
    0.00000E+00         0.00000E+00        -0.48944E+08
 
   -0.47201E+08        -0.14284E+06         0.00000E+00
   -0.14284E+06        -0.50854E+08         0.00000E+00
    0.00000E+00         0.00000E+00        -0.49027E+08
 
   -0.47313E+08        -0.15522E+06         0.00000E+00
   -0.15522E+06        -0.50954E+08         0.00000E+00
    0.00000E+00         0.00000E+00        -0.49108E+08
 
   -0.47416E+08        -0.16266E+06         0.00000E+00
   -0.16266E+06        -0.51055E+08         0.00000E+00
    0.00000E+00         0.00000E+00        -0.49188E+08
 
   -0.47510E+08        -0.16478E+06         0.00000E+00
   -0.16478E+06        -0.51158E+08         0.00000E+00
    0.00000E+00         0.00000E+00        -0.49266E+08
 
   -0.47596E+08        -0.16127E+06         0.00000E+00
   -0.16127E+06        -0.51261E+08         0.00000E+00
    0.00000E+00         0.00000E+00        -0.49343E+08
 
   -0.47676E+08        -0.15188E+06         0.00000E+00
   -0.15188E+06        -0.51365E+08         0.00000E+00
    0.00000E+00         0.00000E+00        -0.49417E+08
 
   -0.47750E+08        -0.13648E+06         0.00000E+00
   -0.13648E+06        -0.51467E+08         0.00000E+00
    0.00000E+00         0.00000E+00        -0.49490E+08
 
   -0.47819E+08        -0.11495E+06         0.00000E+00
   -0.11495E+06        -0.51569E+08         0.00000E+00
    0.00000E+00         0.00000E+00        -0.49561E+08
 
   -0.47884E+08        -0.87278E+05         0.00000E+00
   -0.87278E+05        -0.51669E+08         0.00000E+00
    0.00000E+00         0.00000E+00        -0.49630E+08
 
   -0.47946E+08        -0.53469E+05         0.00000E+00
   -0.53469E+05        -0.51767E+08         0.00000E+00
    0.00000E+00         0.00000E+00        -0.49698E+08
 
   -0.48006E+08        -0.13600E+05         0.00000E+00
   -0.13600E+05        -0.51862E+08         0.00000E+00
    0.00000E+00         0.00000E+00        -0.49763E+08
 
   -0.48064E+08         0.32207E+05         0.00000E+00
    0.32207E+05        -0.51954E+08         0.00000E+00
    0.00000E+00         0.00000E+00        -0.49827E+08
 
   -0.48123E+08         0.83785E+05         0.00000E+00
    0.83785E+05        -0.52042E+08         0.00000E+00
    0.00000E+00         0.00000E+00        -0.49890E+08
 
   -0.48181E+08         0.14092E+06         0.00000E+00
    0.14092E+06        -0.52126E+08         0.00000E+00
    0.00000E+00         0.00000E+00        -0.49951E+08
 
   -0.48241E+08         0.20336E+06         0.00000E+00
    0.20336E+06        -0.52206E+08         0.00000E+00
    0.00000E+00         0.00000E+00        -0.50010E+08
 
   -0.48304E+08         0.27079E+06         0.00000E+00
    0.27079E+06        -0.52280E+08         0.00000E+00
    0.00000E+00         0.00000E+00        -0.50068E+08
 
   -0.48369E+08         0.34287E+06         0.00000E+00
    0.34287E+06        -0.52350E+08         0.00000E+00
    0.00000E+00         0.00000E+00        -0.50124E+08
 
   -0.48439E+08         0.41919E+06         0.00000E+00
    0.41919E+06        -0.52413E+08         0.00000E+00
    0.00000E+00         0.00000E+00        -0.50179E+08
 
   -0.48512E+08         0.49931E+06         0.00000E+00
    0.49931E+06        -0.52470E+08         0.00000E+00
    0.00000E+00         0.00000E+00        -0.50233E+08
 
   -0.48592E+08         0.58271E+06         0.00000E+00
    0.58271E+06        -0.52520E+08         0.00000E+00
    0.00000E+00         0.00000E+00        -0.50285E+08
 
   -0.48677E+08         0.66884E+06         0.00000E+00
    0.66884E+06        -0.52564E+08         0.00000E+00
    0.00000E+00         0.00000E+00        -0.50336E+08
 
   -0.48769E+08         0.75705E+06         0.00000E+00
    0.75705E+06        -0.52599E+08         0.00000E+00
    0.00000E+00         0.00000E+00        -0.50386E+08
 
   -0.48869E+08         0.84666E+06         0.00000E+00
    0.84666E+06        -0.52627E+08         0.00000E+00
    0.00000E+00         0.00000E+00        -0.50435E+08
 
   -0.48977E+08         0.93688E+06         0.00000E+00
    0.93688E+06        -0.52646E+08         0.00000E+00
    0.00000E+00         0.00000E+00        -0.50482E+08
 
   -0.49093E+08         0.10269E+07         0.00000E+00
    0.10269E+07        -0.52657E+08         0.00000E+00
    0.00000E+00         0.00000E+00        -0.50528E+08
 
   -0.49219E+08         0.11157E+07         0.00000E+00
    0.11157E+07        -0.52658E+08         0.00000E+00
    0.00000E+00         0.00000E+00        -0.50573E+08
 
   -0.49354E+08         0.12022E+07         0.00000E+00
    0.12022E+07        -0.52650E+08         0.00000E+00
    0.00000E+00         0.00000E+00        -0.50616E+08
 
   -0.49500E+08         0.12855E+07         0.00000E+00
    0.12855E+07        -0.52632E+08         0.00000E+00
    0.00000E+00         0.00000E+00        -0.50658E+08
 
   -0.49655E+08         0.13641E+07         0.00000E+00
    0.13641E+07        -0.52604E+08         0.00000E+00
    0.00000E+00         0.00000E+00        -0.50699E+08
 
   -0.49821E+08         0.14369E+07         0.00000E+00
    0.14369E+07        -0.52566E+08         0.00000E+00
    0.00000E+00         0.00000E+00        -0.50738E+08
 
   -0.49998E+08         0.15022E+07         0.00000E+00
    0.15022E+07        -0.52517E+08         0.00000E+00
    0.00000E+00         0.00000E+00        -0.50775E+08
 
   -0.50185E+08         0.15586E+07         0.00000E+00
    0.15586E+07        -0.52457E+08         0.00000E+00
    0.00000E+00         0.00000E+00        -0.50809E+08
 
   -0.50382E+08         0.16042E+07         0.00000E+00
    0.16042E+07        -0.52387E+08         0.00000E+00
    0.00000E+00         0.00000E+00        -0.50842E+08
 
   -0.50588E+08         0.16374E+07         0.00000E+00
    0.16374E+07        -0.52307E+08         0.00000E+00
    0.00000E+00         0.00000E+00        -0.50873E+08
 
   -0.50804E+08         0.16562E+07         0.00000E+00
    0.16562E+07        -0.52217E+08         0.00000E+00
    0.00000E+00         0.00000E+00        -0.50900E+08
 
   -0.43903E+08         0.19218E+05         0.00000E+00
    0.19218E+05        -0.49994E+08         0.00000E+00
    0.00000E+00         0.00000E+00        -0.47786E+08
 
   -0.44282E+08         0.82959E+04         0.00000E+00
    0.82959E+04        -0.50005E+08         0.00000E+00
    0.00000E+00         0.00000E+00        -0.47869E+08
 
   -0.44641E+08        -0.19106E+05         0.00000E+00
   -0.19106E+05        -0.50027E+08         0.00000E+00
    0.00000E+00         0.00000E+00        -0.47956E+08
 
   -0.44978E+08        -0.59692E+05         0.00000E+00
   -0.59692E+05        -0.50062E+08         0.00000E+00
    0.00000E+00         0.00000E+00        -0.48045E+08
 
   -0.45291E+08        -0.11036E+06         0.00000E+00
   -0.11036E+06        -0.50108E+08         0.00000E+00
    0.00000E+00         0.00000E+00        -0.48136E+08
 
   -0.45580E+08        -0.16825E+06         0.00000E+00
   -0.16825E+06        -0.50166E+08         0.00000E+00
    0.00000E+00         0.00000E+00        -0.48227E+08
 
   -0.45846E+08        -0.23081E+06         0.00000E+00
   -0.23081E+06        -0.50235E+08         0.00000E+00
    0.00000E+00         0.00000E+00        -0.48318E+08
 
   -0.46088E+08        -0.29572E+06         0.00000E+00
   -0.29572E+06        -0.50313E+08         0.00000E+00
    0.00000E+00         0.00000E+00        -0.48408E+08
 
   -0.46308E+08        -0.36093E+06         0.00000E+00
   -0.36093E+06        -0.50401E+08         0.00000E+00
    0.00000E+00         0.00000E+00        -0.48498E+08
 
   -0.46505E+08        -0.42464E+06         0.00000E+00
   -0.42464E+06        -0.50497E+08         0.00000E+00
    0.00000E+00         0.00000E+00        -0.48586E+08
 
   -0.46682E+08        -0.48532E+06         0.00000E+00
   -0.48532E+06        -0.50601E+08         0.00000E+00
    0.00000E+00         0.00000E+00        -0.48673E+08
 
   -0.46839E+08        -0.54163E+06         0.00000E+00
   -0.54163E+06        -0.50710E+08         0.00000E+00
    0.00000E+00         0.00000E+00        -0.48758E+08
 
   -0.46979E+08        -0.59249E+06         0.00000E+00
   -0.59249E+06        -0.50825E+08         0.00000E+00
    0.00000E+00         0.00000E+00        -0.48841E+08
 
   -0.47101E+08        -0.63696E+06         0.00000E+00
   -0.63696E+06        -0.50944E+08         0.00000E+00
    0.00000E+00         0.00000E+00        -0.48922E+08
 
   -0.47207E+08        -0.67431E+06         0.00000E+00
   -0.67431E+06        -0.51067E+08         0.00000E+00
    0.00000E+00         0.00000E+00        -0.49000E+08
 
   -0.47300E+08        -0.70396E+06         0.00000E+00
   -0.70396E+06        -0.51192E+08         0.00000E+00
    0.00000E+00         0.00000E+00        -0.49077E+08
 
   -0.47380E+08        -0.72545E+06         0.00000E+00
   -0.72545E+06        -0.51318E+08         0.00000E+00
    0.00000E+00         0.00000E+00        -0.49151E+08
 
   -0.47449E+08        -0.73845E+06         0.00000E+00
   -0.73845E+06        -0.51446E+08         0.00000E+00
    0.00000E+00         0.00000E+00        -0.49222E+08
 
   -0.47507E+08        -0.74275E+06         0.00000E+00
   -0.74275E+06        -0.51573E+08         0.00000E+00
    0.00000E+00         0.00000E+00        -0.49291E+08
 
   -0.47557E+08        -0.73819E+06         0.00000E+00
   -0.73819E+06        -0.51700E+08         0.00000E+00
    0.00000E+00         0.00000E+00        -0.49358E+08
 
   -0.47600E+08        -0.72472E+06         0.00000E+00
   -0.72472E+06        -0.51826E+08         0.00000E+00
    0.00000E+00         0.00000E+00        -0.49423E+08
 
   -0.47637E+08        -0.70234E+06         0.00000E+00
   -0.70234E+06        -0.51950E+08         0.00000E+00
    0.00000E+00         0.00000E+00        -0.49486E+08
 
   -0.47669E+08        -0.67110E+06         0.00000E+00
   -0.67110E+06        -0.52072E+08         0.00000E+00
    0.00000E+00         0.00000E+00        -0.49546E+08
 
   -0.47697E+08        -0.63110E+06         0.00000E+00
   -0.63110E+06        -0.52191E+08         0.00000E+00
    0.00000E+00         0.00000E+00        -0.49605E+08
 
   -0.47722E+08        -0.58247E+06         0.00000E+00
   -0.58247E+06        -0.52307E+08         0.00000E+00
    0.00000E+00         0.00000E+00        -0.49661E+08
 
   -0.47746E+08        -0.52540E+06         0.00000E+00
   -0.52540E+06        -0.52419E+08         0.00000E+00
    0.00000E+00         0.00000E+00        -0.49716E+08
 
   -0.47770E+08        -0.46006E+06         0.00000E+00
   -0.46006E+06        -0.52527E+08         0.00000E+00
    0.00000E+00         0.00000E+00        -0.49769E+08
 
   -0.47795E+08        -0.38670E+06         0.00000E+00
   -0.38670E+06        -0.52630E+08         0.00000E+00
    0.00000E+00         0.00000E+00        -0.49820E+08
 
   -0.47821E+08        -0.30556E+06         0.00000E+00
   -0.30556E+06        -0.52728E+08         0.00000E+00
    0.00000E+00         0.00000E+00        -0.49870E+08
 
   -0.47850E+08        -0.21691E+06         0.00000E+00
   -0.21691E+06        -0.52821E+08         0.00000E+00
    0.00000E+00         0.00000E+00        -0.49919E+08
 
   -0.47883E+08        -0.12106E+06         0.00000E+00
   -0.12106E+06        -0.52907E+08         0.00000E+00
    0.00000E+00         0.00000E+00        -0.49967E+08
 
   -0.47920E+08        -0.18351E+05         0.00000E+00
   -0.18351E+05        -0.52988E+08         0.00000E+00
    0.00000E+00         0.00000E+00        -0.50013E+08
 
   -0.47964E+08         0.90847E+05         0.00000E+00
    0.90847E+05        -0.53062E+08         0.00000E+00
    0.00000E+00         0.00000E+00        -0.50058E+08
 
   -0.48015E+08         0.20612E+06         0.00000E+00
    0.20612E+06        -0.53128E+08         0.00000E+00
    0.00000E+00         0.00000E+00        -0.50102E+08
 
   -0.48073E+08         0.32699E+06         0.00000E+00
    0.32699E+06        -0.53187E+08         0.00000E+00
    0.00000E+00         0.00000E+00        -0.50146E+08
 
   -0.48141E+08         0.45295E+06         0.00000E+00
    0.45295E+06        -0.53238E+08         0.00000E+00
    0.00000E+00         0.00000E+00        -0.50189E+08
 
   -0.48219E+08         0.58340E+06         0.00000E+00
    0.58340E+06        -0.53280E+08         0.00000E+00
    0.00000E+00         0.00000E+00        -0.50231E+08
 
   -0.48308E+08         0.71767E+06         0.00000E+00
    0.71767E+06        -0.53313E+08         0.00000E+00
    0.00000E+00         0.00000E+00        -0.50272E+08
 
   -0.48409E+08         0.85502E+06         0.00000E+00
    0.85502E+06        -0.53336E+08         0.00000E+00
    0.00000E+00         0.00000E+00        -0.50313E+08
 
   -0.48523E+08         0.99458E+06         0.00000E+00
    0.99458E+06        -0.53349E+08         0.00000E+00
    0.00000E+00         0.00000E+00        -0.50354E+08
 
   -0.48651E+08         0.11354E+07         0.00000E+00
    0.11354E+07        -0.53350E+08         0.00000E+00
    0.00000E+00         0.00000E+00        -0.50394E+08
 
   -0.48795E+08         0.12763E+07         0.00000E+00
    0.12763E+07        -0.53340E+08         0.00000E+00
    0.00000E+00         0.00000E+00        -0.50434E+08
 
   -0.48956E+08         0.14162E+07         0.00000E+00
    0.14162E+07        -0.53317E+08         0.00000E+00
    0.00000E+00         0.00000E+00        -0.50473E+08
 
   -0.49133E+08         0.15536E+07         0.00000E+00
    0.15536E+07        -0.53282E+08         0.00000E+00
    0.00000E+00         0.00000E+00        -0.50512E+08
 
   -0.49329E+08         0.16870E+07         0.00000E+00
    0.16870E+07        -0.53233E+08         0.00000E+00
    0.00000E+00         0.00000E+00        -0.50551E+08
 
   -0.49543E+08         0.18145E+07         0.00000E+00
    0.18145E+07        -0.53169E+08         0.00000E+00
    0.00000E+00         0.00000E+00        -0.50589E+08
 
   -0.49777E+08         0.19343E+07         0.00000E+00
    0.19343E+07        -0.53091E+08         0.00000E+00
    0.00000E+00         0.00000E+00        -0.50627E+08
 
   -0.50032E+08         0.20443E+07         0.00000E+00
    0.20443E+07        -0.52998E+08         0.00000E+00
    0.00000E+00         0.00000E+00        -0.50665E+08
 
   -0.50307E+08         0.21419E+07         0.00000E+00
    0.21419E+07        -0.52889E+08         0.00000E+00
    0.00000E+00         0.00000E+00        -0.50701E+08
 
   -0.50602E+08         0.22245E+07         0.00000E+00
    0.22245E+07        -0.52765E+08         0.00000E+00
    0.00000E+00         0.00000E+00        -0.50737E+08
 
   -0.44074E+08        -0.14891E+05         0.00000E+00
   -0.14891E+05        -0.49988E+08         0.00000E+00
    0.00000E+00         0.00000E+00        -0.47743E+08
 
   -0.44548E+08        -0.99787E+05         0.00000E+00
   -0.99787E+05        -0.50007E+08         0.00000E+00
    0.00000E+00         0.00000E+00        -0.47846E+08
 
   -0.44979E+08        -0.20054E+06         0.00000E+00
   -0.20054E+06        -0.50043E+08         0.00000E+00
    0.00000E+00         0.00000E+00        -0.47946E+08
 
   -0.45367E+08        -0.31200E+06         0.00000E+00
   -0.31200E+06        -0.50097E+08         0.00000E+00
    0.00000E+00         0.00000E+00        -0.48045E+08
 
   -0.45714E+08        -0.42977E+06         0.00000E+00
   -0.42977E+06        -0.50167E+08         0.00000E+00
    0.00000E+00         0.00000E+00        -0.48141E+08
 
   -0.46022E+08        -0.55001E+06         0.00000E+00
   -0.55001E+06        -0.50251E+08         0.00000E+00
    0.00000E+00         0.00000E+00        -0.48233E+08
 
   -0.46292E+08        -0.66944E+06         0.00000E+00
   -0.66944E+06        -0.50348E+08         0.00000E+00
    0.00000E+00         0.00000E+00        -0.48323E+08
 
   -0.46527E+08        -0.78530E+06         0.00000E+00
   -0.78530E+06        -0.50456E+08         0.00000E+00
    0.00000E+00         0.00000E+00        -0.48409E+08
 
   -0.46729E+08        -0.89529E+06         0.00000E+00
   -0.89529E+06        -0.50575E+08         0.00000E+00
    0.00000E+00         0.00000E+00        -0.48491E+08
 
   -0.46901E+08        -0.99757E+06         0.00000E+00
   -0.99757E+06        -0.50701E+08         0.00000E+00
    0.00000E+00         0.00000E+00        -0.48570E+08
 
   -0.47045E+08        -0.10907E+07         0.00000E+00
   -0.10907E+07        -0.50834E+08         0.00000E+00
    0.00000E+00         0.00000E+00        -0.48645E+08
 
   -0.47164E+08        -0.11735E+07         0.00000E+00
   -0.11735E+07        -0.50972E+08         0.00000E+00
    0.00000E+00         0.00000E+00        -0.48717E+08
 
   -0.47261E+08        -0.12452E+07         0.00000E+00
   -0.12452E+07        -0.51114E+08         0.00000E+00
    0.00000E+00         0.00000E+00        -0.48785E+08
 
   -0.47337E+08        -0.13052E+07         0.00000E+00
   -0.13052E+07        -0.51258E+08         0.00000E+00
    0.00000E+00         0.00000E+00        -0.48850E+08
 
   -0.47395E+08        -0.13530E+07         0.00000E+00
   -0.13530E+07        -0.51404E+08         0.00000E+00
    0.00000E+00         0.00000E+00        -0.48912E+08
 
   -0.47437E+08        -0.13886E+07         0.00000E+00
   -0.13886E+07        -0.51551E+08         0.00000E+00
    0.00000E+00         0.00000E+00        -0.48970E+08
 
   -0.47466E+08        -0.14119E+07         0.00000E+00
   -0.14119E+07        -0.51697E+08         0.00000E+00
    0.00000E+00         0.00000E+00        -0.49025E+08
 
   -0.47483E+08        -0.14228E+07         0.00000E+00
   -0.14228E+07        -0.51842E+08         0.00000E+00
    0.00000E+00         0.00000E+00        -0.49078E+08
 
   -0.47490E+08        -0.14216E+07         0.00000E+00
   -0.14216E+07        -0.51985E+08         0.00000E+00
    0.00000E+00         0.00000E+00        -0.49127E+08
 
   -0.47488E+08        -0.14084E+07         0.00000E+00
   -0.14084E+07        -0.52125E+08         0.00000E+00
    0.00000E+00         0.00000E+00        -0.49174E+08
 
   -0.47480E+08        -0.13835E+07         0.00000E+00
   -0.13835E+07        -0.52263E+08         0.00000E+00
    0.00000E+00         0.00000E+00        -0.49219E+08
 
   -0.47466E+08        -0.13471E+07         0.00000E+00
   -0.13471E+07        -0.52397E+08         0.00000E+00
    0.00000E+00         0.00000E+00        -0.49261E+08
 
   -0.47448E+08        -0.12997E+07         0.00000E+00
   -0.12997E+07        -0.52527E+08         0.00000E+00
    0.00000E+00         0.00000E+00        -0.49302E+08
 
   -0.47428E+08        -0.12413E+07         0.00000E+00
   -0.12413E+07        -0.52653E+08         0.00000E+00
    0.00000E+00         0.00000E+00        -0.49340E+08
 
   -0.47406E+08        -0.11724E+07         0.00000E+00
   -0.11724E+07        -0.52775E+08         0.00000E+00
    0.00000E+00         0.00000E+00        -0.49377E+08
 
   -0.47384E+08        -0.10932E+07         0.00000E+00
   -0.10932E+07        -0.52892E+08         0.00000E+00
    0.00000E+00         0.00000E+00        -0.49411E+08
 
   -0.47362E+08        -0.10040E+07         0.00000E+00
   -0.10040E+07        -0.53004E+08         0.00000E+00
    0.00000E+00         0.00000E+00        -0.49445E+08
 
   -0.47343E+08        -0.90499E+06         0.00000E+00
   -0.90499E+06        -0.53111E+08         0.00000E+00
    0.00000E+00         0.00000E+00        -0.49477E+08
 
   -0.47326E+08        -0.79644E+06         0.00000E+00
   -0.79644E+06        -0.53212E+08         0.00000E+00
    0.00000E+00         0.00000E+00        -0.49508E+08
 
   -0.47314E+08        -0.67856E+06         0.00000E+00
   -0.67856E+06        -0.53308E+08         0.00000E+00
    0.00000E+00         0.00000E+00        -0.49538E+08
 
   -0.47307E+08        -0.55158E+06         0.00000E+00
   -0.55158E+06        -0.53398E+08         0.00000E+00
    0.00000E+00         0.00000E+00        -0.49567E+08
 
   -0.47306E+08        -0.41571E+06         0.00000E+00
   -0.41571E+06        -0.53481E+08         0.00000E+00
    0.00000E+00         0.00000E+00        -0.49596E+08
 
   -0.47313E+08        -0.27116E+06         0.00000E+00
   -0.27116E+06        -0.53558E+08         0.00000E+00
    0.00000E+00         0.00000E+00        -0.49624E+08
 
   -0.47328E+08        -0.11819E+06         0.00000E+00
   -0.11819E+06        -0.53627E+08         0.00000E+00
    0.00000E+00         0.00000E+00        -0.49652E+08
 
   -0.47353E+08         0.42951E+05         0.00000E+00
    0.42951E+05        -0.53689E+08         0.00000E+00
    0.00000E+00         0.00000E+00        -0.49679E+08
 
   -0.47390E+08         0.21195E+06         0.00000E+00
    0.21195E+06        -0.53742E+08         0.00000E+00
    0.00000E+00         0.00000E+00        -0.49706E+08
 
   -0.47439E+08         0.38846E+06         0.00000E+00
    0.38846E+06        -0.53787E+08         0.00000E+00
    0.00000E+00         0.00000E+00        -0.49734E+08
 
   -0.47503E+08         0.57203E+06         0.00000E+00
    0.57203E+06        -0.53822E+08         0.00000E+00
    0.00000E+00         0.00000E+00        -0.49762E+08
 
   -0.47582E+08         0.76214E+06         0.00000E+00
    0.76214E+06        -0.53847E+08         0.00000E+00
    0.00000E+00         0.00000E+00        -0.49790E+08
 
   -0.47679E+08         0.95818E+06         0.00000E+00
    0.95818E+06        -0.53861E+08         0.00000E+00
    0.00000E+00         0.00000E+00        -0.49819E+08
 
   -0.47795E+08         0.11594E+07         0.00000E+00
    0.11594E+07        -0.53863E+08         0.00000E+00
    0.00000E+00         0.00000E+00        -0.49848E+08
 
   -0.47931E+08         0.13648E+07         0.00000E+00
    0.13648E+07        -0.53852E+08         0.00000E+00
    0.00000E+00         0.00000E+00        -0.49878E+08
 
   -0.48090E+08         0.15734E+07         0.00000E+00
    0.15734E+07        -0.53827E+08         0.00000E+00
    0.00000E+00         0.00000E+00        -0.49910E+08
 
   -0.48274E+08         0.17839E+07         0.00000E+00
    0.17839E+07        -0.53787E+08         0.00000E+00
    0.00000E+00         0.00000E+00        -0.49942E+08
 
   -0.48484E+08         0.19947E+07         0.00000E+00
    0.19947E+07        -0.53730E+08         0.00000E+00
    0.00000E+00         0.00000E+00        -0.49976E+08
 
   -0.48722E+08         0.22041E+07         0.00000E+00
    0.22041E+07        -0.53656E+08         0.00000E+00
    0.00000E+00         0.00000E+00        -0.50012E+08
 
   -0.48991E+08         0.24100E+07         0.00000E+00
    0.24100E+07        -0.53563E+08         0.00000E+00
    0.00000E+00         0.00000E+00        -0.50049E+08
 
   -0.49292E+08         0.26100E+07         0.00000E+00
    0.26100E+07        -0.53450E+08         0.00000E+00
    0.00000E+00         0.00000E+00        -0.50088E+08
 
   -0.49628E+08         0.28015E+07         0.00000E+00
    0.28015E+07        -0.53316E+08         0.00000E+00
    0.00000E+00         0.00000E+00        -0.50129E+08
 
   -0.50000E+08         0.29811E+07         0.00000E+00
    0.29811E+07        -0.53159E+08         0.00000E+00
    0.00000E+00         0.00000E+00        -0.50173E+08
 
   -0.44708E+08        -0.76536E+05         0.00000E+00
   -0.76536E+05        -0.49979E+08         0.00000E+00
    0.00000E+00         0.00000E+00        -0.47539E+08
 
   -0.45260E+08        -0.27273E+06         0.00000E+00
   -0.27273E+06        -0.50010E+08         0.00000E+00
    0.00000E+00         0.00000E+00        -0.47656E+08
 
   -0.45738E+08        -0.47637E+06         0.00000E+00
   -0.47637E+06        -0.50066E+08         0.00000E+00
    0.00000E+00         0.00000E+00        -0.47764E+08
 
   -0.46147E+08        -0.68136E+06         0.00000E+00
   -0.68136E+06        -0.50144E+08         0.00000E+00
    0.00000E+00         0.00000E+00        -0.47862E+08
 
   -0.46493E+08        -0.88229E+06         0.00000E+00
   -0.88229E+06        -0.50241E+08         0.00000E+00
    0.00000E+00         0.00000E+00        -0.47952E+08
 
   -0.46780E+08        -0.10749E+07         0.00000E+00
   -0.10749E+07        -0.50355E+08         0.00000E+00
    0.00000E+00         0.00000E+00        -0.48034E+08
 
   -0.47014E+08        -0.12559E+07         0.00000E+00
   -0.12559E+07        -0.50482E+08         0.00000E+00
    0.00000E+00         0.00000E+00        -0.48109E+08
 
   -0.47202E+08        -0.14228E+07         0.00000E+00
   -0.14228E+07        -0.50619E+08         0.00000E+00
    0.00000E+00         0.00000E+00        -0.48176E+08
 
   -0.47347E+08        -0.15740E+07         0.00000E+00
   -0.15740E+07        -0.50765E+08         0.00000E+00
    0.00000E+00         0.00000E+00        -0.48236E+08
 
   -0.47456E+08        -0.17080E+07         0.00000E+00
   -0.17080E+07        -0.50916E+08         0.00000E+00
    0.00000E+00         0.00000E+00        -0.48291E+08
 
   -0.47532E+08        -0.18243E+07         0.00000E+00
   -0.18243E+07        -0.51071E+08         0.00000E+00
    0.00000E+00         0.00000E+00        -0.48340E+08
 
   -0.47580E+08        -0.19225E+07         0.00000E+00
   -0.19225E+07        -0.51228E+08         0.00000E+00
    0.00000E+00         0.00000E+00        -0.48384E+08
 
   -0.47604E+08        -0.20025E+07         0.00000E+00
   -0.20025E+07        -0.51385E+08         0.00000E+00
    0.00000E+00         0.00000E+00        -0.48423E+08
 
   -0.47606E+08        -0.20647E+07         0.00000E+00
   -0.20647E+07        -0.51542E+08         0.00000E+00
    0.00000E+00         0.00000E+00        -0.48458E+08
 
   -0.47592E+08        -0.21095E+07         0.00000E+00
   -0.21095E+07        -0.51696E+08         0.00000E+00
    0.00000E+00         0.00000E+00        -0.48489E+08
 
   -0.47562E+08        -0.21375E+07         0.00000E+00
   -0.21375E+07        -0.51847E+08         0.00000E+00
    0.00000E+00         0.00000E+00        -0.48517E+08
 
   -0.47521E+08        -0.21492E+07         0.00000E+00
   -0.21492E+07        -0.51994E+08         0.00000E+00
    0.00000E+00         0.00000E+00        -0.48541E+08
 
   -0.47469E+08        -0.21456E+07         0.00000E+00
   -0.21456E+07        -0.52137E+08         0.00000E+00
    0.00000E+00         0.00000E+00        -0.48562E+08
 
   -0.47410E+08        -0.21272E+07         0.00000E+00
   -0.21272E+07        -0.52276E+08         0.00000E+00
    0.00000E+00         0.00000E+00        -0.48581E+08
 
   -0.47345E+08        -0.20948E+07         0.00000E+00
   -0.20948E+07        -0.52409E+08         0.00000E+00
    0.00000E+00         0.00000E+00        -0.48597E+08
 
   -0.47275E+08        -0.20491E+07         0.00000E+00
   -0.20491E+07        -0.52538E+08         0.00000E+00
    0.00000E+00         0.00000E+00        -0.48611E+08
 
   -0.47201E+08        -0.19906E+07         0.00000E+00
   -0.19906E+07        -0.52661E+08         0.00000E+00
    0.00000E+00         0.00000E+00        -0.48624E+08
 
   -0.47126E+08        -0.19201E+07         0.00000E+00
   -0.19201E+07        -0.52779E+08         0.00000E+00
    0.00000E+00         0.00000E+00        -0.48634E+08
 
   -0.47050E+08        -0.18379E+07         0.00000E+00
   -0.18379E+07        -0.52892E+08         0.00000E+00
    0.00000E+00         0.00000E+00        -0.48643E+08
 
   -0.46974E+08        -0.17445E+07         0.00000E+00
   -0.17445E+07        -0.52999E+08         0.00000E+00
    0.00000E+00         0.00000E+00        -0.48651E+08
 
   -0.46900E+08        -0.16403E+07         0.00000E+00
   -0.16403E+07        -0.53102E+08         0.00000E+00
    0.00000E+00         0.00000E+00        -0.48658E+08
 
   -0.46827E+08        -0.15254E+07         0.00000E+00
   -0.15254E+07        -0.53199E+08         0.00000E+00
    0.00000E+00         0.00000E+00        -0.48663E+08
 
   -0.46758E+08        -0.14003E+07         0.00000E+00
   -0.14003E+07        -0.53292E+08         0.00000E+00
    0.00000E+00         0.00000E+00        -0.48668E+08
 
   -0.46692E+08        -0.12648E+07         0.00000E+00
   -0.12648E+07        -0.53380E+08         0.00000E+00
    0.00000E+00         0.00000E+00        -0.48673E+08
 
   -0.46631E+08        -0.11192E+07         0.00000E+00
   -0.11192E+07        -0.53463E+08         0.00000E+00
    0.00000E+00         0.00000E+00        -0.48677E+08
 
   -0.46575E+08        -0.96335E+06         0.00000E+00
   -0.96335E+06        -0.53541E+08         0.00000E+00
    0.00000E+00         0.00000E+00        -0.48681E+08
 
   -0.46527E+08        -0.79727E+06         0.00000E+00
   -0.79727E+06        -0.53614E+08         0.00000E+00
    0.00000E+00         0.00000E+00        -0.48684E+08
 
   -0.46486E+08        -0.62084E+06         0.00000E+00
   -0.62084E+06        -0.53681E+08         0.00000E+00
    0.00000E+00         0.00000E+00        -0.48688E+08
 
   -0.46454E+08        -0.43393E+06         0.00000E+00
   -0.43393E+06        -0.53743E+08         0.00000E+00
    0.00000E+00         0.00000E+00        -0.48692E+08
 
   -0.46433E+08        -0.23638E+06         0.00000E+00
   -0.23638E+06        -0.53799E+08         0.00000E+00
    0.00000E+00         0.00000E+00        -0.48697E+08
 
   -0.46424E+08        -0.28055E+05         0.00000E+00
   -0.28055E+05        -0.53849E+08         0.00000E+00
    0.00000E+00         0.00000E+00        -0.48702E+08
 
   -0.46428E+08         0.19119E+06         0.00000E+00
    0.19119E+06        -0.53891E+08         0.00000E+00
    0.00000E+00         0.00000E+00        -0.48709E+08
 
   -0.46447E+08         0.42145E+06         0.00000E+00
    0.42145E+06        -0.53926E+08         0.00000E+00
    0.00000E+00         0.00000E+00        -0.48716E+08
 
   -0.46483E+08         0.66275E+06         0.00000E+00
    0.66275E+06        -0.53952E+08         0.00000E+00
    0.00000E+00         0.00000E+00        -0.48725E+08
 
   -0.46539E+08         0.91503E+06         0.00000E+00
    0.91503E+06        -0.53968E+08         0.00000E+00
    0.00000E+00         0.00000E+00        -0.48735E+08
 
   -0.46617E+08         0.11781E+07         0.00000E+00
    0.11781E+07        -0.53973E+08         0.00000E+00
    0.00000E+00         0.00000E+00        -0.48748E+08
 
   -0.46720E+08         0.14516E+07         0.00000E+00
    0.14516E+07        -0.53965E+08         0.00000E+00
    0.00000E+00         0.00000E+00        -0.48762E+08
 
   -0.46850E+08         0.17350E+07         0.00000E+00
    0.17350E+07        -0.53944E+08         0.00000E+00
    0.00000E+00         0.00000E+00        -0.48779E+08
 
   -0.47010E+08         0.20275E+07         0.00000E+00
    0.20275E+07        -0.53906E+08         0.00000E+00
    0.00000E+00         0.00000E+00        -0.48799E+08
 
   -0.47204E+08         0.23282E+07         0.00000E+00
    0.23282E+07        -0.53852E+08         0.00000E+00
    0.00000E+00         0.00000E+00        -0.48823E+08
 
   -0.47435E+08         0.26357E+07         0.00000E+00
    0.26357E+07        -0.53777E+08         0.00000E+00
    0.00000E+00         0.00000E+00        -0.48850E+08
 
   -0.47707E+08         0.29483E+07         0.00000E+00
    0.29483E+07        -0.53681E+08         0.00000E+00
    0.00000E+00         0.00000E+00        -0.48881E+08
 
   -0.48024E+08         0.32639E+07         0.00000E+00
    0.32639E+07        -0.53561E+08         0.00000E+00
    0.00000E+00         0.00000E+00        -0.48917E+08
 
   -0.48389E+08         0.35797E+07         0.00000E+00
    0.35797E+07        -0.53414E+08         0.00000E+00
    0.00000E+00         0.00000E+00        -0.48959E+08
 
   -0.48808E+08         0.38930E+07         0.00000E+00
    0.38930E+07        -0.53239E+08         0.00000E+00
    0.00000E+00         0.00000E+00        -0.49006E+08
 
   -0.46034E+08        -0.17800E+06         0.00000E+00
   -0.17800E+06        -0.49969E+08         0.00000E+00
    0.00000E+00         0.00000E+00        -0.46965E+08
 
   -0.46595E+08        -0.52750E+06         0.00000E+00
   -0.52750E+06        -0.50014E+08         0.00000E+00
    0.00000E+00         0.00000E+00        -0.47082E+08
 
   -0.47047E+08        -0.86360E+06         0.00000E+00
   -0.86360E+06        -0.50092E+08         0.00000E+00
    0.00000E+00         0.00000E+00        -0.47180E+08
 
   -0.47400E+08        -0.11789E+07         0.00000E+00
   -0.11789E+07        -0.50195E+08         0.00000E+00
    0.00000E+00         0.00000E+00        -0.47260E+08
 
   -0.47669E+08        -0.14696E+07         0.00000E+00
   -0.14696E+07        -0.50318E+08         0.00000E+00
    0.00000E+00         0.00000E+00        -0.47326E+08
 
   -0.47864E+08        -0.17329E+07         0.00000E+00
   -0.17329E+07        -0.50455E+08         0.00000E+00
    0.00000E+00         0.00000E+00        -0.47378E+08
 
   -0.47995E+08        -0.19674E+07         0.00000E+00
   -0.19674E+07        -0.50603E+08         0.00000E+00
    0.00000E+00         0.00000E+00        -0.47418E+08
 
   -0.48073E+08        -0.21720E+07         0.00000E+00
   -0.21720E+07        -0.50758E+08         0.00000E+00
    0.00000E+00         0.00000E+00        -0.47448E+08
 
   -0.48105E+08        -0.23468E+07         0.00000E+00
   -0.23468E+07        -0.50915E+08         0.00000E+00
    0.00000E+00         0.00000E+00        -0.47469E+08
 
   -0.48100E+08        -0.24922E+07         0.00000E+00
   -0.24922E+07        -0.51073E+08         0.00000E+00
    0.00000E+00         0.00000E+00        -0.47483E+08
 
   -0.48063E+08        -0.26095E+07         0.00000E+00
   -0.26095E+07        -0.51228E+08         0.00000E+00
    0.00000E+00         0.00000E+00        -0.47489E+08
 
   -0.48002E+08        -0.27000E+07         0.00000E+00
   -0.27000E+07        -0.51379E+08         0.00000E+00
    0.00000E+00         0.00000E+00        -0.47490E+08
 
   -0.47920E+08        -0.27654E+07         0.00000E+00
   -0.27654E+07        -0.51525E+08         0.00000E+00
    0.00000E+00         0.00000E+00        -0.47486E+08
 
   -0.47823E+08        -0.28075E+07         0.00000E+00
   -0.28075E+07        -0.51664E+08         0.00000E+00
    0.00000E+00         0.00000E+00        -0.47477E+08
 
   -0.47714E+08        -0.28280E+07         0.00000E+00
   -0.28280E+07        -0.51796E+08         0.00000E+00
    0.00000E+00         0.00000E+00        -0.47466E+08
 
   -0.47596E+08        -0.28289E+07         0.00000E+00
   -0.28289E+07        -0.51921E+08         0.00000E+00
    0.00000E+00         0.00000E+00        -0.47451E+08
 
   -0.47472E+08        -0.28118E+07         0.00000E+00
   -0.28118E+07        -0.52037E+08         0.00000E+00
    0.00000E+00         0.00000E+00        -0.47433E+08
 
   -0.47343E+08        -0.27782E+07         0.00000E+00
   -0.27782E+07        -0.52146E+08         0.00000E+00
    0.00000E+00         0.00000E+00        -0.47413E+08
 
   -0.47211E+08        -0.27296E+07         0.00000E+00
   -0.27296E+07        -0.52248E+08         0.00000E+00
    0.00000E+00         0.00000E+00        -0.47392E+08
 
   -0.47078E+08        -0.26672E+07         0.00000E+00
   -0.26672E+07        -0.52343E+08         0.00000E+00
    0.00000E+00         0.00000E+00        -0.47369E+08
 
   -0.46944E+08        -0.25923E+07         0.00000E+00
   -0.25923E+07        -0.52431E+08         0.00000E+00
    0.00000E+00         0.00000E+00        -0.47345E+08
 
   -0.46811E+08        -0.25056E+07         0.00000E+00
   -0.25056E+07        -0.52513E+08         0.00000E+00
    0.00000E+00         0.00000E+00        -0.47320E+08
 
   -0.46680E+08        -0.24079E+07         0.00000E+00
   -0.24079E+07        -0.52590E+08         0.00000E+00
    0.00000E+00         0.00000E+00        -0.47295E+08
 
   -0.46549E+08        -0.23000E+07         0.00000E+00
   -0.23000E+07        -0.52661E+08         0.00000E+00
    0.00000E+00         0.00000E+00        -0.47268E+08
 
   -0.46422E+08        -0.21823E+07         0.00000E+00
   -0.21823E+07        -0.52728E+08         0.00000E+00
    0.00000E+00         0.00000E+00        -0.47242E+08
 
   -0.46296E+08        -0.20551E+07         0.00000E+00
   -0.20551E+07        -0.52790E+08         0.00000E+00
    0.00000E+00         0.00000E+00        -0.47215E+08
 
   -0.46174E+08        -0.19185E+07         0.00000E+00
   -0.19185E+07        -0.52849E+08         0.00000E+00
    0.00000E+00         0.00000E+00        -0.47188E+08
 
   -0.46055E+08        -0.17727E+07         0.00000E+00
   -0.17727E+07        -0.52905E+08         0.00000E+00
    0.00000E+00         0.00000E+00        -0.47161E+08
 
   -0.45939E+08        -0.16175E+07         0.00000E+00
   -0.16175E+07        -0.52958E+08         0.00000E+00
    0.00000E+00         0.00000E+00        -0.47134E+08
 
   -0.45828E+08        -0.14527E+07         0.00000E+00
   -0.14527E+07        -0.53009E+08         0.00000E+00
    0.00000E+00         0.00000E+00        -0.47108E+08
 
   -0.45721E+08        -0.12779E+07         0.00000E+00
   -0.12779E+07        -0.53057E+08         0.00000E+00
    0.00000E+00         0.00000E+00        -0.47082E+08
 
   -0.45620E+08        -0.10928E+07         0.00000E+00
   -0.10928E+07        -0.53103E+08         0.00000E+00
    0.00000E+00         0.00000E+00        -0.47057E+08
 
   -0.45524E+08        -0.89663E+06         0.00000E+00
   -0.89663E+06        -0.53147E+08         0.00000E+00
    0.00000E+00         0.00000E+00        -0.47032E+08
 
   -0.45436E+08        -0.68882E+06         0.00000E+00
   -0.68882E+06        -0.53189E+08         0.00000E+00
    0.00000E+00         0.00000E+00        -0.47009E+08
 
   -0.45355E+08        -0.46857E+06         0.00000E+00
   -0.46857E+06        -0.53230E+08         0.00000E+00
    0.00000E+00         0.00000E+00        -0.46986E+08
 
   -0.45284E+08        -0.23501E+06         0.00000E+00
   -0.23501E+06        -0.53267E+08         0.00000E+00
    0.00000E+00         0.00000E+00        -0.46965E+08
 
   -0.45224E+08         0.12777E+05         0.00000E+00
    0.12777E+05        -0.53302E+08         0.00000E+00
    0.00000E+00         0.00000E+00        -0.46946E+08
 
   -0.45177E+08         0.27577E+06         0.00000E+00
    0.27577E+06        -0.53333E+08         0.00000E+00
    0.00000E+00         0.00000E+00        -0.46928E+08
 
   -0.45144E+08         0.55495E+06         0.00000E+00
    0.55495E+06        -0.53359E+08         0.00000E+00
    0.00000E+00         0.00000E+00        -0.46912E+08
 
   -0.45130E+08         0.85129E+06         0.00000E+00
    0.85129E+06        -0.53380E+08         0.00000E+00
    0.00000E+00         0.00000E+00        -0.46899E+08
 
   -0.45136E+08         0.11657E+07         0.00000E+00
    0.11657E+07        -0.53393E+08         0.00000E+00
    0.00000E+00         0.00000E+00        -0.46889E+08
 
   -0.45165E+08         0.14989E+07         0.00000E+00
    0.14989E+07        -0.53398E+08         0.00000E+00
    0.00000E+00         0.00000E+00        -0.46883E+08
 
   -0.45223E+08         0.18516E+07         0.00000E+00
    0.18516E+07        -0.53392E+08         0.00000E+00
    0.00000E+00         0.00000E+00        -0.46880E+08
 
   -0.45313E+08         0.22241E+07         0.00000E+00
    0.22241E+07        -0.53372E+08         0.00000E+00
    0.00000E+00         0.00000E+00        -0.46881E+08
 
   -0.45440E+08         0.26165E+07         0.00000E+00
    0.26165E+07        -0.53337E+08         0.00000E+00
    0.00000E+00         0.00000E+00        -0.46888E+08
 
   -0.45609E+08         0.30286E+07         0.00000E+00
    0.30286E+07        -0.53283E+08         0.00000E+00
    0.00000E+00         0.00000E+00        -0.46900E+08
 
   -0.45826E+08         0.34599E+07         0.00000E+00
    0.34599E+07        -0.53207E+08         0.00000E+00
    0.00000E+00         0.00000E+00        -0.46918E+08
 
   -0.46097E+08         0.39095E+07         0.00000E+00
    0.39095E+07        -0.53105E+08         0.00000E+00
    0.00000E+00         0.00000E+00        -0.46944E+08
 
   -0.46429E+08         0.43762E+07         0.00000E+00
    0.43762E+07        -0.52974E+08         0.00000E+00
    0.00000E+00         0.00000E+00        -0.46979E+08
 
   -0.46829E+08         0.48563E+07         0.00000E+00
    0.48563E+07        -0.52808E+08         0.00000E+00
    0.00000E+00         0.00000E+00        -0.47023E+08
 
   -0.48302E+08        -0.32565E+06         0.00000E+00
   -0.32565E+06        -0.49961E+08         0.00000E+00
    0.00000E+00         0.00000E+00        -0.45753E+08
 
   -0.48713E+08        -0.86478E+06         0.00000E+00
   -0.86478E+06        -0.50024E+08         0.00000E+00
    0.00000E+00         0.00000E+00        -0.45839E+08
 
   -0.48985E+08        -0.13449E+07         0.00000E+00
   -0.13449E+07        -0.50115E+08         0.00000E+00
    0.00000E+00         0.00000E+00        -0.45896E+08
 
   -0.49146E+08        -0.17696E+07         0.00000E+00
   -0.17696E+07        -0.50230E+08         0.00000E+00
    0.00000E+00         0.00000E+00        -0.45930E+08
 
   -0.49214E+08        -0.21383E+07         0.00000E+00
   -0.21383E+07        -0.50363E+08         0.00000E+00
    0.00000E+00         0.00000E+00        -0.45945E+08
 
   -0.49205E+08        -0.24511E+07         0.00000E+00
   -0.24511E+07        -0.50504E+08         0.00000E+00
    0.00000E+00         0.00000E+00        -0.45943E+08
 
   -0.49135E+08        -0.27098E+07         0.00000E+00
   -0.27098E+07        -0.50647E+08         0.00000E+00
    0.00000E+00         0.00000E+00        -0.45927E+08
 
   -0.49018E+08        -0.29174E+07         0.00000E+00
   -0.29174E+07        -0.50787E+08         0.00000E+00
    0.00000E+00         0.00000E+00        -0.45899E+08
 
   -0.48866E+08        -0.30783E+07         0.00000E+00
   -0.30783E+07        -0.50920E+08         0.00000E+00
    0.00000E+00         0.00000E+00        -0.45863E+08
 
   -0.48690E+08        -0.31969E+07         0.00000E+00
   -0.31969E+07        -0.51042E+08         0.00000E+00
    0.00000E+00         0.00000E+00        -0.45818E+08
 
   -0.48496E+08        -0.32779E+07         0.00000E+00
   -0.32779E+07        -0.51153E+08         0.00000E+00
    0.00000E+00         0.00000E+00        -0.45768E+08
 
   -0.48292E+08        -0.33260E+07         0.00000E+00
   -0.33260E+07        -0.51251E+08         0.00000E+00
    0.00000E+00         0.00000E+00        -0.45714E+08
 
   -0.48082E+08        -0.33453E+07         0.00000E+00
   -0.33453E+07        -0.51337E+08         0.00000E+00
    0.00000E+00         0.00000E+00        -0.45656E+08
 
   -0.47870E+08        -0.33397E+07         0.00000E+00
   -0.33397E+07        -0.51410E+08         0.00000E+00
    0.00000E+00         0.00000E+00        -0.45595E+08
 
   -0.47659E+08        -0.33127E+07         0.00000E+00
   -0.33127E+07        -0.51471E+08         0.00000E+00
    0.00000E+00         0.00000E+00        -0.45533E+08
 
   -0.47450E+08        -0.32674E+07         0.00000E+00
   -0.32674E+07        -0.51522E+08         0.00000E+00
    0.00000E+00         0.00000E+00        -0.45469E+08
 
   -0.47244E+08        -0.32062E+07         0.00000E+00
   -0.32062E+07        -0.51562E+08         0.00000E+00
    0.00000E+00         0.00000E+00        -0.45405E+08
 
   -0.47043E+08        -0.31315E+07         0.00000E+00
   -0.31315E+07        -0.51593E+08         0.00000E+00
    0.00000E+00         0.00000E+00        -0.45341E+08
 
   -0.46847E+08        -0.30451E+07         0.00000E+00
   -0.30451E+07        -0.51617E+08         0.00000E+00
    0.00000E+00         0.00000E+00        -0.45276E+08
 
   -0.46657E+08        -0.29485E+07         0.00000E+00
   -0.29485E+07        -0.51633E+08         0.00000E+00
    0.00000E+00         0.00000E+00        -0.45212E+08
 
   -0.46471E+08        -0.28430E+07         0.00000E+00
   -0.28430E+07        -0.51644E+08         0.00000E+00
    0.00000E+00         0.00000E+00        -0.45149E+08
 
   -0.46290E+08        -0.27296E+07         0.00000E+00
   -0.27296E+07        -0.51650E+08         0.00000E+00
    0.00000E+00         0.00000E+00        -0.45086E+08
 
   -0.46114E+08        -0.26090E+07         0.00000E+00
   -0.26090E+07        -0.51652E+08         0.00000E+00
    0.00000E+00         0.00000E+00        -0.45023E+08
 
   -0.45941E+08        -0.24817E+07         0.00000E+00
   -0.24817E+07        -0.51652E+08         0.00000E+00
    0.00000E+00         0.00000E+00        -0.44962E+08
 
   -0.45773E+08        -0.23481E+07         0.00000E+00
   -0.23481E+07        -0.51649E+08         0.00000E+00
    0.00000E+00         0.00000E+00        -0.44901E+08
 
   -0.45608E+08        -0.22082E+07         0.00000E+00
   -0.22082E+07        -0.51646E+08         0.00000E+00
    0.00000E+00         0.00000E+00        -0.44841E+08
 
   -0.45446E+08        -0.20621E+07         0.00000E+00
   -0.20621E+07        -0.51641E+08         0.00000E+00
    0.00000E+00         0.00000E+00        -0.44782E+08
 
   -0.45286E+08        -0.19095E+07         0.00000E+00
   -0.19095E+07        -0.51638E+08         0.00000E+00
    0.00000E+00         0.00000E+00        -0.44724E+08
 
   -0.45128E+08        -0.17501E+07         0.00000E+00
   -0.17501E+07        -0.51635E+08         0.00000E+00
    0.00000E+00         0.00000E+00        -0.44667E+08
 
   -0.44973E+08        -0.15833E+07         0.00000E+00
   -0.15833E+07        -0.51634E+08         0.00000E+00
    0.00000E+00         0.00000E+00        -0.44611E+08
 
   -0.44819E+08        -0.14083E+07         0.00000E+00
   -0.14083E+07        -0.51635E+08         0.00000E+00
    0.00000E+00         0.00000E+00        -0.44556E+08
 
   -0.44666E+08        -0.12244E+07         0.00000E+00
   -0.12244E+07        -0.51638E+08         0.00000E+00
    0.00000E+00         0.00000E+00        -0.44503E+08
 
   -0.44515E+08        -0.10304E+07         0.00000E+00
   -0.10304E+07        -0.51645E+08         0.00000E+00
    0.00000E+00         0.00000E+00        -0.44450E+08
 
   -0.44366E+08        -0.82503E+06         0.00000E+00
   -0.82503E+06        -0.51655E+08         0.00000E+00
    0.00000E+00         0.00000E+00        -0.44399E+08
 
   -0.44219E+08        -0.60696E+06         0.00000E+00
   -0.60696E+06        -0.51668E+08         0.00000E+00
    0.00000E+00         0.00000E+00        -0.44349E+08
 
   -0.44074E+08        -0.37449E+06         0.00000E+00
   -0.37449E+06        -0.51685E+08         0.00000E+00
    0.00000E+00         0.00000E+00        -0.44301E+08
 
   -0.43934E+08        -0.12575E+06         0.00000E+00
   -0.12575E+06        -0.51706E+08         0.00000E+00
    0.00000E+00         0.00000E+00        -0.44255E+08
 
   -0.43798E+08         0.14134E+06         0.00000E+00
    0.14134E+06        -0.51730E+08         0.00000E+00
    0.00000E+00         0.00000E+00        -0.44211E+08
 
   -0.43669E+08         0.42907E+06         0.00000E+00
    0.42907E+06        -0.51757E+08         0.00000E+00
    0.00000E+00         0.00000E+00        -0.44169E+08
 
   -0.43549E+08         0.73995E+06         0.00000E+00
    0.73995E+06        -0.51787E+08         0.00000E+00
    0.00000E+00         0.00000E+00        -0.44130E+08
 
   -0.43440E+08         0.10766E+07         0.00000E+00
    0.10766E+07        -0.51817E+08         0.00000E+00
    0.00000E+00         0.00000E+00        -0.44094E+08
 
   -0.43348E+08         0.14419E+07         0.00000E+00
    0.14419E+07        -0.51847E+08         0.00000E+00
    0.00000E+00         0.00000E+00        -0.44062E+08
 
   -0.43276E+08         0.18386E+07         0.00000E+00
    0.18386E+07        -0.51874E+08         0.00000E+00
    0.00000E+00         0.00000E+00        -0.44034E+08
 
   -0.43229E+08         0.22694E+07         0.00000E+00
    0.22694E+07        -0.51895E+08         0.00000E+00
    0.00000E+00         0.00000E+00        -0.44012E+08
 
   -0.43215E+08         0.27367E+07         0.00000E+00
    0.27367E+07        -0.51908E+08         0.00000E+00
    0.00000E+00         0.00000E+00        -0.43995E+08
 
   -0.43240E+08         0.32422E+07         0.00000E+00
    0.32422E+07        -0.51907E+08         0.00000E+00
    0.00000E+00         0.00000E+00        -0.43985E+08
 
   -0.43312E+08         0.37872E+07         0.00000E+00
    0.37872E+07        -0.51888E+08         0.00000E+00
    0.00000E+00         0.00000E+00        -0.43983E+08
 
   -0.43439E+08         0.43720E+07         0.00000E+00
    0.43720E+07        -0.51846E+08         0.00000E+00
    0.00000E+00         0.00000E+00        -0.43989E+08
 
   -0.43629E+08         0.49978E+07         0.00000E+00
    0.49978E+07        -0.51775E+08         0.00000E+00
    0.00000E+00         0.00000E+00        -0.44005E+08
 
   -0.43898E+08         0.56690E+07         0.00000E+00
    0.56690E+07        -0.51675E+08         0.00000E+00
    0.00000E+00         0.00000E+00        -0.44035E+08
 
   -0.51685E+08        -0.50987E+06         0.00000E+00
   -0.50987E+06        -0.49965E+08         0.00000E+00
    0.00000E+00         0.00000E+00        -0.43666E+08
 
   -0.51668E+08        -0.12318E+07         0.00000E+00
   -0.12318E+07        -0.50013E+08         0.00000E+00
    0.00000E+00         0.00000E+00        -0.43662E+08
 
   -0.51527E+08        -0.18514E+07         0.00000E+00
   -0.18514E+07        -0.50112E+08         0.00000E+00
    0.00000E+00         0.00000E+00        -0.43635E+08
 
   -0.51279E+08        -0.23558E+07         0.00000E+00
   -0.23558E+07        -0.50228E+08         0.00000E+00
    0.00000E+00         0.00000E+00        -0.43584E+08
 
   -0.50955E+08        -0.27500E+07         0.00000E+00
   -0.27500E+07        -0.50339E+08         0.00000E+00
    0.00000E+00         0.00000E+00        -0.43513E+08
 
   -0.50585E+08        -0.30458E+07         0.00000E+00
   -0.30458E+07        -0.50435E+08         0.00000E+00
    0.00000E+00         0.00000E+00        -0.43426E+08
 
   -0.50192E+08        -0.32578E+07         0.00000E+00
   -0.32578E+07        -0.50510E+08         0.00000E+00
    0.00000E+00         0.00000E+00        -0.43328E+08
 
   -0.49793E+08        -0.33999E+07         0.00000E+00
   -0.33999E+07        -0.50561E+08         0.00000E+00
    0.00000E+00         0.00000E+00        -0.43222E+08
 
   -0.49397E+08        -0.34848E+07         0.00000E+00
   -0.34848E+07        -0.50590E+08         0.00000E+00
    0.00000E+00         0.00000E+00        -0.43111E+08
 
   -0.49013E+08        -0.35235E+07         0.00000E+00
   -0.35235E+07        -0.50596E+08         0.00000E+00
    0.00000E+00         0.00000E+00        -0.42997E+08
 
   -0.48645E+08        -0.35251E+07         0.00000E+00
   -0.35251E+07        -0.50583E+08         0.00000E+00
    0.00000E+00         0.00000E+00        -0.42882E+08
 
   -0.48295E+08        -0.34972E+07         0.00000E+00
   -0.34972E+07        -0.50552E+08         0.00000E+00
    0.00000E+00         0.00000E+00        -0.42767E+08
 
   -0.47963E+08        -0.34460E+07         0.00000E+00
   -0.34460E+07        -0.50505E+08         0.00000E+00
    0.00000E+00         0.00000E+00        -0.42653E+08
 
   -0.47650E+08        -0.33766E+07         0.00000E+00
   -0.33766E+07        -0.50445E+08         0.00000E+00
    0.00000E+00         0.00000E+00        -0.42540E+08
 
   -0.47355E+08        -0.32929E+07         0.00000E+00
   -0.32929E+07        -0.50375E+08         0.00000E+00
    0.00000E+00         0.00000E+00        -0.42430E+08
 
   -0.47076E+08        -0.31982E+07         0.00000E+00
   -0.31982E+07        -0.50296E+08         0.00000E+00
    0.00000E+00         0.00000E+00        -0.42321E+08
 
   -0.46814E+08        -0.30950E+07         0.00000E+00
   -0.30950E+07        -0.50210E+08         0.00000E+00
    0.00000E+00         0.00000E+00        -0.42215E+08
 
   -0.46566E+08        -0.29854E+07         0.00000E+00
   -0.29854E+07        -0.50119E+08         0.00000E+00
    0.00000E+00         0.00000E+00        -0.42111E+08
 
   -0.46330E+08        -0.28707E+07         0.00000E+00
   -0.28707E+07        -0.50024E+08         0.00000E+00
    0.00000E+00         0.00000E+00        -0.42010E+08
 
   -0.46106E+08        -0.27522E+07         0.00000E+00
   -0.27522E+07        -0.49927E+08         0.00000E+00
    0.00000E+00         0.00000E+00        -0.41911E+08
 
   -0.45891E+08        -0.26307E+07         0.00000E+00
   -0.26307E+07        -0.49830E+08         0.00000E+00
    0.00000E+00         0.00000E+00        -0.41815E+08
 
   -0.45685E+08        -0.25068E+07         0.00000E+00
   -0.25068E+07        -0.49733E+08         0.00000E+00
    0.00000E+00         0.00000E+00        -0.41721E+08
 
   -0.45486E+08        -0.23808E+07         0.00000E+00
   -0.23808E+07        -0.49637E+08         0.00000E+00
    0.00000E+00         0.00000E+00        -0.41630E+08
 
   -0.45292E+08        -0.22529E+07         0.00000E+00
   -0.22529E+07        -0.49543E+08         0.00000E+00
    0.00000E+00         0.00000E+00        -0.41540E+08
 
   -0.45102E+08        -0.21231E+07         0.00000E+00
   -0.21231E+07        -0.49453E+08         0.00000E+00
    0.00000E+00         0.00000E+00        -0.41453E+08
 
   -0.44915E+08        -0.19911E+07         0.00000E+00
   -0.19911E+07        -0.49366E+08         0.00000E+00
    0.00000E+00         0.00000E+00        -0.41368E+08
 
   -0.44730E+08        -0.18567E+07         0.00000E+00
   -0.18567E+07        -0.49284E+08         0.00000E+00
    0.00000E+00         0.00000E+00        -0.41285E+08
 
   -0.44545E+08        -0.17195E+07         0.00000E+00
   -0.17195E+07        -0.49208E+08         0.00000E+00
    0.00000E+00         0.00000E+00        -0.41204E+08
 
   -0.44360E+08        -0.15788E+07         0.00000E+00
   -0.15788E+07        -0.49137E+08         0.00000E+00
    0.00000E+00         0.00000E+00        -0.41124E+08
 
   -0.44172E+08        -0.14339E+07         0.00000E+00
   -0.14339E+07        -0.49073E+08         0.00000E+00
    0.00000E+00         0.00000E+00        -0.41046E+08
 
   -0.43982E+08        -0.12838E+07         0.00000E+00
   -0.12838E+07        -0.49016E+08         0.00000E+00
    0.00000E+00         0.00000E+00        -0.40969E+08
 
   -0.43788E+08        -0.11276E+07         0.00000E+00
   -0.11276E+07        -0.48967E+08         0.00000E+00
    0.00000E+00         0.00000E+00        -0.40893E+08
 
   -0.43589E+08        -0.96378E+06         0.00000E+00
   -0.96378E+06        -0.48927E+08         0.00000E+00
    0.00000E+00         0.00000E+00        -0.40819E+08
 
   -0.43384E+08        -0.79099E+06         0.00000E+00
   -0.79099E+06        -0.48896E+08         0.00000E+00
    0.00000E+00         0.00000E+00        -0.40747E+08
 
   -0.43172E+08        -0.60742E+06         0.00000E+00
   -0.60742E+06        -0.48875E+08         0.00000E+00
    0.00000E+00         0.00000E+00        -0.40675E+08
 
   -0.42953E+08        -0.41100E+06         0.00000E+00
   -0.41100E+06        -0.48864E+08         0.00000E+00
    0.00000E+00         0.00000E+00        -0.40605E+08
 
   -0.42726E+08        -0.19929E+06         0.00000E+00
   -0.19929E+06        -0.48864E+08         0.00000E+00
    0.00000E+00         0.00000E+00        -0.40536E+08
 
   -0.42490E+08         0.30540E+05         0.00000E+00
    0.30540E+05        -0.48876E+08         0.00000E+00
    0.00000E+00         0.00000E+00        -0.40468E+08
 
   -0.42246E+08         0.28183E+06         0.00000E+00
    0.28183E+06        -0.48900E+08         0.00000E+00
    0.00000E+00         0.00000E+00        -0.40402E+08
 
   -0.41994E+08         0.55846E+06         0.00000E+00
    0.55846E+06        -0.48936E+08         0.00000E+00
    0.00000E+00         0.00000E+00        -0.40337E+08
 
   -0.41735E+08         0.86499E+06         0.00000E+00
    0.86499E+06        -0.48986E+08         0.00000E+00
    0.00000E+00         0.00000E+00        -0.40275E+08
 
   -0.41471E+08         0.12067E+07         0.00000E+00
    0.12067E+07        -0.49048E+08         0.00000E+00
    0.00000E+00         0.00000E+00        -0.40215E+08
 
   -0.41204E+08         0.15896E+07         0.00000E+00
    0.15896E+07        -0.49122E+08         0.00000E+00
    0.00000E+00         0.00000E+00        -0.40158E+08
 
   -0.40940E+08         0.20207E+07         0.00000E+00
    0.20207E+07        -0.49208E+08         0.00000E+00
    0.00000E+00         0.00000E+00        -0.40105E+08
 
   -0.40684E+08         0.25074E+07         0.00000E+00
    0.25074E+07        -0.49302E+08         0.00000E+00
    0.00000E+00         0.00000E+00        -0.40057E+08
 
   -0.40447E+08         0.30579E+07         0.00000E+00
    0.30579E+07        -0.49401E+08         0.00000E+00
    0.00000E+00         0.00000E+00        -0.40015E+08
 
   -0.40240E+08         0.36796E+07         0.00000E+00
    0.36796E+07        -0.49500E+08         0.00000E+00
    0.00000E+00         0.00000E+00        -0.39982E+08
 
   -0.40080E+08         0.43780E+07         0.00000E+00
    0.43780E+07        -0.49588E+08         0.00000E+00
    0.00000E+00         0.00000E+00        -0.39957E+08
 
   -0.39979E+08         0.51535E+07         0.00000E+00
    0.51535E+07        -0.49652E+08         0.00000E+00
    0.00000E+00         0.00000E+00        -0.39943E+08
 
   -0.39938E+08         0.59945E+07         0.00000E+00
    0.59945E+07        -0.49670E+08         0.00000E+00
    0.00000E+00         0.00000E+00        -0.39934E+08
 
   -0.56177E+08        -0.71305E+06         0.00000E+00
   -0.71305E+06        -0.49962E+08         0.00000E+00
    0.00000E+00         0.00000E+00        -0.40628E+08
 
   -0.55294E+08        -0.16278E+07         0.00000E+00
   -0.16278E+07        -0.50116E+08         0.00000E+00
    0.00000E+00         0.00000E+00        -0.40476E+08
 
   -0.54299E+08        -0.22438E+07         0.00000E+00
   -0.22438E+07        -0.50187E+08         0.00000E+00
    0.00000E+00         0.00000E+00        -0.40280E+08
 
   -0.53313E+08        -0.26441E+07         0.00000E+00
   -0.26441E+07        -0.50184E+08         0.00000E+00
    0.00000E+00         0.00000E+00        -0.40067E+08
 
   -0.52387E+08        -0.28904E+07         0.00000E+00
   -0.28904E+07        -0.50119E+08         0.00000E+00
    0.00000E+00         0.00000E+00        -0.39850E+08
 
   -0.51539E+08        -0.30270E+07         0.00000E+00
   -0.30270E+07        -0.50004E+08         0.00000E+00
    0.00000E+00         0.00000E+00        -0.39636E+08
 
   -0.50772E+08        -0.30859E+07         0.00000E+00
   -0.30859E+07        -0.49849E+08         0.00000E+00
    0.00000E+00         0.00000E+00        -0.39427E+08
 
   -0.50083E+08        -0.30898E+07         0.00000E+00
   -0.30898E+07        -0.49664E+08         0.00000E+00
    0.00000E+00         0.00000E+00        -0.39227E+08
 
   -0.49466E+08        -0.30551E+07         0.00000E+00
   -0.30551E+07        -0.49456E+08         0.00000E+00
    0.00000E+00         0.00000E+00        -0.39034E+08
 
   -0.48912E+08        -0.29934E+07         0.00000E+00
   -0.29934E+07        -0.49232E+08         0.00000E+00
    0.00000E+00         0.00000E+00        -0.38850E+08
 
   -0.48416E+08        -0.29132E+07         0.00000E+00
   -0.29132E+07        -0.48996E+08         0.00000E+00
    0.00000E+00         0.00000E+00        -0.38675E+08
 
   -0.47969E+08        -0.28207E+07         0.00000E+00
   -0.28207E+07        -0.48754E+08         0.00000E+00
    0.00000E+00         0.00000E+00        -0.38507E+08
 
   -0.47565E+08        -0.27202E+07         0.00000E+00
   -0.27202E+07        -0.48509E+08         0.00000E+00
    0.00000E+00         0.00000E+00        -0.38348E+08
 
   -0.47199E+08        -0.26149E+07         0.00000E+00
   -0.26149E+07        -0.48263E+08         0.00000E+00
    0.00000E+00         0.00000E+00        -0.38195E+08
 
   -0.46866E+08        -0.25070E+07         0.00000E+00
   -0.25070E+07        -0.48018E+08         0.00000E+00
    0.00000E+00         0.00000E+00        -0.38050E+08
 
   -0.46561E+08        -0.23983E+07         0.00000E+00
   -0.23983E+07        -0.47777E+08         0.00000E+00
    0.00000E+00         0.00000E+00        -0.37911E+08
 
   -0.46280E+08        -0.22897E+07         0.00000E+00
   -0.22897E+07        -0.47541E+08         0.00000E+00
    0.00000E+00         0.00000E+00        -0.37778E+08
 
   -0.46019E+08        -0.21821E+07         0.00000E+00
   -0.21821E+07        -0.47311E+08         0.00000E+00
    0.00000E+00         0.00000E+00        -0.37651E+08
 
   -0.45775E+08        -0.20759E+07         0.00000E+00
   -0.20759E+07        -0.47087E+08         0.00000E+00
    0.00000E+00         0.00000E+00        -0.37529E+08
 
   -0.45546E+08        -0.19713E+07         0.00000E+00
   -0.19713E+07        -0.46871E+08         0.00000E+00
    0.00000E+00         0.00000E+00        -0.37412E+08
 
   -0.45329E+08        -0.18685E+07         0.00000E+00
   -0.18685E+07        -0.46663E+08         0.00000E+00
    0.00000E+00         0.00000E+00        -0.37299E+08
 
   -0.45121E+08        -0.17675E+07         0.00000E+00
   -0.17675E+07        -0.46463E+08         0.00000E+00
    0.00000E+00         0.00000E+00        -0.37190E+08
 
   -0.44920E+08        -0.16681E+07         0.00000E+00
   -0.16681E+07        -0.46272E+08         0.00000E+00
    0.00000E+00         0.00000E+00        -0.37086E+08
 
   -0.44724E+08        -0.15700E+07         0.00000E+00
   -0.15700E+07        -0.46090E+08         0.00000E+00
    0.00000E+00         0.00000E+00        -0.36984E+08
 
   -0.44531E+08        -0.14731E+07         0.00000E+00
   -0.14731E+07        -0.45918E+08         0.00000E+00
    0.00000E+00         0.00000E+00        -0.36886E+08
 
   -0.44340E+08        -0.13769E+07         0.00000E+00
   -0.13769E+07        -0.45756E+08         0.00000E+00
    0.00000E+00         0.00000E+00        -0.36790E+08
 
   -0.44148E+08        -0.12810E+07         0.00000E+00
   -0.12810E+07        -0.45604E+08         0.00000E+00
    0.00000E+00         0.00000E+00        -0.36697E+08
 
   -0.43953E+08        -0.11849E+07         0.00000E+00
   -0.11849E+07        -0.45462E+08         0.00000E+00
    0.00000E+00         0.00000E+00        -0.36606E+08
 
   -0.43755E+08        -0.10880E+07         0.00000E+00
   -0.10880E+07        -0.45331E+08         0.00000E+00
    0.00000E+00         0.00000E+00        -0.36517E+08
 
   -0.43551E+08        -0.98973E+06         0.00000E+00
   -0.98973E+06        -0.45212E+08         0.00000E+00
    0.00000E+00         0.00000E+00        -0.36430E+08
 
   -0.43339E+08        -0.88924E+06         0.00000E+00
   -0.88924E+06        -0.45103E+08         0.00000E+00
    0.00000E+00         0.00000E+00        -0.36344E+08
 
   -0.43118E+08        -0.78566E+06         0.00000E+00
   -0.78566E+06        -0.45007E+08         0.00000E+00
    0.00000E+00         0.00000E+00        -0.36259E+08
 
   -0.42886E+08        -0.67795E+06         0.00000E+00
   -0.67795E+06        -0.44924E+08         0.00000E+00
    0.00000E+00         0.00000E+00        -0.36175E+08
 
   -0.42640E+08        -0.56492E+06         0.00000E+00
   -0.56492E+06        -0.44854E+08         0.00000E+00
    0.00000E+00         0.00000E+00        -0.36092E+08
 
   -0.42379E+08        -0.44513E+06         0.00000E+00
   -0.44513E+06        -0.44798E+08         0.00000E+00
    0.00000E+00         0.00000E+00        -0.36009E+08
 
   -0.42099E+08        -0.31688E+06         0.00000E+00
   -0.31688E+06        -0.44758E+08         0.00000E+00
    0.00000E+00         0.00000E+00        -0.35927E+08
 
   -0.41799E+08        -0.17813E+06         0.00000E+00
   -0.17813E+06        -0.44734E+08         0.00000E+00
    0.00000E+00         0.00000E+00        -0.35844E+08
 
   -0.41476E+08        -0.26405E+05         0.00000E+00
   -0.26405E+05        -0.44728E+08         0.00000E+00
    0.00000E+00         0.00000E+00        -0.35760E+08
 
   -0.41126E+08         0.14132E+06         0.00000E+00
    0.14132E+06        -0.44740E+08         0.00000E+00
    0.00000E+00         0.00000E+00        -0.35677E+08
 
   -0.40746E+08         0.32876E+06         0.00000E+00
    0.32876E+06        -0.44774E+08         0.00000E+00
    0.00000E+00         0.00000E+00        -0.35592E+08
 
   -0.40334E+08         0.54055E+06         0.00000E+00
    0.54055E+06        -0.44832E+08         0.00000E+00
    0.00000E+00         0.00000E+00        -0.35506E+08
 
   -0.39884E+08         0.78251E+06         0.00000E+00
    0.78251E+06        -0.44914E+08         0.00000E+00
    0.00000E+00         0.00000E+00        -0.35419E+08
 
   -0.39394E+08         0.10620E+07         0.00000E+00
    0.10620E+07        -0.45025E+08         0.00000E+00
    0.00000E+00         0.00000E+00        -0.35331E+08
 
   -0.38859E+08         0.13885E+07         0.00000E+00
    0.13885E+07        -0.45166E+08         0.00000E+00
    0.00000E+00         0.00000E+00        -0.35241E+08
 
   -0.38279E+08         0.17741E+07         0.00000E+00
    0.17741E+07        -0.45342E+08         0.00000E+00
    0.00000E+00         0.00000E+00        -0.35151E+08
 
   -0.37652E+08         0.22349E+07         0.00000E+00
    0.22349E+07        -0.45555E+08         0.00000E+00
    0.00000E+00         0.00000E+00        -0.35060E+08
 
   -0.36983E+08         0.27918E+07         0.00000E+00
    0.27918E+07        -0.45808E+08         0.00000E+00
    0.00000E+00         0.00000E+00        -0.34970E+08
 
   -0.36288E+08         0.34725E+07         0.00000E+00
    0.34725E+07        -0.46102E+08         0.00000E+00
    0.00000E+00         0.00000E+00        -0.34885E+08
 
   -0.35603E+08         0.43131E+07         0.00000E+00
    0.43131E+07        -0.46438E+08         0.00000E+00
    0.00000E+00         0.00000E+00        -0.34811E+08
 
   -0.35011E+08         0.53599E+07         0.00000E+00
    0.53599E+07        -0.46809E+08         0.00000E+00
    0.00000E+00         0.00000E+00        -0.34765E+08
 
   -0.60950E+08        -0.10495E+07         0.00000E+00
   -0.10495E+07        -0.50180E+08         0.00000E+00
    0.00000E+00         0.00000E+00        -0.36800E+08
 
   -0.58201E+08        -0.13407E+07         0.00000E+00
   -0.13407E+07        -0.49819E+08         0.00000E+00
    0.00000E+00         0.00000E+00        -0.36177E+08
 
   -0.56047E+08        -0.14670E+07         0.00000E+00
   -0.14670E+07        -0.49377E+08         0.00000E+00
    0.00000E+00         0.00000E+00        -0.35656E+08
 
   -0.54319E+08        -0.15056E+07         0.00000E+00
   -0.15056E+07        -0.48890E+08         0.00000E+00
    0.00000E+00         0.00000E+00        -0.35209E+08
 
   -0.52907E+08        -0.14961E+07         0.00000E+00
   -0.14961E+07        -0.48380E+08         0.00000E+00
    0.00000E+00         0.00000E+00        -0.34819E+08
 
   -0.51736E+08        -0.14603E+07         0.00000E+00
   -0.14603E+07        -0.47865E+08         0.00000E+00
    0.00000E+00         0.00000E+00        -0.34476E+08
 
   -0.50753E+08        -0.14100E+07         0.00000E+00
   -0.14100E+07        -0.47354E+08         0.00000E+00
    0.00000E+00         0.00000E+00        -0.34169E+08
 
   -0.49920E+08        -0.13523E+07         0.00000E+00
   -0.13523E+07        -0.46853E+08         0.00000E+00
    0.00000E+00         0.00000E+00        -0.33894E+08
 
   -0.49206E+08        -0.12913E+07         0.00000E+00
   -0.12913E+07        -0.46366E+08         0.00000E+00
    0.00000E+00         0.00000E+00        -0.33645E+08
 
   -0.48589E+08        -0.12294E+07         0.00000E+00
   -0.12294E+07        -0.45896E+08         0.00000E+00
    0.00000E+00         0.00000E+00        -0.33417E+08
 
   -0.48053E+08        -0.11680E+07         0.00000E+00
   -0.11680E+07        -0.45445E+08         0.00000E+00
    0.00000E+00         0.00000E+00        -0.33210E+08
 
   -0.47582E+08        -0.11081E+07         0.00000E+00
   -0.11081E+07        -0.45014E+08         0.00000E+00
    0.00000E+00         0.00000E+00        -0.33018E+08
 
   -0.47166E+08        -0.10501E+07         0.00000E+00
   -0.10501E+07        -0.44601E+08         0.00000E+00
    0.00000E+00         0.00000E+00        -0.32841E+08
 
   -0.46796E+08        -0.99433E+06         0.00000E+00
   -0.99433E+06        -0.44208E+08         0.00000E+00
    0.00000E+00         0.00000E+00        -0.32678E+08
 
   -0.46464E+08        -0.94087E+06         0.00000E+00
   -0.94087E+06        -0.43834E+08         0.00000E+00
    0.00000E+00         0.00000E+00        -0.32525E+08
 
   -0.46163E+08        -0.88972E+06         0.00000E+00
   -0.88972E+06        -0.43479E+08         0.00000E+00
    0.00000E+00         0.00000E+00        -0.32382E+08
 
   -0.45888E+08        -0.84084E+06         0.00000E+00
   -0.84084E+06        -0.43141E+08         0.00000E+00
    0.00000E+00         0.00000E+00        -0.32249E+08
 
   -0.45636E+08        -0.79411E+06         0.00000E+00
   -0.79411E+06        -0.42821E+08         0.00000E+00
    0.00000E+00         0.00000E+00        -0.32123E+08
 
   -0.45401E+08        -0.74940E+06         0.00000E+00
   -0.74940E+06        -0.42518E+08         0.00000E+00
    0.00000E+00         0.00000E+00        -0.32004E+08
 
   -0.45181E+08        -0.70658E+06         0.00000E+00
   -0.70658E+06        -0.42232E+08         0.00000E+00
    0.00000E+00         0.00000E+00        -0.31892E+08
 
   -0.44972E+08        -0.66547E+06         0.00000E+00
   -0.66547E+06        -0.41961E+08         0.00000E+00
    0.00000E+00         0.00000E+00        -0.31785E+08
 
   -0.44771E+08        -0.62590E+06         0.00000E+00
   -0.62590E+06        -0.41705E+08         0.00000E+00
    0.00000E+00         0.00000E+00        -0.31684E+08
 
   -0.44577E+08        -0.58770E+06         0.00000E+00
   -0.58770E+06        -0.41464E+08         0.00000E+00
    0.00000E+00         0.00000E+00        -0.31586E+08
 
   -0.44387E+08        -0.55067E+06         0.00000E+00
   -0.55067E+06        -0.41238E+08         0.00000E+00
    0.00000E+00         0.00000E+00        -0.31493E+08
 
   -0.44199E+08        -0.51464E+06         0.00000E+00
   -0.51464E+06        -0.41026E+08         0.00000E+00
    0.00000E+00         0.00000E+00        -0.31403E+08
 
   -0.44010E+08        -0.47939E+06         0.00000E+00
   -0.47939E+06        -0.40828E+08         0.00000E+00
    0.00000E+00         0.00000E+00        -0.31316E+08
 
   -0.43820E+08        -0.44472E+06         0.00000E+00
   -0.44472E+06        -0.40643E+08         0.00000E+00
    0.00000E+00         0.00000E+00        -0.31231E+08
 
   -0.43625E+08        -0.41040E+06         0.00000E+00
   -0.41040E+06        -0.40472E+08         0.00000E+00
    0.00000E+00         0.00000E+00        -0.31149E+08
 
   -0.43423E+08        -0.37619E+06         0.00000E+00
   -0.37619E+06        -0.40314E+08         0.00000E+00
    0.00000E+00         0.00000E+00        -0.31068E+08
 
   -0.43214E+08        -0.34182E+06         0.00000E+00
   -0.34182E+06        -0.40170E+08         0.00000E+00
    0.00000E+00         0.00000E+00        -0.30988E+08
 
   -0.42994E+08        -0.30699E+06         0.00000E+00
   -0.30699E+06        -0.40040E+08         0.00000E+00
    0.00000E+00         0.00000E+00        -0.30910E+08
 
   -0.42761E+08        -0.27138E+06         0.00000E+00
   -0.27138E+06        -0.39923E+08         0.00000E+00
    0.00000E+00         0.00000E+00        -0.30832E+08
 
   -0.42513E+08        -0.23458E+06         0.00000E+00
   -0.23458E+06        -0.39821E+08         0.00000E+00
    0.00000E+00         0.00000E+00        -0.30754E+08
 
   -0.42247E+08        -0.19616E+06         0.00000E+00
   -0.19616E+06        -0.39734E+08         0.00000E+00
    0.00000E+00         0.00000E+00        -0.30675E+08
 
   -0.41959E+08        -0.15558E+06         0.00000E+00
   -0.15558E+06        -0.39662E+08         0.00000E+00
    0.00000E+00         0.00000E+00        -0.30596E+08
 
   -0.41647E+08        -0.11221E+06         0.00000E+00
   -0.11221E+06        -0.39607E+08         0.00000E+00
    0.00000E+00         0.00000E+00        -0.30516E+08
 
   -0.41306E+08        -0.65262E+05         0.00000E+00
   -0.65262E+05        -0.39571E+08         0.00000E+00
    0.00000E+00         0.00000E+00        -0.30433E+08
 
   -0.40932E+08        -0.13786E+05         0.00000E+00
   -0.13786E+05        -0.39553E+08         0.00000E+00
    0.00000E+00         0.00000E+00        -0.30349E+08
 
   -0.40519E+08         0.43415E+05         0.00000E+00
    0.43415E+05        -0.39557E+08         0.00000E+00
    0.00000E+00         0.00000E+00        -0.30261E+08
 
   -0.40061E+08         0.10786E+06         0.00000E+00
    0.10786E+06        -0.39585E+08         0.00000E+00
    0.00000E+00         0.00000E+00        -0.30169E+08
 
   -0.39550E+08         0.18151E+06         0.00000E+00
    0.18151E+06        -0.39641E+08         0.00000E+00
    0.00000E+00         0.00000E+00        -0.30073E+08
 
   -0.38976E+08         0.26694E+06         0.00000E+00
    0.26694E+06        -0.39727E+08         0.00000E+00
    0.00000E+00         0.00000E+00        -0.29971E+08
 
   -0.38327E+08         0.36759E+06         0.00000E+00
    0.36759E+06        -0.39849E+08         0.00000E+00
    0.00000E+00         0.00000E+00        -0.29862E+08
 
   -0.37590E+08         0.48817E+06         0.00000E+00
    0.48817E+06        -0.40013E+08         0.00000E+00
    0.00000E+00         0.00000E+00        -0.29743E+08
 
   -0.36745E+08         0.63530E+06         0.00000E+00
    0.63530E+06        -0.40227E+08         0.00000E+00
    0.00000E+00         0.00000E+00        -0.29614E+08
 
   -0.35768E+08         0.81855E+06         0.00000E+00
    0.81855E+06        -0.40502E+08         0.00000E+00
    0.00000E+00         0.00000E+00        -0.29472E+08
 
   -0.34625E+08         0.10523E+07         0.00000E+00
    0.10523E+07        -0.40852E+08         0.00000E+00
    0.00000E+00         0.00000E+00        -0.29312E+08
 
   -0.33272E+08         0.13591E+07         0.00000E+00
    0.13591E+07        -0.41294E+08         0.00000E+00
    0.00000E+00         0.00000E+00        -0.29128E+08
 
   -0.31640E+08         0.17761E+07         0.00000E+00
    0.17761E+07        -0.41855E+08         0.00000E+00
    0.00000E+00         0.00000E+00        -0.28914E+08
 
   -0.29627E+08         0.23681E+07         0.00000E+00
    0.23681E+07        -0.42568E+08         0.00000E+00
    0.00000E+00         0.00000E+00        -0.28654E+08
 
SCALARS stresss double 
LOOKUP_TABLE default
  -49926505.7209997     
  -50622739.3560767     
  -51294015.2698667     
  -51922696.1836128     
  -52502039.5615949     
  -53030239.5916177     
  -53517423.5239599     
  -53960474.6286116     
  -54340269.7638194     
  -54675261.0604927     
  -54974535.8214334     
  -55244312.1154353     
  -55489285.9613486     
  -55713129.8107280     
  -55918793.8368579     
  -56108698.7854752     
  -56284865.6219695     
  -56449006.3489295     
  -56602589.8469975     
  -56746891.0110339     
  -56883028.3461808     
  -57011993.3786835     
  -57134674.1388570     
  -57251874.2841148     
  -57364328.9838137     
  -57472718.3922025     
  -57577679.3371348     
  -57679815.7182533     
  -57779708.0195333     
  -57877922.2855628     
  -57975018.8819332     
  -58071561.3544132     
  -58168125.7189571     
  -58265310.5578125     
  -58363748.3724134     
  -58464118.7628076     
  -58567164.1852861     
  -58673709.3167296     
  -58784685.4799604     
  -58901162.2523563     
  -59024389.4558201     
  -59155854.5144578     
  -59297363.2477212     
  -59451157.6925286     
  -59620094.8937677     
  -59807930.8737786     
  -60019795.6026546     
  -60263034.2542689     
  -60548791.1534836     
  -60895184.2422187     
  -51282704.8598767     
  -51319421.8034966     
  -51437760.9327012     
  -51599097.1132073     
  -51785340.5722217     
  -51987615.9077139     
  -52189983.1078521     
  -52387933.6764512     
  -52596667.2779643     
  -52803577.4384632     
  -53003858.8976706     
  -53195597.4145289     
  -53378147.4121243     
  -53551501.5900901     
  -53715976.1148583     
  -53872047.4262139     
  -54020265.0938198     
  -54161204.3986495     
  -54295440.4368427     
  -54423534.2560148     
  -54546025.8922591     
  -54663431.4409391     
  -54776242.5141975     
  -54884927.1169110     
  -54989931.3617631     
  -55091681.6726850     
  -55190587.2630706     
  -55287042.7586532     
  -55381430.8858388     
  -55474125.1764956     
  -55565492.6561697     
  -55655896.4873867     
  -55745698.5334009     
  -55835261.7880657     
  -55924952.5785391     
  -56015142.3780526     
  -56106208.9454478     
  -56198536.2994917     
  -56292512.6707777     
  -56388524.9237706     
  -56486946.7577027     
  -56588115.7824756     
  -56692290.3060470     
  -56799568.1974760     
  -56909732.7417228     
  -57021953.1435394     
  -57134184.8018403     
  -57241924.9119241     
  -57335528.2078241     
  -57394180.4963054     
  -51238146.6641527     
  -51241152.3055397     
  -51243781.7578785     
  -51261737.5238501     
  -51297494.1234061     
  -51348820.9477195     
  -51414884.3536325     
  -51493029.0260997     
  -51576811.2748570     
  -51667160.3194334     
  -51762726.4642035     
  -51861715.9499674     
  -51962536.4122908     
  -52063925.4202119     
  -52164936.2283597     
  -52264884.9161838     
  -52363294.6046386     
  -52459847.4088671     
  -52554345.9670709     
  -52646683.5718914     
  -52736821.2786018     
  -52824770.4343932     
  -52910579.3370404     
  -52994323.0064498     
  -53076095.2847167     
  -53156002.6606996     
  -53234159.3494178     
  -53310683.2534231     
  -53385692.5003779     
  -53459302.2941556     
  -53531621.8395394     
  -53602751.1047792     
  -53672777.1717256     
  -53741769.8879172     
  -53809776.4746574     
  -53876814.6531480     
  -53942863.7179911     
  -54007852.8026519     
  -54071645.3346169     
  -54134018.3692507     
  -54194635.1584720     
  -54253009.1005912     
  -54308457.5768325     
  -54360046.3449608     
  -54406532.4452286     
  -54446334.7600792     
  -54477619.7379638     
  -54498747.4933318     
  -54509748.1521428     
  -54516647.4036310     
  -51464326.7147693     
  -51329681.1697123     
  -51230668.4123266     
  -51155775.5457414     
  -51100525.3183607     
  -51062564.8843098     
  -51039489.0096422     
  -51029341.0448954     
  -51031188.8619858     
  -51042582.1664765     
  -51062051.1250002     
  -51088408.0938607     
  -51120551.1609961     
  -51157459.0674767     
  -51198211.4038308     
  -51242000.6576220     
  -51288132.9689616     
  -51336021.1407586     
  -51385173.6238487     
  -51435182.0510949     
  -51485708.8257027     
  -51536475.5305243     
  -51587252.4726675     
  -51637849.4202702     
  -51688107.4512040     
  -51737891.7663083     
  -51787085.2912220     
  -51835582.8823263     
  -51883285.9529991     
  -51930097.3403005     
  -51975916.2362152     
  -52020633.0103496     
  -52064123.7525713     
  -52106244.3659600     
  -52146824.0460110     
  -52185657.9977965     
  -52222499.2804711     
  -52257049.7486814     
  -52288950.2183151     
  -52317770.2779737     
  -52342998.6892353     
  -52364036.1970248     
  -52380193.9396682     
  -52390702.4737261     
  -52394737.8869590     
  -52391468.9086221     
  -52380109.5504146     
  -52359884.7053514     
  -52329555.7106659     
  -52285331.4598484     
  -51648745.7525156     
  -51488690.9962342     
  -51347004.0820882     
  -51224500.1200680     
  -51119484.7187223     
  -51029983.6514120     
  -50954355.3084823     
  -50891147.7903002     
  -50838872.4811013     
  -50796546.2672329     
  -50763049.4420858     
  -50737352.8021352     
  -50718546.3943599     
  -50705815.4378993     
  -50698421.2669496     
  -50695691.1126901     
  -50697012.8004192     
  -50701831.1366496     
  -50709644.3739930     
  -50720000.2094433     
  -50732491.2906460     
  -50746750.3931934     
  -50762445.4594997     
  -50779274.6533300     
  -50796961.5310501     
  -50815250.3811818     
  -50833901.7445630     
  -50852688.0991363     
  -50871389.6748720     
  -50889790.3539463     
  -50907673.6078156     
  -50924818.4256734     
  -50940995.1981450     
  -50955961.5369669     
  -50969458.0375479     
  -50981204.0289671     
  -50990893.4072243     
  -50998190.7126250     
  -51002727.6854901     
  -51004100.5964547     
  -51001868.6490278     
  -50995553.5851013     
  -50984640.0807685     
  -50968575.2598604     
  -50946763.3066029     
  -50918548.0617651     
  -50883176.7796746     
  -50839761.0903027     
  -50787368.7987590     
  -50725840.7746626     
  -51791004.6751191     
  -51634700.3431977     
  -51491606.0406457     
  -51360315.2623619     
  -51240282.4380622     
  -51130969.6329235     
  -51031733.5492101     
  -50941895.5966564     
  -50860827.0866069     
  -50787834.8654800     
  -50722318.3091568     
  -50663696.1905650     
  -50611405.1171472     
  -50564908.3451747     
  -50523698.8175196     
  -50487298.5647891     
  -50455256.9765172     
  -50427149.0414751     
  -50402573.7946239     
  -50381152.8905247     
  -50362529.1737901     
  -50346365.1579809     
  -50332341.3758137     
  -50320154.6002905     
  -50309515.9557464     
  -50300148.9443768     
  -50291787.4129008     
  -50284173.4798687     
  -50277055.4395112     
  -50270185.6546393     
  -50263318.4498222     
  -50256208.0172580     
  -50248606.3513762     
  -50240261.2337810     
  -50230914.2965721     
  -50220299.1972929     
  -50208139.9392091     
  -50194149.3607566     
  -50178027.7900607     
  -50159461.8058455     
  -50138122.9610296     
  -50113666.2265640     
  -50085727.8737636     
  -50053922.7311732     
  -50017841.6348334     
  -49977051.9941259     
  -49931107.3989151     
  -49879569.6952464     
  -49822005.4082402     
  -49757699.9456959     
  -51868639.2433451     
  -51736606.0909795     
  -51609972.4059548     
  -51489236.3613074     
  -51374486.4817205     
  -51265735.2518035     
  -51162950.4735683     
  -51066048.1927492     
  -50974883.8320803     
  -50889291.6629101     
  -50809058.8512323     
  -50733955.7562743     
  -50663740.1469460     
  -50598159.0640630     
  -50536952.1392470     
  -50479854.9273820     
  -50426601.5465732     
  -50376926.5905422     
  -50330566.4906330     
  -50287260.4976311     
  -50246751.3939913     
  -50208785.9973317     
  -50173115.4875143     
  -50139495.5771398     
  -50107686.5416123     
  -50077453.1249857     
  -50048564.3388201     
  -50020793.1721298     
  -49993916.2309141     
  -49967713.3257933     
  -49941967.0260844     
  -49916462.1982653     
  -49890985.5460916     
  -49865325.1683700     
  -49839270.1481468     
  -49812610.1834934     
  -49785135.2651431     
  -49756635.4009230     
  -49726900.3841832     
  -49695719.6095119     
  -49662881.9644446     
  -49628175.8832206     
  -49591389.7404294     
  -49552312.8443476     
  -49510737.1893280     
  -49466459.4328794     
  -49419280.7649120     
  -49369000.7008038     
  -49315412.3778613     
  -49258398.9214758     
  -51885215.7381891     
  -51779830.8734305     
  -51675621.5331403     
  -51573055.9743660     
  -51472596.9876605     
  -51374607.4305265     
  -51279364.9521006     
  -51187078.4606977     
  -51097901.6301214     
  -51011933.1952975     
  -50929231.6229214     
  -50849814.8200469     
  -50773666.9101705     
  -50700743.9086111     
  -50630977.9323471     
  -50564280.7557854     
  -50500546.9918543     
  -50439656.9327519     
  -50381479.0492802     
  -50325872.1687427     
  -50272687.3687612     
  -50221769.6285647     
  -50172959.2753855     
  -50126093.2571562     
  -50081006.2668011     
  -50037531.7390793     
  -49995502.7381229     
  -49954752.7521136     
  -49915116.4105296     
  -49876430.1387216     
  -49838532.7640466     
  -49801266.0872540     
  -49764475.4322805     
  -49728010.1871271     
  -49691724.3482645     
  -49655477.0814209     
  -49619133.3131807     
  -49582564.3711968     
  -49545648.6963425     
  -49508272.6570150     
  -49470331.5006667     
  -49431730.4725553     
  -49392386.1045009     
  -49352227.6204472     
  -49311198.3571647     
  -49269257.2245782     
  -49226380.9159319     
  -49182568.9436931     
  -49137851.3761375     
  -49092263.6979716     
  -51849165.1454764     
  -51767319.4245245     
  -51684260.3432929     
  -51600556.6420872     
  -51516686.7175552     
  -51433075.2980351     
  -51350092.7793861     
  -51268056.9495299     
  -51187235.8906329     
  -51107853.7291297     
  -51030092.6115529     
  -50954098.0105037     
  -50879981.6018902     
  -50807824.3548979     
  -50737679.6965735     
  -50669576.4716640     
  -50603521.6647803     
  -50539502.9185187     
  -50477490.8752811     
  -50417441.3577435     
  -50359297.3976623     
  -50302991.1226536     
  -50248445.5119653     
  -50195576.0332356     
  -50144292.1724124     
  -50094498.8686365     
  -50046097.8653000     
  -49998988.9878947     
  -49953071.3588010     
  -49908244.5588495     
  -49864409.7453332     
  -49821470.7361453     
  -49779335.0698871     
  -49737915.0521487     
  -49697128.7987474     
  -49656901.2874908     
  -49617165.4309099     
  -49577863.1830974     
  -49538946.6938262     
  -49500379.5219840     
  -49462137.9180759     
  -49424212.1839632     
  -49386608.1227260     
  -49349348.6120255     
  -49312475.3736463     
  -49276051.0260566     
  -49240161.3208900     
  -49204916.8150415     
  -49170453.2395801     
  -49136942.5972224     
  -51772587.4056531     
  -51709423.3622081     
  -51644113.3937220     
  -51577101.8149441     
  -51508806.8782153     
  -51439610.1756004     
  -51369858.8289814     
  -51299866.5043258     
  -51229914.3933599     
  -51160251.8726110     
  -51091098.2839194     
  -51022644.0270526     
  -50955052.3924380     
  -50888461.2873429     
  -50822984.9432008     
  -50758715.6634658     
  -50695725.5886102     
  -50634068.4497379     
  -50573781.2944288     
  -50514886.1766076     
  -50457391.8056990     
  -50401295.1518105     
  -50346583.0047906     
  -50293233.4861710     
  -50241217.5141738     
  -50190500.2230192     
  -50141042.3386559     
  -50092801.5137487     
  -50045733.6253418     
  -49999794.0391048     
  -49954938.8445041     
  -49911126.0656422     
  -49868316.8528806     
  -49826476.6606985     
  -49785576.4175158     
  -49745593.6933864     
  -49706513.8715194     
  -49668331.3295194     
  -49631050.6361709     
  -49594687.7697947     
  -49559271.3650306     
  -49524843.9964043     
  -49491463.5078263     
  -49459204.3929348     
  -49428159.2153947     
  -49398440.0354243     
  -49370179.8385692     
  -49343534.2032492     
  -49318683.6949732     
  -49295833.1082012     
  -51667695.9085107     
  -51618977.6398974     
  -51567885.1374069     
  -51514760.0429259     
  -51459925.9801505     
  -51403690.0484243     
  -51346340.8584310     
  -51288147.6712275     
  -51229359.9457216     
  -51170207.2698012     
  -51110899.3147493     
  -51051626.2144635     
  -50992558.9625416     
  -50933850.0344130     
  -50875634.1526418     
  -50818029.1516281     
  -50761136.9273392     
  -50705044.4586139     
  -50649824.8848336     
  -50595538.6255448     
  -50542234.5297001     
  -50489951.0443092     
  -50438717.3940866     
  -50388554.7651643     
  -50339477.4872307     
  -50291494.2096198     
  -50244609.0679327     
  -50198822.8387263     
  -50154134.0806554     
  -50110540.2611890     
  -50068038.8686572     
  -50026628.5099086     
  -49986309.9942786     
  -49947087.4048852     
  -49908969.1584881     
  -49871969.0552637     
  -49836107.3198986     
  -49801411.6353809     
  -49767918.1707712     
  -49735672.6039905     
  -49704731.1400687     
  -49675161.5241006     
  -49647044.0463491     
  -49620472.5357020     
  -49595555.3403255     
  -49572416.3035422     
  -49551195.7432127     
  -49532051.3642518     
  -49515158.8674390     
  -49500713.4437558     
  -51545487.0029204     
  -51507989.9711646     
  -51468215.0828839     
  -51426415.8797779     
  -51382839.6298818     
  -51337725.0286172     
  -51291301.2810098     
  -51243787.0984077     
  -51195389.8900529     
  -51146305.1417876     
  -51096716.0355836     
  -51046793.1906876     
  -50996694.6094948     
  -50946565.7482247     
  -50896539.7199188     
  -50846737.6195655     
  -50797268.9545171     
  -50748232.1657594     
  -50699715.2276405     
  -50651796.3146176     
  -50604544.5242680     
  -50558020.6465921     
  -50512277.9705442     
  -50467363.1196726     
  -50423316.9096745     
  -50380175.2215522     
  -50337969.8848859     
  -50296729.5664982     
  -50256480.6604916     
  -50217248.1762634     
  -50179056.6216536     
  -50141930.8788490     
  -50105897.0710409     
  -50070983.4181255     
  -50037221.0799297     
  -50004644.9855428     
  -49973294.6473309     
  -49943214.9580885     
  -49914456.9695287     
  -49887078.6499191     
  -49861145.6181903     
  -49836731.8513743     
  -49813920.3619289     
  -49792803.8412082     
  -49773485.2639108     
  -49756078.4436307     
  -49740708.5241140     
  -49727512.4104407     
  -49716639.2198315     
  -49708250.3791261     
  -51415086.6857682     
  -51386438.1599614     
  -51355723.9033540     
  -51323136.9504552     
  -51288867.1661968     
  -51253100.4574140     
  -51216017.7446563     
  -51177794.1533002     
  -51138598.3175175     
  -51098591.8010985     
  -51057928.6239852     
  -51016754.9183223     
  -50975208.6854931     
  -50933419.6672356     
  -50891509.3174002     
  -50849590.8672507     
  -50807769.4780907     
  -50766142.4737210     
  -50724799.6447133     
  -50683823.6165272     
  -50643290.2737147     
  -50603269.2327290     
  -50563824.3561764     
  -50525014.3017386     
  -50486893.0994285     
  -50449510.7513071     
  -50412913.8482713     
  -50377146.1989922     
  -50342249.4665399     
  -50308263.8086513     
  -50275228.5179807     
  -50243182.6590085     
  -50212165.6985560     
  -50182218.1270762     
  -50153382.0680296     
  -50125701.8727349     
  -50099224.6980789     
  -50074001.0643951     
  -50050085.3906752     
  -50027536.5040713     
  -50006418.1203796     
  -49986799.2918430     
  -49968754.8180994     
  -49952365.6153912     
  -49937719.0385463     
  -49924909.1507156     
  -49914036.9377119     
  -49905210.4586686     
  -49898544.8933413     
  -49894162.5844327     
  -51283625.0802132     
  -51262017.6236763     
  -51238588.1459344     
  -51213486.8044414     
  -51186862.3283030     
  -51158861.2751653     
  -51129627.4330797     
  -51099301.2396050     
  -51068019.2644619     
  -51035913.7584359     
  -51003112.2732229     
  -50969737.3480736     
  -50935906.2702776     
  -50901730.9040167     
  -50867317.5882980     
  -50832767.1012486     
  -50798174.6871346     
  -50763630.1422192     
  -50729217.9551851     
  -50695017.4974804     
  -50661103.2587173     
  -50627545.1221521     
  -50594408.6752789     
  -50561755.5506405     
  -50529643.7920989     
  -50498128.2419851     
  -50467260.9447658     
  -50437091.5630977     
  -50407667.8023850     
  -50379035.8401970     
  -50351240.7571347     
  -50324326.9659407     
  -50298338.6358331     
  -50273320.1091874     
  -50249316.3078036     
  -50226373.1260607     
  -50204537.8082871     
  -50183859.3076533     
  -50164388.6238298     
  -50146179.1165375     
  -50129286.7919595     
  -50113770.5587824     
  -50099692.4504263     
  -50087117.8098634     
  -50076115.4332701     
  -50066757.6682955     
  -50059120.4615033     
  -50053283.3499572     
  -50049329.4030831     
  -50047345.0793268     
  -51156334.8300207     
  -51140320.5510529     
  -51122727.1225007     
  -51103673.2279976     
  -51083276.7436268     
  -51061654.3181982     
  -51038920.9464670     
  -51015189.5810664     
  -50990570.7746236     
  -50965172.3575646     
  -50939099.1549030     
  -50912452.7457739     
  -50885331.2655930     
  -50857829.2528817     
  -50830037.5400198     
  -50802043.1873354     
  -50773929.4592967     
  -50745775.8409367     
  -50717658.0922002     
  -50689648.3375683     
  -50661815.1880514     
  -50634223.8924453     
  -50606936.5146189     
  -50580012.1335395     
  -50553507.0627310     
  -50527475.0858993     
  -50501967.7055267     
  -50477034.4013354     
  -50452722.8956368     
  -50429079.4227036     
  -50406148.9994349     
  -50383975.6947026     
  -50362602.8948853     
  -50342073.5631941     
  -50322430.4904755     
  -50303716.5352380     
  -50285974.8506861     
  -50269249.0965547     
  -50253583.6335280     
  -50239023.6979896     
  -50225615.5547993     
  -50213406.6257228     
  -50202445.5910629     
  -50192782.4619270     
  -50184468.6204293     
  -50177556.8250635     
  -50172101.1787460     
  -50168157.0570758     
  -50165780.9904237     
  -50165030.5056680     
  -51036764.9837358     
  -51025141.4079691     
  -51012169.0936102     
  -50997942.0138095     
  -50982553.7537023     
  -50966097.2061332     
  -50948664.2871502     
  -50930345.6633959     
  -50911230.4990823     
  -50891406.2247221     
  -50870958.3298756     
  -50849970.1814533     
  -50828522.8693075     
  -50806695.0795646     
  -50784562.9962177     
  -50762200.2307816     
  -50739677.7794297     
  -50717064.0066867     
  -50694424.6544193     
  -50671822.8745829     
  -50649319.2839567     
  -50626972.0389215     
  -50604836.9282012     
  -50582967.4814061     
  -50561415.0911558     
  -50540229.1465513     
  -50519457.1757680     
  -50499144.9955803     
  -50479336.8656755     
  -50460075.6456780     
  -50441402.9528774     
  -50423359.3187234     
  -50405984.3422264     
  -50389316.8384697     
  -50373394.9804996     
  -50358256.4329131     
  -50343938.4755035     
  -50330478.1153517     
  -50317912.1857743     
  -50306277.4305393     
  -50295610.5717637     
  -50285948.3598910     
  -50277327.6041298     
  -50269785.1817210     
  -50263358.0244052     
  -50258083.0804636     
  -50253997.2506145     
  -50251137.2959571     
  -50249539.7174986     
  -50249240.6033776     
  -50927048.1579997     
  -50918805.2827867     
  -50909426.3127817     
  -50898985.0105582     
  -50887555.0653663     
  -50875209.8737260     
  -50862022.3267045     
  -50848064.6092132     
  -50833408.0118010     
  -50818122.7568599     
  -50802277.8406542     
  -50785940.8923350     
  -50769178.0506429     
  -50752053.8589104     
  -50734631.1785273     
  -50716971.1208279     
  -50699132.9970823     
  -50681174.2860176     
  -50663150.6180893     
  -50645115.7755303     
  -50627121.7070490     
  -50609218.5559186     
  -50591454.7000944     
  -50573876.8029272     
  -50556529.8729874     
  -50539457.3314911     
  -50522701.0858094     
  -50506301.6075547     
  -50490298.0137583     
  -50474728.1496881     
  -50459628.6718965     
  -50445035.1301343     
  -50430982.0468141     
  -50417502.9927566     
  -50404630.6579980     
  -50392396.9164822     
  -50380832.8835010     
  -50369968.9647784     
  -50359834.8961279     
  -50350459.7726339     
  -50341872.0663316     
  -50334099.6313766     
  -50327169.6957160     
  -50321108.8382900     
  -50315942.9508095     
  -50311697.1831787     
  -50308395.8716917     
  -50306062.4492451     
  -50304719.3364593     
  -50304387.8136741     
  -50828186.8930139     
  -50822483.2255845     
  -50815835.1325010     
  -50808299.5902191     
  -50799933.7640481     
  -50790794.8338650     
  -50780939.8279234     
  -50770425.4649538     
  -50759308.0059991     
  -50747643.1167748     
  -50735485.7412960     
  -50722889.9873492     
  -50709909.0242543     
  -50696594.9931341     
  -50682998.9297773     
  -50669170.6999887     
  -50655158.9471663     
  -50641011.0516973     
  -50626773.1016286     
  -50612489.8739484     
  -50598204.8257135     
  -50583960.0941710     
  -50569796.5049563     
  -50555753.5873985     
  -50541869.5959260     
  -50528181.5365456     
  -50514725.1973606     
  -50501535.1820915     
  -50488644.9455802     
  -50476086.8302728     
  -50463892.1027060     
  -50452090.9890494     
  -50440712.7087900     
  -50429785.5056807     
  -50419336.6751100     
  -50409392.5870863     
  -50399978.7040647     
  -50391119.5928795     
  -50382838.9300777     
  -50375159.4999818     
  -50368103.1848415     
  -50361690.9464653     
  -50355942.7987558     
  -50350877.7706060     
  -50346513.8586528     
  -50342867.9694290     
  -50339955.8504972     
  -50337792.0101752     
  -50336389.6256560     
  -50335760.4391155     
  -50740333.3538841     
  -50736481.4475785     
  -50731853.8154675     
  -50726493.5805075     
  -50720444.2514617     
  -50713749.5805446     
  -50706453.4273971     
  -50698599.6302267     
  -50690231.8845075     
  -50681393.6297276     
  -50672127.9445537     
  -50662477.4506889     
  -50652484.2255909     
  -50642189.7241331     
  -50631634.7091715     
  -50620859.1908874     
  -50609902.3746781     
  -50598802.6172742     
  -50587597.3906836     
  -50576323.2534847     
  -50565015.8289306     
  -50553709.7892712     
  -50542438.8456558     
  -50531235.7429445     
  -50520132.2587357     
  -50509159.2058957     
  -50498346.4378735     
  -50487722.8560811     
  -50477316.4186253     
  -50467154.1496872     
  -50457262.1488648     
  -50447665.5998077     
  -50438388.7775003     
  -50429455.0535721     
  -50420886.8990418     
  -50412705.8839291     
  -50404932.6732010     
  -50397587.0185476     
  -50390687.7455179     
  -50384252.7355786     
  -50378298.9026972     
  -50372842.1640866     
  -50367897.4047911     
  -50363478.4358348     
  -50359597.9457026     
  -50356267.4449694     
  -50353497.2039498     
  -50351296.1833066     
  -50349671.9575797     
  -50348630.6317380     
  -50663043.3259233     
  -50660495.8568440     
  -50657317.6331578     
  -50653540.5522134     
  -50649197.0257744     
  -50644319.8617695     
  -50638942.1515362     
  -50633097.1627923     
  -50626818.2386393     
  -50620138.7028084     
  -50613091.7713232     
  -50605710.4706912     
  -50598027.5626815     
  -50590075.4756788     
  -50581886.2425435     
  -50573491.4448450     
  -50564922.1632763     
  -50556208.9340031     
  -50547381.7106482     
  -50538469.8315660     
  -50529501.9920215     
  -50520506.2208538     
  -50511509.8611731     
  -50502539.5546175     
  -50493621.2286802     
  -50484780.0865996     
  -50476040.5993023     
  -50467426.4988816     
  -50458960.7730962     
  -50450665.6603780     
  -50442562.6448447     
  -50434672.4508239     
  -50427015.0364109     
  -50419609.5855952     
  -50412474.4985149     
  -50405627.3794166     
  -50399085.0219263     
  -50392863.3912645     
  -50386977.6030696     
  -50381441.8985303     
  -50376269.6155665     
  -50371473.1558384     
  -50367063.9474124     
  -50363052.4029606     
  -50359447.8734229     
  -50356258.5971193     
  -50353491.6443553     
  -50351152.8576245     
  -50349246.7875803     
  -50347776.6249950     
  -50595492.3827216     
  -50593826.1540156     
  -50591650.8734467     
  -50588989.5641384     
  -50585865.8283140     
  -50582303.7494297     
  -50578327.7987194     
  -50573962.7463349     
  -50569233.5772152     
  -50564165.4118022     
  -50558783.4316819     
  -50553112.8101970     
  -50547178.6480367     
  -50541005.9137711     
  -50534619.3892588     
  -50528043.6198164     
  -50521302.8690022     
  -50514421.0778296     
  -50507421.8281926     
  -50500328.3102561     
  -50493163.2935335     
  -50485949.1013523     
  -50478707.5883841     
  -50471460.1208985     
  -50464227.5593835     
  -50457030.2431639     
  -50449887.9766374     
  -50442820.0167433     
  -50435845.0612702     
  -50428981.2376136     
  -50422246.0915881     
  -50415656.5759083     
  -50409229.0379548     
  -50402979.2064561     
  -50396922.1767262     
  -50391072.3941182     
  -50385443.6353733     
  -50380048.9875732     
  -50374900.8244308     
  -50370010.7796940     
  -50365389.7174744     
  -50361047.6993602     
  -50356993.9482229     
  -50353236.8086814     
  -50349783.7042474     
  -50346641.0912355     
  -50343814.4095852     
  -50341308.0308097     
  -50339125.2033432     
  -50337267.9956283     
  -50536648.9597698     
  -50535547.1334770     
  -50534036.1771317     
  -50532132.2933959     
  -50529852.2763682     
  -50527213.4313908     
  -50524233.4983445     
  -50520930.5785334     
  -50517323.0652531     
  -50513429.5781094     
  -50509268.9011343     
  -50504859.9247230     
  -50500221.5913882     
  -50495372.8453022     
  -50490332.5855748     
  -50485119.6231838     
  -50479752.6414538     
  -50474250.1599514     
  -50468630.5016439     
  -50462911.7631441     
  -50457111.7878437     
  -50451248.1417180     
  -50445338.0915664     
  -50439398.5854361     
  -50433446.2349611     
  -50427497.2993343     
  -50421567.6706199     
  -50415672.8600995     
  -50409827.9853387     
  -50404047.7576545     
  -50398346.4696566     
  -50392737.9825356     
  -50387235.7127730     
  -50381852.6179502     
  -50376601.1813435     
  -50371493.3950076     
  -50366540.7410629     
  -50361754.1709324     
  -50357144.0822982     
  -50352720.2935873     
  -50348492.0158360     
  -50344467.8218312     
  -50340655.6124820     
  -50337062.5804313     
  -50333695.1709822     
  -50330559.0404803     
  -50327659.0123586     
  -50324999.0311226     
  -50322582.1146157     
  -50320410.3049709     
  -50485404.6553378     
  -50484638.4572911     
  -50483543.4812485     
  -50482130.8473525     
  -50480412.2411287     
  -50478399.8486333     
  -50476106.2942956     
  -50473544.5815459     
  -50470728.0362979     
  -50467670.2533455     
  -50464385.0457112     
  -50460886.3969713     
  -50457188.4165612     
  -50453305.2980459     
  -50449251.2803259     
  -50445040.6117232     
  -50440687.5168788     
  -50436206.1663729     
  -50431610.6489587     
  -50426914.9462846     
  -50422132.9099620     
  -50417278.2408174     
  -50412364.4701501     
  -50407404.9428029     
  -50402412.8018336     
  -50397400.9745624     
  -50392382.1597552     
  -50387368.8156860     
  -50382373.1488156     
  -50377407.1028054     
  -50372482.3475821     
  -50367610.2681606     
  -50362801.9529293     
  -50358068.1811035     
  -50353419.4090566     
  -50348865.7552515     
  -50344416.9835086     
  -50340082.4843679     
  -50335871.2543366     
  -50331791.8728431     
  -50327852.4767674     
  -50324060.7324618     
  -50320423.8052373     
  -50316948.3263495     
  -50313640.3575841     
  -50310505.3536130     
  -50307548.1223617     
  -50304772.7836986     
  -50302182.7268246     
  -50299780.5668059     
  -50440665.8847024     
  -50440077.0331482     
  -50439222.7987934     
  -50438110.6415636     
  -50436748.5358106     
  -50435144.9185342     
  -50433308.6396808     
  -50431248.9146022     
  -50428975.2787470     
  -50426497.5446434     
  -50423825.7612186     
  -50420970.1754859     
  -50417941.1966171     
  -50414749.3624005     
  -50411405.3080716     
  -50407919.7374888     
  -50404303.3966070     
  -50400567.0491920     
  -50396721.4546979     
  -50392777.3482160     
  -50388745.4223870     
  -50384636.3111524     
  -50380460.5752031     
  -50376228.6889684     
  -50371951.0289699     
  -50367637.8633495     
  -50363299.3423649     
  -50358945.4896270     
  -50354586.1938435     
  -50350231.2008158     
  -50345890.1054265     
  -50341572.3433452     
  -50337287.1821754     
  -50333043.7117629     
  -50328850.8333878     
  -50324717.2475740     
  -50320651.4402591     
  -50316661.6670947     
  -50312755.9356702     
  -50308941.9854920     
  -50305227.2655919     
  -50301618.9096897     
  -50298123.7088907     
  -50294748.0819639     
  -50291498.0433125     
  -50288379.1688201     
  -50285396.5598268     
  -50282554.8055637     
  -50279857.9444368     
  -50277309.4246214     
  -50401413.0666274     
  -50400897.8361065     
  -50400166.3958512     
  -50399223.6710265     
  -50398075.0367416     
  -50396726.2771678     
  -50395183.5462691     
  -50393453.3302345     
  -50391542.4116913     
  -50389457.8357641     
  -50387206.8780354     
  -50384797.0144470     
  -50382235.8931710     
  -50379531.3084657     
  -50376691.1765148     
  -50373723.5132393     
  -50370636.4140537     
  -50367438.0355238     
  -50364136.5788724     
  -50360740.2752581     
  -50357257.3727425     
  -50353696.1248427     
  -50350064.7805480     
  -50346371.5756672     
  -50342624.7253511     
  -50338832.4176215     
  -50335002.8077174     
  -50331144.0130553     
  -50327264.1085816     
  -50323371.1222830     
  -50319473.0306054     
  -50315577.7535217     
  -50311693.1489844     
  -50307827.0064908     
  -50303987.0394930     
  -50300180.8763930     
  -50296416.0498722     
  -50292699.9843284     
  -50289039.9812198     
  -50285443.2021494     
  -50281916.6495675     
  -50278467.1450193     
  -50275101.3049214     
  -50271825.5139152     
  -50268645.8959105     
  -50265568.2830054     
  -50262598.1825398     
  -50259740.7426089     
  -50257000.7164327     
  -50254382.4260397     
  -50366734.1848893     
  -50366229.6221191     
  -50365546.4457045     
  -50364687.9066090     
  -50363657.6364653     
  -50362459.6155601     
  -50361098.1421005     
  -50359577.8028589     
  -50357903.4452835     
  -50356080.1511474     
  -50354113.2117996     
  -50352008.1050658     
  -50349770.4738364     
  -50347406.1063641     
  -50344920.9182816     
  -50342320.9363341     
  -50339612.2838104     
  -50336801.1676402     
  -50333893.8671107     
  -50330896.7241439     
  -50327816.1350564     
  -50324658.5437120     
  -50321430.4359583     
  -50318138.3352241     
  -50314788.7991355     
  -50311388.4169924     
  -50307943.8079301     
  -50304461.6195718     
  -50300948.5269639     
  -50297411.2315681     
  -50293856.4600726     
  -50290290.9627735     
  -50286721.5112674     
  -50283154.8951956     
  -50279597.9177772     
  -50276057.3898774     
  -50272540.1223677     
  -50269052.9165551     
  -50265602.5524834     
  -50262195.7749433     
  -50258839.2770706     
  -50255539.6814597     
  -50252303.5187771     
  -50249137.2039187     
  -50246047.0098236     
  -50243039.0391233     
  -50240119.1938790     
  -50237293.1437235     
  -50234566.2927957     
  -50231943.7459111     
  -50335839.2922110     
  -50335311.7680933     
  -50334634.0650917     
  -50333808.3945138     
  -50332837.2804151     
  -50331723.5346354     
  -50330470.2328922     
  -50329080.6920323     
  -50327558.4485374     
  -50325907.2383615     
  -50324130.9781700     
  -50322233.7480353     
  -50320219.7756289     
  -50318093.4219400     
  -50315859.1685322     
  -50313521.6063410     
  -50311085.4259960     
  -50308555.4096424     
  -50305936.4242176     
  -50303233.4161284     
  -50300451.4072562     
  -50297595.4922048     
  -50294670.8366872     
  -50291682.6769344     
  -50288636.3199903     
  -50285537.1447413     
  -50282390.6035121     
  -50279202.2240417     
  -50275977.6116386     
  -50272722.4512992     
  -50269442.5095581     
  -50266143.6358310     
  -50262831.7630008     
  -50259512.9069931     
  -50256193.1650891     
  -50252878.7127286     
  -50249575.7985662     
  -50246290.7375657     
  -50243029.9019385     
  -50239799.7097679     
  -50236606.6111997     
  -50233457.0721282     
  -50230357.5553576     
  -50227314.4992811     
  -50224334.2941828     
  -50221423.2563326     
  -50218587.6001130     
  -50215833.4084832     
  -50213166.6021469     
  -50210592.9078502     
  -50308061.7132994     
  -50307497.7570433     
  -50306805.0037834     
  -50305985.0743537     
  -50305039.8396931     
  -50303971.4013748     
  -50302782.0730408     
  -50301474.3628531     
  -50300050.9570574     
  -50298514.7047450     
  -50296868.6038838     
  -50295115.7886772     
  -50293259.5182938     
  -50291303.1669980     
  -50289250.2156951     
  -50287104.2448937     
  -50284868.9290711     
  -50282548.0324134     
  -50280145.4058901     
  -50277664.9856060     
  -50275110.7923606     
  -50272486.9323289     
  -50269797.5987642     
  -50267047.0746062     
  -50264239.7358627     
  -50261380.0556184     
  -50258472.6085055     
  -50255522.0754579     
  -50252533.2485534     
  -50249511.0357354     
  -50246460.4651929     
  -50243386.6891655     
  -50240294.9869348     
  -50237190.7667581     
  -50234079.5665008     
  -50230967.0527294     
  -50227859.0180389     
  -50224761.3764031     
  -50221680.1563642     
  -50218621.4919061     
  -50215591.6108956     
  -50212596.8210198     
  -50209643.4932000     
  -50206738.0425171     
  -50203886.9067456     
  -50201096.5226561     
  -50198373.3003079     
  -50195723.5956203     
  -50193153.6815645     
  -50190669.7183785     
  -50282850.6633536     
  -50282249.8760333     
  -50281536.3925451     
  -50280711.5458577     
  -50279776.8638571     
  -50278734.0540700     
  -50277584.9891960     
  -50276331.6935645     
  -50274976.3306122     
  -50273521.1914714     
  -50271968.6847392     
  -50270321.3274885     
  -50268581.7375623     
  -50266752.6271812     
  -50264836.7978785     
  -50262837.1367603     
  -50260756.6140775     
  -50258598.2820791     
  -50256365.2751036     
  -50254060.8108507     
  -50251688.1927620     
  -50249250.8134244     
  -50246752.1588968     
  -50244195.8138438     
  -50241585.4673491     
  -50238924.9192615     
  -50236218.0869168     
  -50233469.0120595     
  -50230681.8677767     
  -50227860.9652440     
  -50225010.7600689     
  -50222135.8580103     
  -50219241.0198440     
  -50216331.1651414     
  -50213411.3747287     
  -50210486.8915992     
  -50207563.1200612     
  -50204645.6229221     
  -50201740.1165302     
  -50198852.4635261     
  -50195988.6631908     
  -50193154.8393217     
  -50190357.2256119     
  -50187602.1485660     
  -50184896.0080373     
  -50182245.2555348     
  -50179656.3705047     
  -50177135.8348527     
  -50174690.1060258     
  -50172325.5890251     
  -50259758.9316475     
  -50259128.6991538     
  -50258398.0301103     
  -50257568.1604007     
  -50256640.4739796     
  -50255616.4907423     
  -50254497.8551440     
  -50253286.3256820     
  -50251983.7653396     
  -50250592.1330784     
  -50249113.4764527     
  -50247549.9254008     
  -50245903.6872568     
  -50244177.0430097     
  -50242372.3448201     
  -50240492.0147919     
  -50238538.5449815     
  -50236514.4986116     
  -50234422.5124430     
  -50232265.3002465     
  -50230045.6572997     
  -50227766.4658233     
  -50225430.7012554     
  -50223041.4392514     
  -50220601.8632810     
  -50218115.2726809     
  -50215585.0910100     
  -50213014.8745361     
  -50210408.3206760     
  -50207769.2761942     
  -50205101.7449571     
  -50202409.8950314     
  -50199698.0649074     
  -50196970.7686266     
  -50194232.6995931     
  -50191488.7328524     
  -50188743.9256330     
  -50186003.5159606     
  -50183272.9191756     
  -50180557.7222139     
  -50177863.6755412     
  -50175196.6826754     
  -50172562.7872701     
  -50169968.1577870     
  -50167419.0698337     
  -50164921.8863017     
  -50162483.0354910     
  -50160108.9874654     
  -50157806.2289330     
  -50155581.2369910     
  -50238428.3050273     
  -50237780.0041835     
  -50237040.8192298     
  -50236211.9975594     
  -50235294.8961275     
  -50234290.9716477     
  -50233201.7714998     
  -50232028.9254570     
  -50230774.1383324     
  -50229439.1836285     
  -50228025.8982591     
  -50226536.1784000     
  -50224971.9765053     
  -50223335.2995155     
  -50221628.2082650     
  -50219852.8180816     
  -50218011.3005589     
  -50216105.8864655     
  -50214138.8697428     
  -50212112.6125300     
  -50210029.5511414     
  -50207892.2029100     
  -50205703.1737944     
  -50203465.1666416     
  -50201180.9899766     
  -50198853.5671834     
  -50196485.9459275     
  -50194081.3076586     
  -50191642.9770198     
  -50189174.4309793     
  -50186679.3074930     
  -50184161.4134952     
  -50181624.7320131     
  -50179073.4281957     
  -50176511.8540489     
  -50173944.5516766     
  -50171376.2548312     
  -50168811.8885973     
  -50166256.5670494     
  -50163715.5887494     
  -50161194.4299825     
  -50158698.7356650     
  -50156234.3079002     
  -50153807.0922011     
  -50151423.1614516     
  -50149088.6977241     
  -50146809.9721255     
  -50144593.3228919     
  -50142445.1319999     
  -50140371.8006071     
  -50218574.5802793     
  -50217920.9792945     
  -50217184.2057704     
  -50216365.5692942     
  -50215466.4582758     
  -50214488.3318480     
  -50213432.7124481     
  -50212301.1791877     
  -50211095.3621042     
  -50209816.9373763     
  -50208467.6235689     
  -50207049.1789591     
  -50205563.3999801     
  -50204012.1208022     
  -50202397.2140577     
  -50200720.5926987     
  -50198984.2129670     
  -50197190.0784356     
  -50195340.2450751     
  -50193436.8272794     
  -50191482.0047773     
  -50189478.0303435     
  -50187427.2382090     
  -50185332.0530634     
  -50183194.9995251     
  -50181018.7119502     
  -50178805.9444335     
  -50176559.5808497     
  -50174282.6447691     
  -50171978.3090748     
  -50169649.9050988     
  -50167300.9310885     
  -50164935.0598112     
  -50162556.1451002     
  -50160168.2271499     
  -50157775.5363693     
  -50155382.4956150     
  -50152993.7206364     
  -50150614.0185848     
  -50148248.3844612     
  -50145901.9954079     
  -50143580.2027786     
  -50141288.5219647     
  -50139032.6199917     
  -50136818.3009480     
  -50134651.4893538     
  -50132538.2116223     
  -50130484.5758151     
  -50128496.7499326     
  -50126580.9390228     
  -50199973.3538501     
  -50199326.9355233     
  -50198603.8566717     
  -50197805.5010129     
  -50196933.3072329     
  -50195988.7621287     
  -50194973.3944069     
  -50193888.7692409     
  -50192736.4836743     
  -50191518.1629492     
  -50190235.4578205     
  -50188890.0429034     
  -50187483.6160883     
  -50186017.8990383     
  -50184494.6387726     
  -50182915.6103253     
  -50181282.6204525     
  -50179597.5123499     
  -50177862.1713299     
  -50176078.5313954     
  -50174248.5826365     
  -50172374.3793631     
  -50170458.0488808     
  -50168501.8007998     
  -50166507.9367642     
  -50164478.8604718     
  -50162417.0878508     
  -50160325.2572454     
  -50158206.1394563     
  -50156062.6474734     
  -50153897.8457291     
  -50151714.9586980     
  -50149517.3786620     
  -50147308.6724589     
  -50145092.5870373     
  -50142873.0536391     
  -50140654.1904445     
  -50138440.3035256     
  -50136235.8859691     
  -50134045.6150542     
  -50131874.3473944     
  -50129727.1119834     
  -50127609.1011224     
  -50125525.6592387     
  -50123482.2696508     
  -50121484.5393753     
  -50119538.1821136     
  -50117648.9995977     
  -50115822.8615136     
  -50114065.6842588     
  -50182447.2749860     
  -50181819.2481975     
  -50181120.3322193     
  -50180351.9726786     
  -50179515.6521789     
  -50178612.8843532     
  -50177645.2085500     
  -50176614.1852445     
  -50175521.3922604     
  -50174368.4218738     
  -50173156.8788557     
  -50171888.3794981     
  -50170564.5516507     
  -50169187.0357842     
  -50167757.4870784     
  -50166277.5785237     
  -50164749.0050080     
  -50163173.4883497     
  -50161552.7832270     
  -50159888.6839413     
  -50158183.0319419     
  -50156437.7240295     
  -50154654.7211468     
  -50152836.0576539     
  -50150983.8509780     
  -50149100.3115175     
  -50147187.7526723     
  -50145248.6008628     
  -50143285.4053935     
  -50141300.8480088     
  -50139297.7519835     
  -50137279.0905842     
  -50135247.9947363     
  -50133207.7597287     
  -50131161.8507904     
  -50129113.9073785     
  -50127067.7460227     
  -50125027.3615848     
  -50122996.9268073     
  -50120980.7900421     
  -50118983.4710785     
  -50117009.6550126     
  -50115064.1841345     
  -50113152.0478439     
  -50111278.3706395     
  -50109448.3982678     
  -50107667.4821546     
  -50105941.0622789     
  -50104274.6486874     
  -50102673.8018769     
  -50165855.0844220     
  -50165254.8896776     
  -50164589.1522043     
  -50163859.3538619     
  -50163067.0003154     
  -50162213.6157710     
  -50161300.7383171     
  -50160329.9159560     
  -50159302.7034052     
  -50158220.6597337     
  -50157085.3468866     
  -50155898.3291359     
  -50154661.1734832     
  -50153375.4510276     
  -50152042.7392933     
  -50150664.6255064     
  -50149242.7107897     
  -50147778.6152406     
  -50146273.9838388     
  -50144730.4931270     
  -50143149.8585927     
  -50141533.8426739     
  -50139884.2632989     
  -50138203.0028676     
  -50136492.0175650     
  -50134753.3469003     
  -50132989.1233470     
  -50131201.5819594     
  -50129393.0698304     
  -50127566.0552508     
  -50125723.1364233     
  -50123867.0495834     
  -50122000.6763719     
  -50120127.0503087     
  -50118249.3622137     
  -50116370.9644290     
  -50114495.3737009     
  -50112626.2725922     
  -50110767.5093094     
  -50108923.0958454     
  -50107097.2043630     
  -50105294.1617657     
  -50103518.4424331     
  -50101774.6591288     
  -50100067.5521205     
  -50098401.9765883     
  -50096782.8884293     
  -50095215.3286040     
  -50093704.4061983     
  -50092255.2804062     
  -50150082.5109836     
  -50149517.6648038     
  -50148892.4047572     
  -50148208.2173193     
  -50147466.6034408     
  -50146669.0738158     
  -50145817.1447234     
  -50144912.3345197     
  -50143956.1608564     
  -50142950.1386809     
  -50141895.7790686     
  -50140794.5889218     
  -50139648.0715559     
  -50138457.7281839     
  -50137225.0602946     
  -50135951.5729094     
  -50134638.7786911     
  -50133288.2028662     
  -50131901.3889151     
  -50130479.9049698     
  -50129025.3508563     
  -50127539.3657054     
  -50126023.6360502     
  -50124479.9043208     
  -50122909.9776390     
  -50121315.7368081     
  -50119699.1453881     
  -50118062.2587393     
  -50116407.2329097     
  -50114736.3332378     
  -50113051.9425398     
  -50111356.5687416     
  -50109652.8518176     
  -50107943.5698991     
  -50106231.6444103     
  -50104520.1441015     
  -50102812.2878502     
  -50101111.4461130     
  -50099421.1409225     
  -50097745.0443400     
  -50096086.9752951     
  -50094450.8947629     
  -50092840.8992576     
  -50091261.2126495     
  -50089716.1763366     
  -50088210.2378415     
  -50086747.9379276     
  -50085333.8963633     
  -50083972.7964903     
  -50082669.3687782     
  -50135034.9383599     
  -50134511.0966598     
  -50133931.8801670     
  -50133298.7474189     
  -50132613.1650652     
  -50131876.6035747     
  -50131090.5334786     
  -50130256.4222224     
  -50129375.7316929     
  -50128449.9164720     
  -50127480.4228617     
  -50126468.6887102     
  -50125416.1440582     
  -50124324.2126133     
  -50123194.3140464     
  -50122027.8670968     
  -50120826.2934584     
  -50119591.0224114     
  -50118323.4961547     
  -50117025.1757859     
  -50115697.5478658     
  -50114342.1315001     
  -50112960.4858603     
  -50111554.2180620     
  -50110124.9913120     
  -50108674.5332263     
  -50107204.6442202     
  -50105717.2058617     
  -50104214.1890777     
  -50102697.6620944     
  -50101169.7979925     
  -50099632.8817531     
  -50098089.3166681     
  -50096541.6299908     
  -50094992.4777005     
  -50093444.6482614     
  -50091901.0652611     
  -50090364.7888217     
  -50088839.0156891     
  -50087327.0779200     
  -50085832.4401027     
  -50084358.6950697     
  -50082909.5580789     
  -50081488.8594703     
  -50080100.5358271     
  -50078748.6196989     
  -50077437.2279735     
  -50076170.5490105     
  -50074952.8286727     
  -50073788.3554210     
  -50120631.6616255     
  -50120152.8126935     
  -50119623.6101877     
  -50119045.4543058     
  -50118419.7492140     
  -50117747.8991388     
  -50117031.3049548     
  -50116271.3613354     
  -50115469.4545245     
  -50114626.9607744     
  -50113745.2454915     
  -50112825.6631145     
  -50111869.5577411     
  -50110878.2645108     
  -50109853.1117362     
  -50108795.4237693     
  -50107706.5245773     
  -50106587.7419957     
  -50105440.4126145     
  -50104265.8872500     
  -50103065.5369448     
  -50101840.7594322     
  -50100592.9859959     
  -50099323.6886492     
  -50098034.3875524     
  -50096726.6585818     
  -50095402.1409588     
  -50094062.5448423     
  -50092709.6587831     
  -50091345.3569359     
  -50089971.6059201     
  -50088590.4712176     
  -50087204.1229970     
  -50085814.8412495     
  -50084425.0201268     
  -50083037.1713722     
  -50081653.9267429     
  -50080278.0393273     
  -50078912.3836740     
  -50077559.9546598     
  -50076223.8650385     
  -50074907.3416339     
  -50073613.7201558     
  -50072346.4386422     
  -50071109.0295554     
  -50069905.1105807     
  -50068738.3742038     
  -50067612.5761665     
  -50066531.5229217     
  -50065499.0582310     
  -50106801.5088762     
  -50106370.2317792     
  -50105893.6390396     
  -50105373.0459494     
  -50104809.7692253     
  -50104205.1234603     
  -50103560.4180283     
  -50102876.9545014     
  -50102156.0246306     
  -50101398.9089315     
  -50100606.8759091     
  -50099781.1819446     
  -50098923.0718580     
  -50098033.7801510     
  -50097114.5329239     
  -50096166.5504528     
  -50095191.0504050     
  -50094189.2516592     
  -50093162.3786952     
  -50092111.6665060     
  -50091038.3659816     
  -50089943.7497074     
  -50088829.1181135     
  -50087695.8059083     
  -50086545.1887217     
  -50085378.6898821     
  -50084197.7872438     
  -50083004.0199792     
  -50081798.9952460     
  -50080584.3946352     
  -50079361.9803036     
  -50078133.6006936     
  -50076901.1957380     
  -50075666.8014528     
  -50074432.5538175     
  -50073200.6918476     
  -50071973.5597698     
  -50070753.6082136     
  -50069543.3943459     
  -50068345.5808841     
  -50067162.9339365     
  -50065998.3196358     
  -50064854.6995481     
  -50063735.1248590     
  -50062642.7293598     
  -50061580.7212770     
  -50060552.3740121     
  -50059561.0158755     
  -50058610.0189244     
  -50057702.7870277     
  -50093479.5923047     
  -50093097.3367056     
  -50092674.8313643     
  -50092213.2846273     
  -50091713.9048284     
  -50091177.8970926     
  -50090606.4605480     
  -50090000.7859978     
  -50089362.0540957     
  -50088691.4340625     
  -50087990.0829717     
  -50087259.1456248     
  -50086499.7550279     
  -50085713.0334719     
  -50084900.0942107     
  -50084062.0437264     
  -50083199.9845566     
  -50082315.0186599     
  -50081408.2512826     
  -50080480.7952873     
  -50079533.7758979     
  -50078568.3358088     
  -50077585.6406035     
  -50076586.8844222     
  -50075573.2958128     
  -50074546.1436991     
  -50073506.7433908     
  -50072456.4625621     
  -50071396.7271179     
  -50070329.0268665     
  -50069254.9209133     
  -50068176.0426905     
  -50067094.1045330     
  -50066010.9017164     
  -50064928.3158675     
  -50063848.3176660     
  -50062772.9687569     
  -50061704.4227995     
  -50060644.9255886     
  -50059596.8141900     
  -50058562.5150477     
  -50057544.5410297     
  -50056545.4873992     
  -50055568.0267101     
  -50054614.9026479     
  -50053688.9228523     
  -50052792.9507778     
  -50051929.8966692     
  -50051102.7077416     
  -50050314.3576754     
  -50080604.9632787     
  -50080272.3222294     
  -50079904.5235502     
  -50079502.6511589     
  -50079067.7882461     
  -50078601.0144361     
  -50078103.4033088     
  -50077576.0203261     
  -50077019.9212019     
  -50076436.1507464     
  -50075825.7422094     
  -50075189.7171396     
  -50074529.0857685     
  -50073844.8479231     
  -50073137.9944595     
  -50072409.5092073     
  -50071660.3714057     
  -50070891.5586055     
  -50070104.0500087     
  -50069298.8302089     
  -50068476.8932925     
  -50067639.2472566     
  -50066786.9186943     
  -50065920.9576955     
  -50065042.4429062     
  -50064152.4866885     
  -50063252.2403160     
  -50062342.8991414     
  -50061425.7076655     
  -50060501.9644384     
  -50059573.0267191     
  -50058640.3148176     
  -50057705.3160467     
  -50056769.5882062     
  -50055834.7625250     
  -50054902.5459903     
  -50053974.7229935     
  -50053053.1562315     
  -50052139.7868043     
  -50051236.6334611     
  -50050345.7909574     
  -50049469.4274948     
  -50048609.7812301     
  -50047769.1558545     
  -50046949.9152589     
  -50046154.4773168     
  -50045385.3068329     
  -50044644.9077215     
  -50043935.8144943     
  -50043260.5831479     
  -50068118.9686260     
  -50067835.9275272     
  -50067522.8395961     
  -50067180.6510123     
  -50066810.3069498     
  -50066412.7491066     
  -50065988.9135454     
  -50065539.7288830     
  -50065066.1148621     
  -50064568.9813289     
  -50064049.2276402     
  -50063507.7425111     
  -50062945.4043127     
  -50062363.0818208     
  -50061761.6354104     
  -50061141.9186852     
  -50060504.7805271     
  -50059851.0675421     
  -50059181.6268797     
  -50058497.3093917     
  -50057798.9730998     
  -50057087.4869305     
  -50056363.7346781     
  -50055628.6191497     
  -50054883.0664453     
  -50054128.0303219     
  -50053364.4965883     
  -50052593.4874747     
  -50051816.0659197     
  -50051033.3397137     
  -50050246.4654369     
  -50049456.6521290     
  -50048665.1646273     
  -50047873.3265077     
  -50047082.5225680     
  -50046294.2007902     
  -50045509.8737254     
  -50044731.1192466     
  -50043959.5806215     
  -50043196.9658634     
  -50042445.0463289     
  -50041705.6545381     
  -50040980.6812047     
  -50040272.0714784     
  -50039581.8204099     
  -50038911.9676671     
  -50038264.5915407     
  -50037641.8022951     
  -50037045.7349275     
  -50036478.5414167     
  -50055964.1340131     
  -50055730.2872891     
  -50055471.5147613     
  -50055188.6151234     
  -50054882.3860171     
  -50054553.6219430     
  -50054203.1124328     
  -50053831.6405147     
  -50053439.9814971     
  -50053028.9020915     
  -50052599.1598938     
  -50052151.5032315     
  -50051686.6713861     
  -50051205.3951894     
  -50050708.3979900     
  -50050196.3969807     
  -50049670.1048741     
  -50049130.2319065     
  -50048577.4881501     
  -50048012.5861072     
  -50047436.2435585     
  -50046849.1866327     
  -50046252.1530647     
  -50045645.8956027     
  -50045031.1855280     
  -50044408.8162428     
  -50043779.6068838     
  -50043144.4059144     
  -50042504.0946484     
  -50041859.5906560     
  -50041211.8509986     
  -50040561.8752447     
  -50039910.7082100     
  -50039259.4423717     
  -50038609.2199052     
  -50037961.2342915     
  -50037316.7314482     
  -50036677.0103406     
  -50036043.4230310     
  -50035417.3741337     
  -50034800.3196483     
  -50034193.7651512     
  -50033599.2633357     
  -50033018.4108998     
  -50032452.8447925     
  -50031904.2378401     
  -50031374.2937836     
  -50030864.7417719     
  -50030377.3303653     
  -50029913.8211114     
  -50044083.4307040     
  -50043898.1634682     
  -50043693.0953097     
  -50043468.8705457     
  -50043226.1324855     
  -50042965.5217375     
  -50042687.6747274     
  -50042393.2224520     
  -50042082.7894884     
  -50041756.9932760     
  -50041416.4436841     
  -50041061.7428734     
  -50040693.4854560     
  -50040312.2589535     
  -50039918.6445517     
  -50039513.2181406     
  -50039096.5516322     
  -50038669.2145395     
  -50038231.7758001     
  -50037784.8058233     
  -50037328.8787392     
  -50036864.5748226     
  -50036392.4830666     
  -50035913.2038740     
  -50035427.3518377     
  -50034935.5585743     
  -50034438.4755788     
  -50033936.7770611     
  -50033431.1627293     
  -50032922.3604780     
  -50032411.1289430     
  -50031898.2598805     
  -50031384.5803300     
  -50030870.9545176     
  -50030358.2854618     
  -50029847.5162380     
  -50029339.6308676     
  -50028835.6547932     
  -50028336.6549108     
  -50027843.7391298     
  -50027358.0554400     
  -50026880.7904694     
  -50026413.1675253     
  -50025956.4441158     
  -50025511.9089619     
  -50025080.8785147     
  -50024664.6930036     
  -50024264.7120488     
  -50023882.3098818     
  -50023518.8702214     
  -50032419.8112995     
  -50032282.4469619     
  -50032130.4077833     
  -50031964.1789561     
  -50031784.2447107     
  -50031591.0870336     
  -50031385.1845439     
  -50031167.0115497     
  -50030937.0372964     
  -50030695.7254203     
  -50030443.5336172     
  -50030180.9135314     
  -50029908.3108680     
  -50029626.1657289     
  -50029334.9131692     
  -50029034.9839677     
  -50028726.8056038     
  -50028410.8034287     
  -50028087.4020185     
  -50027757.0266943     
  -50027420.1051900     
  -50027077.0694525     
  -50026728.3575502     
  -50026374.4156704     
  -50026015.7001809     
  -50025652.6797324     
  -50025285.8373747     
  -50024915.6726599     
  -50024542.7037056     
  -50024167.4691877     
  -50023790.5302333     
  -50023412.4721843     
  -50023033.9061993     
  -50022655.4706639     
  -50022277.8323789     
  -50021901.6874970     
  -50021527.7621784     
  -50021156.8129409     
  -50020789.6266792     
  -50020427.0203331     
  -50020069.8401893     
  -50019718.9608023     
  -50019375.2835303     
  -50019039.7346822     
  -50018713.2632836     
  -50018396.8384704     
  -50018091.4465306     
  -50017798.0876170     
  -50017517.7721632     
  -50017251.5170378     
  -50020915.9266356     
  -50020825.8435403     
  -50020726.2146341     
  -50020617.3627146     
  -50020499.6096171     
  -50020373.2753552     
  -50020238.6773699     
  -50020096.1298992     
  -50019945.9434791     
  -50019788.4245811     
  -50019623.8753945     
  -50019452.5937557     
  -50019274.8732274     
  -50019091.0033255     
  -50018901.2698922     
  -50018705.9556122     
  -50018505.3406640     
  -50018299.7034997     
  -50018089.3217447     
  -50017874.4732069     
  -50017655.4369833     
  -50017432.4946517     
  -50017205.9315348     
  -50016976.0380218     
  -50016743.1109303     
  -50016507.4548962     
  -50016269.3837709     
  -50016029.2220103     
  -50015787.3060362     
  -50015543.9855518     
  -50015299.6247910     
  -50015054.6036823     
  -50014809.3189061     
  -50014564.1848264     
  -50014319.6342749     
  -50014076.1191710     
  -50013834.1109548     
  -50013594.1008193     
  -50013356.5997230     
  -50013122.1381707     
  -50012891.2657503     
  -50012664.5504166     
  -50012442.5775188     
  -50012225.9485668     
  -50012015.2797427     
  -50011811.2001608     
  -50011614.3498906     
  -50011425.3777545     
  -50011244.9389234     
  -50011073.6923317     
  -50009513.9590695     
  -50009470.6802413     
  -50009422.9937247     
  -50009371.0575524     
  -50009315.0287284     
  -50009255.0628031     
  -50009191.3135047     
  -50009123.9324350     
  -50009053.0688317     
  -50008978.8694022     
  -50008901.4782304     
  -50008821.0367578     
  -50008737.6838407     
  -50008651.5558800     
  -50008562.7870244     
  -50008471.5094434     
  -50008377.8536666     
  -50008281.9489861     
  -50008183.9239156     
  -50008083.9067034     
  -50007982.0258913     
  -50007878.4109134     
  -50007773.1927307     
  -50007666.5044901     
  -50007558.4822044     
  -50007449.2654424     
  -50007338.9980237     
  -50007227.8287077     
  -50007115.9118678     
  -50007003.4081446     
  -50006890.4850642     
  -50006777.3176166     
  -50006664.0887809     
  -50006550.9899889     
  -50006438.2215175     
  -50006325.9927998     
  -50006214.5226449     
  -50006104.0393582     
  -50005994.7807536     
  -50005886.9940499     
  -50005780.9356452     
  -50005676.8707642     
  -50005575.0729750     
  -50005475.8235727     
  -50005379.4108308     
  -50005286.1291221     
  -50005196.2779133     
  -50005110.1606397     
  -50005028.0834694     
  -50004950.3539664     
  -49998155.5265911     
  -49998158.7868495     
  -49998162.7967148     
  -49998167.5475092     
  -49998173.0293970     
  -49998179.2314027     
  -49998186.1414361     
  -49998193.7463211     
  -49998202.0318308     
  -49998210.9827242     
  -49998220.5827880     
  -49998230.8148783     
  -49998241.6609639     
  -49998253.1021692     
  -49998265.1188158     
  -49998277.6904625     
  -49998290.7959412     
  -49998304.4133919     
  -49998318.5202909     
  -49998333.0934768     
  -49998348.1091723     
  -49998363.5430004     
  -49998379.3699975     
  -49998395.5646226     
  -49998412.1007629     
  -49998428.9517364     
  -49998446.0902929     
  -49998463.4886122     
  -49998481.1183030     
  -49998498.9504005     
  -49998516.9553655     
  -49998535.1030840     
  -49998553.3628693     
  -49998571.7034664     
  -49998590.0930584     
  -49998608.4992765     
  -49998626.8892120     
  -49998645.2294304     
  -49998663.4859867     
  -49998681.6244418     
  -49998699.6098763     
  -49998717.4069033     
  -49998734.9796746     
  -49998752.2918813     
  -49998769.3067439     
  -49998785.9869907     
  -49998802.2948219     
  -49998818.1918560     
  -49998833.6390576     
  -49998848.5966434     
  -49986781.6276436     
  -49986831.4219557     
  -49986887.1555999     
  -49986948.6513056     
  -49987015.7304696     
  -49987088.2136267     
  -49987165.9208745     
  -49987248.6722438     
  -49987336.2880123     
  -49987428.5889522     
  -49987525.3965124     
  -49987626.5329272     
  -49987731.8212523     
  -49987841.0853261     
  -49987954.1496553     
  -49988070.8392270     
  -49988190.9792478     
  -49988314.3948143     
  -49988440.9105167     
  -49988570.3499833     
  -49988702.5353680     
  -49988837.2867892     
  -49988974.4217271     
  -49989113.7543855     
  -49989255.0950288     
  -49989398.2493001     
  -49989543.0175330     
  -49989689.1940644     
  -49989836.5665595     
  -49989984.9153599     
  -49990134.0128661     
  -49990283.6229629     
  -49990433.5005019     
  -49990583.3908498     
  -49990733.0295129     
  -49990882.1418496     
  -49991030.4428770     
  -49991177.6371827     
  -49991323.4189465     
  -49991467.4720783     
  -49991609.4704757     
  -49991749.0784029     
  -49991885.9509904     
  -49992019.7348529     
  -49992150.0688213     
  -49992276.5847790     
  -49992398.9085976     
  -49992516.6611557     
  -49992629.4594311     
  -49992736.9176506     
  -49975332.6084571     
  -49975429.2246279     
  -49975537.0177666     
  -49975655.6399469     
  -49975784.7417193     
  -49975923.9730401     
  -49976072.9841008     
  -49976231.4260472     
  -49976398.9515745     
  -49976575.2153921     
  -49976759.8745483     
  -49976952.5886102     
  -49977153.0196951     
  -49977360.8323516     
  -49977575.6932916     
  -49977797.2709753     
  -49978025.2350538     
  -49978259.2556758     
  -49978499.0026665     
  -49978744.1445887     
  -49978994.3476962     
  -49979249.2747939     
  -49979508.5840168     
  -49979771.9275439     
  -49980038.9502632     
  -49980309.2884046     
  -49980582.5681593     
  -49980858.4043049     
  -49981136.3988554     
  -49981416.1397576     
  -49981697.1996540     
  -49981979.1347339     
  -49982261.4836940     
  -49982543.7668300     
  -49982825.4852791     
  -49983106.1204336     
  -49983385.1335443     
  -49983661.9655294     
  -49983936.0370042     
  -49984206.7485435     
  -49984473.4811849     
  -49984735.5971772     
  -49984992.4409773     
  -49985243.3404909     
  -49985487.6085491     
  -49985724.5446117     
  -49985953.4366770     
  -49986173.5633819     
  -49986384.1962653     
  -49986584.6021675     
  -49963748.1433809     
  -49963892.1811506     
  -49964052.6980598     
  -49964229.1731624     
  -49964421.0838160     
  -49964627.9070739     
  -49964849.1209239     
  -49965084.2053572     
  -49965332.6432509     
  -49965593.9210483     
  -49965867.5292297     
  -49966152.9625619     
  -49966449.7201248     
  -49966757.3051107     
  -49967075.2244000     
  -49967402.9879153     
  -49967740.1077639     
  -49968086.0971752     
  -49968440.4692491     
  -49968802.7355275     
  -49969172.4044068     
  -49969548.9794107     
  -49969931.9573439     
  -49970320.8263491     
  -49970715.0638919     
  -49971114.1346993     
  -49971517.4886784     
  -49971924.5588447     
  -49972334.7592891     
  -49972747.4832134     
  -49973162.1010672     
  -49973577.9588163     
  -49973994.3763756     
  -49974410.6462381     
  -49974826.0323300     
  -49975239.7691224     
  -49975651.0610277     
  -49976059.0821055     
  -49976462.9760993     
  -49976861.8568245     
  -49977254.8089195     
  -49977640.8889693     
  -49978019.1270034     
  -49978388.5283665     
  -49978748.0759497     
  -49979096.7327675     
  -49979433.4448559     
  -49979757.1444636     
  -49980066.7534999     
  -49980361.1871995     
  -49951967.2244134     
  -49952159.6018350     
  -49952373.8417148     
  -49952609.2474237     
  -49952865.1205165     
  -49953140.7625891     
  -49953435.4769302     
  -49953748.5699406     
  -49954079.3523019     
  -49954427.1398738     
  -49954791.2543069     
  -49955171.0233598     
  -49955565.7809156     
  -49955974.8666946     
  -49956397.6256656     
  -49956833.4071626     
  -49957281.5637158     
  -49957741.4496114     
  -49958212.4191968     
  -49958693.8249502     
  -49959185.0153394     
  -49959685.3324930     
  -49960194.1097148     
  -49960710.6688681     
  -49961234.3176658     
  -49961764.3468985     
  -49962300.0276373     
  -49962840.6084502     
  -49963385.3126697     
  -49963933.3357545     
  -49964483.8427857     
  -49965035.9661394     
  -49965588.8033807     
  -49966141.4154180     
  -49966692.8249630     
  -49967242.0153320     
  -49967787.9296299     
  -49968329.4703478     
  -49968865.4994066     
  -49969394.8386696     
  -49969916.2709445     
  -49970428.5414860     
  -49970930.3600031     
  -49971420.4031684     
  -49971897.3176152     
  -49972359.7234028     
  -49972806.2179183     
  -49973235.3801767     
  -49973645.7754730     
  -49974035.9603329     
  -49939928.1590565     
  -49940170.1057291     
  -49940439.3947141     
  -49940735.1508679     
  -49941056.4971982     
  -49941402.5571872     
  -49941772.4568543     
  -49942165.3265270     
  -49942580.3022922     
  -49943016.5271063     
  -49943473.1515456     
  -49943949.3341845     
  -49944444.2415931     
  -49944957.0479539     
  -49945486.9342974     
  -49946033.0873680     
  -49946594.6981304     
  -49947170.9599343     
  -49947761.0663602     
  -49948364.2087693     
  -49948979.5735880     
  -49949606.3393584     
  -49950243.6735908     
  -49950890.7294551     
  -49951546.6423530     
  -49952210.5264138     
  -49952881.4709588     
  -49953558.5369833     
  -49954240.7537044     
  -49954927.1152268     
  -49955616.5773783     
  -49956308.0547689     
  -49957000.4181267     
  -49957692.4919642     
  -49958383.0526271     
  -49959070.8267755     
  -49959754.4903451     
  -49960432.6680314     
  -49961103.9333346     
  -49961766.8091980     
  -49962419.7692620     
  -49963061.2397515     
  -49963689.6020015     
  -49964303.1956161     
  -49964900.3222477     
  -49965479.2499673     
  -49966038.2181913     
  -49966575.4431140     
  -49967089.1235896     
  -49967577.4473960     
  -49927568.5758196     
  -49927861.6112019     
  -49928187.5782231     
  -49928545.4204935     
  -49928934.0798549     
  -49929352.4991682     
  -49929799.6247855     
  -49930274.4086670     
  -49930775.8101110     
  -49931302.7970702     
  -49931854.3470312     
  -49932429.4474429     
  -49933027.0956852     
  -49933646.2985732     
  -49934286.0714044     
  -49934945.4365537     
  -49935623.4216372     
  -49936319.0572611     
  -49937031.3743844     
  -49937759.4013255     
  -49938502.1604469     
  -49939258.6645585     
  -49940027.9130809     
  -49940808.8880152     
  -49941600.5497690     
  -49942401.8328905     
  -49943211.6417660     
  -49944028.8463389     
  -49944852.2779090     
  -49945680.7250756     
  -49946512.9298864     
  -49947347.5842581     
  -49948183.3267325     
  -49949018.7396332     
  -49949852.3466856     
  -49950682.6111627     
  -49951507.9346111     
  -49952326.6562128     
  -49953137.0528266     
  -49953937.3397495     
  -49954725.6722259     
  -49955500.1477258     
  -49956258.8089985     
  -49956999.6478968     
  -49957720.6099549     
  -49958419.5996874     
  -49959094.4865657     
  -49959743.1116120     
  -49960363.2945437     
  -49960952.8413844     
  -49914825.4340687     
  -49915171.3277452     
  -49915555.8611435     
  -49915977.7944062     
  -49916435.8861126     
  -49916928.8965282     
  -49917455.5904790     
  -49918014.7398096     
  -49918605.1253835     
  -49919225.5385955     
  -49919874.7823690     
  -49920551.6716219     
  -49921255.0331896     
  -49921983.7052008     
  -49922736.5359142     
  -49923512.3820235     
  -49924310.1064525     
  -49925128.5756627     
  -49925966.6565061     
  -49926823.2126579     
  -49927697.1006713     
  -49928587.1657005     
  -49929492.2369418     
  -49930411.1228474     
  -49931342.6061704     
  -49932285.4389021     
  -49933238.3371674     
  -49934199.9761455     
  -49935168.9850876     
  -49936143.9425032     
  -49937123.3715913     
  -49938105.7359925     
  -49939089.4359374     
  -49940072.8048683     
  -49941054.1066096     
  -49942031.5331571     
  -49943003.2031558     
  -49943967.1611264     
  -49944921.3774972     
  -49945863.7494853     
  -49946792.1028645     
  -49947704.1946403     
  -49948597.7166439     
  -49949470.3000387     
  -49950319.5207187     
  -49951142.9055620     
  -49951937.9394874     
  -49952702.0732449     
  -49953432.7318597     
  -49954127.3236321     
  -49901635.0292206     
  -49902035.7387047     
  -49902480.9192808     
  -49902969.1464693     
  -49903498.9945513     
  -49904069.0402711     
  -49904677.8661065     
  -49905324.0630575     
  -49906006.2329065     
  -49906722.9899145     
  -49907472.9619225     
  -49908254.7908373     
  -49909067.1324902     
  -49909908.6558647     
  -49910778.0416981     
  -49911673.9804712     
  -49912595.1698071     
  -49913540.3113075     
  -49914508.1068630     
  -49915497.2544783     
  -49916506.4436612     
  -49917534.3504282     
  -49918579.6319846     
  -49919640.9211432     
  -49920716.8205475     
  -49921805.8967727     
  -49922906.6743772     
  -49924017.6299859     
  -49925137.1864858     
  -49926263.7074181     
  -49927395.4916551     
  -49928530.7684480     
  -49929667.6929364     
  -49930804.3422058     
  -49931938.7119820     
  -49933068.7140425     
  -49934192.1744276     
  -49935306.8325194     
  -49936410.3410553     
  -49937500.2671269     
  -49938574.0942078     
  -49939629.2252349     
  -49940662.9867567     
  -49941672.6341406     
  -49942655.3578170     
  -49943608.2905187     
  -49944528.5154520     
  -49945413.0753243     
  -49946258.9821308     
  -49947063.2275918     
  -49887932.9751079     
  -49888390.5556492     
  -49888898.5608281     
  -49889455.3821648     
  -49890059.4103436     
  -49890709.0393585     
  -49891402.6701690     
  -49892138.7138068     
  -49892915.5938842     
  -49893731.7484580     
  -49894585.6312183     
  -49895475.7119761     
  -49896400.4764368     
  -49897358.4252551     
  -49898348.0723771     
  -49899367.9426858     
  -49900416.5689731     
  -49901492.4882718     
  -49902594.2375881     
  -49903720.3490824     
  -49904869.3447532     
  -49906039.7306844     
  -49907229.9909226     
  -49908438.5810569     
  -49909663.9215770     
  -49910904.3910920     
  -49912158.3194947     
  -49913423.9811626     
  -49914699.5882877     
  -49915983.2844329     
  -49917273.1384123     
  -49918567.1385985     
  -49919863.1877561     
  -49921159.0985032     
  -49922452.5895005     
  -49923741.2824620     
  -49925022.7000781     
  -49926294.2649339     
  -49927553.2994948     
  -49928797.0272209     
  -49930022.5748577     
  -49931226.9759337     
  -49932407.1754778     
  -49933560.0359516     
  -49934682.3443675     
  -49935770.8205471     
  -49936822.1264490     
  -49937832.8764765     
  -49938799.6486586     
  -49939718.9965760     
  -49873654.1322151     
  -49874170.6122573     
  -49874743.5854039     
  -49875371.2624223     
  -49876051.8536458     
  -49876783.5735494     
  -49877564.6447780     
  -49878393.3015588     
  -49879267.7924405     
  -49880186.3823112     
  -49881147.3536555     
  -49882149.0070239     
  -49883189.6606994     
  -49884267.6495551     
  -49885381.3231105     
  -49886529.0428033     
  -49887709.1785030     
  -49888920.1043051     
  -49890160.1936496     
  -49891427.8138188     
  -49892721.3198757     
  -49894039.0481111     
  -49895379.3090744     
  -49896740.3802695     
  -49898120.4986013     
  -49899517.8526669     
  -49900930.5749852     
  -49902356.7342693     
  -49903794.3278454     
  -49905241.2743274     
  -49906695.4066603     
  -49908154.4656442     
  -49909616.0940557     
  -49911077.8314789     
  -49912537.1099593     
  -49913991.2505878     
  -49915437.4611170     
  -49916872.8347027     
  -49918294.3498541     
  -49919698.8716613     
  -49921083.1543544     
  -49922443.8452277     
  -49923777.4899472     
  -49925080.5392316     
  -49926349.3568776     
  -49927580.2290768     
  -49928769.3749435     
  -49929912.9581545     
  -49931007.0995772     
  -49932047.8907440     
  -49858732.4327868     
  -49859309.6484199     
  -49859949.5272876     
  -49860650.1062435     
  -49861409.4219677     
  -49862225.5159591     
  -49863096.4389216     
  -49864020.2544673     
  -49864995.0420732     
  -49866018.8992353     
  -49867089.9427775     
  -49868206.3092845     
  -49869366.1546395     
  -49870567.6526625     
  -49871808.9928554     
  -49873088.3772727     
  -49874404.0165480     
  -49875754.1251173     
  -49877136.9156900     
  -49878550.5930274     
  -49879993.3470965     
  -49881463.3456770     
  -49882958.7265035     
  -49884477.5890335     
  -49886017.9859390     
  -49887577.9144231     
  -49889155.3074703     
  -49890748.0251439     
  -49892353.8460492     
  -49893970.4590826     
  -49895595.4555953     
  -49897226.3220943     
  -49898860.4336142     
  -49900495.0478847     
  -49902127.3004196     
  -49903754.2006494     
  -49905372.6292116     
  -49906979.3365027     
  -49908570.9425863     
  -49910143.9385337     
  -49911694.6892581     
  -49913219.4378820     
  -49914714.3116554     
  -49916175.3294154     
  -49917598.4105563     
  -49918979.3854470     
  -49920314.0072093     
  -49921597.9647440     
  -49922826.8968657     
  -49923996.4073876     
  -49843100.5310045     
  -49843739.9132516     
  -49844448.2123871     
  -49845223.3028158     
  -49846063.0586722     
  -49846965.3592165     
  -49847928.0935652     
  -49848949.1646729     
  -49850026.4924939     
  -49851158.0162596     
  -49852341.6958253     
  -49853575.5120511     
  -49854857.4661956     
  -49856185.5783165     
  -49857557.8846848     
  -49858972.4342332     
  -49860427.2840710     
  -49861920.4941118     
  -49863450.1208686     
  -49865014.2104823     
  -49866610.7910598     
  -49868237.8644061     
  -49869893.3972413     
  -49871575.3120047     
  -49873281.4773505     
  -49875009.6984514     
  -49876757.7072282     
  -49878523.1526315     
  -49880303.5911091     
  -49882096.4773895     
  -49883899.1557270     
  -49885708.8517453     
  -49887522.6650247     
  -49889337.5625766     
  -49891150.3733417     
  -49892957.7838508     
  -49894756.3351726     
  -49896542.4212676     
  -49898312.2888502     
  -49900062.0388474     
  -49901787.6295203     
  -49903484.8812923     
  -49905149.4833058     
  -49906777.0016949     
  -49908362.8895410     
  -49909902.4984394     
  -49911391.0915821     
  -49912823.8582286     
  -49914195.9294116     
  -49915502.3946980     
  -49826689.1780883     
  -49827391.4885429     
  -49828169.0326071     
  -49829019.5393434     
  -49829940.7367782     
  -49830930.3576899     
  -49831986.1446763     
  -49833105.8544080     
  -49834287.2609880     
  -49835528.1583467     
  -49836826.3616209     
  -49838179.7074763     
  -49839586.0533506     
  -49841043.2756077     
  -49842549.2666129     
  -49844101.9307481     
  -49845699.1794034     
  -49847338.9249946     
  -49849019.0740666     
  -49850737.5195543     
  -49852492.1322852     
  -49854280.7518136     
  -49856101.1766901     
  -49857951.1542737     
  -49859828.3702067     
  -49861730.4376741     
  -49863654.8865842     
  -49865599.1528044     
  -49867560.5676002     
  -49869536.3474252     
  -49871523.5842172     
  -49873519.2363566     
  -49875520.1204451     
  -49877522.9040632     
  -49879524.0996613     
  -49881520.0597328     
  -49883506.9734129     
  -49885480.8646300     
  -49887437.5919273     
  -49889372.8500493     
  -49891282.1733681     
  -49893160.9411993     
  -49895004.3850289     
  -49896807.5976408     
  -49898565.5441027     
  -49900273.0745372     
  -49901924.9385668     
  -49903515.8012931     
  -49905040.2606392     
  -49906492.8658551     
  -49809426.1881622     
  -49810191.2018546     
  -49811037.8107631     
  -49811963.6222244     
  -49812966.2406686     
  -49814043.2737994     
  -49815192.3380000     
  -49816411.0628614     
  -49817697.0947455     
  -49819048.0993055     
  -49820461.7629046     
  -49821935.7928891     
  -49823467.9166894     
  -49825055.8797381     
  -49826697.4422138     
  -49828390.3746309     
  -49830132.4523154     
  -49831921.4488172     
  -49833755.1283253     
  -49835631.2371645     
  -49837547.4944605     
  -49839501.5820763     
  -49841491.1339285     
  -49843513.7248025     
  -49845566.8587966     
  -49847647.9575298     
  -49849754.3482590     
  -49851883.2520576     
  -49854031.7722123     
  -49856196.8830056     
  -49858375.4190490     
  -49860564.0653434     
  -49862759.3482387     
  -49864957.6274658     
  -49867155.0894138     
  -49869347.7418158     
  -49871531.4099998     
  -49873701.7348473     
  -49875854.1725879     
  -49877983.9965344     
  -49880086.3008418     
  -49882156.0063448     
  -49884187.8684961     
  -49886176.4873953     
  -49888116.3198616     
  -49890001.6934656     
  -49891826.8224018     
  -49893585.8250427     
  -49895272.7429854     
  -49896881.5613713     
  -49791234.8214641     
  -49792060.9615009     
  -49792975.0946821     
  -49793974.7372619     
  -49795057.3990356     
  -49796220.5899261     
  -49797461.8257484     
  -49798778.6330346     
  -49800168.5528273     
  -49801629.1433523     
  -49803157.9815087     
  -49804752.6631243     
  -49806410.8019488     
  -49808130.0273708     
  -49809907.9808650     
  -49811742.3111935     
  -49813630.6683996     
  -49815570.6966507     
  -49817560.0259991     
  -49819596.2631446     
  -49821676.9812945     
  -49823799.7092285     
  -49825961.9196883     
  -49828161.0172192     
  -49830394.3256039     
  -49832659.0750366     
  -49834952.3891943     
  -49837271.2723698     
  -49839612.5968411     
  -49841973.0906549     
  -49844349.3260091     
  -49846737.7084246     
  -49849134.4668956     
  -49851535.6452096     
  -49853937.0946239     
  -49856334.4680810     
  -49858723.2161323     
  -49861098.5847287     
  -49863455.6150173     
  -49865789.1452606     
  -49868093.8149686     
  -49870364.0713040     
  -49872594.1777841     
  -49874778.2252685     
  -49876910.1451801     
  -49878983.7248645     
  -49880992.6249579     
  -49882930.3985855     
  -49884790.5121835     
  -49886566.3676986     
  -49772031.3682415     
  -49772915.3054937     
  -49773893.6821438     
  -49774963.9609287     
  -49776123.5921437     
  -49777370.0206806     
  -49778700.6921954     
  -49780113.0582859     
  -49781604.5805690     
  -49783172.7335682     
  -49784815.0063381     
  -49786528.9027699     
  -49788311.9405474     
  -49790161.6487344     
  -49792075.5640007     
  -49794051.2255092     
  -49796086.1685046     
  -49798177.9166623     
  -49800323.9732705     
  -49802521.8113328     
  -49804768.8626952     
  -49807062.5063110     
  -49809400.0557699     
  -49811778.7462317     
  -49814195.7209115     
  -49816648.0172782     
  -49819132.5531348     
  -49821646.1127592     
  -49824185.3332931     
  -49826746.6915745     
  -49829326.4916135     
  -49831920.8529181     
  -49834525.6998773     
  -49837136.7524096     
  -49839749.5180829     
  -49842359.2859001     
  -49844961.1219427     
  -49847549.8670405     
  -49850120.1366213     
  -49852666.3228692     
  -49855182.5992876     
  -49857662.9277350     
  -49860101.0679568     
  -49862490.5896014     
  -49864824.8866609     
  -49867097.1942332     
  -49869300.6074581     
  -49871428.1024343     
  -49873472.5588842     
  -49875426.7842996     
  -49751721.6719653     
  -49752657.9157437     
  -49753695.1416034     
  -49754830.8021398     
  -49756062.3281617     
  -49757387.1362642     
  -49758802.6354941     
  -49760306.2329726     
  -49761895.3383616     
  -49763567.3670714     
  -49765319.7421318     
  -49767149.8946659     
  -49769055.2629280     
  -49771033.2898873     
  -49773081.4193593     
  -49775197.0907094     
  -49777377.7321675     
  -49779620.7528147     
  -49781923.5333183     
  -49784283.4155069     
  -49786697.6908931     
  -49789163.5882650     
  -49791678.2604804     
  -49794238.7706119     
  -49796842.0776014     
  -49799485.0215950     
  -49802164.3091398     
  -49804876.4984361     
  -49807617.9848453     
  -49810384.9868654     
  -49813173.5327904     
  -49815979.4482776     
  -49818798.3450474     
  -49821625.6109427     
  -49824456.4015697     
  -49827285.6337361     
  -49830107.9808907     
  -49832917.8707514     
  -49835709.4852887     
  -49838476.7632019     
  -49841213.4049970     
  -49843912.8807352     
  -49846568.4404795     
  -49849173.1274245     
  -49851719.7936414     
  -49854201.1183255     
  -49856609.6283813     
  -49858937.7211328     
  -49861177.6889004     
  -49863321.7451509     
  -49730196.2885758     
  -49731176.8118058     
  -49732265.0615980     
  -49733458.5269878     
  -49734754.6613850     
  -49736150.8908319     
  -49737644.6213161     
  -49739233.2450010     
  -49740914.1452448     
  -49742684.7003010     
  -49744542.2856145     
  -49746484.2746474     
  -49748508.0381880     
  -49750610.9421250     
  -49752790.3436833     
  -49755043.5861444     
  -49757367.9920914     
  -49759760.8552390     
  -49762219.4309271     
  -49764740.9253728     
  -49767322.4837930     
  -49769961.1775222     
  -49772653.9902702     
  -49775397.8036708     
  -49778189.3822931     
  -49781025.3582953     
  -49783902.2159149     
  -49786816.2760012     
  -49789763.6808055     
  -49792740.3792572     
  -49795742.1129574     
  -49798764.4031317     
  -49801802.5387864     
  -49804851.5663119     
  -49807906.2807753     
  -49810961.2191348     
  -49814010.6555985     
  -49817048.5993295     
  -49820068.7946785     
  -49823064.7240948     
  -49826029.6138287     
  -49828956.4425046     
  -49831837.9525893     
  -49834666.6647389     
  -49837434.8949492     
  -49840134.7743822     
  -49842758.2716879     
  -49845297.2175847     
  -49847743.3314166     
  -49850088.2493580     
  -49707323.9459561     
  -49708337.9118367     
  -49709466.7410244     
  -49710708.0040526     
  -49712059.2161795     
  -49713517.8465624     
  -49715081.3264617     
  -49716747.0563225     
  -49718512.4115997     
  -49720374.7472112     
  -49722331.4005244     
  -49724379.6928048     
  -49726516.9290777     
  -49728740.3963744     
  -49731047.3603625     
  -49733435.0603763     
  -49735900.7028877     
  -49738441.4534771     
  -49741054.4273840     
  -49743736.6787334     
  -49746485.1885533     
  -49749296.8517120     
  -49752168.4629262     
  -49755096.7019964     
  -49758078.1184516     
  -49761109.1157900     
  -49764185.9355233     
  -49767304.6412438     
  -49770461.1029390     
  -49773650.9818035     
  -49776869.7157928     
  -49780112.5061776     
  -49783374.3053649     
  -49786649.8062448     
  -49789933.4333255     
  -49793219.3359084     
  -49796501.3835412     
  -49799773.1639708     
  -49803027.9837876     
  -49806258.8719256     
  -49809458.5861420     
  -49812619.6225547     
  -49815734.2282702     
  -49818794.4170738     
  -49821791.9881045     
  -49824718.5473674     
  -49827565.5318876     
  -49830324.2362421     
  -49832985.8411597     
  -49835541.4438257     
  -49682942.9543462     
  -49683976.6417902     
  -49685133.0325247     
  -49686409.8145064     
  -49687804.5934764     
  -49689314.9034055     
  -49690938.2159447     
  -49692671.9487203     
  -49694513.4723316     
  -49696460.1159291     
  -49698509.1712709     
  -49700657.8951800     
  -49702903.5103482     
  -49705243.2044538     
  -49707674.1275862     
  -49710193.3879929     
  -49712798.0461842     
  -49715485.1074563     
  -49718251.5129077     
  -49721094.1290497     
  -49724009.7361246     
  -49726995.0152655     
  -49730046.5346505     
  -49733160.7348147     
  -49736333.9133098     
  -49739562.2089045     
  -49742841.5855452     
  -49746167.8163076     
  -49749536.4675788     
  -49752942.8837299     
  -49756382.1725469     
  -49759849.1916902     
  -49763338.5364704     
  -49766844.5292172     
  -49770361.2105227     
  -49773882.3326312     
  -49777401.3552283     
  -49780911.4438715     
  -49784405.4712647     
  -49787876.0215547     
  -49791315.3977803     
  -49794715.6325597     
  -49798068.5020437     
  -49801365.5431070     
  -49804598.0736857     
  -49807757.2161005     
  -49810833.9231465     
  -49813819.0066613     
  -49816703.1682281     
  -49819477.0316170     
  -49656850.2373811     
  -49657887.3003780     
  -49659056.0849259     
  -49660354.4118074     
  -49661779.9837894     
  -49663330.3978501     
  -49665003.1563843     
  -49666795.6772233     
  -49668705.3023179     
  -49670729.3049594     
  -49672864.8954249     
  -49675109.2249703     
  -49677459.3881050     
  -49679912.4231146     
  -49682465.3108177     
  -49685114.9715687     
  -49687858.2605391     
  -49690691.9613325     
  -49693612.7780096     
  -49696617.3256198     
  -49699702.1193544     
  -49702863.5624572     
  -49706097.9330452     
  -49709401.3700111     
  -49712769.8581979     
  -49716199.2130506     
  -49719685.0649728     
  -49723222.8436250     
  -49726807.7624248     
  -49730434.8035170     
  -49734098.7034977     
  -49737793.9401844     
  -49741514.7207311     
  -49745254.9713890     
  -49749008.3292115     
  -49752768.1359919     
  -49756527.4347086     
  -49760278.9687321     
  -49764015.1840133     
  -49767728.2344409     
  -49771409.9905077     
  -49775052.0513735     
  -49778645.7603534     
  -49782182.2237965     
  -49785652.3332510     
  -49789046.7907405     
  -49792356.1369060     
  -49795570.7816997     
  -49798681.0372512     
  -49801677.1524720     
  -49628787.7227929     
  -49629809.9644454     
  -49630974.8149500     
  -49632280.2066243     
  -49633723.9075691     
  -49635303.5363851     
  -49637016.5758376     
  -49638860.3852985     
  -49640832.2118116     
  -49642929.1996463     
  -49645148.3982287     
  -49647486.7683600     
  -49649941.1866567     
  -49652508.4481717     
  -49655185.2671768     
  -49657968.2761153     
  -49660854.0227508     
  -49663838.9655649     
  -49666919.4674757     
  -49670091.7879712     
  -49673352.0737726     
  -49676696.3481601     
  -49680120.4991184     
  -49683620.2664728     
  -49687191.2282130     
  -49690828.7862148     
  -49694528.1515940     
  -49698284.3299414     
  -49702092.1067088     
  -49705946.0330270     
  -49709840.4122568     
  -49713769.2875793     
  -49717726.4309424     
  -49721705.3336825     
  -49725699.1991374     
  -49729700.9375585     
  -49733703.1636131     
  -49737698.1967461     
  -49741678.0646369     
  -49745634.5099471     
  -49749559.0005079     
  -49753442.7430373     
  -49757276.7004146     
  -49761051.6124692     
  -49764758.0201676     
  -49768386.2930057     
  -49771926.6593346     
  -49775369.2392770     
  -49778704.0798189     
  -49781921.1915998     
  -49598425.9746320     
  -49599414.8694065     
  -49600560.0945899     
  -49601859.6140476     
  -49603311.1694930     
  -49604912.2986530     
  -49606660.3523345     
  -49608552.5102154     
  -49610585.7952049     
  -49612757.0862364     
  -49615063.1293758     
  -49617500.5471537     
  -49620065.8460496     
  -49622755.4220845     
  -49625565.5644967     
  -49628492.4575032     
  -49631532.1801702     
  -49634680.7044389     
  -49637933.8913749     
  -49641287.4857329     
  -49644737.1089461     
  -49648278.2506750     
  -49651906.2590694     
  -49655616.3299186     
  -49659403.4948873     
  -49663262.6090542     
  -49667188.3379928     
  -49671175.1446528     
  -49675217.2763209     
  -49679308.7519561     
  -49683443.3502131     
  -49687614.5984740     
  -49691815.7632251     
  -49696039.8421104     
  -49700279.5579987     
  -49704527.3553875     
  -49708775.3994510     
  -49713015.5780174     
  -49717239.5067222     
  -49721438.5375444     
  -49725603.7708806     
  -49729726.0712476     
  -49733796.0866403     
  -49737804.2714933     
  -49741740.9131161     
  -49745596.1613883     
  -49749360.0614205     
  -49753022.5888026     
  -49756573.6869906     
  -49760003.3063118     
  -49565345.1935403     
  -49566284.4493509     
  -49567397.8943264     
  -49568683.3563524     
  -49570138.3706422     
  -49571760.2026116     
  -49573545.8695716     
  -49575492.1610656     
  -49577595.6576940     
  -49579852.7482891     
  -49582259.6453224     
  -49584812.3984509     
  -49587506.9061274     
  -49590338.9252266     
  -49593304.0786609     
  -49596397.8609810     
  -49599615.6419816     
  -49602952.6683540     
  -49606404.0634493     
  -49609964.8252398     
  -49613629.8225864     
  -49617393.7899434     
  -49621251.3206537     
  -49625196.8590117     
  -49629224.6912915     
  -49633328.9359627     
  -49637503.5333386     
  -49641742.2349224     
  -49646038.5927404     
  -49650385.9489673     
  -49654777.4261697     
  -49659205.9185033     
  -49663664.0842136     
  -49668144.3397890     
  -49672638.8561176     
  -49677139.5569875     
  -49681638.1202527     
  -49686125.9819620     
  -49690594.3437099     
  -49695034.1834251     
  -49699436.2697549     
  -49703791.1801394     
  -49708089.3225970     
  -49712320.9611607     
  -49716476.2448221     
  -49720545.2397484     
  -49724517.9644518     
  -49728384.4275029     
  -49732134.6673004     
  -49735758.7933371     
  -49529014.0915116     
  -49529893.6028279     
  -49530971.0031465     
  -49532243.6928273     
  -49533708.6964568     
  -49535362.6920393     
  -49537202.0388686     
  -49539222.8039118     
  -49541420.7865496     
  -49543791.5415409     
  -49546330.4000921     
  -49549032.4889405     
  -49551892.7473767     
  -49554905.9421552     
  -49558066.6802657     
  -49561369.4195593     
  -49564808.4772445     
  -49568378.0362940     
  -49572072.1498223     
  -49575884.7435185     
  -49579809.6162420     
  -49583840.4389090     
  -49587970.7518256     
  -49592193.9606434     
  -49596503.3311390     
  -49600891.9830441     
  -49605352.8831757     
  -49609878.8381395     
  -49614462.4869042     
  -49619096.2935625     
  -49623772.5406150     
  -49628483.3231272     
  -49633220.5441198     
  -49637975.9115582     
  -49642740.9373047     
  -49647506.9383863     
  -49652265.0409156     
  -49657006.1869695     
  -49661721.1446985     
  -49666400.5218851     
  -49671034.7831155     
  -49675614.2706577     
  -49680129.2290617     
  -49684569.8334153     
  -49688926.2210925     
  -49693188.5267476     
  -49697346.9202010     
  -49701391.6467864     
  -49705313.0696294     
  -49709101.7132607     
  -49488767.6992692     
  -49489589.2969321     
  -49490640.4850978     
  -49491917.7765742     
  -49493417.2140639     
  -49495134.4076634     
  -49497064.5708235     
  -49499202.5546073     
  -49501542.8800973     
  -49504079.7688240     
  -49506807.1711035     
  -49509718.7921945     
  -49512808.1162052     
  -49516068.4277011     
  -49519492.8309869     
  -49523074.2670597     
  -49526805.5282468     
  -49530679.2705719     
  -49534688.0239091     
  -49538824.2000098     
  -49543080.0985119     
  -49547447.9110621     
  -49551919.7237073     
  -49556487.5177374     
  -49561143.1691839     
  -49565878.4472075     
  -49570685.0116309     
  -49575554.4098980     
  -49580478.0737661     
  -49585447.3160577     
  -49590453.3278179     
  -49595487.1762399     
  -49600539.8037302     
  -49605602.0284926     
  -49610664.5470051     
  -49615717.9387536     
  -49620752.6735723     
  -49625759.1219021     
  -49630727.5682485     
  -49635648.2280615     
  -49640511.2682036     
  -49645306.8310979     
  -49650025.0625669     
  -49654656.1432858     
  -49659190.3236768     
  -49663617.9619735     
  -49667929.5650864     
  -49672115.8318070     
  -49676167.6977900     
  -49680076.3816843     
  -49443785.9240037     
  -49444571.3665727     
  -49445628.7575580     
  -49446953.0416936     
  -49448538.5913470     
  -49450379.2547219     
  -49452468.4021826     
  -49454798.9705426     
  -49457363.5051804     
  -49460154.1998610     
  -49463162.9341614     
  -49466381.3084170     
  -49469800.6761281     
  -49473412.1737835     
  -49477206.7480843     
  -49481175.1805666     
  -49485308.1096511     
  -49489596.0501617     
  -49494029.4103851     
  -49498598.5067626     
  -49503293.5763294     
  -49508104.7870415     
  -49513022.2461561     
  -49518036.0068537     
  -49523136.0733196     
  -49528312.4045239     
  -49533554.9169723     
  -49538853.4867140     
  -49544197.9509295     
  -49549578.1094330     
  -49554983.7264491     
  -49560404.5330361     
  -49565830.2305398     
  -49571250.4954670     
  -49576654.9861620     
  -49582033.3516613     
  -49587375.2430812     
  -49592670.3278590     
  -49597908.3071305     
  -49603078.9364742     
  -49608172.0501826     
  -49613177.5891565     
  -49618085.6324229     
  -49622886.4321974     
  -49627570.4523031     
  -49632128.4096615     
  -49636551.3184711     
  -49640830.5365866     
  -49644957.8135170     
  -49648925.3393840     
  -49393075.6715235     
  -49393877.3316990     
  -49395007.1079252     
  -49396457.4179099     
  -49398220.0027569     
  -49400285.9886546     
  -49402645.9461836     
  -49405289.9470930     
  -49408207.6184194     
  -49411388.1938370     
  -49414820.5621494     
  -49418493.3128509     
  -49422394.7787099     
  -49426513.0753464     
  -49430836.1377976     
  -49435351.7540900     
  -49440047.5958562     
  -49444911.2460604     
  -49449930.2239176     
  -49455092.0071172     
  -49460384.0514841     
  -49465793.8082360     
  -49471308.7390210     
  -49476916.3289430     
  -49482604.0978107     
  -49488359.6098699     
  -49494170.4823039     
  -49500024.3928135     
  -49505909.0866082     
  -49511812.3831637     
  -49517722.1831177     
  -49523626.4756905     
  -49529513.3470251     
  -49535370.9898471     
  -49541187.7148362     
  -49546951.9640941     
  -49552652.3270649     
  -49558277.5592389     
  -49563816.6039219     
  -49569258.6173014     
  -49574592.9969735     
  -49579809.4140215     
  -49584897.8486460     
  -49589848.6292603     
  -49594652.4748597     
  -49599300.5403710     
  -49603784.4645868     
  -49608096.4201880     
  -49612229.1652596     
  -49616176.0956237     
  -49335460.5899854     
  -49336375.2472415     
  -49337691.6023803     
  -49339398.2481875     
  -49341483.0039427     
  -49343932.9937058     
  -49346734.7215101     
  -49349874.1433187     
  -49353336.7356250     
  -49357107.5605930     
  -49361171.3276632     
  -49365512.4515638     
  -49370115.1066995     
  -49374963.2779089     
  -49380040.8076081     
  -49385331.4393641     
  -49390818.8579636     
  -49396486.7260716     
  -49402318.7175963     
  -49408298.5479038     
  -49414410.0010495     
  -49420636.9542200     
  -49426963.3996032     
  -49433373.4639295     
  -49439851.4259521     
  -49446381.7321594     
  -49452949.0110346     
  -49459538.0862017     
  -49466133.9888172     
  -49472721.9695854     
  -49479287.5107915     
  -49485816.3387562     
  -49492294.4371241     
  -49498708.0613975     
  -49505043.7551191     
  -49511288.3680965     
  -49517429.0770312     
  -49523453.4088866     
  -49529349.2672823     
  -49535104.9621455     
  -49540709.2427884     
  -49546151.3345001     
  -49551420.9786586     
  -49556508.4762733     
  -49561404.7347717     
  -49566101.3177387     
  -49570590.4972138     
  -49574865.3080533     
  -49578919.6037660     
  -49582748.1131453     
  -49269583.9562671     
  -49270769.9868532     
  -49272452.6463969     
  -49274615.0083270     
  -49277239.2962275     
  -49280306.9820601     
  -49283798.8803374     
  -49287695.2380956     
  -49291975.8205430     
  -49296619.9922841     
  -49301606.7940471     
  -49306915.0148747     
  -49312523.2597622     
  -49318410.0127644     
  -49324553.6956176     
  -49330932.7219590     
  -49337525.5472498     
  -49344310.7145444     
  -49351266.8962725     
  -49358372.9322316     
  -49365607.8640129     
  -49372950.9661116     
  -49380381.7739976     
  -49387880.1094463     
  -49395426.1034546     
  -49403000.2170867     
  -49410583.2606187     
  -49418156.4113667     
  -49425701.2306015     
  -49433199.6799686     
  -49440634.1378406     
  -49447987.4160369     
  -49455242.7773486     
  -49462383.9543012     
  -49469395.1695777     
  -49476261.1585059     
  -49482967.1939878     
  -49489499.1142127     
  -49495843.3534487     
  -49501986.9761542     
  -49507917.7145815     
  -49513624.0099740     
  -49519095.0573706     
  -49524320.8539426     
  -49529292.2506892     
  -49534001.0072200     
  -49538439.8492519     
  -49542602.5283468     
  -49546483.8833238     
  -49550079.9026975     
  -49193931.8237807     
  -49195629.8515976     
  -49197944.8395673     
  -49200852.2039237     
  -49204326.4725280     
  -49208341.4064849     
  -49212870.1164923     
  -49217885.1737370     
  -49223358.7151813     
  -49229262.5431233     
  -49235568.2189447     
  -49242247.1510088     
  -49249270.6767061     
  -49256610.1386912     
  -49264236.9553949     
  -49272122.6859386     
  -49280239.0896181     
  -49288558.1801616     
  -49297052.2750051     
  -49305694.0398624     
  -49314456.5288988     
  -49323313.2208471     
  -49332238.0514340     
  -49341205.4425052     
  -49350190.3282648     
  -49359168.1790603     
  -49368115.0231640     
  -49377007.4670135     
  -49385822.7143883     
  -49394538.5850046     
  -49403133.5330154     
  -49411586.6659059     
  -49419877.7642642     
  -49427987.3029026     
  -49435896.4737856     
  -49443587.2111972     
  -49451042.2195527     
  -49458245.0042177     
  -49465179.9056527     
  -49471832.1371449     
  -49478187.8263240     
  -49484234.0605868     
  -49489958.9364735     
  -49495351.6129543     
  -49500402.3684901     
  -49505102.6616376     
  -49509445.1948738     
  -49513423.9812184     
  -49517034.4131424     
  -49520273.3331710     
  -49106885.1026966     
  -49109441.8122915     
  -49112765.0574238     
  -49116819.9891485     
  -49121570.8898735     
  -49126981.3219381     
  -49133014.2694741     
  -49139632.2732604     
  -49146797.5583373     
  -49154472.1541908     
  -49162618.0073719     
  -49171197.0864794     
  -49180171.4794930     
  -49189503.4835094     
  -49199155.6869958     
  -49209091.0447362     
  -49219272.9457079     
  -49229665.2741778     
  -49240232.4643619     
  -49250939.5490380     
  -49261752.2025442     
  -49272636.7786321     
  -49283560.3436758     
  -49294490.7057662     
  -49305396.4402392     
  -49316246.9122085     
  -49327012.2966806     
  -49337663.5968441     
  -49348172.6611246     
  -49358512.1996000     
  -49368655.8003641     
  -49378577.9464202     
  -49388254.0336692     
  -49397660.3905437     
  -49406774.2998098     
  -49415574.0230336     
  -49424038.8281728     
  -49432149.0207087     
  -49439885.9786906     
  -49447232.1920036     
  -49454171.3061118     
  -49460688.1704580     
  -49466768.8916253     
  -49472400.8912872     
  -49477572.9688838     
  -49482275.3688782     
  -49486499.8523541     
  -49490239.7726263     
  -49493490.1544548     
  -49496247.7763605     
  -49006810.4438361     
  -49010704.7530404     
  -49015547.6289138     
  -49021290.8807199     
  -49027885.5483001     
  -49035282.0816662     
  -49043430.5122537     
  -49052280.6153648     
  -49061782.0633555     
  -49071884.5692216     
  -49082538.0203109     
  -49093692.6019849     
  -49105298.9111480     
  -49117308.0596659     
  -49129671.7677900     
  -49142342.4478027     
  -49155273.2781899     
  -49168418.2687352     
  -49181732.3170046     
  -49195171.2567670     
  -49208691.8989486     
  -49222252.0657825     
  -49235810.6188470     
  -49249327.4817273     
  -49262763.6580587     
  -49276081.2457253     
  -49289243.4479997     
  -49302214.5824121     
  -49314960.0881312     
  -49327446.5326321     
  -49339641.6184117     
  -49351514.1904905     
  -49363034.2454158     
  -49374172.9424555     
  -49384902.6176328     
  -49395196.8012202     
  -49405030.2392662     
  -49414378.9196825     
  -49423220.1033690     
  -49431532.3607986     
  -49439295.6144228     
  -49446491.1871935     
  -49453101.8574319     
  -49459111.9201940     
  -49464507.2552125     
  -49469275.4014100     
  -49473405.6378971     
  -49476889.0712911     
  -49479718.7290880     
  -49481889.6587725     
  -48892200.1872894     
  -48898070.3816299     
  -48905105.7196969     
  -48913241.1531945     
  -48922411.0606972     
  -48932549.4640391     
  -48943590.2347740     
  -48955467.2897348     
  -48968114.7749084     
  -48981467.2369157     
  -48995459.7815257     
  -49010028.2187949     
  -49025109.1945672     
  -49040640.3082438     
  -49056560.2168794     
  -49072808.7258300     
  -49089326.8663222     
  -49106056.9604480     
  -49122942.6742250     
  -49139929.0594610     
  -49156962.5852687     
  -49173991.1601494     
  -49190964.1456329     
  -49207832.3625078     
  -49224548.0907129     
  -49241065.0639799     
  -49257338.4603278     
  -49273324.8895073     
  -49288982.3784801     
  -49304270.3560003     
  -49319149.6373376     
  -49333582.4101470     
  -49347532.2224543     
  -49360963.9736863     
  -49373843.9096252     
  -49386139.6221256     
  -49397820.0543782     
  -49408855.5124563     
  -49419217.6838263     
  -49428879.6634498     
  -49437815.9880475     
  -49446002.6790345     
  -49453417.2945804     
  -49460038.9911720     
  -49465848.5950014     
  -49470828.6834215     
  -49474963.6766402     
  -49478239.9397272     
  -49480645.8949794     
  -49482172.1444910     
  -48761870.6130020     
  -48770540.5357811     
  -48780627.2333423     
  -48792044.8783209     
  -48804707.3711418     
  -48818528.6041927     
  -48833422.7142821     
  -48849304.3218944     
  -48866088.7555412     
  -48883692.2598999     
  -48902032.1866087     
  -48921027.1668280     
  -48940597.2649521     
  -48960664.1131270     
  -48981151.0264889     
  -49001983.0993094     
  -49023087.2824673     
  -49044392.4429015     
  -49065829.4058995     
  -49087330.9812577     
  -49108831.9745032     
  -49130269.1844923     
  -49151581.3888026     
  -49172709.3184114     
  -49193595.6232016     
  -49214184.8298696     
  -49234423.2938177     
  -49254259.1466067     
  -49273642.2405236     
  -49292524.0917882     
  -49310857.8238754     
  -49328598.1123866     
  -49345701.1328451     
  -49362124.5127357     
  -49377827.2890502     
  -49392769.8725410     
  -49406914.0198307     
  -49420222.8144652     
  -49432660.6579508     
  -49444193.2717549     
  -49454787.7112088     
  -49464412.3921920     
  -49473037.1314345     
  -49480633.2012150     
  -49487173.3991794     
  -49492632.1339365     
  -49496985.5270253     
  -49500211.5318147     
  -49502290.0696117     
  -49503203.1835729     
  -48615224.6276664     
  -48627727.0361296     
  -48641931.5366047     
  -48657727.1558339     
  -48675003.0477836     
  -48693648.8280923     
  -48713554.8953496     
  -48734612.7351740     
  -48756715.2047263     
  -48779756.7950125     
  -48803633.8688654     
  -48828244.8729624     
  -48853490.5226792     
  -48879273.9590253     
  -48905500.8773590     
  -48932079.6280093     
  -48958921.2893370     
  -48985939.7141328     
  -49013051.5505746     
  -49040176.2392534     
  -49067235.9880122     
  -49094155.7265378     
  -49120863.0427977     
  -49147288.1035177     
  -49173363.5609727     
  -49199024.4483954     
  -49224208.0663199     
  -49248853.8621529     
  -49272903.3052330     
  -49296299.7595808     
  -49318988.3564776     
  -49340915.8689380     
  -49362030.5900640     
  -49382282.2171913     
  -49401621.7436661     
  -49420001.3600145     
  -49437374.3662089     
  -49453695.0966769     
  -49468918.8596460     
  -49483001.8923798     
  -49495901.3338230     
  -49507575.2161402     
  -49517982.4766048     
  -49527082.9912586     
  -49534837.6317418     
  -49541208.3466550     
  -49546158.2687204     
  -49549651.8488469     
  -49551655.0187277     
  -49552135.3819886     
  -48452579.3198169     
  -48470175.9562358     
  -48489790.4193865     
  -48511281.4916759     
  -48534508.5701465     
  -48559332.1205979     
  -48585614.1112639     
  -48613218.4237494     
  -48642011.2346064     
  -48671861.3637079     
  -48702640.5860229     
  -48734223.9040133     
  -48766489.7786890     
  -48799320.3181604     
  -48832601.4232666     
  -48866222.8905442     
  -48900078.4734353     
  -48934065.9032006     
  -48968086.8714966     
  -49002046.9769932     
  -49035855.6387519     
  -49069425.9793455     
  -49102674.6809003     
  -49135521.8173712     
  -49167890.6664333     
  -49199707.5043963     
  -49230901.3875299     
  -49261403.9231334     
  -49291149.0336024     
  -49320072.7166489     
  -49348112.8047179     
  -49375208.7265324     
  -49401301.2735830     
  -49426332.3742708     
  -49450244.8783204     
  -49472982.3539899     
  -49494488.9005436     
  -49514708.9784039     
  -49533587.2593634     
  -49551068.4992246     
  -49567097.4352370     
  -49581618.7107088     
  -49594576.8291973     
  -49605916.1406955     
  -49615580.8622227     
  -49623515.1352194     
  -49629663.1222760     
  -49633969.1458662     
  -49636377.8697281     
  -49636834.5286709     
  -48275550.4995704     
  -48299752.8520911     
  -48326314.0266089     
  -48355055.8711963     
  -48385801.4750329     
  -48418375.8260384     
  -48452606.4436157     
  -48488323.9657795     
  -48525362.6886461     
  -48563561.0510310     
  -48602762.0587403     
  -48642813.6450645     
  -48683568.9652754     
  -48724886.6240757     
  -48766630.8360803     
  -48808671.5204638     
  -48850884.3318474     
  -48893150.6302893     
  -48935357.3939069     
  -48977397.0781844     
  -49019167.4264295     
  -49060571.2361266     
  -49101516.0861222     
  -49141914.0296663     
  -49181681.2583409     
  -49220737.7418491     
  -49259006.8485274     
  -49296414.9512891     
  -49332891.0235330     
  -49368366.2293528     
  -49402773.5121906     
  -49436047.1858830     
  -49468122.5318762     
  -49498935.4062247     
  -49528421.8598691     
  -49556517.7755881     
  -49583158.5249589     
  -49608278.6486427     
  -49631811.5633182     
  -49653689.2986398     
  -49673842.2676647     
  -49692199.0742937     
  -49708686.3613778     
  -49723228.7033099     
  -49735748.5471136     
  -49746166.2061325     
  -49754399.9100138     
  -49760365.9146104     
  -49763978.6812980     
  -49765151.1169376     
  -48087476.3035790     
  -48120080.6061826     
  -48155401.6381048     
  -48193214.1556295     
  -48233295.1817176     
  -48275425.0415904     
  -48319388.3004332     
  -48364974.6340246     
  -48411979.6045668     
  -48460205.3361618     
  -48509461.0866960     
  -48559563.7132216     
  -48610338.0296998     
  -48661617.0580240     
  -48713242.1749565     
  -48765063.1589631     
  -48816938.1420247     
  -48868733.4723865     
  -48920323.4948869     
  -48971590.2559987     
  -49022423.1410197     
  -49072718.4509890     
  -49122378.9269078     
  -49171313.2287223     
  -49219435.3763177     
  -49266664.1594855     
  -49312922.5234978     
  -49358136.9365541     
  -49402236.7449910     
  -49445153.5217741     
  -49486820.4134353     
  -49527171.4902970     
  -49566141.1045456     
  -49603663.2604848     
  -49639671.0011355     
  -49674095.8152315     
  -49706867.0686316     
  -49737911.4641817     
  -49767152.5341642     
  -49794510.1696305     
  -49819900.1911515     
  -49843233.9658122     
  -49864418.0755822     
  -49883354.0424309     
  -49899938.1157702     
  -49914061.1285005     
  -49925608.4297484     
  -49934459.9017642     
  -49940490.0517249     
  -49943568.2314473     
  -47893851.9988427     
  -47937018.1332481     
  -47983257.6624494     
  -48032281.3444689     
  -48083804.6019420     
  -48137549.0153815     
  -48193243.7618669     
  -48250626.8350142     
  -48309446.0950711     
  -48369460.1450930     
  -48430439.0275631     
  -48492164.7438750     
  -48554431.6031212     
  -48617046.4082231     
  -48679828.4885799     
  -48742609.5895097     
  -48805233.6296733     
  -48867556.3382676     
  -48929444.7840580     
  -48990776.8083194     
  -49051440.3735311     
  -49111332.8392919     
  -49170360.1763965     
  -49228436.1294074     
  -49285481.3373668     
  -49341422.4215772     
  -49396191.0486377     
  -49449722.9761941     
  -49501957.0881622     
  -49552834.4255288     
  -49602297.2182462     
  -49650287.9232178     
  -49696748.2729490     
  -49741618.3391017     
  -49784835.6149657     
  -49826334.1207408     
  -49866043.5355265     
  -49903888.3600204     
  -49939787.1141496     
  -49973651.5741609     
  -50005386.0540951     
  -50034886.7370982     
  -50062041.0627831     
  -50086727.1779112     
  -50108813.4585656     
  -50128158.1112697     
  -50144608.8577020     
  -50158002.7153283     
  -50168165.9332180     
  -50174913.9357416     
  -47702739.3583927     
  -47759162.0518946     
  -47818964.4714193     
  -47881766.0762603     
  -47947196.6988575     
  -48014898.9471446     
  -48084529.8984630     
  -48155762.6257734     
  -48228287.4023262     
  -48301812.5860112     
  -48376065.2171804     
  -48450791.3543652     
  -48525756.1671752     
  -48600743.8062811     
  -48675557.0719305     
  -48750016.9029497     
  -48823961.7077208     
  -48897246.5576238     
  -48969742.2622297     
  -49041334.3442450     
  -49111921.9308473     
  -49181416.5766708     
  -49249741.0322546     
  -49316827.9703473     
  -49382618.6810403     
  -49447061.7453436     
  -49510111.6955288     
  -49571727.6693649     
  -49631872.0642806     
  -49690509.1965089     
  -49747603.9694211     
  -49803120.5545321     
  -49857021.0880843     
  -49909264.3856664     
  -49959804.6770290     
  -50008590.3631073     
  -50055562.7972681     
  -50100655.0929866     
  -50143790.9605447     
  -50184883.5759324     
  -50223834.4858724     
  -50260532.5535877     
  -50294852.9503917     
  -50326656.1986218     
  -50355787.2735799     
  -50382074.7791710     
  -50405330.2201902     
  -50425347.3648428     
  -50441901.5781285     
  -50454749.6839795     
  -47525102.4966079     
  -47598323.4326308     
  -47675049.6496277     
  -47754770.6166445     
  -47837000.5454126     
  -47921279.7615145     
  -48007176.8506101     
  -48094289.7938554     
  -48182246.5910036     
  -48270705.5100661     
  -48359354.9762526     
  -48447913.1265560     
  -48536127.0751359     
  -48623771.9368460     
  -48710649.6507771     
  -48796587.6395716     
  -48881437.3355404     
  -48965072.6009839     
  -49047388.0670057     
  -49128297.4121540     
  -49207731.5993460     
  -49285637.0867915     
  -49361974.0260399     
  -49436714.4579327     
  -49509840.5151032     
  -49581342.6377691     
  -49651217.8078617     
  -49719467.8050355     
  -49786097.4867765     
  -49851113.0936804     
  -49914520.5799834     
  -49976323.9686126     
  -50036523.7293702     
  -50095115.1783840     
  -50152086.8966312     
  -50207419.1651791     
  -50261082.4147351     
  -50313035.6871704     
  -50363225.1068470     
  -50411582.3599902     
  -50458023.1812623     
  -50502445.8485107     
  -50544729.6893924     
  -50584733.6054254     
  -50622294.6150937     
  -50657226.4038737     
  -50689317.8686701     
  -50718331.7618092     
  -50744003.7887883     
  -50766040.3802404     
  -47374989.7195935     
  -47469826.6226417     
  -47567804.0269216     
  -47668248.1909500     
  -47770534.9018369     
  -47874093.4767359     
  -47978405.1850976     
  -48083002.3524999     
  -48187467.1865988     
  -48291430.0499281     
  -48394567.3277647     
  -48496599.0492628     
  -48597286.3533928     
  -48696428.8516546     
  -48793861.9257446     
  -48889453.9940182     
  -48983103.7770133     
  -49074737.5874491     
  -49164306.6645868     
  -49251784.5675507     
  -49337164.6376656     
  -49420457.5362048     
  -49501688.8610342     
  -49580896.8433165     
  -49658130.1235504     
  -49733445.6046481     
  -49806906.3784043     
  -49878579.7205691     
  -49948535.1487328     
  -50016842.5363827     
  -50083570.2757370     
  -50148783.4813248     
  -50212542.2257194     
  -50274899.7983845     
  -50335900.9782544     
  -50395580.3105128     
  -50453960.3780596     
  -50511050.0583778     
  -50566842.7566978     
  -50621314.6061601     
  -50674422.6244980     
  -50726102.8145768     
  -50776268.1949790     
  -50824806.7531757     
  -50871579.3374726     
  -50916417.5380703     
  -50959121.5630485     
  -50999457.7551845     
  -51037155.0193857     
  -51071905.9643002     
  -47269397.2717559     
  -47392212.2842730     
  -47516699.2473581     
  -47642029.3349909     
  -47767478.5872577     
  -47892410.5448553     
  -48016274.7653717     
  -48138601.7066698     
  -48258996.2784899     
  -48377131.5897030     
  -48492743.0889107     
  -48605622.9872792     
  -48715614.9056297     
  -48822608.7585193     
  -48926535.9098184     
  -49027364.6253584     
  -49125095.8313631     
  -49219759.1736100     
  -49311409.3640502     
  -49400122.7977590     
  -49485994.4217544     
  -49569134.8370183     
  -49649667.6151823     
  -49727726.8114822     
  -49803454.6556670     
  -49876999.4026034     
  -49948513.3244124     
  -50018150.8261326     
  -50086066.6671492     
  -50152414.2709450     
  -50217344.1060317     
  -50281002.1211957     
  -50343528.2182826     
  -50405054.7456050     
  -50465704.9945711     
  -50525591.6813097     
  -50584815.3940585     
  -50643462.9862936     
  -50701605.8957161     
  -50759298.3710472     
  -50816575.5921044     
  -50873451.6710375     
  -50929917.5155666     
  -50985938.5043794     
  -51041451.8659953     
  -51096363.6311513     
  -51150545.3068675     
  -51203831.3916062     
  -51256018.8365656     
  -51306850.4505569     
  -47227477.4194841     
  -47385496.5440380     
  -47541595.0907286     
  -47694982.0123412     
  -47844984.9388825     
  -47991077.6909781     
  -48132854.4542032     
  -48270011.6973508     
  -48402335.7890535     
  -48529692.1719014     
  -48652015.0279492     
  -48769297.6055055     
  -48881583.4776645     
  -48988958.8236061     
  -49091545.6821610     
  -49189496.0690246     
  -49282986.8438431     
  -49372215.2290385     
  -49457394.9006095     
  -49538752.5854154     
  -49616525.1087465     
  -49690956.8415906     
  -49762297.5005130     
  -49830800.2556744     
  -49896720.1049255     
  -49960312.4744105     
  -50021832.0087775     
  -50081531.5168247     
  -50139661.0411601     
  -50196467.0230988     
  -50252191.5365368     
  -50307071.5668813     
  -50361338.3132199     
  -50415216.4936660     
  -50468923.6349132     
  -50522669.3269776     
  -50576654.4221155     
  -50631070.1520805     
  -50686097.1297434     
  -50741904.1908210     
  -50798647.0241670     
  -50856466.5466001     
  -50915487.0188487     
  -50975813.9828135     
  -51037532.1726969     
  -51100703.3636191     
  -51165363.0951280     
  -51231513.1634525     
  -51299110.0692786     
  -51368102.6506930     
  -47268603.8963152     
  -47466711.1666711     
  -47656078.1787754     
  -47836272.7154362     
  -48007151.1769672     
  -48168678.4814986     
  -48320923.5112771     
  -48464051.8178698     
  -48598307.7879666     
  -48723995.6670923     
  -48841463.7329780     
  -48951092.0449006     
  -49053282.9640821     
  -49148453.6230438     
  -49237029.8041560     
  -49319440.9299253     
  -49396116.0056492     
  -49467480.4136456     
  -49533953.4739074     
  -49595946.6849173     
  -49653862.5545944     
  -49708093.9307294     
  -49759023.7439659     
  -49807025.0835678     
  -49852461.5354090     
  -49895687.7214479     
  -49937049.9893378     
  -49976887.2090844     
  -50015531.6404239     
  -50053309.8397818     
  -50090543.5794343     
  -50127550.7541947     
  -50164646.2531365     
  -50202142.7762900     
  -50240351.5797088     
  -50279583.1375352     
  -50320147.7167857     
  -50362355.8681883     
  -50406518.8401477     
  -50452948.9134439     
  -50501959.6158905     
  -50553865.6900536     
  -50608982.5494775     
  -50667624.8359478     
  -50730103.8403096     
  -50796724.5870371     
  -50867786.0728811     
  -50943590.5970691     
  -51024450.8419136     
  -51110545.7307973     
  -47408778.0606960     
  -47642175.8200644     
  -47855905.4838707     
  -48051129.6728544     
  -48228692.9213615     
  -48389575.6433299     
  -48534845.0915584     
  -48665584.5738538     
  -48782858.9621731     
  -48887702.0845913     
  -48981111.8228549     
  -49064046.7141587     
  -49137422.5615543     
  -49202109.3004521     
  -49258928.6656215     
  -49308653.0092201     
  -49352005.3600866     
  -49389660.6260149     
  -49422247.7415238     
  -49450352.5326578     
  -49474521.0812507     
  -49495263.4030912     
  -49513057.2938057     
  -49528352.2350947     
  -49541573.2881604     
  -49553124.9291065     
  -49563394.8024288     
  -49572757.3837495     
  -49581577.5522032     
  -49590214.0769308     
  -49599023.0214862     
  -49608361.0651153     
  -49618588.7314352     
  -49630073.5040077     
  -49643192.7963735     
  -49658336.7344219     
  -49675910.7067526     
  -49696337.6522311     
  -49720060.0947802     
  -49747542.0163771     
  -49779270.7858458     
  -49815759.5083282     
  -49857550.2187471     
  -49905218.0164155     
  -49959374.9167917     
  -50020669.0491467     
  -50089770.3348429     
  -50167337.5191340     
  -50254023.5949756     
  -50350903.4963467     
  -47656004.9145627     
  -47897078.4608229     
  -48106246.9960376     
  -48285356.2781706     
  -48437528.9792997     
  -48565653.9727118     
  -48672270.7347389     
  -48759669.3983300     
  -48829962.5542870     
  -48885112.2150947     
  -48926933.0520179     
  -48957088.7681474     
  -48977089.9416824     
  -48988296.0726305     
  -48991921.8289306     
  -48989046.4713129     
  -48980625.2619995     
  -48967501.8290124     
  -48950420.7189835     
  -48930039.6217175     
  -48906940.9535939     
  -48881642.6393185     
  -48854608.0392585     
  -48826255.0423689     
  -48796964.3916630     
  -48767087.3377610     
  -48736952.7318047     
  -48706873.6758574     
  -48677153.8493270     
  -48648093.6253043     
  -48619996.0813887     
  -48593172.9950334     
  -48567950.8922405     
  -48544677.1882131     
  -48523726.4160656     
  -48505506.4810628     
  -48490464.7996530     
  -48479094.0842337     
  -48471937.4242917     
  -48469592.2213491     
  -48472712.5328830     
  -48482009.6302166     
  -48498251.3883916     
  -48522263.0113441     
  -48554935.1059788     
  -48597249.7526511     
  -48650334.7810844     
  -48715522.2468344     
  -48794211.1667762     
  -48886645.3907777     
  -48005350.9777776     
  -48191956.2522699     
  -48332056.3512179     
  -48435485.2174727     
  -48507017.2861241     
  -48550505.3004519     
  -48569710.1954981     
  -48568286.6367524     
  -48549640.0587201     
  -48516827.0753421     
  -48472516.4192225     
  -48418992.8915566     
  -48358185.4742788     
  -48291706.3099384     
  -48220892.5374962     
  -48146846.6515391     
  -48070473.3228189     
  -47992511.9216299     
  -47913564.6888905     
  -47834120.8507990     
  -47754577.1255884     
  -47675255.1166629     
  -47596416.0778679     
  -47518273.5034400     
  -47441003.9534720     
  -47364756.4840907     
  -47289661.0142512     
  -47215835.9300664     
  -47143395.2035590     
  -47072455.2856096     
  -47003142.0221463     
  -46935597.8372387     
  -46869989.4249292     
  -46806516.1902003     
  -46745419.6728158     
  -46686994.1658903     
  -46631598.6862497     
  -46579670.3351208     
  -46531738.8527178     
  -46488441.7315720     
  -46450538.4738676     
  -46418921.2648622     
  -46394617.2881054     
  -46378775.1776940     
  -46372625.9219612     
  -46377412.3707853     
  -46394310.4906073     
  -46424480.8794957     
  -46469778.6986002     
  -46535879.1845900     
  -48438577.1238257     
  -48447621.5954616     
  -48424824.5450859     
  -48363537.1186307     
  -48268922.2741428     
  -48148663.5357667     
  -48009944.6940875     
  -47858667.4456396     
  -47699425.6894830     
  -47535699.2994784     
  -47370080.2851764     
  -47204472.9639991     
  -47040255.6521706     
  -46878406.4485446     
  -46719599.5535592     
  -46564278.6145683     
  -46412712.5442028     
  -46265038.0777971     
  -46121292.3146129     
  -45981437.6826220     
  -45845381.1574340     
  -45712989.1135389     
  -45584098.8528900     
  -45458527.6115130     
  -45336079.6662025     
  -45216552.0335878     
  -45099739.1609138     
  -44985436.9435028     
  -44873446.3625847     
  -44763577.0158385     
  -44655650.8103584     
  -44549506.1044421     
  -44445002.6231701     
  -44342027.5379930     
  -44240503.1999715     
  -44140397.1606905     
  -44041735.3185621     
  -43944619.3083657     
  -43849249.6240465     
  -43755956.4288067     
  -43665240.5061270     
  -43577827.1203441     
  -43494735.0187725     
  -43417359.5687352     
  -43347558.1236582     
  -43287694.0138176     
  -43240508.2263518     
  -43208451.8879419     
  -43191477.2978127     
  -43180566.0072076     
  -48922384.1688169     
  -48628975.1067106     
  -48255475.9385441     
  -47854726.1034533     
  -47451993.8668365     
  -47059464.8788434     
  -46682857.4134930     
  -46324579.2856827     
  -45985300.6038886     
  -45664769.0524129     
  -45362247.3572282     
  -45076754.6011362     
  -44807201.9139751     
  -44552469.4314298     
  -44311449.7031743     
  -44083071.5167194     
  -43866312.1060221     
  -43660202.4028613     
  -43463828.1080398     
  -43276328.2638315     
  -43096892.3568587     
  -42924756.5851096     
  -42759199.6792855     
  -42599538.5168440     
  -42445123.6715776     
  -42295334.9811638     
  -42149577.1770407     
  -42007275.5974831     
  -41867871.9913370     
  -41730820.4141453     
  -41595583.2197080     
  -41461627.1593488     
  -41328419.6211767     
  -41195425.0780265     
  -41062101.8755912     
  -40927899.5992182     
  -40792257.4400899     
  -40654604.2949900     
  -40514361.8810147     
  -40370953.1198982     
  -40223819.8180461     
  -40072456.9787336     
  -39916477.4559687     
  -39755733.3352098     
  -39590546.5308796     
  -39422156.8352476     
  -39253619.1398146     
  -39091665.1686441     
  -38950719.4525194     
  -38861915.7734959     
  -49310457.6499779     
  -48065821.4862027     
  -47026477.4702931     
  -46139029.4826793     
  -45368918.0882499     
  -44692359.1852824     
  -44092164.4048879     
  -43555427.9921047     
  -43072165.3524309     
  -42634466.1036088     
  -42235941.2875358     
  -41871347.6073562     
  -41536323.1515338     
  -41227196.1495200     
  -40940843.2032787     
  -40674582.0048680     
  -40426088.6772366     
  -40193333.0569117     
  -39974527.2756895     
  -39768084.3415307     
  -39572584.3255080     
  -39386746.3863844     
  -39209405.3022954     
  -39039491.4899642     
  -38876013.7145290     
  -38718043.8526972     
  -38564703.1853057     
  -38415149.7734593     
  -38268566.5222720     
  -38124149.5619131     
  -37981096.5787557     
  -37838594.7092433     
  -37695807.5623563     
  -37551860.8567396     
  -37405826.0345011     
  -37256701.0271781     
  -37103387.0708392     
  -36944660.0482710     
  -36779134.1954366     
  -36605215.0071250     
  -36421036.5648217     
  -36224375.8325306     
  -36012531.8546369     
  -35782149.5214187     
  -35528952.0879881     
  -35247316.3030665     
  -34929561.7468278     
  -34564692.1260993     
  -34136025.3664630     
  -33616444.0151032     
SCALARS 2waySource double 
LOOKUP_TABLE default
  1.231646349258333E-003
  1.020524389103329E-003
  8.569365992404413E-004
  7.337768077446713E-004
  6.465160648044435E-004
  5.945607410744439E-004
  4.070835735168456E-004
  4.795407402893431E-004
  4.979304960096179E-004
  5.101969527934082E-004
  5.203450512721894E-004
  5.303067399041808E-004
  5.408406495077007E-004
  5.521722107664334E-004
  5.642867745407514E-004
  5.770669404467460E-004
  5.903577245349842E-004
  6.039973478418846E-004
  6.178312531025520E-004
  6.317177936246394E-004
  6.455297470541227E-004
  6.591537387905186E-004
  6.724886368529993E-004
  6.854434618388000E-004
  6.979350872160170E-004
  7.098858627259027E-004
  7.212212155292471E-004
  7.318672381850807E-004
  7.417482429492637E-004
  7.507842387699036E-004
  7.588882649432515E-004
  7.659634892636843E-004
  7.718999445545216E-004
  7.765707306537910E-004
  7.798274424914290E-004
  7.814944886131452E-004
  7.813618225435804E-004
  7.791753960643148E-004
  7.746243160425871E-004
  7.673231710295872E-004
  7.567871588789546E-004
  7.423962487499820E-004
  7.233421830701212E-004
  6.985477351112526E-004
  6.665393491768563E-004
  6.252379152658838E-004
  5.715985508719923E-004
  5.009568926749291E-004
  4.057733830838571E-004
  2.730756774442047E-004
  1.191357036282151E-003
  1.336857552644661E-003
  1.432467954094498E-003
  1.497764278726689E-003
  1.542128344891531E-003
  1.571703314356529E-003
  1.613450715941980E-003
  1.598433587431901E-003
  1.598486869945275E-003
  1.610608180077252E-003
  1.627207342417110E-003
  1.645360884430873E-003
  1.663786289206432E-003
  1.681917665422150E-003
  1.699506959342441E-003
  1.716448087738634E-003
  1.732698151264704E-003
  1.748241904710544E-003
  1.763075820211958E-003
  1.777201073797717E-003
  1.790620544917888E-003
  1.803337541186288E-003
  1.815355184096041E-003
  1.826675973393150E-003
  1.837301327689330E-003
  1.847231033324955E-003
  1.856462596423789E-003
  1.864990520555529E-003
  1.872805542132144E-003
  1.879893856543633E-003
  1.886236364607355E-003
  1.891807963312785E-003
  1.896576898417593E-003
  1.900504189878746E-003
  1.903543135728682E-003
  1.905638898123430E-003
  1.906728182050003E-003
  1.906739043305806E-003
  1.905590930126198E-003
  1.903195218336825E-003
  1.899456839564555E-003
  1.894278330738282E-003
  1.887569195980486E-003
  1.879266860244116E-003
  1.869382975502828E-003
  1.858105747988810E-003
  1.846028179658840E-003
  1.834665655074177E-003
  1.827655593662042E-003
  1.833609090222202E-003
  7.707452796534490E-004
  1.005449677868613E-003
  1.199740453353852E-003
  1.358536240591022E-003
  1.488926200083051E-003
  1.597731926056080E-003
  1.683719104626294E-003
  1.766897539689644E-003
  1.832432903034689E-003
  1.887307984760161E-003
  1.936143718917378E-003
  1.980683669762733E-003
  2.021735951788024E-003
  2.059754969213813E-003
  2.095052241653875E-003
  2.127873480494770E-003
  2.158427781454785E-003
  2.186899815525133E-003
  2.213455945853396E-003
  2.238248026850325E-003
  2.261416125905660E-003
  2.283090568245886E-003
  2.303393452235178E-003
  2.322439722481963E-003
  2.340337883946953E-003
  2.357190446956056E-003
  2.373094198507017E-003
  2.388140397981732E-003
  2.402414996986101E-003
  2.415998985505190E-003
  2.428968971914154E-003
  2.441398114360146E-003
  2.453357537753943E-003
  2.464918396596102E-003
  2.476154782887501E-003
  2.487147736026069E-003
  2.497990696307600E-003
  2.508796868064080E-003
  2.519709140688012E-003
  2.530913480046313E-003
  2.542657075828473E-003
  2.555273025147397E-003
  2.569213892020869E-003
  2.585096810081513E-003
  2.603761870757549E-003
  2.626340244809372E-003
  2.654309773163600E-003
  2.689457901770733E-003
  2.733502146044843E-003
  2.786631366632952E-003
  4.598936801381835E-004
  6.532365431290983E-004
  8.229428753148768E-004
  9.731885170193476E-004
  1.106522432261700E-003
  1.224799767489920E-003
  1.331679342866042E-003
  1.425299073968689E-003
  1.511654177879904E-003
  1.590153293819484E-003
  1.661356396181005E-003
  1.726376375505034E-003
  1.786174762133517E-003
  1.841486484284084E-003
  1.892863344263716E-003
  1.940729484530072E-003
  1.985424654813452E-003
  2.027233812759633E-003
  2.066406387258002E-003
  2.103168541841949E-003
  2.137730871044261E-003
  2.170293142371570E-003
  2.201047124041806E-003
  2.230178172851910E-003
  2.257866030515719E-003
  2.284285138462070E-003
  2.309604696528161E-003
  2.333988639697565E-003
  2.357595677049610E-003
  2.380579521513386E-003
  2.403089433962956E-003
  2.425271208394847E-003
  2.447268735086449E-003
  2.469226294802278E-003
  2.491291758256421E-003
  2.513620889481241E-003
  2.536382976057371E-003
  2.559768026505541E-003
  2.583995771885096E-003
  2.609326658892968E-003
  2.636074878042518E-003
  2.664623151147793E-003
  2.695438380571109E-003
  2.729086185949821E-003
  2.766240796607704E-003
  2.807685462767472E-003
  2.854301199622634E-003
  2.907062156328983E-003
  2.967140833954831E-003
  3.036524689372671E-003
  3.465050153204702E-004
  4.331283823775810E-004
  5.214694152931476E-004
  6.094446077012951E-004
  6.959239360199931E-004
  7.802842513452235E-004
  8.615708962090569E-004
  9.402833385726004E-004
  1.015142441125563E-003
  1.086693738580486E-003
  1.154975941890570E-003
  1.219922384678237E-003
  1.281562248767048E-003
  1.339996856789629E-003
  1.395363527551626E-003
  1.447814208022950E-003
  1.497506401383815E-003
  1.544600644691096E-003
  1.589260627656595E-003
  1.631653928816661E-003
  1.671952508109464E-003
  1.710332691717354E-003
  1.746974653346034E-003
  1.782061497806866E-003
  1.815778078003218E-003
  1.848309670697155E-003
  1.879840621020809E-003
  1.910553049778384E-003
  1.940625704694827E-003
  1.970233027725231E-003
  1.999544505073397E-003
  2.028724363789793E-003
  2.057931677447104E-003
  2.087320941743105E-003
  2.117043176742256E-003
  2.147247602977007E-003
  2.178083920105804E-003
  2.209705184999784E-003
  2.242271236944908E-003
  2.275952549725939E-003
  2.310934311130313E-003
  2.347420468997145E-003
  2.385637514679009E-003
  2.425838058324951E-003
  2.468305052004016E-003
  2.513359080091414E-003
  2.561372822762676E-003
  2.612793422050245E-003
  2.668141784239649E-003
  2.727809935503444E-003
  3.805543591035866E-004
  3.743432750403975E-004
  3.831049229167883E-004
  4.035809678267916E-004
  4.330006830444556E-004
  4.690686098034406E-004
  5.100817881783129E-004
  5.543815229714651E-004
  6.010501832050092E-004
  6.489531489365533E-004
  6.973549680136480E-004
  7.457009229434658E-004
  7.935399119924536E-004
  8.405203794154917E-004
  8.863834600257815E-004
  9.309508658101905E-004
  9.741116283464043E-004
  1.015810132199820E-003
  1.056036131002349E-003
  1.094816602463314E-003
  1.132209050932620E-003
  1.168295875853366E-003
  1.203179512215700E-003
  1.236978140310875E-003
  1.269821833539101E-003
  1.301849062616142E-003
  1.333203506598590E-003
  1.364031140981793E-003
  1.394477584952061E-003
  1.424685696644292E-003
  1.454793408763611E-003
  1.484931798123610E-003
  1.515223381847221E-003
  1.545780630136023E-003
  1.576704680373986E-003
  1.608084229778451E-003
  1.639994574140866E-003
  1.672496749633700E-003
  1.705636726056946E-003
  1.739444598055604E-003
  1.773933732160156E-003
  1.809099856100680E-003
  1.844920112746559E-003
  1.881352091563111E-003
  1.918332647567655E-003
  1.955775629172829E-003
  1.993566202519213E-003
  2.031548486046128E-003
  2.069512113253560E-003
  2.107246612055263E-003
  4.808545295086701E-004
  4.241157131735107E-004
  3.843900933239329E-004
  3.589214908243992E-004
  3.453284074745287E-004
  3.415492632764360E-004
  3.457573112776373E-004
  3.564520872502487E-004
  3.722497175952492E-004
  3.920815277138370E-004
  4.149888552614811E-004
  4.401696463638312E-004
  4.669670389207106E-004
  4.948436050696736E-004
  5.233633709875758E-004
  5.521786403896928E-004
  5.810189116009945E-004
  6.096808371188642E-004
  6.380189936688745E-004
  6.659374617248033E-004
  6.933822179743195E-004
  7.203343006377917E-004
  7.468036747657796E-004
  7.728237115667467E-004
  7.984461967618915E-004
  8.237367908752295E-004
  8.487708744040121E-004
  8.736297203655410E-004
  8.983969446910194E-004
  9.231551910922976E-004
  9.479830114717130E-004
  9.729519059103083E-004
  9.981234880070307E-004
  1.023546742057148E-003
  1.049255338460665E-003
  1.075264973035234E-003
  1.101570694724093E-003
  1.128144184505755E-003
  1.154930945514224E-003
  1.181847358643366E-003
  1.208777545118862E-003
  1.235569950684438E-003
  1.262033516936000E-003
  1.287933234518183E-003
  1.312984819270034E-003
  1.336848352156476E-003
  1.359121245975751E-003
  1.379331843361003E-003
  1.396933160889377E-003
  1.411271733580998E-003
  5.836341864918806E-004
  5.137348507425367E-004
  4.566424958842547E-004
  4.109172005472578E-004
  3.751840254674272E-004
  3.481561246559538E-004
  3.286587390719731E-004
  3.156031657602186E-004
  3.080315131659966E-004
  3.050595582974339E-004
  3.059218609955873E-004
  3.099440749267775E-004
  3.165372238907423E-004
  3.251943811713584E-004
  3.354844195533974E-004
  3.470449452729328E-004
  3.595754200495752E-004
  3.728306742653078E-004
  3.866147753457784E-004
  4.007752026401193E-004
  4.151973106750145E-004
  4.297990816921221E-004
  4.445261715009980E-004
  4.593472470576012E-004
  4.742496061196013E-004
  4.892350620456427E-004
  5.043160714039494E-004
  5.195120785259988E-004
  5.348460490980732E-004
  5.503411639000127E-004
  5.660176435114104E-004
  5.818896749765738E-004
  5.979624118241764E-004
  6.142290193706704E-004
  6.306677376928106E-004
  6.472389348595794E-004
  6.638821226361640E-004
  6.805129055193325E-004
  6.970198311369979E-004
  7.132611054535150E-004
  7.290611303047501E-004
  7.442068157825026E-004
  7.584436210788209E-004
  7.714712917919241E-004
  7.829392892663072E-004
  7.924419099993411E-004
  7.995129395375544E-004
  8.036192062070644E-004
  8.041524461730100E-004
  8.004277171992743E-004
  6.586106520177857E-004
  5.958026152481609E-004
  5.405681951151683E-004
  4.924321934968198E-004
  4.508681093106347E-004
  4.153212485304323E-004
  3.852249091740722E-004
  3.600235917727688E-004
  3.391741214761584E-004
  3.221679139631465E-004
  3.085241427730880E-004
  2.978007369259761E-004
  2.895958081291865E-004
  2.835475779460933E-004
  2.793341776219817E-004
  2.766727037205336E-004
  2.753175152770179E-004
  2.750579764918181E-004
  2.757158382892681E-004
  2.771423948975512E-004
  2.792155073520283E-004
  2.818365592424548E-004
  2.849273938311882E-004
  2.884272700412829E-004
  2.922898650099067E-004
  2.964803421223074E-004
  3.009724956206243E-004
  3.057459762050541E-004
  3.107835965457852E-004
  3.160687113360518E-004
  3.215826633289021E-004
  3.273022845967957E-004
  3.331974408850907E-004
  3.392286062404943E-004
  3.453444549547364E-004
  3.514794581221472E-004
  3.575514727309227E-004
  3.634593121380014E-004
  3.690802882344761E-004
  3.742677178187329E-004
  3.788483890806614E-004
  3.826199886638206E-004
  3.853484943954163E-004
  3.867655401583023E-004
  3.865657533724007E-004
  3.844040579153169E-004
  3.798929732807338E-004
  3.726001371629671E-004
  3.620464778831134E-004
  3.477024999127968E-004
  7.001931525548273E-004
  6.506961350538610E-004
  6.048800340864027E-004
  5.627402316250300E-004
  5.241985141936998E-004
  4.891200301603268E-004
  4.573288790243759E-004
  4.286189500113718E-004
  4.027674197850315E-004
  3.795405109658353E-004
  3.587042958998053E-004
  3.400285353751670E-004
  3.232916971150166E-004
  3.082845864598396E-004
  2.948126553347317E-004
  2.826974523449277E-004
  2.717773847349778E-004
  2.619078872516125E-004
  2.529610923108657E-004
  2.448250978619317E-004
  2.374029218606040E-004
  2.306112197651431E-004
  2.243788283708158E-004
  2.186451874926367E-004
  2.133586808618384E-004
  2.084749289384347E-004
  2.039550589136393E-004
  1.997639708227957E-004
  1.958686133418536E-004
  1.922362784191338E-004
  1.888329204143713E-004
  1.856215027806018E-004
  1.825603735339234E-004
  1.796016697391354E-004
  1.766897509558252E-004
  1.737596620142080E-004
  1.707356266041961E-004
  1.675295749606319E-004
  1.640397114030774E-004
  1.601491305740226E-004
  1.557244948096808E-004
  1.506147890424073E-004
  1.446501741413660E-004
  1.376409658631229E-004
  1.293767772800055E-004
  1.196258795378601E-004
  1.081348467634432E-004
  9.462850521161040E-005
  7.881010100089025E-005
  6.036258253588386E-005
  7.136416495212730E-004
  6.765812045234122E-004
  6.409624855109456E-004
  6.069132796296427E-004
  5.745104650002692E-004
  5.437874029205996E-004
  5.147410165081861E-004
  4.873391905758012E-004
  4.615265281683975E-004
  4.372309527201962E-004
  4.143679485881388E-004
  3.928455758121050E-004
  3.725680219623581E-004
  3.534386230272525E-004
  3.353623456362538E-004
  3.182476837527281E-004
  3.020080315652821E-004
  2.865626061592647E-004
  2.718369840992106E-004
  2.577633090613817E-004
  2.442802236507841E-004
  2.313325749072503E-004
  2.188709386517579E-004
  2.068510028019116E-004
  1.952328445113040E-004
  1.839801308049344E-004
  1.730592675570391E-004
  1.624385172881016E-004
  1.520871024349137E-004
  1.419743074918019E-004
  1.320685907504619E-004
  1.223367142953922E-004
  1.127428994152409E-004
  1.032480136987225E-004
  9.380879573791858E-005
  8.437712358528427E-005
  7.489933386249410E-005
  6.531559967503015E-005
  5.555937723926331E-005
  4.555693335045463E-005
  3.522696856437744E-005
  2.448035430182406E-005
  1.322000611051373E-005
  1.340919820529109E-006
 -1.126959866873833E-005
 -2.473147742862850E-005
 -3.917116230824069E-005
 -5.472058648470288E-005
 -7.151571228184056E-005
 -8.969483032642432E-005
  7.062439745960024E-004
  6.787001757068236E-004
  6.515099754599101E-004
  6.247922763214347E-004
  5.986395319395916E-004
  5.731200535397439E-004
  5.482806661402893E-004
  5.241493568987972E-004
  5.007382368829700E-004
  4.780460761168084E-004
  4.560611176626189E-004
  4.347632983719039E-004
  4.141264561424885E-004
  3.941202145734699E-004
  3.747115738332338E-004
  3.558662373830326E-004
  3.375496799167152E-004
  3.197279696543934E-004
  3.023683666064448E-004
  2.854397222534289E-004
  2.689127070511379E-004
  2.527598918781156E-004
  2.369557085742245E-004
  2.214763132449879E-004
  2.062993741531448E-004
  1.914038038934807E-004
  1.767694533044374E-004
  1.623767823452592E-004
  1.482065210515938E-004
  1.342393317767246E-004
  1.204554822643889E-004
  1.068345377337719E-004
  9.335507910107865E-005
  7.999445373402573E-005
  6.672856472366863E-005
  5.353170458211929E-005
  4.037643950080438E-005
  2.723355084992895E-005
  1.407204142869418E-005
  8.592150938356172E-007
 -1.243916023950561E-005
 -2.585859469042419E-005
 -3.943551044523236E-005
 -5.320675299142758E-005
 -6.720896308675967E-005
 -8.147779050881148E-005
 -9.604692730487241E-005
 -1.109469403393308E-004
 -1.262039041443721E-004
 -1.418377433117259E-004
  6.840756578355230E-004
  6.633602029430517E-004
  6.425257221933294E-004
  6.216509649607149E-004
  6.008037871515867E-004
  5.800414239214922E-004
  5.594110360209422E-004
  5.389505070383693E-004
  5.186893132848606E-004
  4.986495627409208E-004
  4.788469550188442E-004
  4.592918280666729E-004
  4.399900892942011E-004
  4.209440933050706E-004
  4.021534315608242E-004
  3.836156174831315E-004
  3.653266661012781E-004
  3.472815706236176E-004
  3.294746808926068E-004
  3.118999915019308E-004
  2.945513495626045E-004
  2.774225934404342E-004
  2.605076343598565E-004
  2.438004927733962E-004
  2.272953009892055E-004
  2.109862828686869E-004
  1.948677205194631E-004
  1.789339169319821E-004
  1.631791624766493E-004
  1.475977121699842E-004
  1.321837796768108E-004
  1.169315531571646E-004
  1.018352373462893E-004
  8.688912565929132E-005
  7.208770566990729E-005
  5.742580101688960E-005
  4.289875265343022E-005
  2.850264235229864E-005
  1.423456152232448E-005
  9.292864432204757E-008
 -1.392214101348181E-005
 -2.780840931702740E-005
 -4.156102826688477E-005
 -5.517198698308657E-005
 -6.862948710770814E-005
 -8.191724095099671E-005
 -9.501368738227262E-005
 -1.078911203438108E-004
 -1.205147176054904E-004
 -1.328414857979335E-004
  6.516596467521717E-004
  6.358713704556978E-004
  6.197680123038929E-004
  6.033972192150474E-004
  5.868030595413496E-004
  5.700258483629283E-004
  5.531021232643290E-004
  5.360647299986886E-004
  5.189430171450976E-004
  5.017630745378578E-004
  4.845480403077589E-004
  4.673184022493173E-004
  4.500923213217851E-004
  4.328859376245513E-004
  4.157136555155794E-004
  3.985884023216698E-004
  3.815218556984025E-004
  3.645246382225336E-004
  3.476064803413540E-004
  3.307763544709284E-004
  3.140425842354234E-004
  2.974129336820557E-004
  2.808946818307786E-004
  2.644946881174414E-004
  2.482194542472020E-004
  2.320751877205035E-004
  2.160678718912456E-004
  2.002033469155252E-004
  1.844874053855567E-004
  1.689259058452345E-004
  1.535249067911122E-004
  1.382908231821262E-004
  1.232306069323767E-004
  1.083519523707526E-004
  9.366352719900018E-005
  7.917522910258788E-005
  6.489846784782393E-005
  5.084647244673774E-005
  3.703462278267283E-005
  2.348080496213704E-005
  1.020578959355340E-005
 -2.766367831770438E-006
 -1.540790527813892E-005
 -2.768691204824141E-005
 -3.956686709450992E-005
 -5.100615870043970E-005
 -6.195758640531095E-005
 -7.236784628237829E-005
 -8.217700389540034E-005
 -9.131795210672287E-005
  6.124346485359700E-004
  6.003358316434052E-004
  5.878388554364279E-004
  5.749748969492707E-004
  5.617742366444230E-004
  5.482661341124730E-004
  5.344787541478848E-004
  5.204391383305407E-004
  5.061732068493502E-004
  4.917057914408784E-004
  4.770606790684033E-004
  4.622606726774953E-004
  4.473276509332970E-004
  4.322826297236014E-004
  4.171458196894066E-004
  4.019366777049219E-004
  3.866739519958103E-004
  3.713757213232681E-004
  3.560594294733279E-004
  3.407419170288981E-004
  3.254394529152665E-004
  3.101677685111550E-004
  2.949420972353171E-004
  2.797772224999469E-004
  2.646875367627548E-004
  2.496871141653796E-004
  2.347897989141072E-004
  2.200093111722003E-004
  2.053593718072816E-004
  1.908538468942991E-004
  1.765069124085161E-004
  1.623332390972349E-004
  1.483481970678783E-004
  1.345680792023576E-004
  1.210103421093077E-004
  1.076938629442257E-004
  9.463921009484336E-005
  8.186892542701519E-005
  6.940781552868935E-005
  5.728324918453917E-005
  4.552545815121634E-005
  3.416783818394837E-005
  2.324724720316253E-005
  1.280429744430584E-005
  2.883638449674911E-006
 -6.465772244155660E-006
 -1.519041395780152E-005
 -2.323196663675727E-005
 -3.052709617015988E-005
 -3.700726636308913E-005
  5.691602347765631E-004
  5.599280618725058E-004
  5.502632920505837E-004
  5.401903692765924E-004
  5.297335362746999E-004
  5.189168246826934E-004
  5.077640504985916E-004
  4.962988123307963E-004
  4.845444920956295E-004
  4.725242538736954E-004
  4.602610423112497E-004
  4.477775758690165E-004
  4.350963373938617E-004
  4.222395597608079E-004
  4.092292078430356E-004
  3.960869577554353E-004
  3.828341746888214E-004
  3.694918911401430E-004
  3.560807876071768E-004
  3.426211779554977E-004
  3.291330016957827E-004
  3.156358253759084E-004
  3.021488551443865E-004
  2.886909623462314E-004
  2.752807237415620E-004
  2.619364776270875E-004
  2.486763968011266E-004
  2.355185789398481E-004
  2.224811545815219E-004
  2.095824125253736E-004
  1.968409420715474E-004
  1.842757911497207E-004
  1.719066390165453E-004
  1.597539818540982E-004
  1.478393292664058E-004
  1.361854093619060E-004
  1.248163798349040E-004
  1.137580422087674E-004
  1.030380561943593E-004
  9.268615095848882E-005
  8.273432997486813E-005
  7.321706606124874E-005
  6.417148319824293E-005
  5.563752174588557E-005
  4.765808375407041E-005
  4.027915515916359E-005
  3.354990181652020E-005
  2.752273649414083E-005
  2.225335381347444E-005
  1.780073085756223E-005
  5.241048311110052E-004
  5.171452652305077E-004
  5.097457975881470E-004
  5.019285322138145E-004
  4.937154460422283E-004
  4.851284405348824E-004
  4.761893837588005E-004
  4.669201427268569E-004
  4.573426053139541E-004
  4.474786922615273E-004
  4.373503587314381E-004
  4.269795868567936E-004
  4.163883693884088E-004
  4.055986863075547E-004
  3.946324757369317E-004
  3.835116010219087E-004
  3.722578160386696E-004
  3.608927308545945E-004
  3.494377798949071E-004
  3.379141947381687E-004
  3.263429835412474E-004
  3.147449189312080E-004
  3.031405359725311E-004
  2.915501415635456E-004
  2.799938363222598E-004
  2.684915497184601E-004
  2.570630888836552E-004
  2.457282012076909E-004
  2.345066505088300E-004
  2.234183062407092E-004
  2.124832448984137E-004
  2.017218624810034E-004
  1.911549965954637E-004
  1.808040565159305E-004
  1.706911592769263E-004
  1.608392696515969E-004
  1.512723416804666E-004
  1.420154592467502E-004
  1.330949730649421E-004
  1.245386313599336E-004
  1.163757014524982E-004
  1.086370794602492E-004
  1.013553853488461E-004
  9.456504064124592E-005
  8.830232620242191E-005
  8.260541766040783E-005
  7.751439619582574E-005
  7.307123259043437E-005
  6.931974270922545E-005
  6.630551259467088E-005
  4.790976533788631E-004
  4.739423355393980E-004
  4.683594804341458E-004
  4.623699825515536E-004
  4.559945937799669E-004
  4.492539851643685E-004
  4.421687983536428E-004
  4.347596863099761E-004
  4.270473432192780E-004
  4.190525235769725E-004
  4.107960510548995E-004
  4.022988176472106E-004
  3.935817743283549E-004
  3.846659143263108E-004
  3.755722505811018E-004
  3.663217890163375E-004
  3.569354993606366E-004
  3.474342853050181E-004
  3.378389557570070E-004
  3.281701988680686E-004
  3.184485603928292E-004
  3.086944277612870E-004
  2.989280210465442E-004
  2.891693917917564E-004
  2.794384304048719E-004
  2.697548825895641E-004
  2.601383750232978E-004
  2.506084502370847E-004
  2.411846104166596E-004
  2.318863696040724E-004
  2.227333135594601E-004
  2.137451663402228E-004
  2.049418624640084E-004
  1.963436233554621E-004
  1.879710366189936E-004
  1.798451365613476E-004
  1.719874842680840E-004
  1.644202454598596E-004
  1.571662642897547E-004
  1.502491312051603E-004
  1.436932429887943E-004
  1.375238531005246E-004
  1.317671104885673E-004
  1.264500850897190E-004
  1.216007783301941E-004
  1.172481170337264E-004
  1.134219292593100E-004
  1.101529007252737E-004
  1.074725105773923E-004
  1.054129454409315E-004
  4.355383061111903E-004
  4.317976494559753E-004
  4.276569545303496E-004
  4.231356161400671E-004
  4.182529224980904E-004
  4.130281008731179E-004
  4.074803562080676E-004
  4.016289022492648E-004
  3.954929848917000E-004
  3.890918977381328E-004
  3.824449900265134E-004
  3.755716674171409E-004
  3.684913862354697E-004
  3.612236420618464E-004
  3.537879536394421E-004
  3.462038432178619E-004
  3.384908145131073E-004
  3.306683294793909E-004
  3.227557850762601E-004
  3.147724911467964E-004
  3.067376504346080E-004
  2.986703416394398E-004
  2.905895062723607E-004
  2.825139399048626E-004
  2.744622882432571E-004
  2.664530482846955E-004
  2.585045746384516E-004
  2.506350909351061E-004
  2.428627060866028E-004
  2.352054350191696E-004
  2.276812233693009E-004
  2.203079755215220E-004
  2.131035852649097E-004
  2.060859682665207E-004
  1.992730954925614E-004
  1.926830266566864E-004
  1.863339427418892E-004
  1.802441766131959E-004
  1.744322407341202E-004
  1.689168509912872E-004
  1.637169456428036E-004
  1.588516984135878E-004
  1.543405247815082E-004
  1.502030805126241E-004
  1.464592515245719E-004
  1.431291341767576E-004
  1.402330050992541E-004
  1.377912796892283E-004
  1.358244584222104E-004
  1.343530601262373E-004
  3.944147254662132E-004
  3.917597717840395E-004
  3.887428867948608E-004
  3.853813330224416E-004
  3.816923539151246E-004
  3.776931966191248E-004
  3.734011311470196E-004
  3.688334654811305E-004
  3.640075562979039E-004
  3.589408151419669E-004
  3.536507100655313E-004
  3.481547628706117E-004
  3.424705422680491E-004
  3.366156533672442E-004
  3.306077240280231E-004
  3.244643886724169E-004
  3.182032702023386E-004
  3.118419606804621E-004
  3.053980014280498E-004
  2.988888631478299E-004
  2.923319266277935E-004
  2.857444645048238E-004
  2.791436244751903E-004
  2.725464142499154E-004
  2.659696884473474E-004
  2.594301375195398E-004
  2.529442787142860E-004
  2.465284489889460E-004
  2.401987997167199E-004
  2.339712929637561E-004
  2.278616990647443E-004
  2.218855951907202E-004
  2.160583645858263E-004
  2.103951961334591E-004
  2.049110839266549E-004
  1.996208265231877E-004
  1.945390255872339E-004
  1.896800836459901E-004
  1.850582007045567E-004
  1.806873694839268E-004
  1.765813690543582E-004
  1.727537566311733E-004
  1.692178572830822E-004
  1.659867512617985E-004
  1.630732586131758E-004
  1.604899206511142E-004
  1.582489777892792E-004
  1.563623431253471E-004
  1.548415710651956E-004
  1.536978201665793E-004
  3.563438971063594E-004
  3.544996715553083E-004
  3.523376581055628E-004
  3.498724930395400E-004
  3.471189007077947E-004
  3.440916966881811E-004
  3.408057897099716E-004
  3.372761819660706E-004
  3.335179675212845E-004
  3.295463286128647E-004
  3.253765297323851E-004
  3.210239094704304E-004
  3.165038701806821E-004
  3.118318656001869E-004
  3.070233866115774E-004
  3.020939453814751E-004
  2.970590581292603E-004
  2.919342267915811E-004
  2.867349198393575E-004
  2.814765524825068E-004
  2.761744664670515E-004
  2.708439096246992E-004
  2.655000152944137E-004
  2.601577816820081E-004
  2.548320511831373E-004
  2.495374896476046E-004
  2.442885655356832E-004
  2.390995288892345E-004
  2.339843900265773E-004
  2.289568978763260E-004
  2.240305178759484E-004
  2.192184093870870E-004
  2.145334026268406E-004
  2.099879751521436E-004
  2.055942280049165E-004
  2.013638616756530E-004
  1.973081521082525E-004
  1.934379270238533E-004
  1.897635428799450E-004
  1.862948628073046E-004
  1.830412358745011E-004
  1.800114779990910E-004
  1.772138547720742E-004
  1.746560663721685E-004
  1.723452346254016E-004
  1.702878921095103E-004
  1.684899730204233E-004
  1.669568053243757E-004
  1.656931035003249E-004
  1.647029609796059E-004
  3.216311940439090E-004
  3.203730357491984E-004
  3.188431839637120E-004
  3.170534339623544E-004
  3.150157689835316E-004
  3.127423504463470E-004
  3.102455082015856E-004
  3.075377305368625E-004
  3.046316536924994E-004
  3.015400506947278E-004
  2.982758193530098E-004
  2.948519693180371E-004
  2.912816081295731E-004
  2.875779262240222E-004
  2.837541808898053E-004
  2.798236791838483E-004
  2.757997598238076E-004
  2.716957740764839E-004
  2.675250656507106E-004
  2.633009495931174E-004
  2.590366901658655E-004
  2.547454776657482E-004
  2.504404041253681E-004
  2.461344378198053E-004
  2.418403964944043E-004
  2.375709192223611E-004
  2.333384368128139E-004
  2.291551407049015E-004
  2.250329503202092E-004
  2.209834788858588E-004
  2.170179978080190E-004
  2.131473997380697E-004
  2.093821605646828E-004
  2.057323006518017E-004
  2.022073457343584E-004
  1.988162879850301E-004
  1.955675478426800E-004
  1.924689372759017E-004
  1.895276252037800E-004
  1.867501058279858E-004
  1.841421706221307E-004
  1.817088846843147E-004
  1.794545680668328E-004
  1.773827825734154E-004
  1.754963243309018E-004
  1.737972222298390E-004
  1.722867420781614E-004
  1.709653960313085E-004
  1.698329565835455E-004
  1.688884741155581E-004
  2.903383673062364E-004
  2.894879373357254E-004
  2.884106421605755E-004
  2.871154833046624E-004
  2.856117282932201E-004
  2.839088945477902E-004
  2.820167337768566E-004
  2.799452166461308E-004
  2.777045175390333E-004
  2.753049992269654E-004
  2.727571973031115E-004
  2.700718042386772E-004
  2.672596529443717E-004
  2.643316997284295E-004
  2.612990065492958E-004
  2.581727224626294E-004
  2.549640641615722E-004
  2.516842955005960E-004
  2.483447058861353E-004
  2.449565874025604E-004
  2.415312105359936E-004
  2.380797983455847E-004
  2.346134989291680E-004
  2.311433560324470E-004
  2.276802776567981E-004
  2.242350025488809E-004
  2.208180644787855E-004
  2.174397542660341E-004
  2.141100795683643E-004
  2.108387225267123E-004
  2.076349954419580E-004
  2.045077947672503E-004
  2.014655538019100E-004
  1.985161945936973E-004
  1.956670796751352E-004
  1.929249643711634E-004
  1.902959505190254E-004
  1.877854425313369E-004
  1.853981067899620E-004
  1.831378353876558E-004
  1.810077152233386E-004
  1.790100033976669E-004
  1.771461097452368E-004
  1.754165871812974E-004
  1.738211303255331E-004
  1.723585826064193E-004
  1.710269517519348E-004
  1.698234332464018E-004
  1.687444409918998E-004
  1.677856440871041E-004
  2.623508602835539E-004
  2.617710796346587E-004
  2.610057667274462E-004
  2.600613662119361E-004
  2.589446403045715E-004
  2.576626515494396E-004
  2.562227460344421E-004
  2.546325368798297E-004
  2.528998878383491E-004
  2.510328968464240E-004
  2.490398793879600E-004
  2.469293515336568E-004
  2.447100125285083E-004
  2.423907267993575E-004
  2.399805052565089E-004
  2.374884857533930E-004
  2.349239125646991E-004
  2.322961147283648E-004
  2.296144830895383E-004
  2.268884458685583E-004
  2.241274425720861E-004
  2.213408960565167E-004
  2.185381825559944E-004
  2.157285994997430E-004
  2.129213309593593E-004
  2.101254105992228E-004
  2.073496820516034E-004
  2.046027566933002E-004
  2.018929688778480E-004
  1.992283287679550E-004
  1.966164730126584E-004
  1.940646136354295E-004
  1.915794856186162E-004
  1.891672938049360E-004
  1.868336598651231E-004
  1.845835702073331E-004
  1.824213258156138E-004
  1.803504950972895E-004
  1.783738708821315E-004
  1.764934327423710E-004
  1.747103157850584E-004
  1.730247870001888E-004
  1.714362301250499E-004
  1.699431398039196E-004
  1.685431255895860E-004
  1.672329260450387E-004
  1.660084328803004E-004
  1.648647247026935E-004
  1.637961095934460E-004
  1.627961753625866E-004
  2.374380262419714E-004
  2.370272107190052E-004
  2.364673880150967E-004
  2.357627937680326E-004
  2.349180077377022E-004
  2.339379388993445E-004
  2.328278106898110E-004
  2.315931462310573E-004
  2.302397533741113E-004
  2.287737094183421E-004
  2.272013453747498E-004
  2.255292296516370E-004
  2.237641510470104E-004
  2.219131009351089E-004
  2.199832545289124E-004
  2.179819510969477E-004
  2.159166730008439E-004
  2.137950234085639E-004
  2.116247025244049E-004
  2.094134821676738E-004
  2.071691785156347E-004
  2.048996228330035E-004
  2.026126299992397E-004
  2.003159646684604E-004
  1.980173049135861E-004
  1.957242032384479E-004
  1.934440448997858E-004
  1.911840035383464E-004
  1.889509942011723E-004
  1.867516239327834E-004
  1.845921402244862E-004
  1.824783777282136E-004
  1.804157037791989E-004
  1.784089634013319E-004
  1.764624246101757E-004
  1.745797249550397E-004
  1.727638203547211E-004
  1.710169373824950E-004
  1.693405302072587E-004
  1.677352434345932E-004
  1.662008820586670E-004
  1.647363896730939E-004
  1.633398359471873E-004
  1.620084141959925E-004
  1.607384496189922E-004
  1.595254184913340E-004
  1.583639782523510E-004
  1.572480080668397E-004
  1.561706590637194E-004
  1.551244130822722E-004
  2.153028945035729E-004
  2.149886169418503E-004
  2.145564852202865E-004
  2.140089194453225E-004
  2.133486897597696E-004
  2.125789057092134E-004
  2.117030053634272E-004
  2.107247439966794E-004
  2.096481821688222E-004
  2.084776730588924E-004
  2.072178489311964E-004
  2.058736066251929E-004
  2.044500919806164E-004
  2.029526831047660E-004
  2.013869724012084E-004
  1.997587472673438E-004
  1.980739693629158E-004
  1.963387523388767E-004
  1.945593379032178E-004
  1.927420700858308E-004
  1.908933675530321E-004
  1.890196938205256E-004
  1.871275252073848E-004
  1.852233163897150E-004
  1.833134634302120E-004
  1.814042641930413E-004
  1.795018761073602E-004
  1.776122712974887E-004
  1.757411891869896E-004
  1.738940867737237E-004
  1.720760868815427E-004
  1.702919248202216E-004
  1.685458940122808E-004
  1.668417912811600E-004
  1.651828626333203E-004
  1.635717504890047E-004
  1.620104434362983E-004
  1.605002296698263E-004
  1.590416553388842E-004
  1.576344890518978E-004
  1.562776937603217E-004
  1.549694071694993E-004
  1.537069316907598E-004
  1.524867347622774E-004
  1.513044601163415E-004
  1.501549502777680E-004
  1.490322802400368E-004
  1.479298018994975E-004
  1.468401984576219E-004
  1.457555476297609E-004
  1.956205322040140E-004
  1.953536938707828E-004
  1.949947700647273E-004
  1.945447574115759E-004
  1.940049930807693E-004
  1.933771492027117E-004
  1.926632266374799E-004
  1.918655478785697E-004
  1.909867489143978E-004
  1.900297698954665E-004
  1.889978444914442E-004
  1.878944878461793E-004
  1.867234830606497E-004
  1.854888661451373E-004
  1.841949093984181E-004
  1.828461031570786E-004
  1.814471358682237E-004
  1.800028724166798E-004
  1.785183306309132E-004
  1.769986558753266E-004
  1.754490936264981E-004
  1.738749599169306E-004
  1.722816095345249E-004
  1.706744018660527E-004
  1.690586642948769E-004
  1.674396530888865E-004
  1.658225117641418E-004
  1.642122269615477E-004
  1.626135819599228E-004
  1.610311080280614E-004
  1.594690339311157E-004
  1.579312340209248E-004
  1.564211754645204E-004
  1.549418652974179E-004
  1.534957981174839E-004
  1.520849053596585E-004
  1.507105071972505E-004
  1.493732682096337E-004
  1.480731580076049E-004
  1.468094180340718E-004
  1.455805357275294E-004
  1.443842271659909E-004
  1.432174291772576E-004
  1.420763017139733E-004
  1.409562410566743E-004
  1.398519041156680E-004
  1.387572437766770E-004
  1.376655548856064E-004
  1.365695300951930E-004
  1.354613244517658E-004
  1.780656217950111E-004
  1.778150689049466E-004
  1.774931702545786E-004
  1.770998596595274E-004
  1.766353915581797E-004
  1.761003404509742E-004
  1.754955993421636E-004
  1.748223769431945E-004
  1.740821934371013E-004
  1.732768746449656E-004
  1.724085444831055E-004
  1.714796156255997E-004
  1.704927783283000E-004
  1.694509873831023E-004
  1.683574471929280E-004
  1.672155949594180E-004
  1.660290819741318E-004
  1.648017529965649E-004
  1.635376236901965E-004
  1.622408560720214E-004
  1.609157319194389E-004
  1.595666240640940E-004
  1.581979654982422E-004
  1.568142162211852E-004
  1.554198277675431E-004
  1.540192053787798E-004
  1.526166678261645E-004
  1.512164049381413E-004
  1.498224329614817E-004
  1.484385479625281E-004
  1.470682775796366E-004
  1.457148315395638E-004
  1.443810514779777E-004
  1.430693607165275E-004
  1.417817147838283E-004
  1.405195535718997E-004
  1.392837561328590E-004
  1.380745991980442E-004
  1.368917205557742E-004
  1.357340884472552E-004
  1.345999781092597E-004
  1.334869565277576E-004
  1.323918763333423E-004
  1.313108796015093E-004
  1.302394120840969E-004
  1.291722481282157E-004
  1.281035262255446E-004
  1.270267947987097E-004
  1.259350674875655E-004
  1.248208868578514E-004
  1.623307331712160E-004
  1.620786046699754E-004
  1.617714107787918E-004
  1.614083355358198E-004
  1.609888574514097E-004
  1.605127534481673E-004
  1.599801015299010E-004
  1.593912819175590E-004
  1.587469764285534E-004
  1.580481659387027E-004
  1.572961258063088E-004
  1.564924191908920E-004
  1.556388882343758E-004
  1.547376431013327E-004
  1.537910489002650E-004
  1.528017105120777E-004
  1.517724553594922E-004
  1.507063141430605E-004
  1.496064995595772E-004
  1.484763830016587E-004
  1.473194692256799E-004
  1.461393689601486E-004
  1.449397694175729E-004
  1.437244026699596E-004
  1.424970118609561E-004
  1.412613152410481E-004
  1.400209680469262E-004
  1.387795222964378E-004
  1.375403846255082E-004
  1.363067723739588E-004
  1.350816682161943E-004
  1.338677737307373E-004
  1.326674624137191E-004
  1.314827327579726E-004
  1.303151621289695E-004
  1.291658622779303E-004
  1.280354374345842E-004
  1.269239459892783E-004
  1.258308668332009E-004
  1.247550714361162E-004
  1.236948027227282E-004
  1.226476617377086E-004
  1.216106029703386E-004
  1.205799390502920E-004
  1.195513553018473E-004
  1.185199343923766E-004
  1.174801910177547E-004
  1.164261162475787E-004
  1.153512308385307E-004
  1.142486464983831E-004
  1.481371073096580E-004
  1.478749799607063E-004
  1.475702750434255E-004
  1.472216859083249E-004
  1.468281712664276E-004
  1.463889628459214E-004
  1.459035715903809E-004
  1.453717921122306E-004
  1.447937051683377E-004
  1.441696779841271E-004
  1.435003623114923E-004
  1.427866901543621E-004
  1.420298671480283E-004
  1.412313636052742E-004
  1.403929032770570E-004
  1.395164498863420E-004
  1.386041914977793E-004
  1.376585227886805E-004
  1.366820252703052E-004
  1.356774454993526E-004
  1.346476713007792E-004
  1.335957060113430E-004
  1.325246407375952E-004
  1.314376246204601E-004
  1.303378331016779E-004
  1.292284342003702E-004
  1.281125528351989E-004
  1.269932332687047E-004
  1.258733998017079E-004
  1.247558159175807E-004
  1.236430421514760E-004
  1.225373930564290E-004
  1.214408937334718E-004
  1.203552365020766E-004
  1.192817383866171E-004
  1.182213002006133E-004
  1.171743680923909E-004
  1.161408984938659E-004
  1.151203274516299E-004
  1.141115453455833E-004
  1.131128779683404E-004
  1.121220748804980E-004
  1.111363058510287E-004
  1.101521660265866E-004
  1.091656902861873E-004
  1.081723769912388E-004
  1.071672210715530E-004
  1.061447560973071E-004
  1.050991046863728E-004
  1.040240363037988E-004
  1.352397713365494E-004
  1.349655843378382E-004
  1.346581961816932E-004
  1.343160150437336E-004
  1.339376847552943E-004
  1.335220953018001E-004
  1.330683917499220E-004
  1.325759813051187E-004
  1.320445382556393E-004
  1.314740066253087E-004
  1.308646004217327E-004
  1.302168014176094E-004
  1.295313544617199E-004
  1.288092603476501E-004
  1.280517663073189E-004
  1.272603542064871E-004
  1.264367265364340E-004
  1.255827902879314E-004
  1.247006387897824E-004
  1.237925315795465E-004
  1.228608723562134E-004
  1.219081850539174E-004
  1.209370880544857E-004
  1.199502665583194E-004
  1.189504431238972E-004
  1.179403464043056E-004
  1.169226781233118E-004
  1.159000783729896E-004
  1.148750893583680E-004
  1.138501177738602E-004
  1.128273960731902E-004
  1.118089429688565E-004
  1.107965235958017E-004
  1.097916098626334E-004
  1.087953416133074E-004
  1.078084893098276E-004
  1.068314190307070E-004
  1.058640606430370E-004
  1.049058800458411E-004
  1.039558564033015E-004
  1.030124652579344E-004
  1.020736683620334E-004
  1.011369109612107E-004
  1.001991271241607E-004
  9.925675352832775E-005
  9.830575189233331E-005
  9.734163999600585E-005
  9.635953096158595E-005
  9.535418019624770E-005
  9.432003912520097E-005
  1.234286194873980E-004
  1.231443092391026E-004
  1.228337045290296E-004
  1.224950847150746E-004
  1.221269361087441E-004
  1.217279644557559E-004
  1.212971057980399E-004
  1.208335354135390E-004
  1.203366745887698E-004
  1.198061950414347E-004
  1.192420208840610E-004
  1.186443280690191E-004
  1.180135413175071E-004
  1.173503285748860E-004
  1.166555930642408E-004
  1.159304630406450E-004
  1.151762793471692E-004
  1.143945808858108E-004
  1.135870881017903E-004
  1.127556845712378E-004
  1.119023967649574E-004
  1.110293720447369E-004
  1.101388549341767E-004
  1.092331616971108E-004
  1.083146532532563E-004
  1.073857064653128E-004
  1.064486838533961E-004
  1.055059018128947E-004
  1.045595974605003E-004
  1.036118942787549E-004
  1.026647667985611E-004
  1.017200046287906E-004
  1.007791762255208E-004
  9.984359287744524E-005
  9.891427347344858E-005
  9.799191069532387E-005
  9.707683935872256E-005
  9.616900767806189E-005
  9.526795227529153E-005
  9.437277775797888E-005
  9.348214168279897E-005
  9.259424566051091E-005
  9.170683326830388E-005
  9.081719530734528E-005
  8.992218277721010E-005
  8.901822773531497E-005
  8.810137198542964E-005
  8.716730329352121E-005
  8.621139858188233E-005
  8.522877330269193E-005
  1.125268233678219E-004
  1.122365723413753E-004
  1.119250350607119E-004
  1.115904758166689E-004
  1.112313391321260E-004
  1.108462634418434E-004
  1.104340931642994E-004
  1.099938888584974E-004
  1.095249352242208E-004
  1.090267467679447E-004
  1.084990710200629E-004
  1.079418892577868E-004
  1.073554147326039E-004
  1.067400884529851E-004
  1.060965726056220E-004
  1.054257417187515E-004
  1.047286716863143E-004
  1.040066267734662E-004
  1.032610447160352E-004
  1.024935200185215E-004
  1.017057855353688E-004
  1.008996924099726E-004
  1.000771884228667E-004
  9.924029479814638E-005
  9.839108150534640E-005
  9.753164110186990E-005
  9.666406117008759E-005
  9.579039542937378E-005
  9.491263363678218E-005
  9.403267043546460E-005
  9.315227336598305E-005
  9.227305032376693E-005
  9.139641681368454E-005
  9.052356343406529E-005
  8.965542409755184E-005
  8.879264557150955E-005
  8.793555898621130E-005
  8.708415401423101E-005
  8.623805645474741E-005
  8.539650997648745E-005
  8.455836274387594E-005
  8.372205961735701E-005
  8.288564052418472E-005
  8.204674548457174E-005
  8.120262662726906E-005
  8.035016734377155E-005
  7.948590852881176E-005
  7.860608162968755E-005
  7.770664800510841E-005
  7.678334386850211E-005
  1.023876441219383E-004
  1.020966387328620E-004
  1.017879432992226E-004
  1.014598855232429E-004
  1.011109491026819E-004
  1.007397879437331E-004
  1.003452388151533E-004
  9.992633214526522E-005
  9.948230072354805E-005
  9.901258613853375E-005
  9.851684283877324E-005
  9.799493977449033E-005
  9.744695962287972E-005
  9.687319565141576E-005
  9.627414630053621E-005
  9.565050760008449E-005
  9.500316353626027E-005
  9.433317449882531E-005
  9.364176392650771E-005
  9.293030326100894E-005
  9.220029530737810E-005
  9.145335607538751E-005
  9.069119517260819E-005
  8.991559479526031E-005
  8.912838736809335E-005
  8.833143187867370E-005
  8.752658896270447E-005
  8.671569481661674E-005
  8.590053404343174E-005
  8.508281157607507E-005
  8.426412387371813E-005
  8.344592964421236E-005
  8.262952040895142E-005
  8.181599129541780E-005
  8.100621251452792E-005
  8.020080204315716E-005
  7.940010009468587E-005
  7.860414600582263E-005
  7.781265820148590E-005
  7.702501790863176E-005
  7.624025727746458E-005
  7.545705252033277E-005
  7.467372261090126E-005
  7.388823397487063E-005
  7.309821147134428E-005
  7.230095579814347E-005
  7.149346727064628E-005
  7.067247572458196E-005
  6.983447608837238E-005
  6.897576897146228E-005
  9.289044655076719E-005
  9.260404139890320E-005
  9.230252948113526E-005
  9.198435235345417E-005
  9.164808598745900E-005
  9.129245497261081E-005
  9.091634523764695E-005
  9.051881500887925E-005
  9.009910377685649E-005
  8.965663910650781E-005
  8.919104119113772E-005
  8.870212510217368E-005
  8.818990074687155E-005
  8.765457058112071E-005
  8.709652516642349E-005
  8.651633667697631E-005
  8.591475047976438E-005
  8.529267491314955E-005
  8.465116938607883E-005
  8.399143090967699E-005
  8.331477915920536E-005
  8.262264015112834E-005
  8.191652860231233E-005
  8.119802902814980E-005
  8.046877563019499E-005
  7.973043101993884E-005
  7.898466383606430E-005
  7.823312532664203E-005
  7.747742499080816E-005
  7.671910541511565E-005
  7.595961647422647E-005
  7.520028912630433E-005
  7.444230908200588E-005
  7.368669069378225E-005
  7.293425147020211E-005
  7.218558768032537E-005
  7.144105156861426E-005
  7.070073073956570E-005
  6.996443030508656E-005
  6.923165839295237E-005
  6.850161560113065E-005
  6.777318895053777E-005
  6.704495081260757E-005
  6.631516320357284E-005
  6.558178770721810E-005
  6.484250114735991E-005
  6.409471696279526E-005
  6.333561206021720E-005
  6.256215873389768E-005
  6.177116106953067E-005
  8.393647982453078E-005
  8.365967493408462E-005
  8.336964999809451E-005
  8.306498945424528E-005
  8.274439317613021E-005
  8.240669023988556E-005
  8.205085131015452E-005
  8.167599938075666E-005
  8.128141865438665E-005
  8.086656140954722E-005
  8.043105275335936E-005
  7.997469322619942E-005
  7.949745926278300E-005
  7.899950155823005E-005
  7.848114142597812E-005
  7.794286524895082E-005
  7.738531714244686E-005
  7.680928995126325E-005
  7.621571470011168E-005
  7.560564860740804E-005
  7.498026175907534E-005
  7.434082252754900E-005
  7.368868180314931E-005
  7.302525609531467E-005
  7.235200955472813E-005
  7.167043496423913E-005
  7.098203375001230E-005
  7.028829508083719E-005
  6.959067414213181E-005
  6.889056970308961E-005
  6.818930113053383E-005
  6.748808505174153E-005
  6.678801191652606E-005
  6.609002276327934E-005
  6.539488654820097E-005
  6.470317845304791E-005
  6.401525963013803E-005
  6.333125888337828E-005
  6.265105681148110E-005
  6.197427294554301E-005
  6.130025640173177E-005
  6.062808053765379E-005
  5.995654204041694E-005
  5.928416479202357E-005
  5.860920874509072E-005
  5.792968391803141E-005
  5.724336946521192E-005
  5.654783762086697E-005
  5.584048215416421E-005
  5.511855080706619E-005
  7.544479783590271E-005
  7.518194821210585E-005
  7.490731137321621E-005
  7.461962798337477E-005
  7.431773756596307E-005
  7.400059151668613E-005
  7.366726485233841E-005
  7.331696644771298E-005
  7.294904756054222E-005
  7.256300850414407E-005
  7.215850337679196E-005
  7.173534281334222E-005
  7.129349476451828E-005
  7.083308335224946E-005
  7.035438588091324E-005
  6.985782809903981E-005
  6.934397782593519E-005
  6.881353705788526E-005
  6.826733266708431E-005
  6.770630579723967E-005
  6.713150005181483E-005
  6.654404855239209E-005
  6.594515993704140E-005
  6.533610335212236E-005
  6.471819248681407E-005
  6.409276869748699E-005
  6.346118326780322E-005
  6.282477886915055E-005
  6.218487029690847E-005
  6.154272458658909E-005
  6.089954064951211E-005
  6.025642860233078E-005
  5.961438901394098E-005
  5.897429233595335E-005
  5.833685883749991E-005
  5.770263940609951E-005
  5.707199762466860E-005
  5.644509356080057E-005
  5.582186973783249E-005
  5.520203975478683E-005
  5.458508001815954E-005
  5.397022501754031E-005
  5.335646652460718E-005
  5.274255701837716E-005
  5.212701755026483E-005
  5.150815013692229E-005
  5.088405464808948E-005
  5.025265000949209E-005
  4.961169939460939E-005
  4.895883894554757E-005
  6.734854386240499E-005
  6.710323449221368E-005
  6.684729676691363E-005
  6.657962998880985E-005
  6.629921786822803E-005
  6.600514056223468E-005
  6.569658556921190E-005
  6.537285725411677E-005
  6.503338482324308E-005
  6.467772862033624E-005
  6.430558466044743E-005
  6.391678737004150E-005
  6.351131053997029E-005
  6.308926653799634E-005
  6.265090384764585E-005
  6.219660302990758E-005
  6.172687120566123E-005
  6.124233517044752E-005
  6.074373324329942E-005
  6.023190594814029E-005
  5.970778561682951E-005
  5.917238498664135E-005
  5.862678485679946E-005
  5.807212085794336E-005
  5.750956937573132E-005
  5.694033267669196E-005
  5.636562327573213E-005
  5.578664760394238E-005
  5.520458904313147E-005
  5.462059041952734E-005
  5.403573607802895E-005
  5.345103369032121E-005
  5.286739599254334E-005
  5.228562268559350E-005
  5.170638277980928E-005
  5.113019770085444E-005
  5.055742551593544E-005
  4.998824666650716E-005
  4.942265161654285E-005
  4.886043082780243E-005
  4.830116747216016E-005
  4.774423325795799E-005
  4.718878770531682E-005
  4.663378113997218E-005
  4.607796158951831E-005
  4.551988566504166E-005
  4.495793339604158E-005
  4.439032686151498E-005
  4.381515233276760E-005
  4.323038551965812E-005
  5.959171460424333E-005
  5.936674746605491E-005
  5.913216539880773E-005
  5.888702160285676E-005
  5.863044105557851E-005
  5.836163142765314E-005
  5.807989297864352E-005
  5.778462723036186E-005
  5.747534425658540E-005
  5.715166847099601E-005
  5.681334284345949E-005
  5.646023151244910E-005
  5.609232080202720E-005
  5.570971868478602E-005
  5.531265275321457E-005
  5.490146678366602E-005
  5.447661598562180E-005
  5.403866103439560E-005
  5.358826098043800E-005
  5.312616512677303E-005
  5.265320395296545E-005
  5.217027915521320E-005
  5.167835285969088E-005
  5.117843605763761E-005
  5.067157630473579E-005
  5.015884472133767E-005
  4.964132233520643E-005
  4.912008581335369E-005
  4.859619264427818E-005
  4.807066585054033E-005
  4.754447833501939E-005
  4.701853699748617E-005
  4.649366678810019E-005
  4.597059490257360E-005
  4.544993536303740E-005
  4.493217426160595E-005
  4.441765597767831E-005
  4.390657070689812E-005
  4.339894365796121E-005
  4.289462627712165E-005
  4.239328985715543E-005
  4.189442186119976E-005
  4.139732525472017E-005
  4.090112108130752E-005
  4.040475444208780E-005
  3.990700395632700E-005
  3.940649467163622E-005
  3.890171428940943E-005
  3.839103246081230E-005
  3.787272278959591E-005
  5.212644170488642E-005
  5.192389357760786E-005
  5.171268643891399E-005
  5.149201839810852E-005
  5.126114822311769E-005
  5.101940504585253E-005
  5.076619717073279E-005
  5.050101980775156E-005
  5.022346158846326E-005
  4.993320976233021E-005
  4.963005400870205E-005
  4.931388884074037E-005
  4.898471460589058E-005
  4.864263712128848E-005
  4.828786599853327E-005
  4.792071173627125E-005
  4.754158165764341E-005
  4.715097478430744E-005
  4.674947572864975E-005
  4.633774768532443E-005
  4.591652459204984E-005
  4.548660252303143E-005
  4.504883036499185E-005
  4.460409981942882E-005
  4.415333476881821E-005
  4.369748004015408E-005
  4.323748959952982E-005
  4.277431422212820E-005
  4.230888868613863E-005
  4.184211856224934E-005
  4.137486668675921E-005
  4.090793943436224E-005
  4.044207293570656E-005
  3.997791941425301E-005
  3.951603385343592E-005
  3.905686123228708E-005
  3.860072459780223E-005
  3.814781426596413E-005
  3.769817845785650E-005
  3.725171568363041E-005
  3.680816918178537E-005
  3.636712369943156E-005
  3.592800486827653E-005
  3.549008138188441E-005
  3.505247011169879E-005
  3.461414423152659E-005
  3.417394432396004E-005
  3.373059235599474E-005
  3.328270830887913E-005
  3.282882915525634E-005
  4.491077809183371E-005
  4.473209850906751E-005
  4.454571524685908E-005
  4.435096022597254E-005
  4.414721613262694E-005
  4.393392486805001E-005
  4.371059522329291E-005
  4.347680962414620E-005
  4.323222982230434E-005
  4.297660144804938E-005
  4.270975736537879E-005
  4.243161981118756E-005
  4.214220132468525E-005
  4.184160449654119E-005
  4.153002059051583E-005
  4.120772710175871E-005
  4.087508432249842E-005
  4.053253099171803E-005
  4.018057910381889E-005
  3.981980794229157E-005
  3.945085740498799E-005
  3.907442067116885E-005
  3.869123625642774E-005
  3.830207949475092E-005
  3.790775347670472E-005
  3.750907947489820E-005
  3.710688688716868E-005
  3.670200272882597E-005
  3.629524072465003E-005
  3.588739005020401E-005
  3.547920380711591E-005
  3.507138732148069E-005
  3.466458639522288E-005
  3.425937565527570E-005
  3.385624717838916E-005
  3.345559959669303E-005
  3.305772791069134E-005
  3.266281425787072E-005
  3.227091989861975E-005
  3.188197868650132E-005
  3.149579228230199E-005
  3.111202736175562E-005
  3.073021502933147E-005
  3.034975261722659E-005
  2.996990798905387E-005
  2.958982640669896E-005
  2.920853994283301E-005
  2.882497934177523E-005
  2.843798814979130E-005
  2.804633885251051E-005
  3.790694579986607E-005
  3.775307325225346E-005
  3.759248586271599E-005
  3.742463767090626E-005
  3.724902455537013E-005
  3.706519141435992E-005
  3.687273869108614E-005
  3.667132810930932E-005
  3.646068751809577E-005
  3.624061477221278E-005
  3.601098059963033E-005
  3.577173044445730E-005
  3.552288528506524E-005
  3.526454146001118E-005
  3.499686954144318E-005
  3.472011231348867E-005
  3.443458191635609E-005
  3.414065622065089E-005
  3.383877449274989E-005
  3.352943241577521E-005
  3.321317651239907E-005
  3.289059801875423E-005
  3.256232624834688E-005
  3.222902147455935E-005
  3.189136736172041E-005
  3.155006296674420E-005
  3.120581433827650E-005
  3.085932573941021E-005
  3.051129053398475E-005
  3.016238178069178E-005
  2.981324259966224E-005
  2.946447639202340E-005
  2.911663701421925E-005
  2.877021903002535E-005
  2.842564818920912E-005
  2.808327230026072E-005
  2.774335269006113E-005
  2.740605645489611E-005
  2.707144972324756E-005
  2.673949215152073E-005
  2.641003287365784E-005
  2.608280811053325E-005
  2.575744062117064E-005
  2.543344114438770E-005
  2.511021193544072E-005
  2.478705244522533E-005
  2.446316713370638E-005
  2.413767533495569E-005
  2.380962302888765E-005
  2.347799630189768E-005
  3.107998605162056E-005
  3.095146753516894E-005
  3.081727445099704E-005
  3.067697168334334E-005
  3.053015777165777E-005
  3.037647083211898E-005
  3.021559393519777E-005
  3.004725983235161E-005
  2.987125494882332E-005
  2.968742258160816E-005
  2.949566526734105E-005
  2.929594630758000E-005
  2.908829045584826E-005
  2.887278379108587E-005
  2.864957281359317E-005
  2.841886280886180E-005
  2.818091553120067E-005
  2.793604626012293E-005
  2.768462028065088E-005
  2.742704883729380E-005
  2.716378460491333E-005
  2.689531671378926E-005
  2.662216535942175E-005
  2.634487602475747E-005
  2.606401333420286E-005
  2.578015456127924E-005
  2.549388280756590E-005
  2.520577987763311E-005
  2.491641887686739E-005
  2.462635657288588E-005
  2.433612556773314E-005
  2.404622634858239E-005
  2.375711929584527E-005
  2.346921675073926E-005
  2.318287526087841E-005
  2.289838813917383E-005
  2.261597849399234E-005
  2.233579289408536E-005
  2.205789584865584E-005
  2.178226528438799E-005
  2.150878919572390E-005
  2.123726364062710E-005
  2.096739222914289E-005
  2.069878722826337E-005
  2.043097236942859E-005
  2.016338740233428E-005
  1.989539438710643E-005
  1.962628566547881E-005
  1.935529339119170E-005
  1.908160044936689E-005
  2.439674685092690E-005
  2.429385124468877E-005
  2.418637978980998E-005
  2.407399799244793E-005
  2.395639738620259E-005
  2.383330021367492E-005
  2.370446367304341E-005
  2.356968364694471E-005
  2.342879784755461E-005
  2.328168833594647E-005
  2.312828338583894E-005
  2.296855868404965E-005
  2.280253787337911E-005
  2.263029245737403E-005
  2.245194109698661E-005
  2.226764833589208E-005
  2.207762279427741E-005
  2.188211487454489E-005
  2.168141402085865E-005
  2.147584556754406E-005
  2.126576721560638E-005
  2.105156516204242E-005
  2.083364990916892E-005
  2.061245177256780E-005
  2.038841610493764E-005
  2.016199825049074E-005
  1.993365824451562E-005
  1.970385527522273E-005
  1.947304192955361E-005
  1.924165825159636E-005
  1.901012565288284E-005
  1.877884072122557E-005
  1.854816899435634E-005
  1.831843877221334E-005
  1.808993506149138E-005
  1.786289375717824E-005
  1.763749618220549E-005
  1.741386411365872E-005
  1.719205543543527E-005
  1.697206055913197E-005
  1.675379975196638E-005
  1.653712150561741E-005
  1.632180206559200E-005
  1.610754621530947E-005
  1.589398938940593E-005
  1.568070114942523E-005
  1.546719002299650E-005
  1.525290965984764E-005
  1.503726622027651E-005
  1.481962686135686E-005
  1.782514465698656E-005
  1.774796439726267E-005
  1.766736548337583E-005
  1.758310522865405E-005
  1.749495974984067E-005
  1.740272743191385E-005
  1.730623206489791E-005
  1.720532559030187E-005
  1.709989041329247E-005
  1.698984124879927E-005
  1.687512648520206E-005
  1.675572905885880E-005
  1.663166684668882E-005
  1.650299259333355E-005
  1.636979339388895E-005
  1.623218976379453E-005
  1.609033432112277E-005
  1.594441011926706E-005
  1.579462865568714E-005
  1.564122758738565E-005
  1.548446817834419E-005
  1.532463249893158E-005
  1.516202039568294E-005
  1.499694624585149E-005
  1.482973550778199E-005
  1.466072107734912E-005
  1.449023946129145E-005
  1.431862677602821E-005
  1.414621459127079E-005
  1.397332563364135E-005
  1.380026937978784E-005
  1.362733757231187E-005
  1.345479970228915E-005
  1.328289851395258E-005
  1.311184559718823E-005
  1.294181714184771E-005
  1.277294994240760E-005
  1.260533774539415E-005
  1.243902803981687E-005
  1.227401939577786E-005
  1.211025945182657E-005
  1.194764364983447E-005
  1.178601480601944E-005
  1.162516359053837E-005
  1.146482997188326E-005
  1.130470565542400E-005
  1.114443751955281E-005
  1.098363202323919E-005
  1.082186052525478E-005
  1.065866542437445E-005
  1.133364215194042E-005
  1.128218047396156E-005
  1.122851169456146E-005
  1.117247769887459E-005
  1.111393222861072E-005
  1.105274315755557E-005
  1.098879453738973E-005
  1.092198838130021E-005
  1.085224615511739E-005
  1.077950996197724E-005
  1.070374341142153E-005
  1.062493216916008E-005
  1.054308419981153E-005
  1.045822970918136E-005
  1.037042080695417E-005
  1.027973090672055E-005
  1.018625388543954E-005
  1.009010302338342E-005
  9.991409744150210E-006
  9.890322174547660E-006
  9.787003539203137E-006
  9.681630403318252E-006
  9.574390776449272E-006
  9.465482082518070E-006
  9.355109006212500E-006
  9.243481219148035E-006
  9.130810989546140E-006
  9.017310686491196E-006
  8.903190181143780E-006
  8.788654158935324E-006
  8.673899356254731E-006
  8.559111743548256E-006
  8.444463679320844E-006
  8.330111068451970E-006
  8.216190564741644E-006
  8.102816863284399E-006
  7.990080138271661E-006
  7.878043681659443E-006
  7.766741809135299E-006
  7.656178096175612E-006
  7.546324013321308E-006
  7.437118021230278E-006
  7.328465187119436E-006
  7.220237370460759E-006
  7.112274019688939E-006
  7.004383601935069E-006
  6.896345676590121E-006
  6.787913600432902E-006
  6.678817835960569E-006
  6.568769808911450E-006
  4.890891645932362E-006
  4.865134510458747E-006
  4.838429830115984E-006
  4.810698452948695E-006
  4.781866318121856E-006
  4.751865559915872E-006
  4.720635483626322E-006
  4.688123399556273E-006
  4.654285305544854E-006
  4.619086420448426E-006
  4.582501562368205E-006
  4.544515380235422E-006
  4.505122443875161E-006
  4.464327202417709E-006
  4.422143818988569E-006
  4.378595896650151E-006
  4.333716103434114E-006
  4.287545709946288E-006
  4.240134047362240E-006
  4.191537896430006E-006
  4.141820813909320E-006
  4.091052401707782E-006
  4.039307524441499E-006
  3.986665477295750E-006
  3.933209106257190E-006
  3.879023880373282E-006
  3.824196920193918E-006
  3.768815977856398E-006
  3.712968374919158E-006
  3.656739896244582E-006
  3.600213646894527E-006
  3.543468875560701E-006
  3.486579774135033E-006
  3.429614265090772E-006
  3.372632789351392E-006
  3.315687116259982E-006
  3.258819190215438E-006
  3.202060044965869E-006
  3.145428807463272E-006
  3.088931821354401E-006
  3.032561921152545E-006
  2.976297885403153E-006
  2.920104101384903E-006
  2.863930464862329E-006
  2.807712542227610E-006
  2.751372014225533E-006
  2.694817411521331E-006
  2.637945151920561E-006
  2.580640874810040E-006
  2.522781060785286E-006
 -1.534498140001168E-006
 -1.534525226307716E-006
 -1.534199726085806E-006
 -1.533525822778524E-006
 -1.532509271250206E-006
 -1.531157451527699E-006
 -1.529479451713116E-006
 -1.527486174266328E-006
 -1.525190450499068E-006
 -1.522607157364842E-006
 -1.519753320438407E-006
 -1.516648201969529E-006
 -1.513313359699474E-006
 -1.509772676518149E-006
 -1.506052353100843E-006
 -1.502180861168048E-006
 -1.498188857883153E-006
 -1.494109056047554E-006
 -1.489976055741816E-006
 -1.485826134155377E-006
 -1.481696995429720E-006
 -1.477627484851158E-006
 -1.473657267760678E-006
 -1.469826474317929E-006
 -1.466175317256849E-006
 -1.462743682885805E-006
 -1.459570699647323E-006
 -1.456694291198748E-006
 -1.454150717475238E-006
 -1.451974109484741E-006
 -1.450196008648477E-006
 -1.448844914372268E-006
 -1.447945851769161E-006
 -1.447519969463601E-006
 -1.447584176481247E-006
 -1.448150830940423E-006
 -1.449227489789304E-006
 -1.450816731659290E-006
 -1.452916061581310E-006
 -1.455517906142843E-006
 -1.458609703837783E-006
 -1.462174093809765E-006
 -1.466189202992697E-006
 -1.470629025413447E-006
 -1.475463885735191E-006
 -1.480660972149148E-006
 -1.486184920315563E-006
 -1.491998427949933E-006
 -1.498062870454771E-006
 -1.504338894303177E-006
 -7.974106356640451E-006
 -7.948295915499159E-006
 -7.920800093808029E-006
 -7.891550519538162E-006
 -7.860487015727709E-006
 -7.827558804222314E-006
 -7.792725646572381E-006
 -7.755958883496757E-006
 -7.717242349119128E-006
 -7.676573130723360E-006
 -7.633962156771004E-006
 -7.589434600693855E-006
 -7.543030091783943E-006
 -7.494802730885275E-006
 -7.444820911857041E-006
 -7.393166957485728E-006
 -7.339936570639731E-006
 -7.285238118176598E-006
 -7.229191751500120E-006
 -7.171928376306276E-006
 -7.113588483752567E-006
 -7.054320847543234E-006
 -6.994281101212975E-006
 -6.933630199207088E-006
 -6.872532773570690E-006
 -6.811155389873106E-006
 -6.749664716170152E-006
 -6.688225610017830E-006
 -6.626999140298080E-006
 -6.566140554546119E-006
 -6.505797213632827E-006
 -6.446106514304488E-006
 -6.387193825293636E-006
 -6.329170472117017E-006
 -6.272131800474914E-006
 -6.216155363285220E-006
 -6.161299270524908E-006
 -6.107600748640725E-006
 -6.055074955195651E-006
 -6.003714092037040E-006
 -5.953486859850341E-006
 -5.904338289773705E-006
 -5.856189978949607E-006
 -5.808940748020524E-006
 -5.762467727587206E-006
 -5.716627863124339E-006
 -5.671259815766199E-006
 -5.626186220185632E-006
 -5.581216245533995E-006
 -5.536148394196507E-006
 -1.445978303869584E-005
 -1.440791680460505E-005
 -1.435300795818192E-005
 -1.429491643061416E-005
 -1.423351698266561E-005
 -1.416870156560685E-005
 -1.410038152170695E-005
 -1.402848956556906E-005
 -1.395298149960030E-005
 -1.387383762309152E-005
 -1.379106380693584E-005
 -1.370469221763044E-005
 -1.361478168002244E-005
 -1.352141768088273E-005
 -1.342471202120053E-005
 -1.332480212956351E-005
 -1.322185005447465E-005
 -1.311604115410648E-005
 -1.300758250500986E-005
 -1.289670105053942E-005
 -1.278364150333975E-005
 -1.266866402515235E-005
 -1.255204169446484E-005
 -1.243405777889705E-005
 -1.231500282166498E-005
 -1.219517155961987E-005
 -1.207485968058916E-005
 -1.195436043913002E-005
 -1.183396114953722E-005
 -1.171393957699413E-005
 -1.159456026011091E-005
 -1.147607079670023E-005
 -1.135869814279692E-005
 -1.124264497125856E-005
 -1.112808615666060E-005
 -1.101516545093984E-005
 -1.090399242487344E-005
 -1.079463975755483E-005
 -1.068714095477056E-005
 -1.058148857624240E-005
 -1.047763304962689E-005
 -1.037548214310600E-005
 -1.027490114851404E-005
 -1.017571381903911E-005
 -1.007770408019209E-005
 -9.980618511492983E-006
 -9.884169569462268E-006
 -9.788039496569986E-006
 -9.691884835653228E-006
 -9.595341440936748E-006
 -2.102369321476167E-005
 -2.094542638373429E-005
 -2.086274392514924E-005
 -2.077543337360957E-005
 -2.068330378449347E-005
 -2.058618926822750E-005
 -2.048395226614206E-005
 -2.037648648707823E-005
 -2.026371943551692E-005
 -2.014561448147273E-005
 -2.002217243026424E-005
 -1.989343257195014E-005
 -1.975947320096463E-005
 -1.962041160969815E-005
 -1.947640357011802E-005
 -1.932764232381045E-005
 -1.917435710950866E-005
 -1.901681125481892E-005
 -1.885529986473821E-005
 -1.869014713689588E-005
 -1.852170332949047E-005
 -1.835034140786276E-005
 -1.817645339196060E-005
 -1.800044642323051E-005
 -1.782273856980880E-005
 -1.764375438489278E-005
 -1.746392024011433E-005
 -1.728365945027050E-005
 -1.710338721893744E-005
 -1.692350543496215E-005
 -1.674439736225255E-005
 -1.656642227107888E-005
 -1.638991007732876E-005
 -1.621515605931762E-005
 -1.604241574219017E-005
 -1.587190004491993E-005
 -1.570377079815575E-005
 -1.553813674880870E-005
 -1.537505016804975E-005
 -1.521450418374461E-005
 -1.505643094826811E-005
 -1.490070074594940E-005
 -1.474712212632677E-005
 -1.459544312449189E-005
 -1.444535360583173E-005
 -1.429648873601324E-005
 -1.414843354223633E-005
 -1.400072849387289E-005
 -1.385287599042675E-005
 -1.370434761355672E-005
 -2.769834096384910E-005
 -2.759319940840749E-005
 -2.748226278408104E-005
 -2.736524392682329E-005
 -2.724188398551596E-005
 -2.711195715739657E-005
 -2.697527506456360E-005
 -2.683169066747380E-005
 -2.668110162940305E-005
 -2.652345306047453E-005
 -2.635873959735154E-005
 -2.618700678952898E-005
 -2.600835178082064E-005
 -2.582292329617442E-005
 -2.563092095209766E-005
 -2.543259392110719E-005
 -2.522823898554327E-005
 -2.501819802247002E-005
 -2.480285496062276E-005
 -2.458263224778189E-005
 -2.435798686535398E-005
 -2.412940592544640E-005
 -2.389740187613012E-005
 -2.366250734181344E-005
 -2.342526962099183E-005
 -2.318624486286036E-005
 -2.294599194727766E-005
 -2.270506609239526E-005
 -2.246401222391921E-005
 -2.222335814629472E-005
 -2.198360757114273E-005
 -2.174523306253812E-005
 -2.150866898630734E-005
 -2.127430455547208E-005
 -2.104247708408103E-005
 -2.081346557975113E-005
 -2.058748481123839E-005
 -2.036468000565268E-005
 -2.014512232812278E-005
 -1.992880530318368E-005
 -1.971564232581203E-005
 -1.950546540186305E-005
 -1.929802522841342E-005
 -1.909299270762414E-005
 -1.888996193654314E-005
 -1.868845468725614E-005
 -1.848792633172354E-005
 -1.828777312648903E-005
 -1.808734071308028E-005
 -1.788593365086524E-005
 -3.451659069065707E-005
 -3.438398160326255E-005
 -3.424420194888790E-005
 -3.409688587326063E-005
 -3.394170277708699E-005
 -3.377836329030349E-005
 -3.360662478436613E-005
 -3.342629629645143E-005
 -3.323724275498849E-005
 -3.303938842449464E-005
 -3.283271951304478E-005
 -3.261728590758719E-005
 -3.239320202806889E-005
 -3.216064681102002E-005
 -3.191986284798485E-005
 -3.167115471742064E-005
 -3.141488655838911E-005
 -3.115147893359199E-005
 -3.088140503739813E-005
 -3.060518629581389E-005
 -3.032338740593626E-005
 -3.003661085544322E-005
 -2.974549095896839E-005
 -2.945068743978929E-005
 -2.915287858958075E-005
 -2.885275402717954E-005
 -2.855100708915313E-005
 -2.824832688181162E-005
 -2.794539003502733E-005
 -2.764285220879905E-005
 -2.734133941643109E-005
 -2.704143924441451E-005
 -2.674369206914216E-005
 -2.644858238947116E-005
 -2.615653041196692E-005
 -2.586788404975902E-005
 -2.558291150631917E-005
 -2.530179463400484E-005
 -2.502462326000774E-005
 -2.475139067574054E-005
 -2.448199047909640E-005
 -2.421621493829667E-005
 -2.395375502604999E-005
 -2.369420223333803E-005
 -2.343705222730657E-005
 -2.318171036696012E-005
 -2.292749903204948E-005
 -2.267366665546110E-005
 -2.241939829036368E-005
 -2.216382748290272E-005
 -4.151170337351173E-005
 -4.135094039707905E-005
 -4.118164688981556E-005
 -4.100337250574205E-005
 -4.081570930180258E-005
 -4.061829899883712E-005
 -4.041083967651690E-005
 -4.019309174666915E-005
 -3.996488307655048E-005
 -3.972611316365705E-005
 -3.947675629366204E-005
 -3.921686364226684E-005
 -3.894656431254332E-005
 -3.866606531945624E-005
 -3.837565055510849E-005
 -3.807567878216736E-005
 -3.776658071206691E-005
 -3.744885523169461E-005
 -3.712306483881821E-005
 -3.678983035001882E-005
 -3.644982493370411E-005
 -3.610376752058134E-005
 -3.575241563247939E-005
 -3.539655766928756E-005
 -3.503700468476244E-005
 -3.467458168556964E-005
 -3.431011848459416E-005
 -3.394444014886450E-005
 -3.357835708686913E-005
 -3.321265483795284E-005
 -3.284808363775655E-005
 -3.248534785808770E-005
 -3.212509543864476E-005
 -3.176790745219234E-005
 -3.141428797133915E-005
 -3.106465442520550E-005
 -3.071932865458399E-005
 -3.037852889231134E-005
 -3.004236290228445E-005
 -2.971082251135543E-005
 -2.938377976400747E-005
 -2.906098490486428E-005
 -2.874206636649691E-005
 -2.842653289918775E-005
 -2.811377792191350E-005
 -2.780308611368984E-005
 -2.749364219301934E-005
 -2.718454175963103E-005
 -2.687480399771185E-005
 -2.656338596790579E-005
 -4.871740813489151E-005
 -4.852775257197637E-005
 -4.832823483792015E-005
 -4.811831233998148E-005
 -4.789749231397949E-005
 -4.766534042828900E-005
 -4.742148871548336E-005
 -4.716564264112009E-005
 -4.689758716717059E-005
 -4.661719168947269E-005
 -4.632441377364231E-005
 -4.601930164398981E-005
 -4.570199541362382E-005
 -4.537272707516418E-005
 -4.503181929002507E-005
 -4.467968303286467E-005
 -4.431681416008594E-005
 -4.394378897549527E-005
 -4.356125886850751E-005
 -4.316994409543548E-005
 -4.277062677041286E-005
 -4.236414312514372E-005
 -4.195137508554410E-005
 -4.153324121368785E-005
 -4.111068704962558E-005
 -4.068467489379840E-005
 -4.025617306613295E-005
 -3.982614468738438E-005
 -3.939553603857082E-005
 -3.896526456695359E-005
 -3.853620662893187E-005
 -3.810918508133772E-005
 -3.768495686154540E-005
 -3.726420072105393E-005
 -3.684750530771456E-005
 -3.643535782149151E-005
 -3.602813348465469E-005
 -3.562608609607942E-005
 -3.522933993957920E-005
 -3.483788332817792E-005
 -3.445156404859082E-005
 -3.407008695343302E-005
 -3.369301390696149E-005
 -3.331976624967651E-005
 -3.294962987394781E-005
 -3.258176293923838E-005
 -3.221520616539465E-005
 -3.184889555974193E-005
 -3.148167734454012E-005
 -3.111232476879589E-005
 -5.616803421825434E-005
 -5.594875429816946E-005
 -5.571832244420520E-005
 -5.547609397733216E-005
 -5.522148183812020E-005
 -5.495396660352950E-005
 -5.467310570773075E-005
 -5.437854166452058E-005
 -5.407000911194778E-005
 -5.374734055128600E-005
 -5.341047068918104E-005
 -5.305943933185559E-005
 -5.269439282225227E-005
 -5.231558403739148E-005
 -5.192337099712387E-005
 -5.151821414548225E-005
 -5.110067239031269E-005
 -5.067139798005236E-005
 -5.023113031054114E-005
 -4.978068874062623E-005
 -4.932096449675155E-005
 -4.885291172980798E-005
 -4.837753778777522E-005
 -4.789589275197645E-005
 -4.740905828229142E-005
 -4.691813581548965E-005
 -4.642423415939537E-005
 -4.592845653542546E-005
 -4.543188713138190E-005
 -4.493557724570894E-005
 -4.444053112683792E-005
 -4.394769163512244E-005
 -4.345792588834013E-005
 -4.297201108335671E-005
 -4.249062071763791E-005
 -4.201431146831993E-005
 -4.154351101167698E-005
 -4.107850708747584E-005
 -4.061943813057996E-005
 -4.016628578419494E-005
 -3.971886961109534E-005
 -3.927684428162821E-005
 -3.883969948540150E-005
 -3.840676275016638E-005
 -3.797720528612988E-005
 -3.755005088224070E-005
 -3.712418779051666E-005
 -3.669838343329314E-005
 -3.627130166496551E-005
 -3.584152222415184E-005
 -6.389873524107453E-005
 -6.364918552980383E-005
 -6.338724929232041E-005
 -6.311216775114330E-005
 -6.282324802851845E-005
 -6.251987463617030E-005
 -6.220152005331330E-005
 -6.186775415012821E-005
 -6.151825226388669E-005
 -6.115280177415481E-005
 -6.077130707930759E-005
 -6.037379291493652E-005
 -5.996040600462098E-005
 -5.953141506661295E-005
 -5.908720922998391E-005
 -5.862829493671901E-005
 -5.815529142375573E-005
 -5.766892487989736E-005
 -5.717002137870299E-005
 -5.665949868160502E-005
 -5.613835700166780E-005
 -5.560766879987277E-005
 -5.506856768645212E-005
 -5.452223648237236E-005
 -5.396989449294757E-005
 -5.341278404189043E-005
 -5.285215631618454E-005
 -5.228925658093209E-005
 -5.172530883468760E-005
 -5.116149999673054E-005
 -5.059896374558286E-005
 -5.003876415277609E-005
 -4.948187929682554E-005
 -4.892918507518768E-005
 -4.838143947126791E-005
 -4.783926756729146E-005
 -4.730314763118542E-005
 -4.677339862073883E-005
 -4.625016947268807E-005
 -4.573343054118752E-005
 -4.522296754211591E-005
 -4.471837832483862E-005
 -4.421907275386354E-005
 -4.372427591262875E-005
 -4.323303476324295E-005
 -4.274422829686427E-005
 -4.225658110262205E-005
 -4.176868016881568E-005
 -4.127899461217252E-005
 -4.078589792295119E-005
 -7.194584628298496E-005
 -7.166556901927151E-005
 -7.137173697611965E-005
 -7.106346312267845E-005
 -7.073993524298862E-005
 -7.040042896673501E-005
 -7.004431976003075E-005
 -6.967109360242998E-005
 -6.928035613464771E-005
 -6.887184010452053E-005
 -6.844541099958812E-005
 -6.800107080409914E-005
 -6.753895986715786E-005
 -6.705935691046156E-005
 -6.656267723768695E-005
 -6.604946923293887E-005
 -6.552040925167835E-005
 -6.497629501471416E-005
 -6.441803762011433E-005
 -6.384665227685068E-005
 -6.326324786325189E-005
 -6.266901539378108E-005
 -6.206521547237770E-005
 -6.145316479743074E-005
 -6.083422177341443E-005
 -6.020977128841357E-005
 -5.958120871000784E-005
 -5.894992316714883E-005
 -5.831728019959932E-005
 -5.768460387698974E-005
 -5.705315851874874E-005
 -5.642413018501739E-005
 -5.579860814098997E-005
 -5.517756654326138E-005
 -5.456184664035950E-005
 -5.395213981487477E-005
 -5.334897183711799E-005
 -5.275268872228780E-005
 -5.216344460556208E-005
 -5.158119204698677E-005
 -5.100567517091597E-005
 -5.043642600599714E-005
 -4.987276434422058E-005
 -4.931380136154650E-005
 -4.875844715224824E-005
 -4.820542221959520E-005
 -4.765327284070082E-005
 -4.710039010021712E-005
 -4.654503224635726E-005
 -4.598534990763809E-005
 -8.034742458222221E-005
 -8.003627381013282E-005
 -7.971047244082495E-005
 -7.936898909861743E-005
 -7.901087696671695E-005
 -7.863528841393899E-005
 -7.824148844470211E-005
 -7.782886667278639E-005
 -7.739694757021435E-005
 -7.694539880846922E-005
 -7.647403756093295E-005
 -7.598283470153737E-005
 -7.547191688515067E-005
 -7.494156654173979E-005
 -7.439221985365503E-005
 -7.382446281682911E-005
 -7.323902549836985E-005
 -7.263677461847210E-005
 -7.201870457972464E-005
 -7.138592706692516E-005
 -7.073965932525305E-005
 -7.008121121705534E-005
 -6.941197113785437E-005
 -6.873339086752352E-005
 -6.804696942107218E-005
 -6.735423595595794E-005
 -6.665673180564724E-005
 -6.595599170590768E-005
 -6.525352431077783E-005
 -6.455079211012602E-005
 -6.384919089794257E-005
 -6.315002898016864E-005
 -6.245450635172092E-005
 -6.176369412155293E-005
 -6.107851451292977E-005
 -6.039972180830140E-005
 -5.972788465509003E-005
 -5.906337017120635E-005
 -5.840633031857542E-005
 -5.775669100637993E-005
 -5.711414438074427E-005
 -5.647814471261305E-005
 -5.584790824214559E-005
 -5.522241725492910E-005
 -5.460042856035204E-005
 -5.398048642283976E-005
 -5.336093985758689E-005
 -5.273996405647882E-005
 -5.211558556235635E-005
 -5.148571067179218E-005
 -8.914403574079735E-005
 -8.880232338989040E-005
 -8.844493373654354E-005
 -8.807067352993957E-005
 -8.767844488797495E-005
 -8.726726155671088E-005
 -8.683626384740583E-005
 -8.638473192740899E-005
 -8.591209718785587E-005
 -8.541795148209447E-005
 -8.490205409887637E-005
 -8.436433638990015E-005
 -8.380490404365557E-005
 -8.322403703633148E-005
 -8.262218734230834E-005
 -8.199997451161282E-005
 -8.135817924093648E-005
 -8.069773508066373E-005
 -8.001971841461974E-005
 -7.932533684646244E-005
 -7.861591611263635E-005
 -7.789288563434850E-005
 -7.715776279558628E-005
 -7.641213603196385E-005
 -7.565764679846261E-005
 -7.489597048611493E-005
 -7.412879635436027E-005
 -7.335780656389886E-005
 -7.258465441017207E-005
 -7.181094188587675E-005
 -7.103819673971422E-005
 -7.026784923966370E-005
 -6.950120890166711E-005
 -6.873944149265169E-005
 -6.798354667406865E-005
 -6.723433670367013E-005
 -6.649241665258296E-005
 -6.575816664071721E-005
 -6.503172660252617E-005
 -6.431298410985330E-005
 -6.360156575605721E-005
 -6.289683256796566E-005
 -6.219787984457946E-005
 -6.150354173130903E-005
 -6.081240072452209E-005
 -6.012280216154883E-005
 -5.943287360067362E-005
 -5.874054883015001E-005
 -5.804359608423930E-005
 -5.733964988236536E-005
 -9.837985837559754E-005
 -9.800851862710128E-005
 -9.762052519030926E-005
 -9.721450487341126E-005
 -9.678919202198615E-005
 -9.634344640805878E-005
 -9.587626965635785E-005
 -9.538681984113759E-005
 -9.487442395823562E-005
 -9.433858804284653E-005
 -9.377900478297410E-005
 -9.319555854668612E-005
 -9.258832780658155E-005
 -9.195758500347385E-005
 -9.130379393536408E-005
 -9.062760479075586E-005
 -8.992984696726600E-005
 -8.921151982974039E-005
 -8.847378155672033E-005
 -8.771793622388763E-005
 -8.694541925691902E-005
 -8.615778136837252E-005
 -8.535667108529802E-005
 -8.454381594894152E-005
 -8.372100246866585E-005
 -8.289005490162471E-005
 -8.205281293423931E-005
 -8.121110835910831E-005
 -8.036674085587590E-005
 -7.952145302350330E-005
 -7.867690484531889E-005
 -7.783464782416814E-005
 -7.699609907240911E-005
 -7.616251570891452E-005
 -7.533496996449872E-005
 -7.451432546572764E-005
 -7.370121520666696E-005
 -7.289602176801925E-005
 -7.209886035485812E-005
 -7.130956524391911E-005
 -7.052768019785564E-005
 -6.975245337049434E-005
 -6.898283714757421E-005
 -6.821749327015224E-005
 -6.745480345532858E-005
 -6.669288558138766E-005
 -6.592961532980741E-005
 -6.516265299902750E-005
 -6.438947501732487E-005
 -6.360740951083678E-005
 -1.081041895773358E-004
 -1.077049536633548E-004
 -1.072880956564779E-004
 -1.068520452884034E-004
 -1.063953536948964E-004
 -1.059167128915657E-004
 -1.054149736354898E-004
 -1.048891612786629E-004
 -1.043384892860408E-004
 -1.037623701759791E-004
 -1.031604237129435E-004
 -1.025324822687268E-004
 -1.018785933319198E-004
 -1.011990192136790E-004
 -1.004942340403885E-004
 -9.976491816420584E-005
 -9.901195014680064E-005
 -9.823639647744065E-005
 -9.743949919361236E-005
 -9.662266155786858E-005
 -9.578743193875000E-005
 -9.493548601732392E-005
 -9.406860743159894E-005
 -9.318866695202805E-005
 -9.229760027010982E-005
 -9.139738448128801E-005
 -9.049001334490164E-005
 -8.957747142195261E-005
 -8.866170721391816E-005
 -8.774460546146640E-005
 -8.682795881090409E-005
 -8.591343910605165E-005
 -8.500256862814874E-005
 -8.409669166961766E-005
 -8.319694689541115E-005
 -8.230424100894712E-005
 -8.141922429337915E-005
 -8.054226864769517E-005
 -7.967344875807314E-005
 -7.881252705369699E-005
 -7.795894307794901E-005
 -7.711180784842536E-005
 -7.626990370703847E-005
 -7.543169004576306E-005
 -7.459531514645703E-005
 -7.375863421365611E-005
 -7.291923348151836E-005
 -7.207446008069242E-005
 -7.122145714261967E-005
 -7.035720342912088E-005
 -1.183734391703864E-004
 -1.179490068379630E-004
 -1.175059157463795E-004
 -1.170423845332959E-004
 -1.165567692028092E-004
 -1.160475840705704E-004
 -1.155135209465145E-004
 -1.149534661297610E-004
 -1.143665148624177E-004
 -1.137519829789930E-004
 -1.131094155744686E-004
 -1.124385925913172E-004
 -1.117395313130419E-004
 -1.110124858080683E-004
 -1.102579434269910E-004
 -1.094766184893145E-004
 -1.086694433290392E-004
 -1.078375568688121E-004
 -1.069822909032269E-004
 -1.061051542561696E-004
 -1.052078149664722E-004
 -1.042920806330630E-004
 -1.033598770370345E-004
 -1.024132251393182E-004
 -1.014542165416733E-004
 -1.004849874958395E-004
 -9.950769155403395E-005
 -9.852447096514670E-005
 -9.753742695746469E-005
 -9.654858908261672E-005
 -9.555988384772015E-005
 -9.457310292682265E-005
 -9.358987130664583E-005
 -9.261161579769815E-005
 -9.163953441339968E-005
 -9.067456719170431E-005
 -8.971736909495161E-005
 -8.876828567299180E-005
 -8.782733220450651E-005
 -8.689417703402187E-005
 -8.596812980665107E-005
 -8.504813524006558E-005
 -8.413277298662157E-005
 -8.322026401603593E-005
 -8.230848378938262E-005
 -8.139498230495942E-005
 -8.047701089624638E-005
 -7.955155542884015E-005
 -7.861537532475690E-005
 -7.766504762337769E-005
 -1.292536995730137E-004
 -1.288078854731102E-004
 -1.283421847188156E-004
 -1.278545970610304E-004
 -1.273432781089790E-004
 -1.268065615401189E-004
 -1.262429794010040E-004
 -1.256512800482023E-004
 -1.250304433503237E-004
 -1.243796928712931E-004
 -1.236985048415868E-004
 -1.229866138168830E-004
 -1.222440150044899E-004
 -1.214709633071088E-004
 -1.206679691899938E-004
 -1.198357915186978E-004
 -1.189754275398259E-004
 -1.180881001909309E-004
 -1.171752429222352E-004
 -1.162384822072906E-004
 -1.152796179018060E-004
 -1.143006015853619E-004
 -1.133035130122525E-004
 -1.122905347689417E-004
 -1.112639252316619E-004
 -1.102259899141777E-004
 -1.091790513022661E-004
 -1.081254172930474E-004
 -1.070673483878838E-004
 -1.060070238350171E-004
 -1.049465069735394E-004
 -1.038877100990906E-004
 -1.028323592485229E-004
 -1.017819593784185E-004
 -1.007377604988736E-004
 -9.970072539660019E-005
 -9.867149965692151E-005
 -9.765038473914540E-005
 -9.663731490201079E-005
 -9.563183877531341E-005
 -9.463310635278991E-005
 -9.363986211766197E-005
 -9.265044491643757E-005
 -9.166279505556369E-005
 -9.067446892397436E-005
 -8.968266123584302E-005
 -8.868423475856611E-005
 -8.767575714277968E-005
 -8.665354422318656E-005
 -8.561370891812083E-005
 -1.408239660012075E-004
 -1.403617889058765E-004
 -1.398781210934413E-004
 -1.393707460607902E-004
 -1.388376246466776E-004
 -1.382769181804263E-004
 -1.376870095902198E-004
 -1.370665219908595E-004
 -1.364143343539528E-004
 -1.357295939607838E-004
 -1.350117254356879E-004
 -1.342604362522761E-004
 -1.334757186894720E-004
 -1.326578482884121E-004
 -1.318073789194191E-004
 -1.309251346127929E-004
 -1.300121983289172E-004
 -1.290698978620236E-004
 -1.280997890652881E-004
 -1.271036365778392E-004
 -1.260833922156088E-004
 -1.250411711655246E-004
 -1.239792261084693E-004
 -1.228999193682708E-004
 -1.218056931854580E-004
 -1.206990382057173E-004
 -1.195824602866153E-004
 -1.184584457471810E-004
 -1.173294252258762E-004
 -1.161977363610011E-004
 -1.150655855710293E-004
 -1.139350092923390E-004
 -1.128078351102002E-004
 -1.116856433151976E-004
 -1.105697295016964E-004
 -1.094610689174980E-004
 -1.083602833435247E-004
 -1.072676113466028E-004
 -1.061828827828233E-004
 -1.051054984350113E-004
 -1.040344156430607E-004
 -1.029681407148617E-004
 -1.019047287991645E-004
 -1.008417917475561E-004
 -9.977651430474976E-005
 -9.870567873153531E-005
 -9.762569771496408E-005
 -9.653265514770215E-005
 -9.542235407991942E-005
 -9.429037088685823E-005
 -1.531800536847328E-004
 -1.527077234676716E-004
 -1.522116580311793E-004
 -1.516894431501305E-004
 -1.511388668638324E-004
 -1.505579430984833E-004
 -1.499449331335586E-004
 -1.492983644153947E-004
 -1.486170462990128E-004
 -1.479000824068975E-004
 -1.471468793930475E-004
 -1.463571519955829E-004
 -1.455309243541407E-004
 -1.446685276411781E-004
 -1.437705941167525E-004
 -1.428380477608758E-004
 -1.418720916638033E-004
 -1.408741923662401E-004
 -1.398460613412279E-004
 -1.387896337947544E-004
 -1.377070449474165E-004
 -1.366006039352474E-004
 -1.354727654484950E-004
 -1.343260992093629E-004
 -1.331632573801925E-004
 -1.319869399951700E-004
 -1.307998585254935E-004
 -1.296046977055063E-004
 -1.284040758046349E-004
 -1.272005035758811E-004
 -1.259963421895554E-004
 -1.247937605454163E-004
 -1.235946924478449E-004
 -1.224007942310952E-004
 -1.212134035205058E-004
 -1.200334999091598E-004
 -1.188616684193962E-004
 -1.176980666745129E-004
 -1.165423967565125E-004
 -1.153938827246491E-004
 -1.142512547442200E-004
 -1.131127406982091E-004
 -1.119760660341324E-004
 -1.108384624342612E-004
 -1.096966856792510E-004
 -1.085470428304455E-004
 -1.073854285708071E-004
 -1.062073702464707E-004
 -1.050080808479329E-004
 -1.037825188773409E-004
 -1.664392082447986E-004
 -1.659639498868188E-004
 -1.654617090705661E-004
 -1.649299151324655E-004
 -1.643662284247297E-004
 -1.637685637743890E-004
 -1.631351117070174E-004
 -1.624643569151744E-004
 -1.617550935465660E-004
 -1.610064369875332E-004
 -1.602178319231768E-004
 -1.593890565502302E-004
 -1.585202229154947E-004
 -1.576117734240049E-004
 -1.566644736240034E-004
 -1.556794014195346E-004
 -1.546579328869901E-004
 -1.536017248833716E-004
 -1.525126946302480E-004
 -1.513929964489392E-004
 -1.502449957952119E-004
 -1.490712407295250E-004
 -1.478744309294418E-004
 -1.466573843419953E-004
 -1.454230015577329E-004
 -1.441742280049714E-004
 -1.429140140652723E-004
 -1.416452732565096E-004
 -1.403708386728618E-004
 -1.390934179396155E-004
 -1.378155470198828E-004
 -1.365395433075578E-004
 -1.352674585418389E-004
 -1.340010321916378E-004
 -1.327416460678791E-004
 -1.314902810284663E-004
 -1.302474767285916E-004
 -1.290132954476524E-004
 -1.277872910629377E-004
 -1.265684842486093E-004
 -1.253553449497514E-004
 -1.241457830909702E-004
 -1.229371483554493E-004
 -1.217262396800881E-004
 -1.205093248805794E-004
 -1.192821705479547E-004
 -1.180400820425351E-004
 -1.167779530878509E-004
 -1.154903241292058E-004
 -1.141714483076064E-004
 -1.807453249036978E-004
 -1.802749606072484E-004
 -1.797728849484332E-004
 -1.792364431110787E-004
 -1.786632441255362E-004
 -1.780511833458105E-004
 -1.773984626497082E-004
 -1.767036078366532E-004
 -1.759654827915170E-004
 -1.751833000853762E-004
 -1.743566277866788E-004
 -1.734853923575677E-004
 -1.725698775965169E-004
 -1.716107196681504E-004
 -1.706088983168368E-004
 -1.695657244079649E-004
 -1.684828239597894E-004
 -1.673621188425301E-004
 -1.662058043171510E-004
 -1.650163235700132E-004
 -1.637963393832778E-004
 -1.625487030566190E-004
 -1.612764206757311E-004
 -1.599826168106978E-004
 -1.586704957211319E-004
 -1.573433001517744E-004
 -1.560042678288033E-004
 -1.546565858019966E-004
 -1.533033428377338E-004
 -1.519474801424757E-004
 -1.505917407874960E-004
 -1.492386183100941E-004
 -1.478903050814162E-004
 -1.465486411578618E-004
 -1.452150644491697E-004
 -1.438905631565662E-004
 -1.425756315318683E-004
 -1.412702300921567E-004
 -1.399737514696525E-004
 -1.386849930832560E-004
 -1.374021377876466E-004
 -1.361227435575991E-004
 -1.348437431263133E-004
 -1.335614542929015E-004
 -1.322716013541820E-004
 -1.309693478220039E-004
 -1.296493402399811E-004
 -1.283057625567700E-004
 -1.269324001475325E-004
 -1.255227122232166E-004
 -1.962745733165950E-004
 -1.958167637388429E-004
 -1.953204204435378E-004
 -1.947829172396881E-004
 -1.942019287071440E-004
 -1.935754506786196E-004
 -1.929018184613834E-004
 -1.921797222720086E-004
 -1.914082194632469E-004
 -1.905867432054688E-004
 -1.897151073991558E-004
 -1.887935076850470E-004
 -1.878225185051565E-004
 -1.868030862440883E-004
 -1.857365185353992E-004
 -1.846244698549746E-004
 -1.834689235491799E-004
 -1.822721704537508E-004
 -1.810367842488710E-004
 -1.797655936874193E-004
 -1.784616518093017E-004
 -1.771282022355329E-004
 -1.757686426163656E-004
 -1.743864852948857E-004
 -1.729853152512651E-004
 -1.715687453979522E-004
 -1.701403693324098E-004
 -1.687037116975088E-004
 -1.672621763650562E-004
 -1.658189927450209E-004
 -1.643771606230339E-004
 -1.629393940479364E-004
 -1.615080649179835E-004
 -1.600851470484414E-004
 -1.586721616399910E-004
 -1.572701251916264E-004
 -1.558795010152272E-004
 -1.545001555922004E-004
 -1.531313210702006E-004
 -1.517715652005489E-004
 -1.504187699820078E-004
 -1.490701201751328E-004
 -1.477221026930906E-004
 -1.463705176541111E-004
 -1.450105016019553E-004
 -1.436365630694643E-004
 -1.422426302914557E-004
 -1.408221104762600E-004
 -1.393679596475110E-004
 -1.378727616882312E-004
 -2.132410589121598E-004
 -2.128020838167527E-004
 -2.123149041347649E-004
 -2.117770858870870E-004
 -2.111865365222824E-004
 -2.105415222134190E-004
 -2.098406829798891E-004
 -2.090830451274775E-004
 -2.082680305901788E-004
 -2.073954628495457E-004
 -2.064655692050248E-004
 -2.054789792553175E-004
 -2.044367195363129E-004
 -2.033402043273388E-004
 -2.021912226866580E-004
 -2.009919218173544E-004
 -1.997447868800401E-004
 -1.984526173747541E-004
 -1.971185002082313E-004
 -1.957457795463251E-004
 -1.943380235307499E-004
 -1.928989879229996E-004
 -1.914325767167523E-004
 -1.899427997565831E-004
 -1.884337274039027E-004
 -1.869094423060735E-004
 -1.853739883665925E-004
 -1.838313170671066E-004
 -1.822852313661328E-004
 -1.807393275001953E-004
 -1.791969351192189E-004
 -1.776610563283161E-004
 -1.761343043392974E-004
 -1.746188425902091E-004
 -1.731163253332656E-004
 -1.716278408349019E-004
 -1.701538584487984E-004
 -1.686941809178695E-004
 -1.672479033192183E-004
 -1.658133800761281E-004
 -1.643882014131211E-004
 -1.629691805279668E-004
 -1.615523525787584E-004
 -1.601329863434891E-004
 -1.587056091085444E-004
 -1.572640449815744E-004
 -1.558014664208402E-004
 -1.543104583473520E-004
 -1.527830937688012E-004
 -1.512110194325425E-004
 -2.319019311341725E-004
 -2.314848705534926E-004
 -2.310061878852498E-004
 -2.304638661140540E-004
 -2.298562731304271E-004
 -2.291821745251689E-004
 -2.284407443767723E-004
 -2.276315735601440E-004
 -2.267546751760665E-004
 -2.258104867944039E-004
 -2.247998692825153E-004
 -2.237241020798955E-004
 -2.225848748470690E-004
 -2.213842754763485E-004
 -2.201247745036763E-004
 -2.188092059792082E-004
 -2.174407448805130E-004
 -2.160228811445409E-004
 -2.145593903901198E-004
 -2.130543013862538E-004
 -2.115118603017717E-004
 -2.099364917527244E-004
 -2.083327566547712E-004
 -2.067053068813331E-004
 -2.050588367382619E-004
 -2.033980312937286E-004
 -2.017275116462585E-004
 -2.000517772757007E-004
 -1.983751457146657E-004
 -1.967016898779393E-004
 -1.950351735234290E-004
 -1.933789854492080E-004
 -1.917360731974159E-004
 -1.901088771900458E-004
 -1.884992663837497E-004
 -1.869084766808944E-004
 -1.853370534669631E-004
 -1.837847997411747E-004
 -1.822507313748554E-004
 -1.807330410383556E-004
 -1.792290722912870E-004
 -1.777353052129605E-004
 -1.762473547646155E-004
 -1.747599828176053E-004
 -1.732671244476789E-004
 -1.717619287157852E-004
 -1.702368137143636E-004
 -1.686835351990282E-004
 -1.670932676554233E-004
 -1.654566962023966E-004
 -2.525610694022008E-004
 -2.521632320931650E-004
 -2.516855847352751E-004
 -2.511268222735560E-004
 -2.504860691952711E-004
 -2.497628864707445E-004
 -2.489572767542594E-004
 -2.480696874126284E-004
 -2.471010110149069E-004
 -2.460525829890780E-004
 -2.449261762299635E-004
 -2.437239925077667E-004
 -2.424486505910297E-004
 -2.411031710451022E-004
 -2.396909577038053E-004
 -2.382157758343170E-004
 -2.366817270246651E-004
 -2.350932208177358E-004
 -2.334549431093877E-004
 -2.317718213092146E-004
 -2.300489862435064E-004
 -2.282917307694891E-004
 -2.265054650542313E-004
 -2.246956684839965E-004
 -2.228678381749932E-004
 -2.210274340993376E-004
 -2.191798208907494E-004
 -2.173302064666278E-004
 -2.154835777091473E-004
 -2.136446335555758E-004
 -2.118177159988193E-004
 -2.100067396474431E-004
 -2.082151206647535E-004
 -2.064457060820478E-004
 -2.047007046522893E-004
 -2.029816205712005E-004
 -2.012891915361324E-004
 -1.996233327206304E-004
 -1.979830883065772E-004
 -1.963665922324107E-004
 -1.947710397578734E-004
 -1.931926713267439E-004
 -1.916267700045434E-004
 -1.900676734974015E-004
 -1.885088013982879E-004
 -1.869426978991878E-004
 -1.853610897409917E-004
 -1.837549586727557E-004
 -1.821146271960348E-004
 -1.804298558879921E-004
 -2.755701410225902E-004
 -2.751795825719397E-004
 -2.746851488206184E-004
 -2.740866177212203E-004
 -2.733842399124106E-004
 -2.725787385934779E-004
 -2.716713080243197E-004
 -2.706636102664979E-004
 -2.695577698386986E-004
 -2.683563660120991E-004
 -2.670624225399413E-004
 -2.656793946626216E-004
 -2.642111532821865E-004
 -2.626619662337092E-004
 -2.610364766086977E-004
 -2.593396780984074E-004
 -2.575768873280164E-004
 -2.557537131458183E-004
 -2.538760228180783E-004
 -2.519499050659381E-004
 -2.499816298638771E-004
 -2.479776049052889E-004
 -2.459443286418274E-004
 -2.438883398088523E-004
 -2.418161633720086E-004
 -2.397342528759604E-004
 -2.376489292346630E-004
 -2.355663160930713E-004
 -2.334922719940031E-004
 -2.314323197159118E-004
 -2.293915732984689E-004
 -2.273746634414474E-004
 -2.253856621411923E-004
 -2.234280076139474E-004
 -2.215044307440541E-004
 -2.196168844604576E-004
 -2.177664775979189E-004
 -2.159534149167039E-004
 -2.141769450196697E-004
 -2.124353179221386E-004
 -2.107257539735034E-004
 -2.090444256968669E-004
 -2.073864539059758E-004
 -2.057459191606016E-004
 -2.041158892516659E-004
 -2.024884629708250E-004
 -2.008548299236909E-004
 -1.992053456222958E-004
 -1.975296205622168E-004
 -1.958166214803625E-004
 -3.013254451209147E-004
 -3.009164304825787E-004
 -3.003724860919589E-004
 -2.996949196534781E-004
 -2.988855493531174E-004
 -2.979466958531104E-004
 -2.968811733593378E-004
 -2.956922794360147E-004
 -2.943837832721443E-004
 -2.929599121595605E-004
 -2.914253359720820E-004
 -2.897851494890296E-004
 -2.880448524251182E-004
 -2.862103270642410E-004
 -2.842878134017548E-004
 -2.822838817096463E-004
 -2.802054024320899E-004
 -2.780595133114283E-004
 -2.758535836305559E-004
 -2.735951754372106E-004
 -2.712920016093011E-004
 -2.689518806071568E-004
 -2.665826877623443E-004
 -2.641923029669703E-004
 -2.617885546588715E-004
 -2.593791600461172E-004
 -2.569716615876717E-004
 -2.545733598396361E-004
 -2.521912428940514E-004
 -2.498319127772647E-004
 -2.475015093348464E-004
 -2.452056323069550E-004
 -2.429492624905948E-004
 -2.407366830765988E-004
 -2.385714024438472E-004
 -2.364560798744570E-004
 -2.343924558071576E-004
 -2.323812883687135E-004
 -2.304222979968963E-004
 -2.285141219813842E-004
 -2.266542806894742E-004
 -2.248391571148355E-004
 -2.230639911561862E-004
 -2.213228897398464E-004
 -2.196088535032413E-004
 -2.179138203052578E-004
 -2.162287253140227E-004
 -2.145435768757234E-004
 -2.128475468149260E-004
 -2.111290732879882E-004
 -3.302585647732179E-004
 -3.297858684602813E-004
 -3.291392056200800E-004
 -3.283219257289126E-004
 -3.273379159869906E-004
 -3.261915853890653E-004
 -3.248878483681097E-004
 -3.234321077271630E-004
 -3.218302366032454E-004
 -3.200885592341126E-004
 -3.182138303286506E-004
 -3.162132128654403E-004
 -3.140942541640903E-004
 -3.118648600870908E-004
 -3.095332672334504E-004
 -3.071080129882457E-004
 -3.045979032760799E-004
 -3.020119778637159E-004
 -2.993594730326188E-004
 -2.966497814353528E-004
 -2.938924089320204E-004
 -2.910969282056371E-004
 -2.882729289536444E-004
 -2.854299644797500E-004
 -2.825774945394080E-004
 -2.797248243553297E-004
 -2.768810397869240E-004
 -2.740549387460171E-004
 -2.712549590677971E-004
 -2.684891031935645E-004
 -2.657648601884262E-004
 -2.630891257967864E-004
 -2.604681214373536E-004
 -2.579073132373005E-004
 -2.554113324026885E-004
 -2.529838984072723E-004
 -2.506277466428522E-004
 -2.483445622962145E-004
 -2.461349222965246E-004
 -2.439982471876371E-004
 -2.419327647272798E-004
 -2.399354868709461E-004
 -2.380022015812379E-004
 -2.361274805872566E-004
 -2.343047038262587E-004
 -2.325261008346717E-004
 -2.307828088285331E-004
 -2.290649466568968E-004
 -2.273617032467689E-004
 -2.256614386143071E-004
 -3.628185050130713E-004
 -3.622105176340030E-004
 -3.613808500104788E-004
 -3.603354452167614E-004
 -3.590807942287245E-004
 -3.576239133156469E-004
 -3.559723214728043E-004
 -3.541340176340621E-004
 -3.521174574204701E-004
 -3.499315292052558E-004
 -3.475855292875948E-004
 -3.450891359884543E-004
 -3.424523824934250E-004
 -3.396856282712672E-004
 -3.367995288999388E-004
 -3.338050041270209E-004
 -3.307132039790398E-004
 -3.275354727264169E-004
 -3.242833104879233E-004
 -3.209683322568315E-004
 -3.176022241100276E-004
 -3.141966963696700E-004
 -3.107634334866071E-004
 -3.073140404406900E-004
 -3.038599854909710E-004
 -3.004125391634517E-004
 -2.969827094390723E-004
 -2.935811732096261E-004
 -2.902182041861418E-004
 -2.869035975907442E-004
 -2.836465921263416E-004
 -2.804557899019805E-004
 -2.773390751814057E-004
 -2.743035330233113E-004
 -2.713553690793579E-004
 -2.684998319944105E-004
 -2.657411400198869E-004
 -2.630824135697674E-004
 -2.605256155286069E-004
 -2.580715011355696E-004
 -2.557195792126533E-004
 -2.534680863705354E-004
 -2.513139756065752E-004
 -2.492529203976738E-004
 -2.472793350046819E-004
 -2.453864112404477E-004
 -2.435661714306339E-004
 -2.418095367496815E-004
 -2.401064095411942E-004
 -2.384457677020961E-004
 -3.994427935307004E-004
 -3.985935271741939E-004
 -3.974660350574177E-004
 -3.960693991601443E-004
 -3.944132351294258E-004
 -3.925076661691766E-004
 -3.903632972661186E-004
 -3.879911894731366E-004
 -3.854028339870429E-004
 -3.826101257787172E-004
 -3.796253365582560E-004
 -3.764610868716379E-004
 -3.731303171479467E-004
 -3.696462575181237E-004
 -3.660223962411635E-004
 -3.622724465622376E-004
 -3.584103118291854E-004
 -3.544500486831110E-004
 -3.504058281205159E-004
 -3.462918942235383E-004
 -3.421225203375439E-004
 -3.379119624734517E-004
 -3.336744097227601E-004
 -3.294239314823291E-004
 -3.251744213272390E-004
 -3.209395374081165E-004
 -3.167326393299567E-004
 -3.125667215494842E-004
 -3.084543434438778E-004
 -3.044075563367749E-004
 -3.004378279167405E-004
 -2.965559646565973E-004
 -2.927720330202682E-004
 -2.890952804335744E-004
 -2.855340571773720E-004
 -2.820957405427635E-004
 -2.787866627351648E-004
 -2.756120441374135E-004
 -2.725759336156011E-004
 -2.696811575696973E-004
 -2.669292793823016E-004
 -2.643205707890549E-004
 -2.618539964905386E-004
 -2.595272130316306E-004
 -2.573365826050675E-004
 -2.552772019921166E-004
 -2.533429463618411E-004
 -2.515265271176918E-004
 -2.498195624409612E-004
 -2.482126586710360E-004
 -4.405151052522858E-004
 -4.392753695160925E-004
 -4.376927137779126E-004
 -4.357798248718925E-004
 -4.335498777066303E-004
 -4.310165114835843E-004
 -4.281938061530605E-004
 -4.250962587271425E-004
 -4.217387591180800E-004
 -4.181365652051466E-004
 -4.143052768900931E-004
 -4.102608089275921E-004
 -4.060193623741166E-004
 -4.015973945159695E-004
 -3.970115871663694E-004
 -3.922788132410135E-004
 -3.874161015172283E-004
 -3.824405994929137E-004
 -3.773695342458989E-004
 -3.722201711850817E-004
 -3.670097705762494E-004
 -3.617555417085588E-004
 -3.564745945667046E-004
 -3.511838888754241E-004
 -3.459001803938022E-004
 -3.406399643741600E-004
 -3.354194161347744E-004
 -3.302543287722391E-004
 -3.251600481173004E-004
 -3.201514051473589E-004
 -3.152426461920042E-004
 -3.104473614134930E-004
 -3.057784121936585E-004
 -3.012478582281467E-004
 -2.968668852870928E-004
 -2.926457347594623E-004
 -2.885936362361821E-004
 -2.847187444982960E-004
 -2.810280823417244E-004
 -2.775274907010495E-004
 -2.742215874822411E-004
 -2.711137364171436E-004
 -2.682060270614536E-004
 -2.654992668056000E-004
 -2.629929854363532E-004
 -2.606854523905797E-004
 -2.585737063999706E-004
 -2.566535967472349E-004
 -2.549198348734467E-004
 -2.533660546077155E-004
 -4.863075286071911E-004
 -4.844757762359457E-004
 -4.822301121467832E-004
 -4.795871121843615E-004
 -4.765637592876125E-004
 -4.731774311916330E-004
 -4.694458874995034E-004
 -4.653872555517634E-004
 -4.610200146117341E-004
 -4.563629779850080E-004
 -4.514352727936248E-004
 -4.462563172242440E-004
 -4.408457951618382E-004
 -4.352236281984517E-004
 -4.294099450713181E-004
 -4.234250486319724E-004
 -4.172893804812600E-004
 -4.110234834160027E-004
 -4.046479618314222E-004
 -3.981834402144499E-004
 -3.916505198315738E-004
 -3.850697336923805E-004
 -3.784614998372572E-004
 -3.718460729648439E-004
 -3.652434943997731E-004
 -3.586735403841438E-004
 -3.521556686847701E-004
 -3.457089635188574E-004
 -3.393520788495297E-004
 -3.331031801502141E-004
 -3.269798848199440E-004
 -3.209992015239335E-004
 -3.151774688433543E-004
 -3.095302937388456E-004
 -3.040724904572666E-004
 -2.988180206328384E-004
 -2.937799354508216E-004
 -2.889703208247527E-004
 -2.844002466135288E-004
 -2.800797209180396E-004
 -2.760176504808986E-004
 -2.722218081256652E-004
 -2.686988080403510E-004
 -2.654540894998065E-004
 -2.624919093642105E-004
 -2.598153433691345E-004
 -2.574262958680806E-004
 -2.553255172982209E-004
 -2.535126282466460E-004
 -2.519861486222746E-004
 -5.369068339690585E-004
 -5.342204048528801E-004
 -5.310460974126290E-004
 -5.274043518079345E-004
 -5.233159022486574E-004
 -5.188017888618045E-004
 -5.138833667765082E-004
 -5.085823115304120E-004
 -5.029206200956834E-004
 -4.969206070238215E-004
 -4.906048954174955E-004
 -4.839964026397452E-004
 -4.771183208510886E-004
 -4.699940926362375E-004
 -4.626473821086280E-004
 -4.551020419856048E-004
 -4.473820771975432E-004
 -4.395116056257362E-004
 -4.315148165664418E-004
 -4.234159274977624E-004
 -4.152391396728181E-004
 -4.070085929973423E-004
 -3.987483205764250E-004
 -3.904822032183723E-004
 -3.822339241123282E-004
 -3.740269238048401E-004
 -3.658843555345818E-004
 -3.578290409294408E-004
 -3.498834260264071E-004
 -3.420695375599277E-004
 -3.344089394596871E-004
 -3.269226895245403E-004
 -3.196312962738397E-004
 -3.125546760338772E-004
 -3.057121103877578E-004
 -2.991222041791587E-004
 -2.928028443484891E-004
 -2.867711599295368E-004
 -2.810434836006009E-004
 -2.756353152002870E-004
 -2.705612876269754E-004
 -2.658351354959607E-004
 -2.614696668555005E-004
 -2.574767381409824E-004
 -2.538672323806048E-004
 -2.506510404690679E-004
 -2.478370450901988E-004
 -2.454331066171063E-004
 -2.434460500688504E-004
 -2.418816519424385E-004
 -5.921262214849850E-004
 -5.882538164916659E-004
 -5.838215524908799E-004
 -5.788532731553896E-004
 -5.733729883408631E-004
 -5.674049253377078E-004
 -5.609735731989217E-004
 -5.541037188395075E-004
 -5.468204739204693E-004
 -5.391492919175082E-004
 -5.311159751467559E-004
 -5.227466718791065E-004
 -5.140678640068804E-004
 -5.051063460159528E-004
 -4.958891962507158E-004
 -4.864437416405465E-004
 -4.767975171712151E-004
 -4.669782214418123E-004
 -4.570136696500623E-004
 -4.469317452906000E-004
 -4.367603517643565E-004
 -4.265273649538035E-004
 -4.162605876703370E-004
 -4.059877066940353E-004
 -3.957362529451406E-004
 -3.855335651382460E-004
 -3.754067570829044E-004
 -3.653826886323504E-004
 -3.554879401214806E-004
 -3.457487900062010E-004
 -3.361911953065935E-004
 -3.268407743685289E-004
 -3.177227914013709E-004
 -3.088621422083598E-004
 -3.002833405126679E-004
 -2.920105042843296E-004
 -2.840673414924390E-004
 -2.764771347299663E-004
 -2.692627241986716E-004
 -2.624464885681933E-004
 -2.560503232584576E-004
 -2.500956157095031E-004
 -2.446032172099981E-004
 -2.395934108487525E-004
 -2.350858751218451E-004
 -2.310996426901105E-004
 -2.276530537209850E-004
 -2.247637031870290E-004
 -2.224483814168235E-004
 -2.207230071545162E-004
 -6.514070804168042E-004
 -6.459429692116183E-004
 -6.398554715326239E-004
 -6.331708759574309E-004
 -6.259155328742041E-004
 -6.181159591387526E-004
 -6.097989290958231E-004
 -6.009915501023681E-004
 -5.917213214030055E-004
 -5.820161757390029E-004
 -5.719045037067283E-004
 -5.614151614570185E-004
 -5.505774628555607E-004
 -5.394211576747792E-004
 -5.279763977541793E-004
 -5.162736933381955E-004
 -5.043438619638560E-004
 -4.922179723498015E-004
 -4.799272857050349E-004
 -4.675031967773806E-004
 -4.549771767850512E-004
 -4.423807201320988E-004
 -4.297452965328642E-004
 -4.171023098563403E-004
 -4.044830646651062E-004
 -3.919187410931076E-004
 -3.794403783567501E-004
 -3.670788668828444E-004
 -3.548649487159357E-004
 -3.428292255958364E-004
 -3.310021738314188E-004
 -3.194141648810570E-004
 -3.080954903515072E-004
 -2.970763899753426E-004
 -2.863870809968417E-004
 -2.760577873180284E-004
 -2.661187666857428E-004
 -2.566003341906643E-004
 -2.475328803464241E-004
 -2.389468820573062E-004
 -2.308729048416704E-004
 -2.233415947722710E-004
 -2.163836586943816E-004
 -2.100298314191030E-004
 -2.043108287273935E-004
 -1.992572851845668E-004
 -1.948996759243926E-004
 -1.912682217299575E-004
 -1.883927769550542E-004
 -1.863026999225736E-004
 -7.137191019373460E-004
 -7.061781851327954E-004
 -6.979661877904179E-004
 -6.891105356770979E-004
 -6.796386948547594E-004
 -6.695783341378974E-004
 -6.589574643043472E-004
 -6.478045522887417E-004
 -6.361486089707217E-004
 -6.240192502843747E-004
 -6.114467321934698E-004
 -5.984619608957935E-004
 -5.850964803681897E-004
 -5.713824400026433E-004
 -5.573525455777886E-004
 -5.430399971667269E-004
 -5.284784177875680E-004
 -5.137017766688120E-004
 -4.987443109248817E-004
 -4.836404492486617E-004
 -4.684247409318826E-004
 -4.531317931444757E-004
 -4.377962189627176E-004
 -4.224525981453806E-004
 -4.071354521464342E-004
 -3.918792343179189E-004
 -3.767183357392258E-004
 -3.616871065890970E-004
 -3.468198924865676E-004
 -3.321510847678078E-004
 -3.177151832349658E-004
 -3.035468695218253E-004
 -2.896810888814461E-004
 -2.761531378913352E-004
 -2.629987553223984E-004
 -2.502542132150245E-004
 -2.379564050512025E-004
 -2.261429278254530E-004
 -2.148521547731713E-004
 -2.041232955489319E-004
 -1.939964407325879E-004
 -1.845125876944314E-004
 -1.757136450736841E-004
 -1.676424133938357E-004
 -1.603425396797433E-004
 -1.538584443211319E-004
 -1.482352188538648E-004
 -1.435184938140010E-004
 -1.397542761449415E-004
 -1.369887564164030E-004
 -7.774711916803761E-004
 -7.672804515027069E-004
 -7.563940647981901E-004
 -7.448395712426003E-004
 -7.326446631803040E-004
 -7.198373837732390E-004
 -7.064462932252422E-004
 -6.925006001295502E-004
 -6.780302576965998E-004
 -6.630660249295226E-004
 -6.476394940242367E-004
 -6.317830863465946E-004
 -6.155300202246722E-004
 -5.989142545664750E-004
 -5.819704129091880E-004
 -5.647336929278767E-004
 -5.472397666626829E-004
 -5.295246767542460E-004
 -5.116247338577154E-004
 -4.935764201057310E-004
 -4.754163030855964E-004
 -4.571809642647105E-004
 -4.389069451961786E-004
 -4.206307141734303E-004
 -4.023886553087384E-004
 -3.842170812894094E-004
 -3.661522703607897E-004
 -3.482305273800055E-004
 -3.304882681121228E-004
 -3.129621252953730E-004
 -2.956890743997096E-004
 -2.787065764438334E-004
 -2.620527347223286E-004
 -2.457664618390016E-004
 -2.298876530416931E-004
 -2.144573615195069E-004
 -1.995179710526982E-004
 -1.851133612251570E-004
 -1.712890602957636E-004
 -1.580923808200604E-004
 -1.455725331988426E-004
 -1.337807125182912E-004
 -1.227701543474372E-004
 -1.125961555597850E-004
 -1.033160567551072E-004
 -9.498918346342102E-005
 -8.767674394550266E-005
 -8.144168208411035E-005
 -7.634848505544070E-005
 -7.246294510766906E-005
 -8.404496954980117E-004
 -8.269240567373721E-004
 -8.127080472824107E-004
 -7.978301315153481E-004
 -7.823190971339544E-004
 -7.662042224349482E-004
 -7.495154082515646E-004
 -7.322832772396815E-004
 -7.145392379606355E-004
 -6.963155146431274E-004
 -6.776451442099145E-004
 -6.585619429726650E-004
 -6.391004463899750E-004
 -6.192958261656648E-004
 -5.991837896593159E-004
 -5.788004670879579E-004
 -5.581822923006319E-004
 -5.373658830177283E-004
 -5.163879263440840E-004
 -4.952850750962164E-004
 -4.740938600702512E-004
 -4.528506228206091E-004
 -4.315914728687392E-004
 -4.103522725282978E-004
 -3.891686517514574E-004
 -3.680760545860761E-004
 -3.471098180131502E-004
 -3.263052831058263E-004
 -3.056979376562335E-004
 -2.853235886310264E-004
 -2.652185620741243E-004
 -2.454199273711168E-004
 -2.259657421269728E-004
 -2.068953133046992E-004
 -1.882494697205272E-004
 -1.700708405113424E-004
 -1.524041337835266E-004
 -1.352964093369208E-004
 -1.187973391352326E-004
 -1.029594490960677E-004
 -8.783833578596741E-005
 -7.349285176594915E-005
 -5.998525362782313E-005
 -4.738130719260516E-005
 -3.575034490448666E-005
 -2.516527115227620E-005
 -1.570251217556173E-005
 -7.441908196340421E-006
 -4.665450107023497E-007
  5.137472837766522E-006
 -8.998057972517402E-004
 -8.820834525364912E-004
 -8.637151999401566E-004
 -8.447359644750715E-004
 -8.251807180610153E-004
 -8.050844851997620E-004
 -7.844823570870793E-004
 -7.634094969444511E-004
 -7.419011404596082E-004
 -7.199925876399456E-004
 -6.977191833476527E-004
 -6.751162853271781E-004
 -6.522192195449362E-004
 -6.290632236455999E-004
 -6.056833803601775E-004
 -5.821145436938221E-004
 -5.583912615508283E-004
 -5.345476990897478E-004
 -5.106175675108772E-004
 -4.866340631675538E-004
 -4.626298218775428E-004
 -4.386368930947359E-004
 -4.146867382264143E-004
 -3.908102568585703E-004
 -3.670378440192117E-004
 -3.433994808897370E-004
 -3.199248606030897E-004
 -2.966435499468535E-004
 -2.735851869589231E-004
 -2.507797135718856E-004
 -2.282576416272438E-004
 -2.060503497851190E-004
 -1.841904080723742E-004
 -1.627119260739806E-004
 -1.416509200886199E-004
 -1.210456939312431E-004
 -1.009372275041532E-004
 -8.136956678611685E-005
 -6.239020849850015E-005
 -4.405047244176782E-005
 -2.640585434900558E-005
 -9.516352088439545E-006
  6.553241815651097E-006
  2.173308805826557E-005
  3.594809506256667E-005
  4.911776582177589E-005
  6.115610242961479E-005
  7.197157282822896E-005
  8.146713941823704E-005
  8.954036175569331E-005
 -9.521268632064791E-004
 -9.290228990877618E-004
 -9.053835940708556E-004
 -8.812645261511211E-004
 -8.567189770614007E-004
 -8.317977145499821E-004
 -8.065488466112976E-004
 -7.810177863149954E-004
 -7.552472890754052E-004
 -7.292775464345122E-004
 -7.031463212720931E-004
 -6.768891085553535E-004
 -6.505393074904206E-004
 -6.241283937815055E-004
 -5.976860836848060E-004
 -5.712404843802867E-004
 -5.448182278323702E-004
 -5.184445876872867E-004
 -4.921435807837471E-004
 -4.659380564912873E-004
 -4.398497782974212E-004
 -4.138995028680416E-004
 -3.881070622208425E-004
 -3.624914547446359E-004
 -3.370709505935481E-004
 -3.118632165726642E-004
 -2.868854650171390E-004
 -2.621546304463565E-004
 -2.376875769440847E-004
 -2.135013383488855E-004
 -1.896133924260518E-004
 -1.660419692993532E-004
 -1.428063935291101E-004
 -1.199274583616093E-004
 -9.742782986638972E-005
 -7.533247791161973E-005
 -5.366913022237141E-005
 -3.246874514275702E-005
 -1.176599815818691E-005
  8.400223212953235E-006
  2.798632192222666E-005
  4.694349730602049E-005
  6.521726062663900E-005
  8.274696660811265E-005
  9.946536740196311E-005
  1.152981950637820E-004
  1.301637775276155E-004
  1.439726939211288E-004
  1.566274863000053E-004
  1.680223992966502E-004
 -9.936623237985615E-004
 -9.633959907328476E-004
 -9.328575572404668E-004
 -9.021477614596052E-004
 -8.713570772469801E-004
 -8.405654198489386E-004
 -8.098423156076102E-004
 -7.792472889676145E-004
 -7.488304710769516E-004
 -7.186333700652578E-004
 -6.886897395469846E-004
 -6.590264935854751E-004
 -6.296646257411235E-004
 -6.006200975541692E-004
 -5.719046695053789E-004
 -5.435266552841223E-004
 -5.154915875607732E-004
 -4.878027899875421E-004
 -4.604618556341776E-004
 -4.334690364564364E-004
 -4.068235517336375E-004
 -3.805238257700243E-004
 -3.545676666668383E-004
 -3.289523987292279E-004
 -3.036749612285090E-004
 -2.787319859121037E-004
 -2.541198649639664E-004
 -2.298348201778880E-004
 -2.058729830110162E-004
 -1.822304940066944E-004
 -1.589036288837675E-004
 -1.358889574309977E-004
 -1.131835402389744E-004
 -9.078516729872502E-005
 -6.869264157120527E-005
 -4.690610982832042E-005
 -2.542744234361891E-005
 -4.260662396364682E-006
  1.658757401096462E-005
  3.710744831858212E-005
  5.728540003020923E-005
  7.710349878236065E-005
  9.653876919041393E-005
  1.155624700772251E-004
  1.341393302721692E-004
  1.522267450437035E-004
  1.697739402714242E-004
  1.867211068283588E-004
  2.029984789775582E-004
  2.185254822344420E-004
 -1.020853949169498E-003
 -9.806645458407264E-004
 -9.408532825727027E-004
 -9.015901958598937E-004
 -8.630150228650060E-004
 -8.252388207798359E-004
 -7.883457521370341E-004
 -7.523955193997915E-004
 -7.174260978098910E-004
 -6.834566004727681E-004
 -6.504901678797386E-004
 -6.185167836807162E-004
 -5.875159325109775E-004
 -5.574590363502435E-004
 -5.283116270537219E-004
 -5.000352311895625E-004
 -4.725889585575542E-004
 -4.459307979898345E-004
 -4.200186335816249E-004
 -3.948110016207906E-004
 -3.702676134290716E-004
 -3.463496723564867E-004
 -3.230200145942103E-004
 -3.002431035933220E-004
 -2.779849070159396E-004
 -2.562126835849719E-004
 -2.348947051834346E-004
 -2.139999373094357E-004
 -1.934976986797403E-004
 -1.733573185315569E-004
 -1.535478081058754E-004
 -1.340375609564604E-004
 -1.147940951857255E-004
 -9.578384945586119E-005
 -7.697204367353009E-005
 -5.832261458717389E-005
 -3.979823613747782E-005
 -2.136043423589111E-005
 -2.969805671108397E-006
  1.541364900382831E-005
  3.383006861924666E-005
  5.231914063125001E-005
  7.091936696345153E-005
  8.966717762427310E-005
  1.085958830839190E-004
  1.277344537078418E-004
  1.471061131291567E-004
  1.667267585865481E-004
  1.866032956057506E-004
  2.067314959774374E-004
 -1.031433375595757E-003
 -9.773291561598325E-004
 -9.251536854542534E-004
 -8.751237544073716E-004
 -8.273897945626129E-004
 -7.820417034781014E-004
 -7.391169334833084E-004
 -6.986082553063671E-004
 -6.604713969704422E-004
 -6.246324303603097E-004
 -5.909946807549038E-004
 -5.594450000921921E-004
 -5.298593174772382E-004
 -5.021074293361557E-004
 -4.760570241495497E-004
 -4.515769609183885E-004
 -4.285398394418464E-004
 -4.068239147177017E-004
 -3.863144173810573E-004
 -3.669043474780299E-004
 -3.484948106740223E-004
 -3.309949649723164E-004
 -3.143216429582785E-004
 -2.983987101115679E-004
 -2.831562144327112E-004
 -2.685293769287828E-004
 -2.544574667707782E-004
 -2.408825994440016E-004
 -2.277484911554623E-004
 -2.149991983063591E-004
 -2.025778670727941E-004
 -1.904255151239940E-004
 -1.784798652693992E-004
 -1.666742493507349E-004
 -1.549365999511668E-004
 -1.431885474067600E-004
 -1.313446401010782E-004
 -1.193117069977634E-004
 -1.069883827418355E-004
 -9.426481741228019E-005
 -8.102259519058560E-005
 -6.713488885313396E-005
 -5.246687977691223E-005
 -3.687647448173392E-005
 -2.021534538042261E-005
 -2.330313934976208E-006
  1.693490333372901E-005
  3.773748540976397E-005
  6.023259785412043E-005
  8.457105867379087E-005
 -1.026350776441751E-003
 -9.537711469502696E-004
 -8.864344650224291E-004
 -8.244325427392081E-004
 -7.677416216466774E-004
 -7.162464144193764E-004
 -6.697573757390435E-004
 -6.280281203853357E-004
 -5.907715171587927E-004
 -5.576738023366206E-004
 -5.284066793849697E-004
 -5.026375024794234E-004
 -4.800376461756556E-004
 -4.602891725492466E-004
 -4.430899287669120E-004
 -4.281572285242348E-004
 -4.152302823501073E-004
 -4.040715436775932E-004
 -3.944671320797016E-004
 -3.862264847928583E-004
 -3.791813746942940E-004
 -3.731844186427198E-004
 -3.681071854554020E-004
 -3.638379983772911E-004
 -3.602795131282008E-004
 -3.573461397923430E-004
 -3.549613652020196E-004
 -3.530550222003438E-004
 -3.515605433808234E-004
 -3.504122296361186E-004
 -3.495425581141276E-004
 -3.488795499578006E-004
 -3.483442154278427E-004
 -3.478480926200862E-004
 -3.472908959066945E-004
 -3.465582913581231E-004
 -3.455198186413151E-004
 -3.440269820565106E-004
 -3.419115371985118E-004
 -3.389840038389981E-004
 -3.350324396036830E-004
 -3.298215129747955E-004
 -3.230919195802298E-004
 -3.145601966618656E-004
 -3.039190115991261E-004
 -2.908380222491233E-004
 -2.749653667830923E-004
 -2.559296006615489E-004
 -2.333417404683707E-004
 -2.068015939322323E-004
 -1.012268008044553E-003
 -9.192115183286356E-004
 -8.374023640962922E-004
 -7.663211677634771E-004
 -7.053385305863091E-004
 -6.537377785270890E-004
 -6.107522674538857E-004
 -5.755938636109931E-004
 -5.474749748008146E-004
 -5.256261884132244E-004
 -5.093101670184340E-004
 -4.978320954604541E-004
 -4.905470259043165E-004
 -4.868645435542400E-004
 -4.862511898419872E-004
 -4.882310486301115E-004
 -4.923848520521604E-004
 -4.983479123240667E-004
 -5.058071402544795E-004
 -5.144973712039026E-004
 -5.241971841032115E-004
 -5.347243678994651E-004
 -5.459311618188073E-004
 -5.576993708732729E-004
 -5.699354359568550E-004
 -5.825655186788132E-004
 -5.955306447586607E-004
 -6.087819362664403E-004
 -6.222759521679890E-004
 -6.359701483203135E-004
 -6.498184620953643E-004
 -6.637670229416560E-004
 -6.777499881780902E-004
 -6.916855029131409E-004
 -7.054717839895902E-004
 -7.189833301110449E-004
 -7.320672638260854E-004
 -7.445398159427039E-004
 -7.561829695551820E-004
 -7.667412893563670E-004
 -7.759189718356077E-004
 -7.833771609913686E-004
 -7.887315768825142E-004
 -7.915504934811926E-004
 -7.913530808191594E-004
 -7.876081461743933E-004
 -7.797335366535761E-004
 -7.670970863356729E-004
 -7.490197015519041E-004
 -7.247682312645160E-004
 -1.002694925861313E-003
 -8.970798863897492E-004
 -8.112002788448747E-004
 -7.431506026950813E-004
 -6.910005656398240E-004
 -6.528916779675348E-004
 -6.270574286299024E-004
 -6.118404778694624E-004
 -6.057074991057062E-004
 -6.072585153260872E-004
 -6.152306453394943E-004
 -6.284974965258450E-004
 -6.460654854652727E-004
 -6.670680495120655E-004
 -6.907584154372801E-004
 -7.165013937898973E-004
 -7.437645479066936E-004
 -7.721090105143372E-004
 -8.011801658180178E-004
 -8.306983695706838E-004
 -8.604498395803731E-004
 -8.902778134686604E-004
 -9.200740393072035E-004
 -9.497706382413113E-004
 -9.793323563503586E-004
 -1.008749205572160E-003
 -1.038029480165307E-003
 -1.067193125450697E-003
 -1.096265429003973E-003
 -1.125271000652719E-003
 -1.154228006107328E-003
 -1.183142619473460E-003
 -1.212003661797797E-003
 -1.240777395769013E-003
 -1.269402450188624E-003
 -1.297784851244174E-003
 -1.325793140310916E-003
 -1.353253559486691E-003
 -1.379945286372741E-003
 -1.405595700209141E-003
 -1.429875666407568E-003
 -1.452394843409537E-003
 -1.472697053990883E-003
 -1.490255821801869E-003
 -1.504470205865758E-003
 -1.514660904872979E-003
 -1.520065929202287E-003
 -1.519834053434225E-003
 -1.513017284005311E-003
 -1.498598742375891E-003
 -1.013528364165312E-003
 -9.239488163978863E-004
 -8.617650273900647E-004
 -8.228430872445496E-004
 -8.035803142280465E-004
 -8.007215033666230E-004
 -8.113671187796047E-004
 -8.329718629498800E-004
 -8.633237131038566E-004
 -9.005154875778409E-004
 -9.429158821674248E-004
 -9.891421681584556E-004
 -1.038034792176470E-003
 -1.088633663495264E-003
 -1.140155957510923E-003
 -1.191975376461153E-003
 -1.243602870501585E-003
 -1.294668830210689E-003
 -1.344906739244561E-003
 -1.394138244150149E-003
 -1.442259569340314E-003
 -1.489229183899271E-003
 -1.535056613859419E-003
 -1.579792287656693E-003
 -1.623518301822382E-003
 -1.666339996834294E-003
 -1.708378238173039E-003
 -1.749762303981046E-003
 -1.790623287745943E-003
 -1.831087931786313E-003
 -1.871272814812369E-003
 -1.911278824440861E-003
 -1.951185853278151E-003
 -1.991047665049959E-003
 -2.030886885194038E-003
 -2.070690078029566E-003
 -2.110402879196778E-003
 -2.149925155605441E-003
 -2.189106161970465E-003
 -2.227739647035820E-003
 -2.265558825608352E-003
 -2.302231068214379E-003
 -2.337352077837755E-003
 -2.370439282330276E-003
 -2.400924347196140E-003
 -2.428145458816811E-003
 -2.451341631404269E-003
 -2.469652033766824E-003
 -2.482110237546176E-003
 -2.487534924439607E-003
 -1.049179164259910E-003
 -1.031289433114456E-003
 -1.039189401752502E-003
 -1.067743783277246E-003
 -1.112197496262052E-003
 -1.168638909756773E-003
 -1.233884563728559E-003
 -1.305329753754687E-003
 -1.380842315463691E-003
 -1.458688476086616E-003
 -1.537475338831276E-003
 -1.616101931271605E-003
 -1.693715846952704E-003
 -1.769674712552567E-003
 -1.843512329223846E-003
 -1.914909330375299E-003
 -1.983668042299473E-003
 -2.049691106383848E-003
 -2.112963363038216E-003
 -2.173536498270869E-003
 -2.231515992516372E-003
 -2.287049968437633E-003
 -2.340319596611789E-003
 -2.391530777231113E-003
 -2.440906868253480E-003
 -2.488682274452808E-003
 -2.535096747615443E-003
 -2.580390276547686E-003
 -2.624798467631714E-003
 -2.668548333478015E-003
 -2.711854419667727E-003
 -2.754915208410884E-003
 -2.797909743875932E-003
 -2.840994427684707E-003
 -2.884299935629342E-003
 -2.927928209673455E-003
 -2.971949485188432E-003
 -3.016399325679908E-003
 -3.061275659977561E-003
 -3.106535852257398E-003
 -3.152093877311832E-003
 -3.197817692782991E-003
 -3.243526813324309E-003
 -3.288989712619180E-003
 -3.333919680842745E-003
 -3.377965835332997E-003
 -3.420693942433854E-003
 -3.461556432534620E-003
 -3.499893926936732E-003
 -3.535212523397727E-003
 -1.085871235952610E-003
 -1.206235081200394E-003
 -1.334003529860417E-003
 -1.463948026138803E-003
 -1.593534427581742E-003
 -1.720971967143099E-003
 -1.844865512042255E-003
 -1.964178796961432E-003
 -2.078211343816912E-003
 -2.186550530362861E-003
 -2.289011748752802E-003
 -2.385580570426547E-003
 -2.476363966570134E-003
 -2.561552423184430E-003
 -2.641392092811437E-003
 -2.716165111977072E-003
 -2.786176083612544E-003
 -2.851742973902143E-003
 -2.913191037335427E-003
 -2.970848739453175E-003
 -3.025044947260559E-003
 -3.076106892371195E-003
 -3.124358587007553E-003
 -3.170119498760261E-003
 -3.213703377623070E-003
 -3.255417188172825E-003
 -3.295560138757433E-003
 -3.334422824244016E-003
 -3.372286513559336E-003
 -3.409422620785544E-003
 -3.446092400644249E-003
 -3.482546906320510E-003
 -3.519027239550835E-003
 -3.555765108640806E-003
 -3.592983688124573E-003
 -3.630898742605918E-003
 -3.669719936382077E-003
 -3.709652202083648E-003
 -3.750896994920698E-003
 -3.793653237278448E-003
 -3.838117811084549E-003
 -3.884485678112488E-003
 -3.932950263814303E-003
 -3.983705848276835E-003
 -4.036955474229802E-003
 -4.092929505969485E-003
 -4.151916834731537E-003
 -4.214284611161990E-003
 -4.280350141406282E-003
 -4.349564062484429E-003
 -1.074420282725720E-003
 -1.365218319271882E-003
 -1.620721687783331E-003
 -1.848754155870702E-003
 -2.051939457059402E-003
 -2.232152092112351E-003
 -2.391468167887884E-003
 -2.532161059597309E-003
 -2.656522421712375E-003
 -2.766715273037469E-003
 -2.864691302544116E-003
 -2.952159534006439E-003
 -3.030587600078816E-003
 -3.101220819080652E-003
 -3.165109265162269E-003
 -3.223136927263167E-003
 -3.276049685629584E-003
 -3.324480486423567E-003
 -3.368971081352446E-003
 -3.409990261439528E-003
 -3.447948815355190E-003
 -3.483211587960920E-003
 -3.516107069256136E-003
 -3.546934947994464E-003
 -3.575972042108481E-003
 -3.603476984508209E-003
 -3.629694006278629E-003
 -3.654856124783503E-003
 -3.679188014168063E-003
 -3.702908811327155E-003
 -3.726235091388097E-003
 -3.749384232208539E-003
 -3.772578375219037E-003
 -3.796049176882416E-003
 -3.820043525944008E-003
 -3.844830368474499E-003
 -3.870708723017237E-003
 -3.898016862593329E-003
 -3.927142459357222E-003
 -3.958533187854364E-003
 -3.992706805843534E-003
 -4.030259016019491E-003
 -4.071866450692734E-003
 -4.118281159643165E-003
 -4.170313130527131E-003
 -4.228802425850504E-003
 -4.294604216782308E-003
 -4.368683104604631E-003
 -4.452638717381637E-003
 -4.550654321310963E-003
 -9.918903362451407E-004
 -1.364063579344543E-003
 -1.683606009732380E-003
 -1.944669106455350E-003
 -2.153763585092843E-003
 -2.320238791592987E-003
 -2.452994640265895E-003
 -2.559532743874343E-003
 -2.645855650206625E-003
 -2.716643377483446E-003
 -2.775492928434253E-003
 -2.825145136811786E-003
 -2.867676637169682E-003
 -2.904654580549181E-003
 -2.937258338864835E-003
 -2.966373983729502E-003
 -2.992667041424840E-003
 -3.016638196609905E-003
 -3.038665727702468E-003
 -3.059037670359806E-003
 -3.077976060274682E-003
 -3.095655095138954E-003
 -3.112214657082804E-003
 -3.127770329052266E-003
 -3.142420802114259E-003
 -3.156253390206636E-003
 -3.169348232488799E-003
 -3.181781662325917E-003
 -3.193629149523755E-003
 -3.204968174137916E-003
 -3.215881362753898E-003
 -3.226460209860432E-003
 -3.236809716885723E-003
 -3.247054310050838E-003
 -3.257345446453671E-003
 -3.267871387659032E-003
 -3.278869713029663E-003
 -3.290643260503818E-003
 -3.303580312014493E-003
 -3.318179955520456E-003
 -3.335083575990170E-003
 -3.355113151270604E-003
 -3.379315958433352E-003
 -3.409012223182514E-003
 -3.445834221562548E-003
 -3.491725103771455E-003
 -3.548815068929837E-003
 -3.618965151525447E-003
 -3.702444564773616E-003
 -3.794368485626935E-003
 -9.004199862299966E-004
 -1.211312175320961E-003
 -1.385029209828329E-003
 -1.482415938611408E-003
 -1.536389324552683E-003
 -1.565525036596456E-003
 -1.580652027390757E-003
 -1.588222497647422E-003
 -1.592120391141700E-003
 -1.594676213700251E-003
 -1.597259308700061E-003
 -1.600635341066348E-003
 -1.605188193131476E-003
 -1.611060844442741E-003
 -1.618246372798053E-003
 -1.626647433317426E-003
 -1.636115358935566E-003
 -1.646475827116683E-003
 -1.657545525961055E-003
 -1.669142712934283E-003
 -1.681093593854113E-003
 -1.693235831815271E-003
 -1.705420092499817E-003
 -1.717510264725078E-003
 -1.729382814745912E-003
 -1.740925610096727E-003
 -1.752036464913909E-003
 -1.762621602134982E-003
 -1.772594191361001E-003
 -1.781873100086703E-003
 -1.790381988200980E-003
 -1.798048880540988E-003
 -1.804806371040820E-003
 -1.810592648121367E-003
 -1.815353591009801E-003
 -1.819046282442344E-003
 -1.821644434965668E-003
 -1.823146470987223E-003
 -1.823587392407890E-003
 -1.823056234499723E-003
 -1.821722023447507E-003
 -1.819873131461114E-003
 -1.817978498462602E-003
 -1.816785886309705E-003
 -1.817485347788161E-003
 -1.821992403837740E-003
 -1.833460817364266E-003
 -1.857256358531773E-003
 -1.902900363779747E-003
 -1.988149739815447E-003
 -1.009009902848558E-003
 -5.033276728168053E-004
 -1.340924308429625E-004
  1.372000078760548E-004
  3.365288219000243E-004
  4.820516496347793E-004
  5.868087814593368E-004
  6.603673163196887E-004
  7.098679535706791E-004
  7.407166208999468E-004
  7.570552144997709E-004
  7.620898080708851E-004
  7.583241047592104E-004
  7.477283423079143E-004
  7.318633370131791E-004
  7.119728146407244E-004
  6.890529926150454E-004
  6.639056328884345E-004
  6.371789466111289E-004
  6.093994789798066E-004
  5.809972363805467E-004
  5.523257113266936E-004
  5.236780313400040E-004
  4.953001513754608E-004
  4.674017889969809E-004
  4.401656424084222E-004
  4.137553166995980E-004
  3.883223014324197E-004
  3.640122850862085E-004
  3.409710535370452E-004
  3.193501972004364E-004
  2.993128430284184E-004
  2.810396326588811E-004
  2.647351876320964E-004
  2.506353390697194E-004
  2.390154569002251E-004
  2.302002996369683E-004
  2.245759307686957E-004
  2.226044294115943E-004
  2.248423882883574E-004
  2.319645861937918E-004
  2.447948197759625E-004
  2.643468107490849E-004
  2.918796035449010E-004
  3.289743735275153E-004
  3.776439354762562E-004
  4.404942316033921E-004
  5.209724426512928E-004
  6.237674923518696E-004
  7.554951309328251E-004
SCALARS elementIsPlast double 
LOOKUP_TABLE default
   1.00000000000000     
   1.00000000000000     
   1.00000000000000     
   1.00000000000000     
   1.00000000000000     
   1.00000000000000     
   1.00000000000000     
   1.00000000000000     
  0.000000000000000E+000
  0.000000000000000E+000
  0.000000000000000E+000
  0.000000000000000E+000
  0.000000000000000E+000
  0.000000000000000E+000
  0.000000000000000E+000
  0.000000000000000E+000
  0.000000000000000E+000
  0.000000000000000E+000
  0.000000000000000E+000
  0.000000000000000E+000
  0.000000000000000E+000
  0.000000000000000E+000
  0.000000000000000E+000
  0.000000000000000E+000
  0.000000000000000E+000
  0.000000000000000E+000
  0.000000000000000E+000
  0.000000000000000E+000
  0.000000000000000E+000
  0.000000000000000E+000
  0.000000000000000E+000
  0.000000000000000E+000
  0.000000000000000E+000
  0.000000000000000E+000
  0.000000000000000E+000
  0.000000000000000E+000
  0.000000000000000E+000
  0.000000000000000E+000
  0.000000000000000E+000
  0.000000000000000E+000
  0.000000000000000E+000
  0.000000000000000E+000
  0.000000000000000E+000
  0.000000000000000E+000
  0.000000000000000E+000
  0.000000000000000E+000
  0.000000000000000E+000
  0.000000000000000E+000
  0.000000000000000E+000
  0.000000000000000E+000
  0.000000000000000E+000
  0.000000000000000E+000
  0.000000000000000E+000
  0.000000000000000E+000
  0.000000000000000E+000
  0.000000000000000E+000
  0.000000000000000E+000
  0.000000000000000E+000
  0.000000000000000E+000
  0.000000000000000E+000
  0.000000000000000E+000
  0.000000000000000E+000
  0.000000000000000E+000
  0.000000000000000E+000
  0.000000000000000E+000
  0.000000000000000E+000
  0.000000000000000E+000
  0.000000000000000E+000
  0.000000000000000E+000
  0.000000000000000E+000
  0.000000000000000E+000
  0.000000000000000E+000
  0.000000000000000E+000
  0.000000000000000E+000
  0.000000000000000E+000
  0.000000000000000E+000
  0.000000000000000E+000
  0.000000000000000E+000
  0.000000000000000E+000
  0.000000000000000E+000
  0.000000000000000E+000
  0.000000000000000E+000
  0.000000000000000E+000
  0.000000000000000E+000
  0.000000000000000E+000
  0.000000000000000E+000
  0.000000000000000E+000
  0.000000000000000E+000
  0.000000000000000E+000
  0.000000000000000E+000
  0.000000000000000E+000
  0.000000000000000E+000
  0.000000000000000E+000
  0.000000000000000E+000
  0.000000000000000E+000
  0.000000000000000E+000
  0.000000000000000E+000
  0.000000000000000E+000
  0.000000000000000E+000
  0.000000000000000E+000
  0.000000000000000E+000
  0.000000000000000E+000
  0.000000000000000E+000
  0.000000000000000E+000
  0.000000000000000E+000
  0.000000000000000E+000
  0.000000000000000E+000
  0.000000000000000E+000
  0.000000000000000E+000
  0.000000000000000E+000
  0.000000000000000E+000
  0.000000000000000E+000
  0.000000000000000E+000
  0.000000000000000E+000
  0.000000000000000E+000
  0.000000000000000E+000
  0.000000000000000E+000
  0.000000000000000E+000
  0.000000000000000E+000
  0.000000000000000E+000
  0.000000000000000E+000
  0.000000000000000E+000
  0.000000000000000E+000
  0.000000000000000E+000
  0.000000000000000E+000
  0.000000000000000E+000
  0.000000000000000E+000
  0.000000000000000E+000
  0.000000000000000E+000
  0.000000000000000E+000
  0.000000000000000E+000
  0.000000000000000E+000
  0.000000000000000E+000
  0.000000000000000E+000
  0.000000000000000E+000
  0.000000000000000E+000
  0.000000000000000E+000
  0.000000000000000E+000
  0.000000000000000E+000
  0.000000000000000E+000
  0.000000000000000E+000
  0.000000000000000E+000
  0.000000000000000E+000
  0.000000000000000E+000
  0.000000000000000E+000
  0.000000000000000E+000
  0.000000000000000E+000
  0.000000000000000E+000
  0.000000000000000E+000
  0.000000000000000E+000
  0.000000000000000E+000
  0.000000000000000E+000
  0.000000000000000E+000
  0.000000000000000E+000
  0.000000000000000E+000
  0.000000000000000E+000
  0.000000000000000E+000
  0.000000000000000E+000
  0.000000000000000E+000
  0.000000000000000E+000
  0.000000000000000E+000
  0.000000000000000E+000
  0.000000000000000E+000
  0.000000000000000E+000
  0.000000000000000E+000
  0.000000000000000E+000
  0.000000000000000E+000
  0.000000000000000E+000
  0.000000000000000E+000
  0.000000000000000E+000
  0.000000000000000E+000
  0.000000000000000E+000
  0.000000000000000E+000
  0.000000000000000E+000
  0.000000000000000E+000
  0.000000000000000E+000
  0.000000000000000E+000
  0.000000000000000E+000
  0.000000000000000E+000
  0.000000000000000E+000
  0.000000000000000E+000
  0.000000000000000E+000
  0.000000000000000E+000
  0.000000000000000E+000
  0.000000000000000E+000
  0.000000000000000E+000
  0.000000000000000E+000
  0.000000000000000E+000
  0.000000000000000E+000
  0.000000000000000E+000
  0.000000000000000E+000
  0.000000000000000E+000
  0.000000000000000E+000
  0.000000000000000E+000
  0.000000000000000E+000
  0.000000000000000E+000
  0.000000000000000E+000
  0.000000000000000E+000
  0.000000000000000E+000
  0.000000000000000E+000
  0.000000000000000E+000
  0.000000000000000E+000
  0.000000000000000E+000
  0.000000000000000E+000
  0.000000000000000E+000
  0.000000000000000E+000
  0.000000000000000E+000
  0.000000000000000E+000
  0.000000000000000E+000
  0.000000000000000E+000
  0.000000000000000E+000
  0.000000000000000E+000
  0.000000000000000E+000
  0.000000000000000E+000
  0.000000000000000E+000
  0.000000000000000E+000
  0.000000000000000E+000
  0.000000000000000E+000
  0.000000000000000E+000
  0.000000000000000E+000
  0.000000000000000E+000
  0.000000000000000E+000
  0.000000000000000E+000
  0.000000000000000E+000
  0.000000000000000E+000
  0.000000000000000E+000
  0.000000000000000E+000
  0.000000000000000E+000
  0.000000000000000E+000
  0.000000000000000E+000
  0.000000000000000E+000
  0.000000000000000E+000
  0.000000000000000E+000
  0.000000000000000E+000
  0.000000000000000E+000
  0.000000000000000E+000
  0.000000000000000E+000
  0.000000000000000E+000
  0.000000000000000E+000
  0.000000000000000E+000
  0.000000000000000E+000
  0.000000000000000E+000
  0.000000000000000E+000
  0.000000000000000E+000
  0.000000000000000E+000
  0.000000000000000E+000
  0.000000000000000E+000
  0.000000000000000E+000
  0.000000000000000E+000
  0.000000000000000E+000
  0.000000000000000E+000
  0.000000000000000E+000
  0.000000000000000E+000
  0.000000000000000E+000
  0.000000000000000E+000
  0.000000000000000E+000
  0.000000000000000E+000
  0.000000000000000E+000
  0.000000000000000E+000
  0.000000000000000E+000
  0.000000000000000E+000
  0.000000000000000E+000
  0.000000000000000E+000
  0.000000000000000E+000
  0.000000000000000E+000
  0.000000000000000E+000
  0.000000000000000E+000
  0.000000000000000E+000
  0.000000000000000E+000
  0.000000000000000E+000
  0.000000000000000E+000
  0.000000000000000E+000
  0.000000000000000E+000
  0.000000000000000E+000
  0.000000000000000E+000
  0.000000000000000E+000
  0.000000000000000E+000
  0.000000000000000E+000
  0.000000000000000E+000
  0.000000000000000E+000
  0.000000000000000E+000
  0.000000000000000E+000
  0.000000000000000E+000
  0.000000000000000E+000
  0.000000000000000E+000
  0.000000000000000E+000
  0.000000000000000E+000
  0.000000000000000E+000
  0.000000000000000E+000
  0.000000000000000E+000
  0.000000000000000E+000
  0.000000000000000E+000
  0.000000000000000E+000
  0.000000000000000E+000
  0.000000000000000E+000
  0.000000000000000E+000
  0.000000000000000E+000
  0.000000000000000E+000
  0.000000000000000E+000
  0.000000000000000E+000
  0.000000000000000E+000
  0.000000000000000E+000
  0.000000000000000E+000
  0.000000000000000E+000
  0.000000000000000E+000
  0.000000000000000E+000
  0.000000000000000E+000
  0.000000000000000E+000
  0.000000000000000E+000
  0.000000000000000E+000
  0.000000000000000E+000
  0.000000000000000E+000
  0.000000000000000E+000
  0.000000000000000E+000
  0.000000000000000E+000
  0.000000000000000E+000
  0.000000000000000E+000
  0.000000000000000E+000
  0.000000000000000E+000
  0.000000000000000E+000
  0.000000000000000E+000
  0.000000000000000E+000
  0.000000000000000E+000
  0.000000000000000E+000
  0.000000000000000E+000
  0.000000000000000E+000
  0.000000000000000E+000
  0.000000000000000E+000
  0.000000000000000E+000
  0.000000000000000E+000
  0.000000000000000E+000
  0.000000000000000E+000
  0.000000000000000E+000
  0.000000000000000E+000
  0.000000000000000E+000
  0.000000000000000E+000
  0.000000000000000E+000
  0.000000000000000E+000
  0.000000000000000E+000
  0.000000000000000E+000
  0.000000000000000E+000
  0.000000000000000E+000
  0.000000000000000E+000
  0.000000000000000E+000
  0.000000000000000E+000
  0.000000000000000E+000
  0.000000000000000E+000
  0.000000000000000E+000
  0.000000000000000E+000
  0.000000000000000E+000
  0.000000000000000E+000
  0.000000000000000E+000
  0.000000000000000E+000
  0.000000000000000E+000
  0.000000000000000E+000
  0.000000000000000E+000
  0.000000000000000E+000
  0.000000000000000E+000
  0.000000000000000E+000
  0.000000000000000E+000
  0.000000000000000E+000
  0.000000000000000E+000
  0.000000000000000E+000
  0.000000000000000E+000
  0.000000000000000E+000
  0.000000000000000E+000
  0.000000000000000E+000
  0.000000000000000E+000
  0.000000000000000E+000
  0.000000000000000E+000
  0.000000000000000E+000
  0.000000000000000E+000
  0.000000000000000E+000
  0.000000000000000E+000
  0.000000000000000E+000
  0.000000000000000E+000
  0.000000000000000E+000
  0.000000000000000E+000
  0.000000000000000E+000
  0.000000000000000E+000
  0.000000000000000E+000
  0.000000000000000E+000
  0.000000000000000E+000
  0.000000000000000E+000
  0.000000000000000E+000
  0.000000000000000E+000
  0.000000000000000E+000
  0.000000000000000E+000
  0.000000000000000E+000
  0.000000000000000E+000
  0.000000000000000E+000
  0.000000000000000E+000
  0.000000000000000E+000
  0.000000000000000E+000
  0.000000000000000E+000
  0.000000000000000E+000
  0.000000000000000E+000
  0.000000000000000E+000
  0.000000000000000E+000
  0.000000000000000E+000
  0.000000000000000E+000
  0.000000000000000E+000
  0.000000000000000E+000
  0.000000000000000E+000
  0.000000000000000E+000
  0.000000000000000E+000
  0.000000000000000E+000
  0.000000000000000E+000
  0.000000000000000E+000
  0.000000000000000E+000
  0.000000000000000E+000
  0.000000000000000E+000
  0.000000000000000E+000
  0.000000000000000E+000
  0.000000000000000E+000
  0.000000000000000E+000
  0.000000000000000E+000
  0.000000000000000E+000
  0.000000000000000E+000
  0.000000000000000E+000
  0.000000000000000E+000
  0.000000000000000E+000
  0.000000000000000E+000
  0.000000000000000E+000
  0.000000000000000E+000
  0.000000000000000E+000
  0.000000000000000E+000
  0.000000000000000E+000
  0.000000000000000E+000
  0.000000000000000E+000
  0.000000000000000E+000
  0.000000000000000E+000
  0.000000000000000E+000
  0.000000000000000E+000
  0.000000000000000E+000
  0.000000000000000E+000
  0.000000000000000E+000
  0.000000000000000E+000
  0.000000000000000E+000
  0.000000000000000E+000
  0.000000000000000E+000
  0.000000000000000E+000
  0.000000000000000E+000
  0.000000000000000E+000
  0.000000000000000E+000
  0.000000000000000E+000
  0.000000000000000E+000
  0.000000000000000E+000
  0.000000000000000E+000
  0.000000000000000E+000
  0.000000000000000E+000
  0.000000000000000E+000
  0.000000000000000E+000
  0.000000000000000E+000
  0.000000000000000E+000
  0.000000000000000E+000
  0.000000000000000E+000
  0.000000000000000E+000
  0.000000000000000E+000
  0.000000000000000E+000
  0.000000000000000E+000
  0.000000000000000E+000
  0.000000000000000E+000
  0.000000000000000E+000
  0.000000000000000E+000
  0.000000000000000E+000
  0.000000000000000E+000
  0.000000000000000E+000
  0.000000000000000E+000
  0.000000000000000E+000
  0.000000000000000E+000
  0.000000000000000E+000
  0.000000000000000E+000
  0.000000000000000E+000
  0.000000000000000E+000
  0.000000000000000E+000
  0.000000000000000E+000
  0.000000000000000E+000
  0.000000000000000E+000
  0.000000000000000E+000
  0.000000000000000E+000
  0.000000000000000E+000
  0.000000000000000E+000
  0.000000000000000E+000
  0.000000000000000E+000
  0.000000000000000E+000
  0.000000000000000E+000
  0.000000000000000E+000
  0.000000000000000E+000
  0.000000000000000E+000
  0.000000000000000E+000
  0.000000000000000E+000
  0.000000000000000E+000
  0.000000000000000E+000
  0.000000000000000E+000
  0.000000000000000E+000
  0.000000000000000E+000
  0.000000000000000E+000
  0.000000000000000E+000
  0.000000000000000E+000
  0.000000000000000E+000
  0.000000000000000E+000
  0.000000000000000E+000
  0.000000000000000E+000
  0.000000000000000E+000
  0.000000000000000E+000
  0.000000000000000E+000
  0.000000000000000E+000
  0.000000000000000E+000
  0.000000000000000E+000
  0.000000000000000E+000
  0.000000000000000E+000
  0.000000000000000E+000
  0.000000000000000E+000
  0.000000000000000E+000
  0.000000000000000E+000
  0.000000000000000E+000
  0.000000000000000E+000
  0.000000000000000E+000
  0.000000000000000E+000
  0.000000000000000E+000
  0.000000000000000E+000
  0.000000000000000E+000
  0.000000000000000E+000
  0.000000000000000E+000
  0.000000000000000E+000
  0.000000000000000E+000
  0.000000000000000E+000
  0.000000000000000E+000
  0.000000000000000E+000
  0.000000000000000E+000
  0.000000000000000E+000
  0.000000000000000E+000
  0.000000000000000E+000
  0.000000000000000E+000
  0.000000000000000E+000
  0.000000000000000E+000
  0.000000000000000E+000
  0.000000000000000E+000
  0.000000000000000E+000
  0.000000000000000E+000
  0.000000000000000E+000
  0.000000000000000E+000
  0.000000000000000E+000
  0.000000000000000E+000
  0.000000000000000E+000
  0.000000000000000E+000
  0.000000000000000E+000
  0.000000000000000E+000
  0.000000000000000E+000
  0.000000000000000E+000
  0.000000000000000E+000
  0.000000000000000E+000
  0.000000000000000E+000
  0.000000000000000E+000
  0.000000000000000E+000
  0.000000000000000E+000
  0.000000000000000E+000
  0.000000000000000E+000
  0.000000000000000E+000
  0.000000000000000E+000
  0.000000000000000E+000
  0.000000000000000E+000
  0.000000000000000E+000
  0.000000000000000E+000
  0.000000000000000E+000
  0.000000000000000E+000
  0.000000000000000E+000
  0.000000000000000E+000
  0.000000000000000E+000
  0.000000000000000E+000
  0.000000000000000E+000
  0.000000000000000E+000
  0.000000000000000E+000
  0.000000000000000E+000
  0.000000000000000E+000
  0.000000000000000E+000
  0.000000000000000E+000
  0.000000000000000E+000
  0.000000000000000E+000
  0.000000000000000E+000
  0.000000000000000E+000
  0.000000000000000E+000
  0.000000000000000E+000
  0.000000000000000E+000
  0.000000000000000E+000
  0.000000000000000E+000
  0.000000000000000E+000
  0.000000000000000E+000
  0.000000000000000E+000
  0.000000000000000E+000
  0.000000000000000E+000
  0.000000000000000E+000
  0.000000000000000E+000
  0.000000000000000E+000
  0.000000000000000E+000
  0.000000000000000E+000
  0.000000000000000E+000
  0.000000000000000E+000
  0.000000000000000E+000
  0.000000000000000E+000
  0.000000000000000E+000
  0.000000000000000E+000
  0.000000000000000E+000
  0.000000000000000E+000
  0.000000000000000E+000
  0.000000000000000E+000
  0.000000000000000E+000
  0.000000000000000E+000
  0.000000000000000E+000
  0.000000000000000E+000
  0.000000000000000E+000
  0.000000000000000E+000
  0.000000000000000E+000
  0.000000000000000E+000
  0.000000000000000E+000
  0.000000000000000E+000
  0.000000000000000E+000
  0.000000000000000E+000
  0.000000000000000E+000
  0.000000000000000E+000
  0.000000000000000E+000
  0.000000000000000E+000
  0.000000000000000E+000
  0.000000000000000E+000
  0.000000000000000E+000
  0.000000000000000E+000
  0.000000000000000E+000
  0.000000000000000E+000
  0.000000000000000E+000
  0.000000000000000E+000
  0.000000000000000E+000
  0.000000000000000E+000
  0.000000000000000E+000
  0.000000000000000E+000
  0.000000000000000E+000
  0.000000000000000E+000
  0.000000000000000E+000
  0.000000000000000E+000
  0.000000000000000E+000
  0.000000000000000E+000
  0.000000000000000E+000
  0.000000000000000E+000
  0.000000000000000E+000
  0.000000000000000E+000
  0.000000000000000E+000
  0.000000000000000E+000
  0.000000000000000E+000
  0.000000000000000E+000
  0.000000000000000E+000
  0.000000000000000E+000
  0.000000000000000E+000
  0.000000000000000E+000
  0.000000000000000E+000
  0.000000000000000E+000
  0.000000000000000E+000
  0.000000000000000E+000
  0.000000000000000E+000
  0.000000000000000E+000
  0.000000000000000E+000
  0.000000000000000E+000
  0.000000000000000E+000
  0.000000000000000E+000
  0.000000000000000E+000
  0.000000000000000E+000
  0.000000000000000E+000
  0.000000000000000E+000
  0.000000000000000E+000
  0.000000000000000E+000
  0.000000000000000E+000
  0.000000000000000E+000
  0.000000000000000E+000
  0.000000000000000E+000
  0.000000000000000E+000
  0.000000000000000E+000
  0.000000000000000E+000
  0.000000000000000E+000
  0.000000000000000E+000
  0.000000000000000E+000
  0.000000000000000E+000
  0.000000000000000E+000
  0.000000000000000E+000
  0.000000000000000E+000
  0.000000000000000E+000
  0.000000000000000E+000
  0.000000000000000E+000
  0.000000000000000E+000
  0.000000000000000E+000
  0.000000000000000E+000
  0.000000000000000E+000
  0.000000000000000E+000
  0.000000000000000E+000
  0.000000000000000E+000
  0.000000000000000E+000
  0.000000000000000E+000
  0.000000000000000E+000
  0.000000000000000E+000
  0.000000000000000E+000
  0.000000000000000E+000
  0.000000000000000E+000
  0.000000000000000E+000
  0.000000000000000E+000
  0.000000000000000E+000
  0.000000000000000E+000
  0.000000000000000E+000
  0.000000000000000E+000
  0.000000000000000E+000
  0.000000000000000E+000
  0.000000000000000E+000
  0.000000000000000E+000
  0.000000000000000E+000
  0.000000000000000E+000
  0.000000000000000E+000
  0.000000000000000E+000
  0.000000000000000E+000
  0.000000000000000E+000
  0.000000000000000E+000
  0.000000000000000E+000
  0.000000000000000E+000
  0.000000000000000E+000
  0.000000000000000E+000
  0.000000000000000E+000
  0.000000000000000E+000
  0.000000000000000E+000
  0.000000000000000E+000
  0.000000000000000E+000
  0.000000000000000E+000
  0.000000000000000E+000
  0.000000000000000E+000
  0.000000000000000E+000
  0.000000000000000E+000
  0.000000000000000E+000
  0.000000000000000E+000
  0.000000000000000E+000
  0.000000000000000E+000
  0.000000000000000E+000
  0.000000000000000E+000
  0.000000000000000E+000
  0.000000000000000E+000
  0.000000000000000E+000
  0.000000000000000E+000
  0.000000000000000E+000
  0.000000000000000E+000
  0.000000000000000E+000
  0.000000000000000E+000
  0.000000000000000E+000
  0.000000000000000E+000
  0.000000000000000E+000
  0.000000000000000E+000
  0.000000000000000E+000
  0.000000000000000E+000
  0.000000000000000E+000
  0.000000000000000E+000
  0.000000000000000E+000
  0.000000000000000E+000
  0.000000000000000E+000
  0.000000000000000E+000
  0.000000000000000E+000
  0.000000000000000E+000
  0.000000000000000E+000
  0.000000000000000E+000
  0.000000000000000E+000
  0.000000000000000E+000
  0.000000000000000E+000
  0.000000000000000E+000
  0.000000000000000E+000
  0.000000000000000E+000
  0.000000000000000E+000
  0.000000000000000E+000
  0.000000000000000E+000
  0.000000000000000E+000
  0.000000000000000E+000
  0.000000000000000E+000
  0.000000000000000E+000
  0.000000000000000E+000
  0.000000000000000E+000
  0.000000000000000E+000
  0.000000000000000E+000
  0.000000000000000E+000
  0.000000000000000E+000
  0.000000000000000E+000
  0.000000000000000E+000
  0.000000000000000E+000
  0.000000000000000E+000
  0.000000000000000E+000
  0.000000000000000E+000
  0.000000000000000E+000
  0.000000000000000E+000
  0.000000000000000E+000
  0.000000000000000E+000
  0.000000000000000E+000
  0.000000000000000E+000
  0.000000000000000E+000
  0.000000000000000E+000
  0.000000000000000E+000
  0.000000000000000E+000
  0.000000000000000E+000
  0.000000000000000E+000
  0.000000000000000E+000
  0.000000000000000E+000
  0.000000000000000E+000
  0.000000000000000E+000
  0.000000000000000E+000
  0.000000000000000E+000
  0.000000000000000E+000
  0.000000000000000E+000
  0.000000000000000E+000
  0.000000000000000E+000
  0.000000000000000E+000
  0.000000000000000E+000
  0.000000000000000E+000
  0.000000000000000E+000
  0.000000000000000E+000
  0.000000000000000E+000
  0.000000000000000E+000
  0.000000000000000E+000
  0.000000000000000E+000
  0.000000000000000E+000
  0.000000000000000E+000
  0.000000000000000E+000
  0.000000000000000E+000
  0.000000000000000E+000
  0.000000000000000E+000
  0.000000000000000E+000
  0.000000000000000E+000
  0.000000000000000E+000
  0.000000000000000E+000
  0.000000000000000E+000
  0.000000000000000E+000
  0.000000000000000E+000
  0.000000000000000E+000
  0.000000000000000E+000
  0.000000000000000E+000
  0.000000000000000E+000
  0.000000000000000E+000
  0.000000000000000E+000
  0.000000000000000E+000
  0.000000000000000E+000
  0.000000000000000E+000
  0.000000000000000E+000
  0.000000000000000E+000
  0.000000000000000E+000
  0.000000000000000E+000
  0.000000000000000E+000
  0.000000000000000E+000
  0.000000000000000E+000
  0.000000000000000E+000
  0.000000000000000E+000
  0.000000000000000E+000
  0.000000000000000E+000
  0.000000000000000E+000
  0.000000000000000E+000
  0.000000000000000E+000
  0.000000000000000E+000
  0.000000000000000E+000
  0.000000000000000E+000
  0.000000000000000E+000
  0.000000000000000E+000
  0.000000000000000E+000
  0.000000000000000E+000
  0.000000000000000E+000
  0.000000000000000E+000
  0.000000000000000E+000
  0.000000000000000E+000
  0.000000000000000E+000
  0.000000000000000E+000
  0.000000000000000E+000
  0.000000000000000E+000
  0.000000000000000E+000
  0.000000000000000E+000
  0.000000000000000E+000
  0.000000000000000E+000
  0.000000000000000E+000
  0.000000000000000E+000
  0.000000000000000E+000
  0.000000000000000E+000
  0.000000000000000E+000
  0.000000000000000E+000
  0.000000000000000E+000
  0.000000000000000E+000
  0.000000000000000E+000
  0.000000000000000E+000
  0.000000000000000E+000
  0.000000000000000E+000
  0.000000000000000E+000
  0.000000000000000E+000
  0.000000000000000E+000
  0.000000000000000E+000
  0.000000000000000E+000
  0.000000000000000E+000
  0.000000000000000E+000
  0.000000000000000E+000
  0.000000000000000E+000
  0.000000000000000E+000
  0.000000000000000E+000
  0.000000000000000E+000
  0.000000000000000E+000
  0.000000000000000E+000
  0.000000000000000E+000
  0.000000000000000E+000
  0.000000000000000E+000
  0.000000000000000E+000
  0.000000000000000E+000
  0.000000000000000E+000
  0.000000000000000E+000
  0.000000000000000E+000
  0.000000000000000E+000
  0.000000000000000E+000
  0.000000000000000E+000
  0.000000000000000E+000
  0.000000000000000E+000
  0.000000000000000E+000
  0.000000000000000E+000
  0.000000000000000E+000
  0.000000000000000E+000
  0.000000000000000E+000
  0.000000000000000E+000
  0.000000000000000E+000
  0.000000000000000E+000
  0.000000000000000E+000
  0.000000000000000E+000
  0.000000000000000E+000
  0.000000000000000E+000
  0.000000000000000E+000
  0.000000000000000E+000
  0.000000000000000E+000
  0.000000000000000E+000
  0.000000000000000E+000
  0.000000000000000E+000
  0.000000000000000E+000
  0.000000000000000E+000
  0.000000000000000E+000
  0.000000000000000E+000
  0.000000000000000E+000
  0.000000000000000E+000
  0.000000000000000E+000
  0.000000000000000E+000
  0.000000000000000E+000
  0.000000000000000E+000
  0.000000000000000E+000
  0.000000000000000E+000
  0.000000000000000E+000
  0.000000000000000E+000
  0.000000000000000E+000
  0.000000000000000E+000
  0.000000000000000E+000
  0.000000000000000E+000
  0.000000000000000E+000
  0.000000000000000E+000
  0.000000000000000E+000
  0.000000000000000E+000
  0.000000000000000E+000
  0.000000000000000E+000
  0.000000000000000E+000
  0.000000000000000E+000
  0.000000000000000E+000
  0.000000000000000E+000
  0.000000000000000E+000
  0.000000000000000E+000
  0.000000000000000E+000
  0.000000000000000E+000
  0.000000000000000E+000
  0.000000000000000E+000
  0.000000000000000E+000
  0.000000000000000E+000
  0.000000000000000E+000
  0.000000000000000E+000
  0.000000000000000E+000
  0.000000000000000E+000
  0.000000000000000E+000
  0.000000000000000E+000
  0.000000000000000E+000
  0.000000000000000E+000
  0.000000000000000E+000
  0.000000000000000E+000
  0.000000000000000E+000
  0.000000000000000E+000
  0.000000000000000E+000
  0.000000000000000E+000
  0.000000000000000E+000
  0.000000000000000E+000
  0.000000000000000E+000
  0.000000000000000E+000
  0.000000000000000E+000
  0.000000000000000E+000
  0.000000000000000E+000
  0.000000000000000E+000
  0.000000000000000E+000
  0.000000000000000E+000
  0.000000000000000E+000
  0.000000000000000E+000
  0.000000000000000E+000
  0.000000000000000E+000
  0.000000000000000E+000
  0.000000000000000E+000
  0.000000000000000E+000
  0.000000000000000E+000
  0.000000000000000E+000
  0.000000000000000E+000
  0.000000000000000E+000
  0.000000000000000E+000
  0.000000000000000E+000
  0.000000000000000E+000
  0.000000000000000E+000
  0.000000000000000E+000
  0.000000000000000E+000
  0.000000000000000E+000
  0.000000000000000E+000
  0.000000000000000E+000
  0.000000000000000E+000
  0.000000000000000E+000
  0.000000000000000E+000
  0.000000000000000E+000
  0.000000000000000E+000
  0.000000000000000E+000
  0.000000000000000E+000
  0.000000000000000E+000
  0.000000000000000E+000
  0.000000000000000E+000
  0.000000000000000E+000
  0.000000000000000E+000
  0.000000000000000E+000
  0.000000000000000E+000
  0.000000000000000E+000
  0.000000000000000E+000
  0.000000000000000E+000
  0.000000000000000E+000
  0.000000000000000E+000
  0.000000000000000E+000
  0.000000000000000E+000
  0.000000000000000E+000
  0.000000000000000E+000
  0.000000000000000E+000
  0.000000000000000E+000
  0.000000000000000E+000
  0.000000000000000E+000
  0.000000000000000E+000
  0.000000000000000E+000
  0.000000000000000E+000
  0.000000000000000E+000
  0.000000000000000E+000
  0.000000000000000E+000
  0.000000000000000E+000
  0.000000000000000E+000
  0.000000000000000E+000
  0.000000000000000E+000
  0.000000000000000E+000
  0.000000000000000E+000
  0.000000000000000E+000
  0.000000000000000E+000
  0.000000000000000E+000
  0.000000000000000E+000
  0.000000000000000E+000
  0.000000000000000E+000
  0.000000000000000E+000
  0.000000000000000E+000
  0.000000000000000E+000
  0.000000000000000E+000
  0.000000000000000E+000
  0.000000000000000E+000
  0.000000000000000E+000
  0.000000000000000E+000
  0.000000000000000E+000
  0.000000000000000E+000
  0.000000000000000E+000
  0.000000000000000E+000
  0.000000000000000E+000
  0.000000000000000E+000
  0.000000000000000E+000
  0.000000000000000E+000
  0.000000000000000E+000
  0.000000000000000E+000
  0.000000000000000E+000
  0.000000000000000E+000
  0.000000000000000E+000
  0.000000000000000E+000
  0.000000000000000E+000
  0.000000000000000E+000
  0.000000000000000E+000
  0.000000000000000E+000
  0.000000000000000E+000
  0.000000000000000E+000
  0.000000000000000E+000
  0.000000000000000E+000
  0.000000000000000E+000
  0.000000000000000E+000
  0.000000000000000E+000
  0.000000000000000E+000
  0.000000000000000E+000
  0.000000000000000E+000
  0.000000000000000E+000
  0.000000000000000E+000
  0.000000000000000E+000
  0.000000000000000E+000
  0.000000000000000E+000
  0.000000000000000E+000
  0.000000000000000E+000
  0.000000000000000E+000
  0.000000000000000E+000
  0.000000000000000E+000
  0.000000000000000E+000
  0.000000000000000E+000
  0.000000000000000E+000
  0.000000000000000E+000
  0.000000000000000E+000
  0.000000000000000E+000
  0.000000000000000E+000
  0.000000000000000E+000
  0.000000000000000E+000
  0.000000000000000E+000
  0.000000000000000E+000
  0.000000000000000E+000
  0.000000000000000E+000
  0.000000000000000E+000
  0.000000000000000E+000
  0.000000000000000E+000
  0.000000000000000E+000
  0.000000000000000E+000
  0.000000000000000E+000
  0.000000000000000E+000
  0.000000000000000E+000
  0.000000000000000E+000
  0.000000000000000E+000
  0.000000000000000E+000
  0.000000000000000E+000
  0.000000000000000E+000
  0.000000000000000E+000
  0.000000000000000E+000
  0.000000000000000E+000
  0.000000000000000E+000
  0.000000000000000E+000
  0.000000000000000E+000
  0.000000000000000E+000
  0.000000000000000E+000
  0.000000000000000E+000
  0.000000000000000E+000
  0.000000000000000E+000
  0.000000000000000E+000
  0.000000000000000E+000
  0.000000000000000E+000
  0.000000000000000E+000
  0.000000000000000E+000
  0.000000000000000E+000
  0.000000000000000E+000
  0.000000000000000E+000
  0.000000000000000E+000
  0.000000000000000E+000
  0.000000000000000E+000
  0.000000000000000E+000
  0.000000000000000E+000
  0.000000000000000E+000
  0.000000000000000E+000
  0.000000000000000E+000
  0.000000000000000E+000
  0.000000000000000E+000
  0.000000000000000E+000
  0.000000000000000E+000
  0.000000000000000E+000
  0.000000000000000E+000
  0.000000000000000E+000
  0.000000000000000E+000
  0.000000000000000E+000
  0.000000000000000E+000
  0.000000000000000E+000
  0.000000000000000E+000
  0.000000000000000E+000
  0.000000000000000E+000
  0.000000000000000E+000
  0.000000000000000E+000
  0.000000000000000E+000
  0.000000000000000E+000
  0.000000000000000E+000
  0.000000000000000E+000
  0.000000000000000E+000
  0.000000000000000E+000
  0.000000000000000E+000
  0.000000000000000E+000
  0.000000000000000E+000
  0.000000000000000E+000
  0.000000000000000E+000
  0.000000000000000E+000
  0.000000000000000E+000
  0.000000000000000E+000
  0.000000000000000E+000
  0.000000000000000E+000
  0.000000000000000E+000
  0.000000000000000E+000
  0.000000000000000E+000
  0.000000000000000E+000
  0.000000000000000E+000
  0.000000000000000E+000
  0.000000000000000E+000
  0.000000000000000E+000
  0.000000000000000E+000
  0.000000000000000E+000
  0.000000000000000E+000
  0.000000000000000E+000
  0.000000000000000E+000
  0.000000000000000E+000
  0.000000000000000E+000
  0.000000000000000E+000
  0.000000000000000E+000
  0.000000000000000E+000
  0.000000000000000E+000
  0.000000000000000E+000
  0.000000000000000E+000
  0.000000000000000E+000
  0.000000000000000E+000
  0.000000000000000E+000
  0.000000000000000E+000
  0.000000000000000E+000
  0.000000000000000E+000
  0.000000000000000E+000
  0.000000000000000E+000
  0.000000000000000E+000
  0.000000000000000E+000
  0.000000000000000E+000
  0.000000000000000E+000
  0.000000000000000E+000
  0.000000000000000E+000
  0.000000000000000E+000
  0.000000000000000E+000
  0.000000000000000E+000
  0.000000000000000E+000
  0.000000000000000E+000
  0.000000000000000E+000
  0.000000000000000E+000
  0.000000000000000E+000
  0.000000000000000E+000
  0.000000000000000E+000
  0.000000000000000E+000
  0.000000000000000E+000
  0.000000000000000E+000
  0.000000000000000E+000
  0.000000000000000E+000
  0.000000000000000E+000
  0.000000000000000E+000
  0.000000000000000E+000
  0.000000000000000E+000
  0.000000000000000E+000
  0.000000000000000E+000
  0.000000000000000E+000
  0.000000000000000E+000
  0.000000000000000E+000
  0.000000000000000E+000
  0.000000000000000E+000
  0.000000000000000E+000
  0.000000000000000E+000
  0.000000000000000E+000
  0.000000000000000E+000
  0.000000000000000E+000
  0.000000000000000E+000
  0.000000000000000E+000
  0.000000000000000E+000
  0.000000000000000E+000
  0.000000000000000E+000
  0.000000000000000E+000
  0.000000000000000E+000
  0.000000000000000E+000
  0.000000000000000E+000
  0.000000000000000E+000
  0.000000000000000E+000
  0.000000000000000E+000
  0.000000000000000E+000
  0.000000000000000E+000
  0.000000000000000E+000
  0.000000000000000E+000
  0.000000000000000E+000
  0.000000000000000E+000
  0.000000000000000E+000
  0.000000000000000E+000
  0.000000000000000E+000
  0.000000000000000E+000
  0.000000000000000E+000
  0.000000000000000E+000
  0.000000000000000E+000
  0.000000000000000E+000
  0.000000000000000E+000
  0.000000000000000E+000
  0.000000000000000E+000
  0.000000000000000E+000
  0.000000000000000E+000
  0.000000000000000E+000
  0.000000000000000E+000
  0.000000000000000E+000
  0.000000000000000E+000
  0.000000000000000E+000
  0.000000000000000E+000
  0.000000000000000E+000
  0.000000000000000E+000
  0.000000000000000E+000
  0.000000000000000E+000
  0.000000000000000E+000
  0.000000000000000E+000
  0.000000000000000E+000
  0.000000000000000E+000
  0.000000000000000E+000
  0.000000000000000E+000
  0.000000000000000E+000
  0.000000000000000E+000
  0.000000000000000E+000
  0.000000000000000E+000
  0.000000000000000E+000
  0.000000000000000E+000
  0.000000000000000E+000
  0.000000000000000E+000
  0.000000000000000E+000
  0.000000000000000E+000
  0.000000000000000E+000
  0.000000000000000E+000
  0.000000000000000E+000
  0.000000000000000E+000
  0.000000000000000E+000
  0.000000000000000E+000
  0.000000000000000E+000
  0.000000000000000E+000
  0.000000000000000E+000
  0.000000000000000E+000
  0.000000000000000E+000
  0.000000000000000E+000
  0.000000000000000E+000
  0.000000000000000E+000
  0.000000000000000E+000
  0.000000000000000E+000
  0.000000000000000E+000
  0.000000000000000E+000
  0.000000000000000E+000
  0.000000000000000E+000
  0.000000000000000E+000
  0.000000000000000E+000
  0.000000000000000E+000
  0.000000000000000E+000
  0.000000000000000E+000
  0.000000000000000E+000
  0.000000000000000E+000
  0.000000000000000E+000
  0.000000000000000E+000
  0.000000000000000E+000
  0.000000000000000E+000
  0.000000000000000E+000
  0.000000000000000E+000
  0.000000000000000E+000
  0.000000000000000E+000
  0.000000000000000E+000
  0.000000000000000E+000
  0.000000000000000E+000
  0.000000000000000E+000
  0.000000000000000E+000
  0.000000000000000E+000
  0.000000000000000E+000
  0.000000000000000E+000
  0.000000000000000E+000
  0.000000000000000E+000
  0.000000000000000E+000
  0.000000000000000E+000
  0.000000000000000E+000
  0.000000000000000E+000
  0.000000000000000E+000
  0.000000000000000E+000
  0.000000000000000E+000
  0.000000000000000E+000
  0.000000000000000E+000
  0.000000000000000E+000
  0.000000000000000E+000
  0.000000000000000E+000
  0.000000000000000E+000
  0.000000000000000E+000
  0.000000000000000E+000
  0.000000000000000E+000
  0.000000000000000E+000
  0.000000000000000E+000
  0.000000000000000E+000
  0.000000000000000E+000
  0.000000000000000E+000
  0.000000000000000E+000
  0.000000000000000E+000
  0.000000000000000E+000
  0.000000000000000E+000
  0.000000000000000E+000
  0.000000000000000E+000
  0.000000000000000E+000
  0.000000000000000E+000
  0.000000000000000E+000
  0.000000000000000E+000
  0.000000000000000E+000
  0.000000000000000E+000
  0.000000000000000E+000
  0.000000000000000E+000
  0.000000000000000E+000
  0.000000000000000E+000
  0.000000000000000E+000
  0.000000000000000E+000
  0.000000000000000E+000
  0.000000000000000E+000
  0.000000000000000E+000
  0.000000000000000E+000
  0.000000000000000E+000
  0.000000000000000E+000
  0.000000000000000E+000
  0.000000000000000E+000
  0.000000000000000E+000
  0.000000000000000E+000
  0.000000000000000E+000
  0.000000000000000E+000
  0.000000000000000E+000
  0.000000000000000E+000
  0.000000000000000E+000
  0.000000000000000E+000
  0.000000000000000E+000
  0.000000000000000E+000
  0.000000000000000E+000
  0.000000000000000E+000
  0.000000000000000E+000
  0.000000000000000E+000
  0.000000000000000E+000
  0.000000000000000E+000
  0.000000000000000E+000
  0.000000000000000E+000
  0.000000000000000E+000
  0.000000000000000E+000
  0.000000000000000E+000
  0.000000000000000E+000
  0.000000000000000E+000
  0.000000000000000E+000
  0.000000000000000E+000
  0.000000000000000E+000
  0.000000000000000E+000
  0.000000000000000E+000
  0.000000000000000E+000
  0.000000000000000E+000
  0.000000000000000E+000
  0.000000000000000E+000
  0.000000000000000E+000
  0.000000000000000E+000
  0.000000000000000E+000
  0.000000000000000E+000
  0.000000000000000E+000
  0.000000000000000E+000
  0.000000000000000E+000
  0.000000000000000E+000
  0.000000000000000E+000
  0.000000000000000E+000
  0.000000000000000E+000
  0.000000000000000E+000
  0.000000000000000E+000
  0.000000000000000E+000
  0.000000000000000E+000
  0.000000000000000E+000
  0.000000000000000E+000
  0.000000000000000E+000
  0.000000000000000E+000
  0.000000000000000E+000
  0.000000000000000E+000
  0.000000000000000E+000
  0.000000000000000E+000
  0.000000000000000E+000
  0.000000000000000E+000
  0.000000000000000E+000
  0.000000000000000E+000
  0.000000000000000E+000
  0.000000000000000E+000
  0.000000000000000E+000
  0.000000000000000E+000
  0.000000000000000E+000
  0.000000000000000E+000
  0.000000000000000E+000
  0.000000000000000E+000
  0.000000000000000E+000
  0.000000000000000E+000
  0.000000000000000E+000
  0.000000000000000E+000
  0.000000000000000E+000
  0.000000000000000E+000
  0.000000000000000E+000
  0.000000000000000E+000
  0.000000000000000E+000
  0.000000000000000E+000
  0.000000000000000E+000
  0.000000000000000E+000
  0.000000000000000E+000
  0.000000000000000E+000
  0.000000000000000E+000
  0.000000000000000E+000
  0.000000000000000E+000
  0.000000000000000E+000
  0.000000000000000E+000
  0.000000000000000E+000
  0.000000000000000E+000
  0.000000000000000E+000
  0.000000000000000E+000
  0.000000000000000E+000
  0.000000000000000E+000
  0.000000000000000E+000
  0.000000000000000E+000
  0.000000000000000E+000
  0.000000000000000E+000
  0.000000000000000E+000
  0.000000000000000E+000
  0.000000000000000E+000
  0.000000000000000E+000
  0.000000000000000E+000
  0.000000000000000E+000
  0.000000000000000E+000
  0.000000000000000E+000
  0.000000000000000E+000
  0.000000000000000E+000
  0.000000000000000E+000
  0.000000000000000E+000
  0.000000000000000E+000
  0.000000000000000E+000
  0.000000000000000E+000
  0.000000000000000E+000
  0.000000000000000E+000
  0.000000000000000E+000
  0.000000000000000E+000
  0.000000000000000E+000
  0.000000000000000E+000
  0.000000000000000E+000
  0.000000000000000E+000
  0.000000000000000E+000
  0.000000000000000E+000
  0.000000000000000E+000
  0.000000000000000E+000
  0.000000000000000E+000
  0.000000000000000E+000
  0.000000000000000E+000
  0.000000000000000E+000
  0.000000000000000E+000
  0.000000000000000E+000
  0.000000000000000E+000
  0.000000000000000E+000
  0.000000000000000E+000
  0.000000000000000E+000
  0.000000000000000E+000
  0.000000000000000E+000
  0.000000000000000E+000
  0.000000000000000E+000
  0.000000000000000E+000
  0.000000000000000E+000
  0.000000000000000E+000
  0.000000000000000E+000
  0.000000000000000E+000
  0.000000000000000E+000
  0.000000000000000E+000
  0.000000000000000E+000
  0.000000000000000E+000
  0.000000000000000E+000
  0.000000000000000E+000
  0.000000000000000E+000
  0.000000000000000E+000
  0.000000000000000E+000
  0.000000000000000E+000
  0.000000000000000E+000
  0.000000000000000E+000
  0.000000000000000E+000
  0.000000000000000E+000
  0.000000000000000E+000
  0.000000000000000E+000
  0.000000000000000E+000
  0.000000000000000E+000
  0.000000000000000E+000
  0.000000000000000E+000
  0.000000000000000E+000
  0.000000000000000E+000
  0.000000000000000E+000
  0.000000000000000E+000
  0.000000000000000E+000
  0.000000000000000E+000
  0.000000000000000E+000
  0.000000000000000E+000
  0.000000000000000E+000
  0.000000000000000E+000
  0.000000000000000E+000
  0.000000000000000E+000
  0.000000000000000E+000
  0.000000000000000E+000
  0.000000000000000E+000
  0.000000000000000E+000
  0.000000000000000E+000
  0.000000000000000E+000
  0.000000000000000E+000
  0.000000000000000E+000
  0.000000000000000E+000
  0.000000000000000E+000
  0.000000000000000E+000
  0.000000000000000E+000
  0.000000000000000E+000
  0.000000000000000E+000
  0.000000000000000E+000
  0.000000000000000E+000
  0.000000000000000E+000
  0.000000000000000E+000
  0.000000000000000E+000
  0.000000000000000E+000
  0.000000000000000E+000
  0.000000000000000E+000
  0.000000000000000E+000
  0.000000000000000E+000
  0.000000000000000E+000
  0.000000000000000E+000
  0.000000000000000E+000
  0.000000000000000E+000
  0.000000000000000E+000
  0.000000000000000E+000
  0.000000000000000E+000
  0.000000000000000E+000
  0.000000000000000E+000
  0.000000000000000E+000
  0.000000000000000E+000
  0.000000000000000E+000
  0.000000000000000E+000
  0.000000000000000E+000
  0.000000000000000E+000
  0.000000000000000E+000
  0.000000000000000E+000
  0.000000000000000E+000
  0.000000000000000E+000
  0.000000000000000E+000
  0.000000000000000E+000
  0.000000000000000E+000
  0.000000000000000E+000
  0.000000000000000E+000
  0.000000000000000E+000
  0.000000000000000E+000
  0.000000000000000E+000
  0.000000000000000E+000
  0.000000000000000E+000
  0.000000000000000E+000
  0.000000000000000E+000
  0.000000000000000E+000
  0.000000000000000E+000
  0.000000000000000E+000
  0.000000000000000E+000
  0.000000000000000E+000
  0.000000000000000E+000
  0.000000000000000E+000
  0.000000000000000E+000
  0.000000000000000E+000
  0.000000000000000E+000
  0.000000000000000E+000
  0.000000000000000E+000
  0.000000000000000E+000
  0.000000000000000E+000
  0.000000000000000E+000
  0.000000000000000E+000
  0.000000000000000E+000
  0.000000000000000E+000
  0.000000000000000E+000
  0.000000000000000E+000
  0.000000000000000E+000
  0.000000000000000E+000
  0.000000000000000E+000
  0.000000000000000E+000
  0.000000000000000E+000
  0.000000000000000E+000
  0.000000000000000E+000
  0.000000000000000E+000
  0.000000000000000E+000
  0.000000000000000E+000
  0.000000000000000E+000
  0.000000000000000E+000
  0.000000000000000E+000
  0.000000000000000E+000
  0.000000000000000E+000
  0.000000000000000E+000
  0.000000000000000E+000
  0.000000000000000E+000
  0.000000000000000E+000
  0.000000000000000E+000
  0.000000000000000E+000
  0.000000000000000E+000
  0.000000000000000E+000
  0.000000000000000E+000
  0.000000000000000E+000
  0.000000000000000E+000
  0.000000000000000E+000
  0.000000000000000E+000
  0.000000000000000E+000
  0.000000000000000E+000
  0.000000000000000E+000
  0.000000000000000E+000
  0.000000000000000E+000
  0.000000000000000E+000
  0.000000000000000E+000
  0.000000000000000E+000
  0.000000000000000E+000
  0.000000000000000E+000
  0.000000000000000E+000
  0.000000000000000E+000
  0.000000000000000E+000
  0.000000000000000E+000
  0.000000000000000E+000
  0.000000000000000E+000
  0.000000000000000E+000
  0.000000000000000E+000
  0.000000000000000E+000
  0.000000000000000E+000
  0.000000000000000E+000
  0.000000000000000E+000
  0.000000000000000E+000
  0.000000000000000E+000
  0.000000000000000E+000
  0.000000000000000E+000
  0.000000000000000E+000
  0.000000000000000E+000
  0.000000000000000E+000
  0.000000000000000E+000
  0.000000000000000E+000
  0.000000000000000E+000
  0.000000000000000E+000
  0.000000000000000E+000
  0.000000000000000E+000
  0.000000000000000E+000
  0.000000000000000E+000
  0.000000000000000E+000
  0.000000000000000E+000
  0.000000000000000E+000
  0.000000000000000E+000
  0.000000000000000E+000
  0.000000000000000E+000
  0.000000000000000E+000
  0.000000000000000E+000
  0.000000000000000E+000
  0.000000000000000E+000
  0.000000000000000E+000
  0.000000000000000E+000
  0.000000000000000E+000
  0.000000000000000E+000
  0.000000000000000E+000
  0.000000000000000E+000
  0.000000000000000E+000
  0.000000000000000E+000
  0.000000000000000E+000
  0.000000000000000E+000
  0.000000000000000E+000
  0.000000000000000E+000
  0.000000000000000E+000
  0.000000000000000E+000
  0.000000000000000E+000
  0.000000000000000E+000
  0.000000000000000E+000
  0.000000000000000E+000
  0.000000000000000E+000
  0.000000000000000E+000
  0.000000000000000E+000
  0.000000000000000E+000
  0.000000000000000E+000
  0.000000000000000E+000
  0.000000000000000E+000
  0.000000000000000E+000
  0.000000000000000E+000
  0.000000000000000E+000
  0.000000000000000E+000
  0.000000000000000E+000
  0.000000000000000E+000
  0.000000000000000E+000
  0.000000000000000E+000
  0.000000000000000E+000
  0.000000000000000E+000
  0.000000000000000E+000
  0.000000000000000E+000
  0.000000000000000E+000
  0.000000000000000E+000
  0.000000000000000E+000
  0.000000000000000E+000
  0.000000000000000E+000
  0.000000000000000E+000
  0.000000000000000E+000
  0.000000000000000E+000
  0.000000000000000E+000
  0.000000000000000E+000
  0.000000000000000E+000
  0.000000000000000E+000
  0.000000000000000E+000
  0.000000000000000E+000
  0.000000000000000E+000
  0.000000000000000E+000
  0.000000000000000E+000
  0.000000000000000E+000
  0.000000000000000E+000
  0.000000000000000E+000
  0.000000000000000E+000
  0.000000000000000E+000
  0.000000000000000E+000
  0.000000000000000E+000
  0.000000000000000E+000
  0.000000000000000E+000
  0.000000000000000E+000
  0.000000000000000E+000
  0.000000000000000E+000
  0.000000000000000E+000
  0.000000000000000E+000
  0.000000000000000E+000
  0.000000000000000E+000
  0.000000000000000E+000
  0.000000000000000E+000
  0.000000000000000E+000
  0.000000000000000E+000
  0.000000000000000E+000
  0.000000000000000E+000
  0.000000000000000E+000
  0.000000000000000E+000
  0.000000000000000E+000
  0.000000000000000E+000
  0.000000000000000E+000
  0.000000000000000E+000
  0.000000000000000E+000
  0.000000000000000E+000
  0.000000000000000E+000
  0.000000000000000E+000
  0.000000000000000E+000
  0.000000000000000E+000
  0.000000000000000E+000
  0.000000000000000E+000
  0.000000000000000E+000
  0.000000000000000E+000
  0.000000000000000E+000
  0.000000000000000E+000
  0.000000000000000E+000
  0.000000000000000E+000
  0.000000000000000E+000
  0.000000000000000E+000
  0.000000000000000E+000
  0.000000000000000E+000
  0.000000000000000E+000
  0.000000000000000E+000
  0.000000000000000E+000
  0.000000000000000E+000
  0.000000000000000E+000
  0.000000000000000E+000
  0.000000000000000E+000
  0.000000000000000E+000
  0.000000000000000E+000
  0.000000000000000E+000
  0.000000000000000E+000
  0.000000000000000E+000
  0.000000000000000E+000
  0.000000000000000E+000
  0.000000000000000E+000
  0.000000000000000E+000
  0.000000000000000E+000
  0.000000000000000E+000
  0.000000000000000E+000
  0.000000000000000E+000
  0.000000000000000E+000
  0.000000000000000E+000
  0.000000000000000E+000
  0.000000000000000E+000
  0.000000000000000E+000
  0.000000000000000E+000
  0.000000000000000E+000
  0.000000000000000E+000
  0.000000000000000E+000
  0.000000000000000E+000
  0.000000000000000E+000
  0.000000000000000E+000
  0.000000000000000E+000
  0.000000000000000E+000
  0.000000000000000E+000
  0.000000000000000E+000
  0.000000000000000E+000
  0.000000000000000E+000
  0.000000000000000E+000
  0.000000000000000E+000
  0.000000000000000E+000
  0.000000000000000E+000
  0.000000000000000E+000
  0.000000000000000E+000
  0.000000000000000E+000
  0.000000000000000E+000
  0.000000000000000E+000
  0.000000000000000E+000
  0.000000000000000E+000
  0.000000000000000E+000
  0.000000000000000E+000
  0.000000000000000E+000
  0.000000000000000E+000
  0.000000000000000E+000
  0.000000000000000E+000
  0.000000000000000E+000
  0.000000000000000E+000
  0.000000000000000E+000
  0.000000000000000E+000
  0.000000000000000E+000
  0.000000000000000E+000
  0.000000000000000E+000
  0.000000000000000E+000
  0.000000000000000E+000
  0.000000000000000E+000
  0.000000000000000E+000
  0.000000000000000E+000
  0.000000000000000E+000
  0.000000000000000E+000
  0.000000000000000E+000
  0.000000000000000E+000
  0.000000000000000E+000
  0.000000000000000E+000
  0.000000000000000E+000
  0.000000000000000E+000
  0.000000000000000E+000
  0.000000000000000E+000
  0.000000000000000E+000
  0.000000000000000E+000
  0.000000000000000E+000
  0.000000000000000E+000
  0.000000000000000E+000
  0.000000000000000E+000
  0.000000000000000E+000
  0.000000000000000E+000
  0.000000000000000E+000
  0.000000000000000E+000
  0.000000000000000E+000
  0.000000000000000E+000
  0.000000000000000E+000
  0.000000000000000E+000
  0.000000000000000E+000
  0.000000000000000E+000
  0.000000000000000E+000
  0.000000000000000E+000
  0.000000000000000E+000
  0.000000000000000E+000
  0.000000000000000E+000
  0.000000000000000E+000
  0.000000000000000E+000
  0.000000000000000E+000
  0.000000000000000E+000
  0.000000000000000E+000
  0.000000000000000E+000
  0.000000000000000E+000
  0.000000000000000E+000
  0.000000000000000E+000
  0.000000000000000E+000
  0.000000000000000E+000
  0.000000000000000E+000
  0.000000000000000E+000
  0.000000000000000E+000
  0.000000000000000E+000
  0.000000000000000E+000
  0.000000000000000E+000
  0.000000000000000E+000
  0.000000000000000E+000
  0.000000000000000E+000
  0.000000000000000E+000
  0.000000000000000E+000
  0.000000000000000E+000
  0.000000000000000E+000
  0.000000000000000E+000
  0.000000000000000E+000
  0.000000000000000E+000
  0.000000000000000E+000
  0.000000000000000E+000
  0.000000000000000E+000
  0.000000000000000E+000
  0.000000000000000E+000
  0.000000000000000E+000
  0.000000000000000E+000
  0.000000000000000E+000
  0.000000000000000E+000
  0.000000000000000E+000
  0.000000000000000E+000
  0.000000000000000E+000
  0.000000000000000E+000
  0.000000000000000E+000
  0.000000000000000E+000
  0.000000000000000E+000
  0.000000000000000E+000
  0.000000000000000E+000
  0.000000000000000E+000
  0.000000000000000E+000
  0.000000000000000E+000
  0.000000000000000E+000
  0.000000000000000E+000
  0.000000000000000E+000
  0.000000000000000E+000
  0.000000000000000E+000
  0.000000000000000E+000
  0.000000000000000E+000
  0.000000000000000E+000
  0.000000000000000E+000
  0.000000000000000E+000
  0.000000000000000E+000
  0.000000000000000E+000
  0.000000000000000E+000
  0.000000000000000E+000
  0.000000000000000E+000
  0.000000000000000E+000
  0.000000000000000E+000
  0.000000000000000E+000
  0.000000000000000E+000
  0.000000000000000E+000
  0.000000000000000E+000
  0.000000000000000E+000
  0.000000000000000E+000
  0.000000000000000E+000
  0.000000000000000E+000
  0.000000000000000E+000
  0.000000000000000E+000
  0.000000000000000E+000
  0.000000000000000E+000
  0.000000000000000E+000
  0.000000000000000E+000
  0.000000000000000E+000
  0.000000000000000E+000
  0.000000000000000E+000
  0.000000000000000E+000
  0.000000000000000E+000
  0.000000000000000E+000
  0.000000000000000E+000
  0.000000000000000E+000
  0.000000000000000E+000
  0.000000000000000E+000
  0.000000000000000E+000
  0.000000000000000E+000
  0.000000000000000E+000
  0.000000000000000E+000
  0.000000000000000E+000
  0.000000000000000E+000
  0.000000000000000E+000
  0.000000000000000E+000
  0.000000000000000E+000
  0.000000000000000E+000
  0.000000000000000E+000
  0.000000000000000E+000
  0.000000000000000E+000
  0.000000000000000E+000
  0.000000000000000E+000
  0.000000000000000E+000
  0.000000000000000E+000
  0.000000000000000E+000
  0.000000000000000E+000
  0.000000000000000E+000
  0.000000000000000E+000
  0.000000000000000E+000
  0.000000000000000E+000
  0.000000000000000E+000
  0.000000000000000E+000
  0.000000000000000E+000
  0.000000000000000E+000
  0.000000000000000E+000
  0.000000000000000E+000
  0.000000000000000E+000
  0.000000000000000E+000
  0.000000000000000E+000
  0.000000000000000E+000
  0.000000000000000E+000
  0.000000000000000E+000
  0.000000000000000E+000
  0.000000000000000E+000
  0.000000000000000E+000
  0.000000000000000E+000
  0.000000000000000E+000
  0.000000000000000E+000
  0.000000000000000E+000
  0.000000000000000E+000
  0.000000000000000E+000
  0.000000000000000E+000
  0.000000000000000E+000
  0.000000000000000E+000
  0.000000000000000E+000
  0.000000000000000E+000
  0.000000000000000E+000
  0.000000000000000E+000
  0.000000000000000E+000
  0.000000000000000E+000
  0.000000000000000E+000
  0.000000000000000E+000
  0.000000000000000E+000
  0.000000000000000E+000
  0.000000000000000E+000
  0.000000000000000E+000
  0.000000000000000E+000
  0.000000000000000E+000
  0.000000000000000E+000
  0.000000000000000E+000
  0.000000000000000E+000
  0.000000000000000E+000
  0.000000000000000E+000
  0.000000000000000E+000
  0.000000000000000E+000
  0.000000000000000E+000
  0.000000000000000E+000
  0.000000000000000E+000
  0.000000000000000E+000
  0.000000000000000E+000
  0.000000000000000E+000
  0.000000000000000E+000
  0.000000000000000E+000
  0.000000000000000E+000
  0.000000000000000E+000
  0.000000000000000E+000
  0.000000000000000E+000
  0.000000000000000E+000
  0.000000000000000E+000
  0.000000000000000E+000
  0.000000000000000E+000
  0.000000000000000E+000
  0.000000000000000E+000
  0.000000000000000E+000
  0.000000000000000E+000
  0.000000000000000E+000
  0.000000000000000E+000
  0.000000000000000E+000
  0.000000000000000E+000
  0.000000000000000E+000
  0.000000000000000E+000
  0.000000000000000E+000
  0.000000000000000E+000
  0.000000000000000E+000
  0.000000000000000E+000
  0.000000000000000E+000
  0.000000000000000E+000
  0.000000000000000E+000
  0.000000000000000E+000
  0.000000000000000E+000
  0.000000000000000E+000
  0.000000000000000E+000
  0.000000000000000E+000
  0.000000000000000E+000
  0.000000000000000E+000
  0.000000000000000E+000
  0.000000000000000E+000
  0.000000000000000E+000
  0.000000000000000E+000
  0.000000000000000E+000
  0.000000000000000E+000
  0.000000000000000E+000
  0.000000000000000E+000
  0.000000000000000E+000
  0.000000000000000E+000
  0.000000000000000E+000
  0.000000000000000E+000
  0.000000000000000E+000
  0.000000000000000E+000
  0.000000000000000E+000
  0.000000000000000E+000
  0.000000000000000E+000
  0.000000000000000E+000
  0.000000000000000E+000
  0.000000000000000E+000
  0.000000000000000E+000
  0.000000000000000E+000
  0.000000000000000E+000
  0.000000000000000E+000
  0.000000000000000E+000
  0.000000000000000E+000
  0.000000000000000E+000
  0.000000000000000E+000
  0.000000000000000E+000
  0.000000000000000E+000
  0.000000000000000E+000
  0.000000000000000E+000
  0.000000000000000E+000
  0.000000000000000E+000
  0.000000000000000E+000
  0.000000000000000E+000
  0.000000000000000E+000
  0.000000000000000E+000
  0.000000000000000E+000
  0.000000000000000E+000
  0.000000000000000E+000
  0.000000000000000E+000
  0.000000000000000E+000
  0.000000000000000E+000
  0.000000000000000E+000
  0.000000000000000E+000
  0.000000000000000E+000
  0.000000000000000E+000
  0.000000000000000E+000
  0.000000000000000E+000
  0.000000000000000E+000
  0.000000000000000E+000
  0.000000000000000E+000
  0.000000000000000E+000
  0.000000000000000E+000
  0.000000000000000E+000
  0.000000000000000E+000
  0.000000000000000E+000
  0.000000000000000E+000
  0.000000000000000E+000
  0.000000000000000E+000
  0.000000000000000E+000
  0.000000000000000E+000
  0.000000000000000E+000
  0.000000000000000E+000
  0.000000000000000E+000
  0.000000000000000E+000
  0.000000000000000E+000
  0.000000000000000E+000
  0.000000000000000E+000
  0.000000000000000E+000
  0.000000000000000E+000
  0.000000000000000E+000
  0.000000000000000E+000
  0.000000000000000E+000
  0.000000000000000E+000
  0.000000000000000E+000
  0.000000000000000E+000
  0.000000000000000E+000
  0.000000000000000E+000
  0.000000000000000E+000
  0.000000000000000E+000
  0.000000000000000E+000
  0.000000000000000E+000
  0.000000000000000E+000
  0.000000000000000E+000
  0.000000000000000E+000
  0.000000000000000E+000
  0.000000000000000E+000
  0.000000000000000E+000
  0.000000000000000E+000
  0.000000000000000E+000
  0.000000000000000E+000
  0.000000000000000E+000
  0.000000000000000E+000
  0.000000000000000E+000
  0.000000000000000E+000
  0.000000000000000E+000
  0.000000000000000E+000
  0.000000000000000E+000
  0.000000000000000E+000
  0.000000000000000E+000
  0.000000000000000E+000
  0.000000000000000E+000
  0.000000000000000E+000
  0.000000000000000E+000
  0.000000000000000E+000
  0.000000000000000E+000
  0.000000000000000E+000
  0.000000000000000E+000
  0.000000000000000E+000
  0.000000000000000E+000
  0.000000000000000E+000
  0.000000000000000E+000
  0.000000000000000E+000
  0.000000000000000E+000
  0.000000000000000E+000
  0.000000000000000E+000
  0.000000000000000E+000
  0.000000000000000E+000
  0.000000000000000E+000
  0.000000000000000E+000
  0.000000000000000E+000
  0.000000000000000E+000
  0.000000000000000E+000
  0.000000000000000E+000
  0.000000000000000E+000
  0.000000000000000E+000
  0.000000000000000E+000
  0.000000000000000E+000
  0.000000000000000E+000
  0.000000000000000E+000
  0.000000000000000E+000
  0.000000000000000E+000
  0.000000000000000E+000
  0.000000000000000E+000
  0.000000000000000E+000
  0.000000000000000E+000
  0.000000000000000E+000
  0.000000000000000E+000
  0.000000000000000E+000
  0.000000000000000E+000
  0.000000000000000E+000
  0.000000000000000E+000
  0.000000000000000E+000
  0.000000000000000E+000
  0.000000000000000E+000
  0.000000000000000E+000
  0.000000000000000E+000
  0.000000000000000E+000
  0.000000000000000E+000
  0.000000000000000E+000
  0.000000000000000E+000
  0.000000000000000E+000
  0.000000000000000E+000
  0.000000000000000E+000
  0.000000000000000E+000
  0.000000000000000E+000
  0.000000000000000E+000
  0.000000000000000E+000
  0.000000000000000E+000
  0.000000000000000E+000
  0.000000000000000E+000
  0.000000000000000E+000
  0.000000000000000E+000
  0.000000000000000E+000
  0.000000000000000E+000
  0.000000000000000E+000
  0.000000000000000E+000
  0.000000000000000E+000
  0.000000000000000E+000
  0.000000000000000E+000
  0.000000000000000E+000
  0.000000000000000E+000
  0.000000000000000E+000
  0.000000000000000E+000
  0.000000000000000E+000
  0.000000000000000E+000
  0.000000000000000E+000
  0.000000000000000E+000
  0.000000000000000E+000
  0.000000000000000E+000
  0.000000000000000E+000
  0.000000000000000E+000
  0.000000000000000E+000
  0.000000000000000E+000
  0.000000000000000E+000
  0.000000000000000E+000
  0.000000000000000E+000
  0.000000000000000E+000
  0.000000000000000E+000
  0.000000000000000E+000
  0.000000000000000E+000
  0.000000000000000E+000
  0.000000000000000E+000
  0.000000000000000E+000
  0.000000000000000E+000
  0.000000000000000E+000
  0.000000000000000E+000
  0.000000000000000E+000
  0.000000000000000E+000
  0.000000000000000E+000
  0.000000000000000E+000
  0.000000000000000E+000
  0.000000000000000E+000
  0.000000000000000E+000
  0.000000000000000E+000
  0.000000000000000E+000
  0.000000000000000E+000
  0.000000000000000E+000
  0.000000000000000E+000
  0.000000000000000E+000
  0.000000000000000E+000
  0.000000000000000E+000
  0.000000000000000E+000
  0.000000000000000E+000
  0.000000000000000E+000
  0.000000000000000E+000
  0.000000000000000E+000
  0.000000000000000E+000
  0.000000000000000E+000
  0.000000000000000E+000
  0.000000000000000E+000
  0.000000000000000E+000
  0.000000000000000E+000
  0.000000000000000E+000
  0.000000000000000E+000
  0.000000000000000E+000
  0.000000000000000E+000
  0.000000000000000E+000
  0.000000000000000E+000
  0.000000000000000E+000
  0.000000000000000E+000
  0.000000000000000E+000
  0.000000000000000E+000
  0.000000000000000E+000
  0.000000000000000E+000
  0.000000000000000E+000
  0.000000000000000E+000
  0.000000000000000E+000
  0.000000000000000E+000
  0.000000000000000E+000
  0.000000000000000E+000
  0.000000000000000E+000
  0.000000000000000E+000
  0.000000000000000E+000
  0.000000000000000E+000
  0.000000000000000E+000
  0.000000000000000E+000
  0.000000000000000E+000
  0.000000000000000E+000
  0.000000000000000E+000
  0.000000000000000E+000
  0.000000000000000E+000
  0.000000000000000E+000
  0.000000000000000E+000
  0.000000000000000E+000
  0.000000000000000E+000
  0.000000000000000E+000
  0.000000000000000E+000
  0.000000000000000E+000
  0.000000000000000E+000
  0.000000000000000E+000
  0.000000000000000E+000
  0.000000000000000E+000
  0.000000000000000E+000
  0.000000000000000E+000
  0.000000000000000E+000
  0.000000000000000E+000
  0.000000000000000E+000
  0.000000000000000E+000
  0.000000000000000E+000
  0.000000000000000E+000
  0.000000000000000E+000
  0.000000000000000E+000
  0.000000000000000E+000
  0.000000000000000E+000
  0.000000000000000E+000
  0.000000000000000E+000
  0.000000000000000E+000
  0.000000000000000E+000
  0.000000000000000E+000
  0.000000000000000E+000
  0.000000000000000E+000
  0.000000000000000E+000
  0.000000000000000E+000
  0.000000000000000E+000
  0.000000000000000E+000
  0.000000000000000E+000
  0.000000000000000E+000
  0.000000000000000E+000
  0.000000000000000E+000
  0.000000000000000E+000
  0.000000000000000E+000
  0.000000000000000E+000
  0.000000000000000E+000
  0.000000000000000E+000
  0.000000000000000E+000
  0.000000000000000E+000
  0.000000000000000E+000
  0.000000000000000E+000
  0.000000000000000E+000
  0.000000000000000E+000
  0.000000000000000E+000
  0.000000000000000E+000
  0.000000000000000E+000
  0.000000000000000E+000
  0.000000000000000E+000
  0.000000000000000E+000
  0.000000000000000E+000
  0.000000000000000E+000
  0.000000000000000E+000
  0.000000000000000E+000
  0.000000000000000E+000
  0.000000000000000E+000
  0.000000000000000E+000
  0.000000000000000E+000
  0.000000000000000E+000
  0.000000000000000E+000
  0.000000000000000E+000
  0.000000000000000E+000
  0.000000000000000E+000
  0.000000000000000E+000
  0.000000000000000E+000
  0.000000000000000E+000
  0.000000000000000E+000
  0.000000000000000E+000
  0.000000000000000E+000
  0.000000000000000E+000
  0.000000000000000E+000
  0.000000000000000E+000
  0.000000000000000E+000
  0.000000000000000E+000
  0.000000000000000E+000
  0.000000000000000E+000
  0.000000000000000E+000
  0.000000000000000E+000
  0.000000000000000E+000
  0.000000000000000E+000
  0.000000000000000E+000
  0.000000000000000E+000
  0.000000000000000E+000
  0.000000000000000E+000
  0.000000000000000E+000
  0.000000000000000E+000
  0.000000000000000E+000
  0.000000000000000E+000
  0.000000000000000E+000
  0.000000000000000E+000
  0.000000000000000E+000
  0.000000000000000E+000
  0.000000000000000E+000
  0.000000000000000E+000
  0.000000000000000E+000
  0.000000000000000E+000
  0.000000000000000E+000
  0.000000000000000E+000
  0.000000000000000E+000
  0.000000000000000E+000
  0.000000000000000E+000
  0.000000000000000E+000
  0.000000000000000E+000
  0.000000000000000E+000
  0.000000000000000E+000
  0.000000000000000E+000
  0.000000000000000E+000
  0.000000000000000E+000
  0.000000000000000E+000
  0.000000000000000E+000
  0.000000000000000E+000
  0.000000000000000E+000
  0.000000000000000E+000
  0.000000000000000E+000
  0.000000000000000E+000
  0.000000000000000E+000
  0.000000000000000E+000
  0.000000000000000E+000
  0.000000000000000E+000
  0.000000000000000E+000
  0.000000000000000E+000
  0.000000000000000E+000
  0.000000000000000E+000
  0.000000000000000E+000
  0.000000000000000E+000
  0.000000000000000E+000
  0.000000000000000E+000
  0.000000000000000E+000
  0.000000000000000E+000
  0.000000000000000E+000
  0.000000000000000E+000
  0.000000000000000E+000
  0.000000000000000E+000
  0.000000000000000E+000
  0.000000000000000E+000
  0.000000000000000E+000
  0.000000000000000E+000
  0.000000000000000E+000
  0.000000000000000E+000
  0.000000000000000E+000
  0.000000000000000E+000
  0.000000000000000E+000
  0.000000000000000E+000
  0.000000000000000E+000
  0.000000000000000E+000
  0.000000000000000E+000
  0.000000000000000E+000
  0.000000000000000E+000
  0.000000000000000E+000
  0.000000000000000E+000
  0.000000000000000E+000
  0.000000000000000E+000
  0.000000000000000E+000
  0.000000000000000E+000
  0.000000000000000E+000
  0.000000000000000E+000
  0.000000000000000E+000
  0.000000000000000E+000
  0.000000000000000E+000
  0.000000000000000E+000
  0.000000000000000E+000
  0.000000000000000E+000
  0.000000000000000E+000
  0.000000000000000E+000
  0.000000000000000E+000
  0.000000000000000E+000
  0.000000000000000E+000
  0.000000000000000E+000
  0.000000000000000E+000
  0.000000000000000E+000
  0.000000000000000E+000
  0.000000000000000E+000
  0.000000000000000E+000
  0.000000000000000E+000
  0.000000000000000E+000
  0.000000000000000E+000
  0.000000000000000E+000
  0.000000000000000E+000
  0.000000000000000E+000
  0.000000000000000E+000
  0.000000000000000E+000
  0.000000000000000E+000
  0.000000000000000E+000
  0.000000000000000E+000
  0.000000000000000E+000
  0.000000000000000E+000
  0.000000000000000E+000
  0.000000000000000E+000
  0.000000000000000E+000
  0.000000000000000E+000
  0.000000000000000E+000
  0.000000000000000E+000
  0.000000000000000E+000
  0.000000000000000E+000
  0.000000000000000E+000
  0.000000000000000E+000
  0.000000000000000E+000
  0.000000000000000E+000
  0.000000000000000E+000
  0.000000000000000E+000
  0.000000000000000E+000
  0.000000000000000E+000
  0.000000000000000E+000
  0.000000000000000E+000
  0.000000000000000E+000
  0.000000000000000E+000
  0.000000000000000E+000
  0.000000000000000E+000
  0.000000000000000E+000
  0.000000000000000E+000
  0.000000000000000E+000
  0.000000000000000E+000
  0.000000000000000E+000
  0.000000000000000E+000
  0.000000000000000E+000
  0.000000000000000E+000
  0.000000000000000E+000
  0.000000000000000E+000
  0.000000000000000E+000
  0.000000000000000E+000
  0.000000000000000E+000
  0.000000000000000E+000
  0.000000000000000E+000
  0.000000000000000E+000
  0.000000000000000E+000
  0.000000000000000E+000
  0.000000000000000E+000
  0.000000000000000E+000
  0.000000000000000E+000
  0.000000000000000E+000
  0.000000000000000E+000
  0.000000000000000E+000
  0.000000000000000E+000
  0.000000000000000E+000
  0.000000000000000E+000
  0.000000000000000E+000
  0.000000000000000E+000
  0.000000000000000E+000
  0.000000000000000E+000
  0.000000000000000E+000
  0.000000000000000E+000
  0.000000000000000E+000
  0.000000000000000E+000
  0.000000000000000E+000
  0.000000000000000E+000
  0.000000000000000E+000
  0.000000000000000E+000
  0.000000000000000E+000
  0.000000000000000E+000
  0.000000000000000E+000
  0.000000000000000E+000
  0.000000000000000E+000
  0.000000000000000E+000
  0.000000000000000E+000
  0.000000000000000E+000
  0.000000000000000E+000
  0.000000000000000E+000
  0.000000000000000E+000
  0.000000000000000E+000
  0.000000000000000E+000
  0.000000000000000E+000
  0.000000000000000E+000
  0.000000000000000E+000
  0.000000000000000E+000
  0.000000000000000E+000
  0.000000000000000E+000
  0.000000000000000E+000
  0.000000000000000E+000
  0.000000000000000E+000
  0.000000000000000E+000
  0.000000000000000E+000
  0.000000000000000E+000
  0.000000000000000E+000
  0.000000000000000E+000
  0.000000000000000E+000
  0.000000000000000E+000
  0.000000000000000E+000
  0.000000000000000E+000
  0.000000000000000E+000
  0.000000000000000E+000
  0.000000000000000E+000
  0.000000000000000E+000
  0.000000000000000E+000
  0.000000000000000E+000
  0.000000000000000E+000
  0.000000000000000E+000
  0.000000000000000E+000
  0.000000000000000E+000
  0.000000000000000E+000
  0.000000000000000E+000
  0.000000000000000E+000
  0.000000000000000E+000
  0.000000000000000E+000
  0.000000000000000E+000
  0.000000000000000E+000
  0.000000000000000E+000
  0.000000000000000E+000
  0.000000000000000E+000
  0.000000000000000E+000
  0.000000000000000E+000
  0.000000000000000E+000
  0.000000000000000E+000
  0.000000000000000E+000
  0.000000000000000E+000
  0.000000000000000E+000
  0.000000000000000E+000
  0.000000000000000E+000
  0.000000000000000E+000
  0.000000000000000E+000
  0.000000000000000E+000
  0.000000000000000E+000
  0.000000000000000E+000
  0.000000000000000E+000
  0.000000000000000E+000
  0.000000000000000E+000
  0.000000000000000E+000
  0.000000000000000E+000
  0.000000000000000E+000
  0.000000000000000E+000
  0.000000000000000E+000
  0.000000000000000E+000
  0.000000000000000E+000
  0.000000000000000E+000
  0.000000000000000E+000
  0.000000000000000E+000
  0.000000000000000E+000
  0.000000000000000E+000
  0.000000000000000E+000
  0.000000000000000E+000
  0.000000000000000E+000
  0.000000000000000E+000
  0.000000000000000E+000
  0.000000000000000E+000
  0.000000000000000E+000
  0.000000000000000E+000
  0.000000000000000E+000
  0.000000000000000E+000
  0.000000000000000E+000
  0.000000000000000E+000
  0.000000000000000E+000
  0.000000000000000E+000
  0.000000000000000E+000
  0.000000000000000E+000
  0.000000000000000E+000
  0.000000000000000E+000
  0.000000000000000E+000
  0.000000000000000E+000
  0.000000000000000E+000
  0.000000000000000E+000
  0.000000000000000E+000
  0.000000000000000E+000
  0.000000000000000E+000
  0.000000000000000E+000
  0.000000000000000E+000
  0.000000000000000E+000
  0.000000000000000E+000
  0.000000000000000E+000
  0.000000000000000E+000
  0.000000000000000E+000
  0.000000000000000E+000
  0.000000000000000E+000
  0.000000000000000E+000
  0.000000000000000E+000
  0.000000000000000E+000
  0.000000000000000E+000
  0.000000000000000E+000
  0.000000000000000E+000
  0.000000000000000E+000
  0.000000000000000E+000
  0.000000000000000E+000
  0.000000000000000E+000
  0.000000000000000E+000
  0.000000000000000E+000
  0.000000000000000E+000
  0.000000000000000E+000
  0.000000000000000E+000
  0.000000000000000E+000
  0.000000000000000E+000
  0.000000000000000E+000
  0.000000000000000E+000
  0.000000000000000E+000
  0.000000000000000E+000
  0.000000000000000E+000
  0.000000000000000E+000
  0.000000000000000E+000
  0.000000000000000E+000
  0.000000000000000E+000
  0.000000000000000E+000
  0.000000000000000E+000
  0.000000000000000E+000
  0.000000000000000E+000
  0.000000000000000E+000
  0.000000000000000E+000
  0.000000000000000E+000
  0.000000000000000E+000
  0.000000000000000E+000
  0.000000000000000E+000
  0.000000000000000E+000
  0.000000000000000E+000
  0.000000000000000E+000
  0.000000000000000E+000
  0.000000000000000E+000
  0.000000000000000E+000
  0.000000000000000E+000
  0.000000000000000E+000
  0.000000000000000E+000
  0.000000000000000E+000
  0.000000000000000E+000
  0.000000000000000E+000
  0.000000000000000E+000
  0.000000000000000E+000
  0.000000000000000E+000
  0.000000000000000E+000
  0.000000000000000E+000
  0.000000000000000E+000
  0.000000000000000E+000
  0.000000000000000E+000
  0.000000000000000E+000
  0.000000000000000E+000
  0.000000000000000E+000
  0.000000000000000E+000
  0.000000000000000E+000
  0.000000000000000E+000
  0.000000000000000E+000
  0.000000000000000E+000
  0.000000000000000E+000
  0.000000000000000E+000
  0.000000000000000E+000
  0.000000000000000E+000
  0.000000000000000E+000
  0.000000000000000E+000
  0.000000000000000E+000
  0.000000000000000E+000
  0.000000000000000E+000
  0.000000000000000E+000
  0.000000000000000E+000
  0.000000000000000E+000
  0.000000000000000E+000
  0.000000000000000E+000
  0.000000000000000E+000
  0.000000000000000E+000
  0.000000000000000E+000
  0.000000000000000E+000
  0.000000000000000E+000
  0.000000000000000E+000
  0.000000000000000E+000
  0.000000000000000E+000
  0.000000000000000E+000
  0.000000000000000E+000
  0.000000000000000E+000
  0.000000000000000E+000
  0.000000000000000E+000
  0.000000000000000E+000
  0.000000000000000E+000
  0.000000000000000E+000
  0.000000000000000E+000
  0.000000000000000E+000
  0.000000000000000E+000
  0.000000000000000E+000
  0.000000000000000E+000
  0.000000000000000E+000
  0.000000000000000E+000
  0.000000000000000E+000
  0.000000000000000E+000
  0.000000000000000E+000
  0.000000000000000E+000
  0.000000000000000E+000
  0.000000000000000E+000
  0.000000000000000E+000
  0.000000000000000E+000
  0.000000000000000E+000
  0.000000000000000E+000
  0.000000000000000E+000
  0.000000000000000E+000
  0.000000000000000E+000
  0.000000000000000E+000
  0.000000000000000E+000
  0.000000000000000E+000
  0.000000000000000E+000
  0.000000000000000E+000
  0.000000000000000E+000
  0.000000000000000E+000
  0.000000000000000E+000
  0.000000000000000E+000
  0.000000000000000E+000
  0.000000000000000E+000
  0.000000000000000E+000
  0.000000000000000E+000
  0.000000000000000E+000
  0.000000000000000E+000
  0.000000000000000E+000
  0.000000000000000E+000
  0.000000000000000E+000
  0.000000000000000E+000
  0.000000000000000E+000
  0.000000000000000E+000
  0.000000000000000E+000
  0.000000000000000E+000
  0.000000000000000E+000
  0.000000000000000E+000
  0.000000000000000E+000
  0.000000000000000E+000
  0.000000000000000E+000
  0.000000000000000E+000
  0.000000000000000E+000
  0.000000000000000E+000
  0.000000000000000E+000
  0.000000000000000E+000
  0.000000000000000E+000
  0.000000000000000E+000
  0.000000000000000E+000
  0.000000000000000E+000
  0.000000000000000E+000
  0.000000000000000E+000
  0.000000000000000E+000
  0.000000000000000E+000
  0.000000000000000E+000
  0.000000000000000E+000
  0.000000000000000E+000
  0.000000000000000E+000
  0.000000000000000E+000
  0.000000000000000E+000
  0.000000000000000E+000
  0.000000000000000E+000
  0.000000000000000E+000
  0.000000000000000E+000
  0.000000000000000E+000
  0.000000000000000E+000
  0.000000000000000E+000
  0.000000000000000E+000
  0.000000000000000E+000
  0.000000000000000E+000
  0.000000000000000E+000
  0.000000000000000E+000
  0.000000000000000E+000
  0.000000000000000E+000
  0.000000000000000E+000
  0.000000000000000E+000
  0.000000000000000E+000
  0.000000000000000E+000
  0.000000000000000E+000
  0.000000000000000E+000
  0.000000000000000E+000
  0.000000000000000E+000
  0.000000000000000E+000
  0.000000000000000E+000
  0.000000000000000E+000
  0.000000000000000E+000
  0.000000000000000E+000
  0.000000000000000E+000
  0.000000000000000E+000
  0.000000000000000E+000
  0.000000000000000E+000
  0.000000000000000E+000
  0.000000000000000E+000
  0.000000000000000E+000
  0.000000000000000E+000
  0.000000000000000E+000
  0.000000000000000E+000
  0.000000000000000E+000
  0.000000000000000E+000
  0.000000000000000E+000
  0.000000000000000E+000
  0.000000000000000E+000
  0.000000000000000E+000
  0.000000000000000E+000
  0.000000000000000E+000
  0.000000000000000E+000
  0.000000000000000E+000
  0.000000000000000E+000
  0.000000000000000E+000
  0.000000000000000E+000
  0.000000000000000E+000
  0.000000000000000E+000
  0.000000000000000E+000
  0.000000000000000E+000
  0.000000000000000E+000
  0.000000000000000E+000
  0.000000000000000E+000
  0.000000000000000E+000
  0.000000000000000E+000
  0.000000000000000E+000
  0.000000000000000E+000
  0.000000000000000E+000
  0.000000000000000E+000
  0.000000000000000E+000
  0.000000000000000E+000
  0.000000000000000E+000
  0.000000000000000E+000
  0.000000000000000E+000
  0.000000000000000E+000
  0.000000000000000E+000
  0.000000000000000E+000
  0.000000000000000E+000
  0.000000000000000E+000
  0.000000000000000E+000
  0.000000000000000E+000
  0.000000000000000E+000
  0.000000000000000E+000
  0.000000000000000E+000
  0.000000000000000E+000
  0.000000000000000E+000
  0.000000000000000E+000
  0.000000000000000E+000
  0.000000000000000E+000
  0.000000000000000E+000
  0.000000000000000E+000
  0.000000000000000E+000
  0.000000000000000E+000
  0.000000000000000E+000
  0.000000000000000E+000
  0.000000000000000E+000
  0.000000000000000E+000
  0.000000000000000E+000
  0.000000000000000E+000
  0.000000000000000E+000
  0.000000000000000E+000
  0.000000000000000E+000
  0.000000000000000E+000
  0.000000000000000E+000
  0.000000000000000E+000
  0.000000000000000E+000
  0.000000000000000E+000
  0.000000000000000E+000
  0.000000000000000E+000
  0.000000000000000E+000
  0.000000000000000E+000
  0.000000000000000E+000
  0.000000000000000E+000
  0.000000000000000E+000
  0.000000000000000E+000
  0.000000000000000E+000
  0.000000000000000E+000
  0.000000000000000E+000
  0.000000000000000E+000
  0.000000000000000E+000
  0.000000000000000E+000
  0.000000000000000E+000
  0.000000000000000E+000
  0.000000000000000E+000
  0.000000000000000E+000
  0.000000000000000E+000
  0.000000000000000E+000
  0.000000000000000E+000
  0.000000000000000E+000
  0.000000000000000E+000
  0.000000000000000E+000
  0.000000000000000E+000
  0.000000000000000E+000
  0.000000000000000E+000
  0.000000000000000E+000
  0.000000000000000E+000
  0.000000000000000E+000
  0.000000000000000E+000
  0.000000000000000E+000
  0.000000000000000E+000
  0.000000000000000E+000
  0.000000000000000E+000
  0.000000000000000E+000
  0.000000000000000E+000
  0.000000000000000E+000
  0.000000000000000E+000
  0.000000000000000E+000
  0.000000000000000E+000
  0.000000000000000E+000
  0.000000000000000E+000
  0.000000000000000E+000
  0.000000000000000E+000
  0.000000000000000E+000
  0.000000000000000E+000
  0.000000000000000E+000
  0.000000000000000E+000
  0.000000000000000E+000
  0.000000000000000E+000
  0.000000000000000E+000
  0.000000000000000E+000
  0.000000000000000E+000
  0.000000000000000E+000
  0.000000000000000E+000
  0.000000000000000E+000
  0.000000000000000E+000
  0.000000000000000E+000
  0.000000000000000E+000
  0.000000000000000E+000
  0.000000000000000E+000
  0.000000000000000E+000
  0.000000000000000E+000
  0.000000000000000E+000
  0.000000000000000E+000
  0.000000000000000E+000
  0.000000000000000E+000
  0.000000000000000E+000
  0.000000000000000E+000
  0.000000000000000E+000
  0.000000000000000E+000
  0.000000000000000E+000
  0.000000000000000E+000
  0.000000000000000E+000
  0.000000000000000E+000
  0.000000000000000E+000
  0.000000000000000E+000
  0.000000000000000E+000
  0.000000000000000E+000
  0.000000000000000E+000
  0.000000000000000E+000
  0.000000000000000E+000
  0.000000000000000E+000
  0.000000000000000E+000
  0.000000000000000E+000
  0.000000000000000E+000
  0.000000000000000E+000
  0.000000000000000E+000
  0.000000000000000E+000
  0.000000000000000E+000
  0.000000000000000E+000
  0.000000000000000E+000
  0.000000000000000E+000
  0.000000000000000E+000
  0.000000000000000E+000
  0.000000000000000E+000
  0.000000000000000E+000
  0.000000000000000E+000
  0.000000000000000E+000
  0.000000000000000E+000
  0.000000000000000E+000
  0.000000000000000E+000
  0.000000000000000E+000
  0.000000000000000E+000
  0.000000000000000E+000
  0.000000000000000E+000
  0.000000000000000E+000
  0.000000000000000E+000
  0.000000000000000E+000
  0.000000000000000E+000
  0.000000000000000E+000
  0.000000000000000E+000
  0.000000000000000E+000
  0.000000000000000E+000
  0.000000000000000E+000
  0.000000000000000E+000
  0.000000000000000E+000
  0.000000000000000E+000
  0.000000000000000E+000
  0.000000000000000E+000
  0.000000000000000E+000
  0.000000000000000E+000
  0.000000000000000E+000
  0.000000000000000E+000
  0.000000000000000E+000
  0.000000000000000E+000
  0.000000000000000E+000
  0.000000000000000E+000
  0.000000000000000E+000
  0.000000000000000E+000
  0.000000000000000E+000
  0.000000000000000E+000
  0.000000000000000E+000
  0.000000000000000E+000
  0.000000000000000E+000
  0.000000000000000E+000
  0.000000000000000E+000
  0.000000000000000E+000
  0.000000000000000E+000
  0.000000000000000E+000
  0.000000000000000E+000
  0.000000000000000E+000
  0.000000000000000E+000
  0.000000000000000E+000
  0.000000000000000E+000
  0.000000000000000E+000
  0.000000000000000E+000
  0.000000000000000E+000
  0.000000000000000E+000
  0.000000000000000E+000
  0.000000000000000E+000
  0.000000000000000E+000
  0.000000000000000E+000
  0.000000000000000E+000
  0.000000000000000E+000
  0.000000000000000E+000
  0.000000000000000E+000
  0.000000000000000E+000
  0.000000000000000E+000
  0.000000000000000E+000
  0.000000000000000E+000
  0.000000000000000E+000
  0.000000000000000E+000
  0.000000000000000E+000
  0.000000000000000E+000
  0.000000000000000E+000
  0.000000000000000E+000
  0.000000000000000E+000
  0.000000000000000E+000
  0.000000000000000E+000
  0.000000000000000E+000
  0.000000000000000E+000
  0.000000000000000E+000
  0.000000000000000E+000
  0.000000000000000E+000
  0.000000000000000E+000
  0.000000000000000E+000
  0.000000000000000E+000
  0.000000000000000E+000
  0.000000000000000E+000
  0.000000000000000E+000
  0.000000000000000E+000
  0.000000000000000E+000
  0.000000000000000E+000
  0.000000000000000E+000
  0.000000000000000E+000
  0.000000000000000E+000
  0.000000000000000E+000
  0.000000000000000E+000
  0.000000000000000E+000
  0.000000000000000E+000
  0.000000000000000E+000
  0.000000000000000E+000
  0.000000000000000E+000
  0.000000000000000E+000
  0.000000000000000E+000
  0.000000000000000E+000
  0.000000000000000E+000
  0.000000000000000E+000
  0.000000000000000E+000
  0.000000000000000E+000
  0.000000000000000E+000
  0.000000000000000E+000
  0.000000000000000E+000
  0.000000000000000E+000
  0.000000000000000E+000
  0.000000000000000E+000
  0.000000000000000E+000
  0.000000000000000E+000
  0.000000000000000E+000
  0.000000000000000E+000
  0.000000000000000E+000
  0.000000000000000E+000
  0.000000000000000E+000
  0.000000000000000E+000
  0.000000000000000E+000
  0.000000000000000E+000
  0.000000000000000E+000
  0.000000000000000E+000
  0.000000000000000E+000
  0.000000000000000E+000
  0.000000000000000E+000
  0.000000000000000E+000
  0.000000000000000E+000
  0.000000000000000E+000
  0.000000000000000E+000
  0.000000000000000E+000
  0.000000000000000E+000
  0.000000000000000E+000
  0.000000000000000E+000
  0.000000000000000E+000
  0.000000000000000E+000
  0.000000000000000E+000
  0.000000000000000E+000
  0.000000000000000E+000
  0.000000000000000E+000
  0.000000000000000E+000
  0.000000000000000E+000
  0.000000000000000E+000
  0.000000000000000E+000
  0.000000000000000E+000
  0.000000000000000E+000
  0.000000000000000E+000
  0.000000000000000E+000
  0.000000000000000E+000
  0.000000000000000E+000
  0.000000000000000E+000
  0.000000000000000E+000
  0.000000000000000E+000
  0.000000000000000E+000
  0.000000000000000E+000
  0.000000000000000E+000
  0.000000000000000E+000
  0.000000000000000E+000
  0.000000000000000E+000
  0.000000000000000E+000
  0.000000000000000E+000
  0.000000000000000E+000
  0.000000000000000E+000
  0.000000000000000E+000
  0.000000000000000E+000
  0.000000000000000E+000
  0.000000000000000E+000
  0.000000000000000E+000
  0.000000000000000E+000
  0.000000000000000E+000
  0.000000000000000E+000
  0.000000000000000E+000
  0.000000000000000E+000
  0.000000000000000E+000
  0.000000000000000E+000
  0.000000000000000E+000
  0.000000000000000E+000
  0.000000000000000E+000
  0.000000000000000E+000
  0.000000000000000E+000
  0.000000000000000E+000
  0.000000000000000E+000
  0.000000000000000E+000
  0.000000000000000E+000
  0.000000000000000E+000
  0.000000000000000E+000
  0.000000000000000E+000
  0.000000000000000E+000
  0.000000000000000E+000
  0.000000000000000E+000
  0.000000000000000E+000
  0.000000000000000E+000
  0.000000000000000E+000
  0.000000000000000E+000
  0.000000000000000E+000
  0.000000000000000E+000
  0.000000000000000E+000
  0.000000000000000E+000
  0.000000000000000E+000
  0.000000000000000E+000
  0.000000000000000E+000
  0.000000000000000E+000
  0.000000000000000E+000
  0.000000000000000E+000
  0.000000000000000E+000
  0.000000000000000E+000
  0.000000000000000E+000
  0.000000000000000E+000
  0.000000000000000E+000
  0.000000000000000E+000
  0.000000000000000E+000
  0.000000000000000E+000
  0.000000000000000E+000
  0.000000000000000E+000
  0.000000000000000E+000
  0.000000000000000E+000
  0.000000000000000E+000
  0.000000000000000E+000
  0.000000000000000E+000
  0.000000000000000E+000
  0.000000000000000E+000
  0.000000000000000E+000
  0.000000000000000E+000
  0.000000000000000E+000
  0.000000000000000E+000
  0.000000000000000E+000
  0.000000000000000E+000
  0.000000000000000E+000
  0.000000000000000E+000
  0.000000000000000E+000
  0.000000000000000E+000
  0.000000000000000E+000
  0.000000000000000E+000
  0.000000000000000E+000
  0.000000000000000E+000
  0.000000000000000E+000
  0.000000000000000E+000
  0.000000000000000E+000
  0.000000000000000E+000
  0.000000000000000E+000
  0.000000000000000E+000
  0.000000000000000E+000
  0.000000000000000E+000
  0.000000000000000E+000
  0.000000000000000E+000
  0.000000000000000E+000
  0.000000000000000E+000
  0.000000000000000E+000
  0.000000000000000E+000
  0.000000000000000E+000
  0.000000000000000E+000
  0.000000000000000E+000
  0.000000000000000E+000
  0.000000000000000E+000
  0.000000000000000E+000
  0.000000000000000E+000
  0.000000000000000E+000
  0.000000000000000E+000
  0.000000000000000E+000
  0.000000000000000E+000
  0.000000000000000E+000
  0.000000000000000E+000
  0.000000000000000E+000
  0.000000000000000E+000
  0.000000000000000E+000
  0.000000000000000E+000
  0.000000000000000E+000
  0.000000000000000E+000
  0.000000000000000E+000
  0.000000000000000E+000
  0.000000000000000E+000
  0.000000000000000E+000
  0.000000000000000E+000
  0.000000000000000E+000
  0.000000000000000E+000
  0.000000000000000E+000
  0.000000000000000E+000
  0.000000000000000E+000
  0.000000000000000E+000
  0.000000000000000E+000
  0.000000000000000E+000
  0.000000000000000E+000
  0.000000000000000E+000
  0.000000000000000E+000
  0.000000000000000E+000
  0.000000000000000E+000
  0.000000000000000E+000
  0.000000000000000E+000
  0.000000000000000E+000
  0.000000000000000E+000
  0.000000000000000E+000
  0.000000000000000E+000
  0.000000000000000E+000
  0.000000000000000E+000
  0.000000000000000E+000
  0.000000000000000E+000
  0.000000000000000E+000
  0.000000000000000E+000
  0.000000000000000E+000
  0.000000000000000E+000
  0.000000000000000E+000
  0.000000000000000E+000
  0.000000000000000E+000
  0.000000000000000E+000
  0.000000000000000E+000
  0.000000000000000E+000
  0.000000000000000E+000
  0.000000000000000E+000
  0.000000000000000E+000
  0.000000000000000E+000
  0.000000000000000E+000
  0.000000000000000E+000
  0.000000000000000E+000
  0.000000000000000E+000
  0.000000000000000E+000
  0.000000000000000E+000
  0.000000000000000E+000
  0.000000000000000E+000
  0.000000000000000E+000
  0.000000000000000E+000
  0.000000000000000E+000
  0.000000000000000E+000
  0.000000000000000E+000
  0.000000000000000E+000
  0.000000000000000E+000
  0.000000000000000E+000
  0.000000000000000E+000
  0.000000000000000E+000
  0.000000000000000E+000
  0.000000000000000E+000
  0.000000000000000E+000
  0.000000000000000E+000
  0.000000000000000E+000
  0.000000000000000E+000
  0.000000000000000E+000
  0.000000000000000E+000
  0.000000000000000E+000
  0.000000000000000E+000
  0.000000000000000E+000
  0.000000000000000E+000
  0.000000000000000E+000
  0.000000000000000E+000
  0.000000000000000E+000
  0.000000000000000E+000
  0.000000000000000E+000
  0.000000000000000E+000
  0.000000000000000E+000
  0.000000000000000E+000
  0.000000000000000E+000
  0.000000000000000E+000
  0.000000000000000E+000
  0.000000000000000E+000
  0.000000000000000E+000
  0.000000000000000E+000
  0.000000000000000E+000
  0.000000000000000E+000
  0.000000000000000E+000
  0.000000000000000E+000
  0.000000000000000E+000
  0.000000000000000E+000
  0.000000000000000E+000
  0.000000000000000E+000
  0.000000000000000E+000
  0.000000000000000E+000
  0.000000000000000E+000
  0.000000000000000E+000
  0.000000000000000E+000
  0.000000000000000E+000
  0.000000000000000E+000
  0.000000000000000E+000
  0.000000000000000E+000
  0.000000000000000E+000
  0.000000000000000E+000
  0.000000000000000E+000
  0.000000000000000E+000
  0.000000000000000E+000
  0.000000000000000E+000
  0.000000000000000E+000
  0.000000000000000E+000
  0.000000000000000E+000
  0.000000000000000E+000
  0.000000000000000E+000
  0.000000000000000E+000
  0.000000000000000E+000
  0.000000000000000E+000
  0.000000000000000E+000
  0.000000000000000E+000
  0.000000000000000E+000
  0.000000000000000E+000
  0.000000000000000E+000
  0.000000000000000E+000
  0.000000000000000E+000
  0.000000000000000E+000
  0.000000000000000E+000
  0.000000000000000E+000
  0.000000000000000E+000
  0.000000000000000E+000
  0.000000000000000E+000
  0.000000000000000E+000
  0.000000000000000E+000
  0.000000000000000E+000
  0.000000000000000E+000
  0.000000000000000E+000
  0.000000000000000E+000
  0.000000000000000E+000
  0.000000000000000E+000
  0.000000000000000E+000
  0.000000000000000E+000
  0.000000000000000E+000
  0.000000000000000E+000
  0.000000000000000E+000
  0.000000000000000E+000
  0.000000000000000E+000
  0.000000000000000E+000
  0.000000000000000E+000
  0.000000000000000E+000
  0.000000000000000E+000
  0.000000000000000E+000
  0.000000000000000E+000
  0.000000000000000E+000
  0.000000000000000E+000
  0.000000000000000E+000
  0.000000000000000E+000
  0.000000000000000E+000
  0.000000000000000E+000
  0.000000000000000E+000
  0.000000000000000E+000
  0.000000000000000E+000
  0.000000000000000E+000
  0.000000000000000E+000
  0.000000000000000E+000
  0.000000000000000E+000
  0.000000000000000E+000
  0.000000000000000E+000
  0.000000000000000E+000
  0.000000000000000E+000
  0.000000000000000E+000
  0.000000000000000E+000
  0.000000000000000E+000
  0.000000000000000E+000
  0.000000000000000E+000
  0.000000000000000E+000
  0.000000000000000E+000
  0.000000000000000E+000
  0.000000000000000E+000
  0.000000000000000E+000
  0.000000000000000E+000
  0.000000000000000E+000
  0.000000000000000E+000
  0.000000000000000E+000
  0.000000000000000E+000
  0.000000000000000E+000
  0.000000000000000E+000
  0.000000000000000E+000
  0.000000000000000E+000
  0.000000000000000E+000
  0.000000000000000E+000
  0.000000000000000E+000
  0.000000000000000E+000
  0.000000000000000E+000
  0.000000000000000E+000
  0.000000000000000E+000
  0.000000000000000E+000
  0.000000000000000E+000
  0.000000000000000E+000
  0.000000000000000E+000
  0.000000000000000E+000
  0.000000000000000E+000
  0.000000000000000E+000
  0.000000000000000E+000
  0.000000000000000E+000
  0.000000000000000E+000
  0.000000000000000E+000
  0.000000000000000E+000
  0.000000000000000E+000
  0.000000000000000E+000
  0.000000000000000E+000
  0.000000000000000E+000
  0.000000000000000E+000
  0.000000000000000E+000
  0.000000000000000E+000
  0.000000000000000E+000
  0.000000000000000E+000
  0.000000000000000E+000
  0.000000000000000E+000
  0.000000000000000E+000
  0.000000000000000E+000
  0.000000000000000E+000
  0.000000000000000E+000
  0.000000000000000E+000
  0.000000000000000E+000
  0.000000000000000E+000
  0.000000000000000E+000
  0.000000000000000E+000
  0.000000000000000E+000
  0.000000000000000E+000
  0.000000000000000E+000
  0.000000000000000E+000
  0.000000000000000E+000
  0.000000000000000E+000
  0.000000000000000E+000
  0.000000000000000E+000
  0.000000000000000E+000
  0.000000000000000E+000
  0.000000000000000E+000
  0.000000000000000E+000
  0.000000000000000E+000
  0.000000000000000E+000
  0.000000000000000E+000
  0.000000000000000E+000
  0.000000000000000E+000
  0.000000000000000E+000
  0.000000000000000E+000
  0.000000000000000E+000
  0.000000000000000E+000
  0.000000000000000E+000
  0.000000000000000E+000
  0.000000000000000E+000
  0.000000000000000E+000
  0.000000000000000E+000
  0.000000000000000E+000
  0.000000000000000E+000
  0.000000000000000E+000
  0.000000000000000E+000
  0.000000000000000E+000
  0.000000000000000E+000
  0.000000000000000E+000
  0.000000000000000E+000
  0.000000000000000E+000
  0.000000000000000E+000
  0.000000000000000E+000
  0.000000000000000E+000
  0.000000000000000E+000
  0.000000000000000E+000
  0.000000000000000E+000
  0.000000000000000E+000
  0.000000000000000E+000
  0.000000000000000E+000
  0.000000000000000E+000
  0.000000000000000E+000
  0.000000000000000E+000
  0.000000000000000E+000
  0.000000000000000E+000
  0.000000000000000E+000
  0.000000000000000E+000
  0.000000000000000E+000
  0.000000000000000E+000
  0.000000000000000E+000
  0.000000000000000E+000
  0.000000000000000E+000
  0.000000000000000E+000
  0.000000000000000E+000
  0.000000000000000E+000
  0.000000000000000E+000
  0.000000000000000E+000
  0.000000000000000E+000
  0.000000000000000E+000
  0.000000000000000E+000
  0.000000000000000E+000
  0.000000000000000E+000
  0.000000000000000E+000
  0.000000000000000E+000
  0.000000000000000E+000
  0.000000000000000E+000
  0.000000000000000E+000
  0.000000000000000E+000
  0.000000000000000E+000
  0.000000000000000E+000
  0.000000000000000E+000
  0.000000000000000E+000
  0.000000000000000E+000
  0.000000000000000E+000
  0.000000000000000E+000
  0.000000000000000E+000
  0.000000000000000E+000
  0.000000000000000E+000
  0.000000000000000E+000
  0.000000000000000E+000
  0.000000000000000E+000
  0.000000000000000E+000
  0.000000000000000E+000
  0.000000000000000E+000
  0.000000000000000E+000
  0.000000000000000E+000
  0.000000000000000E+000
  0.000000000000000E+000
  0.000000000000000E+000
  0.000000000000000E+000
  0.000000000000000E+000
  0.000000000000000E+000
  0.000000000000000E+000
  0.000000000000000E+000
  0.000000000000000E+000
  0.000000000000000E+000
  0.000000000000000E+000
  0.000000000000000E+000
  0.000000000000000E+000
  0.000000000000000E+000
  0.000000000000000E+000
  0.000000000000000E+000
  0.000000000000000E+000
  0.000000000000000E+000
  0.000000000000000E+000
  0.000000000000000E+000
  0.000000000000000E+000
  0.000000000000000E+000
  0.000000000000000E+000
  0.000000000000000E+000
  0.000000000000000E+000
  0.000000000000000E+000
  0.000000000000000E+000
  0.000000000000000E+000
  0.000000000000000E+000
  0.000000000000000E+000
  0.000000000000000E+000
  0.000000000000000E+000
  0.000000000000000E+000
  0.000000000000000E+000
  0.000000000000000E+000
  0.000000000000000E+000
  0.000000000000000E+000
  0.000000000000000E+000
  0.000000000000000E+000
  0.000000000000000E+000
  0.000000000000000E+000
  0.000000000000000E+000
  0.000000000000000E+000
  0.000000000000000E+000
  0.000000000000000E+000
  0.000000000000000E+000
  0.000000000000000E+000
  0.000000000000000E+000
  0.000000000000000E+000
  0.000000000000000E+000
  0.000000000000000E+000
  0.000000000000000E+000
  0.000000000000000E+000
  0.000000000000000E+000
  0.000000000000000E+000
  0.000000000000000E+000
  0.000000000000000E+000
  0.000000000000000E+000
  0.000000000000000E+000
  0.000000000000000E+000
  0.000000000000000E+000
  0.000000000000000E+000
  0.000000000000000E+000
  0.000000000000000E+000
  0.000000000000000E+000
  0.000000000000000E+000
  0.000000000000000E+000
  0.000000000000000E+000
  0.000000000000000E+000
  0.000000000000000E+000
  0.000000000000000E+000
  0.000000000000000E+000
  0.000000000000000E+000
  0.000000000000000E+000
  0.000000000000000E+000
  0.000000000000000E+000
  0.000000000000000E+000
  0.000000000000000E+000
  0.000000000000000E+000
  0.000000000000000E+000
  0.000000000000000E+000
  0.000000000000000E+000
  0.000000000000000E+000
  0.000000000000000E+000
  0.000000000000000E+000
  0.000000000000000E+000
  0.000000000000000E+000
  0.000000000000000E+000
  0.000000000000000E+000
  0.000000000000000E+000
  0.000000000000000E+000
  0.000000000000000E+000
  0.000000000000000E+000
  0.000000000000000E+000
  0.000000000000000E+000
  0.000000000000000E+000
  0.000000000000000E+000
  0.000000000000000E+000
  0.000000000000000E+000
  0.000000000000000E+000
  0.000000000000000E+000
  0.000000000000000E+000
  0.000000000000000E+000
  0.000000000000000E+000
  0.000000000000000E+000
  0.000000000000000E+000
  0.000000000000000E+000
  0.000000000000000E+000
  0.000000000000000E+000
  0.000000000000000E+000
  0.000000000000000E+000
  0.000000000000000E+000
  0.000000000000000E+000
  0.000000000000000E+000
  0.000000000000000E+000
  0.000000000000000E+000
  0.000000000000000E+000
  0.000000000000000E+000
  0.000000000000000E+000
  0.000000000000000E+000
  0.000000000000000E+000
  0.000000000000000E+000
  0.000000000000000E+000
  0.000000000000000E+000
  0.000000000000000E+000
  0.000000000000000E+000
  0.000000000000000E+000
  0.000000000000000E+000
  0.000000000000000E+000
  0.000000000000000E+000
  0.000000000000000E+000
  0.000000000000000E+000
  0.000000000000000E+000
  0.000000000000000E+000
  0.000000000000000E+000
  0.000000000000000E+000
  0.000000000000000E+000
  0.000000000000000E+000
  0.000000000000000E+000
  0.000000000000000E+000
  0.000000000000000E+000
  0.000000000000000E+000
  0.000000000000000E+000
  0.000000000000000E+000
  0.000000000000000E+000
  0.000000000000000E+000
  0.000000000000000E+000
  0.000000000000000E+000
  0.000000000000000E+000
  0.000000000000000E+000
  0.000000000000000E+000
  0.000000000000000E+000
  0.000000000000000E+000
  0.000000000000000E+000
  0.000000000000000E+000
  0.000000000000000E+000
  0.000000000000000E+000
  0.000000000000000E+000
  0.000000000000000E+000
  0.000000000000000E+000
  0.000000000000000E+000
  0.000000000000000E+000
  0.000000000000000E+000
  0.000000000000000E+000
  0.000000000000000E+000
  0.000000000000000E+000
  0.000000000000000E+000
  0.000000000000000E+000
  0.000000000000000E+000
  0.000000000000000E+000
  0.000000000000000E+000
  0.000000000000000E+000
  0.000000000000000E+000
  0.000000000000000E+000
  0.000000000000000E+000
  0.000000000000000E+000
  0.000000000000000E+000
  0.000000000000000E+000
  0.000000000000000E+000
  0.000000000000000E+000
  0.000000000000000E+000
  0.000000000000000E+000
  0.000000000000000E+000
  0.000000000000000E+000
  0.000000000000000E+000
  0.000000000000000E+000
  0.000000000000000E+000
  0.000000000000000E+000
  0.000000000000000E+000
  0.000000000000000E+000
  0.000000000000000E+000
  0.000000000000000E+000
  0.000000000000000E+000
  0.000000000000000E+000
  0.000000000000000E+000
  0.000000000000000E+000
  0.000000000000000E+000
  0.000000000000000E+000
  0.000000000000000E+000
  0.000000000000000E+000
  0.000000000000000E+000
  0.000000000000000E+000
  0.000000000000000E+000
  0.000000000000000E+000
  0.000000000000000E+000
  0.000000000000000E+000
  0.000000000000000E+000
  0.000000000000000E+000
  0.000000000000000E+000
  0.000000000000000E+000
  0.000000000000000E+000
  0.000000000000000E+000
  0.000000000000000E+000
  0.000000000000000E+000
  0.000000000000000E+000
  0.000000000000000E+000
  0.000000000000000E+000
  0.000000000000000E+000
  0.000000000000000E+000
  0.000000000000000E+000
  0.000000000000000E+000
  0.000000000000000E+000
  0.000000000000000E+000
  0.000000000000000E+000
  0.000000000000000E+000
  0.000000000000000E+000
  0.000000000000000E+000
  0.000000000000000E+000
  0.000000000000000E+000
  0.000000000000000E+000
  0.000000000000000E+000
  0.000000000000000E+000
  0.000000000000000E+000
  0.000000000000000E+000
  0.000000000000000E+000
  0.000000000000000E+000
  0.000000000000000E+000
  0.000000000000000E+000
  0.000000000000000E+000
  0.000000000000000E+000
  0.000000000000000E+000
  0.000000000000000E+000
  0.000000000000000E+000
  0.000000000000000E+000
  0.000000000000000E+000
  0.000000000000000E+000
  0.000000000000000E+000
  0.000000000000000E+000
  0.000000000000000E+000
  0.000000000000000E+000
  0.000000000000000E+000
  0.000000000000000E+000
  0.000000000000000E+000
  0.000000000000000E+000
  0.000000000000000E+000
  0.000000000000000E+000
  0.000000000000000E+000
  0.000000000000000E+000
  0.000000000000000E+000
  0.000000000000000E+000
  0.000000000000000E+000
  0.000000000000000E+000
  0.000000000000000E+000
  0.000000000000000E+000
  0.000000000000000E+000
  0.000000000000000E+000
  0.000000000000000E+000
  0.000000000000000E+000
  0.000000000000000E+000
  0.000000000000000E+000
  0.000000000000000E+000
  0.000000000000000E+000
  0.000000000000000E+000
  0.000000000000000E+000
  0.000000000000000E+000
  0.000000000000000E+000
  0.000000000000000E+000
  0.000000000000000E+000
  0.000000000000000E+000
  0.000000000000000E+000
  0.000000000000000E+000
  0.000000000000000E+000
  0.000000000000000E+000
  0.000000000000000E+000
  0.000000000000000E+000
  0.000000000000000E+000
  0.000000000000000E+000
  0.000000000000000E+000
  0.000000000000000E+000
  0.000000000000000E+000
  0.000000000000000E+000
  0.000000000000000E+000
  0.000000000000000E+000
  0.000000000000000E+000
  0.000000000000000E+000
  0.000000000000000E+000
  0.000000000000000E+000
  0.000000000000000E+000
  0.000000000000000E+000
  0.000000000000000E+000
  0.000000000000000E+000
  0.000000000000000E+000
  0.000000000000000E+000
  0.000000000000000E+000
  0.000000000000000E+000
  0.000000000000000E+000
  0.000000000000000E+000
  0.000000000000000E+000
  0.000000000000000E+000
  0.000000000000000E+000
  0.000000000000000E+000
  0.000000000000000E+000
  0.000000000000000E+000
  0.000000000000000E+000
  0.000000000000000E+000
  0.000000000000000E+000
  0.000000000000000E+000
  0.000000000000000E+000
  0.000000000000000E+000
  0.000000000000000E+000
  0.000000000000000E+000
  0.000000000000000E+000
  0.000000000000000E+000
  0.000000000000000E+000
  0.000000000000000E+000
  0.000000000000000E+000
  0.000000000000000E+000
  0.000000000000000E+000
  0.000000000000000E+000
  0.000000000000000E+000
  0.000000000000000E+000
  0.000000000000000E+000
  0.000000000000000E+000
  0.000000000000000E+000
  0.000000000000000E+000
  0.000000000000000E+000
  0.000000000000000E+000
  0.000000000000000E+000
  0.000000000000000E+000
  0.000000000000000E+000
  0.000000000000000E+000
  0.000000000000000E+000
  0.000000000000000E+000
  0.000000000000000E+000
  0.000000000000000E+000
  0.000000000000000E+000
  0.000000000000000E+000
  0.000000000000000E+000
  0.000000000000000E+000
  0.000000000000000E+000
  0.000000000000000E+000
  0.000000000000000E+000
  0.000000000000000E+000
  0.000000000000000E+000
  0.000000000000000E+000
  0.000000000000000E+000
  0.000000000000000E+000
  0.000000000000000E+000
  0.000000000000000E+000
  0.000000000000000E+000
  0.000000000000000E+000
  0.000000000000000E+000
  0.000000000000000E+000
  0.000000000000000E+000
  0.000000000000000E+000
  0.000000000000000E+000
  0.000000000000000E+000
  0.000000000000000E+000
  0.000000000000000E+000
  0.000000000000000E+000
  0.000000000000000E+000
  0.000000000000000E+000
  0.000000000000000E+000
  0.000000000000000E+000
  0.000000000000000E+000
  0.000000000000000E+000
  0.000000000000000E+000
  0.000000000000000E+000
  0.000000000000000E+000
  0.000000000000000E+000
  0.000000000000000E+000
  0.000000000000000E+000
  0.000000000000000E+000
  0.000000000000000E+000
  0.000000000000000E+000
  0.000000000000000E+000
  0.000000000000000E+000
  0.000000000000000E+000
  0.000000000000000E+000
  0.000000000000000E+000
  0.000000000000000E+000
  0.000000000000000E+000
  0.000000000000000E+000
  0.000000000000000E+000
  0.000000000000000E+000
  0.000000000000000E+000
  0.000000000000000E+000
  0.000000000000000E+000
  0.000000000000000E+000
  0.000000000000000E+000
  0.000000000000000E+000
  0.000000000000000E+000
  0.000000000000000E+000
  0.000000000000000E+000
  0.000000000000000E+000
  0.000000000000000E+000
  0.000000000000000E+000
  0.000000000000000E+000
  0.000000000000000E+000
  0.000000000000000E+000
  0.000000000000000E+000
  0.000000000000000E+000
  0.000000000000000E+000
  0.000000000000000E+000
  0.000000000000000E+000
  0.000000000000000E+000
  0.000000000000000E+000
  0.000000000000000E+000
  0.000000000000000E+000
  0.000000000000000E+000
  0.000000000000000E+000
  0.000000000000000E+000
  0.000000000000000E+000
  0.000000000000000E+000
  0.000000000000000E+000
  0.000000000000000E+000
  0.000000000000000E+000
  0.000000000000000E+000
  0.000000000000000E+000
  0.000000000000000E+000
  0.000000000000000E+000
  0.000000000000000E+000
  0.000000000000000E+000
  0.000000000000000E+000
  0.000000000000000E+000
  0.000000000000000E+000
  0.000000000000000E+000
  0.000000000000000E+000
  0.000000000000000E+000
  0.000000000000000E+000
  0.000000000000000E+000
  0.000000000000000E+000
  0.000000000000000E+000
  0.000000000000000E+000
  0.000000000000000E+000
  0.000000000000000E+000
  0.000000000000000E+000
  0.000000000000000E+000
  0.000000000000000E+000
  0.000000000000000E+000
  0.000000000000000E+000
  0.000000000000000E+000
  0.000000000000000E+000
  0.000000000000000E+000
  0.000000000000000E+000
  0.000000000000000E+000
  0.000000000000000E+000
  0.000000000000000E+000
  0.000000000000000E+000
  0.000000000000000E+000
  0.000000000000000E+000
  0.000000000000000E+000
  0.000000000000000E+000
  0.000000000000000E+000
  0.000000000000000E+000
  0.000000000000000E+000
  0.000000000000000E+000
  0.000000000000000E+000
  0.000000000000000E+000
  0.000000000000000E+000
  0.000000000000000E+000
  0.000000000000000E+000
  0.000000000000000E+000
  0.000000000000000E+000
  0.000000000000000E+000
  0.000000000000000E+000
  0.000000000000000E+000
  0.000000000000000E+000
  0.000000000000000E+000
  0.000000000000000E+000
  0.000000000000000E+000
  0.000000000000000E+000
  0.000000000000000E+000
  0.000000000000000E+000
  0.000000000000000E+000
  0.000000000000000E+000
  0.000000000000000E+000
  0.000000000000000E+000
  0.000000000000000E+000
  0.000000000000000E+000
  0.000000000000000E+000
  0.000000000000000E+000
  0.000000000000000E+000
  0.000000000000000E+000
  0.000000000000000E+000
  0.000000000000000E+000
  0.000000000000000E+000
  0.000000000000000E+000
  0.000000000000000E+000
  0.000000000000000E+000
  0.000000000000000E+000
  0.000000000000000E+000
  0.000000000000000E+000
  0.000000000000000E+000
  0.000000000000000E+000
  0.000000000000000E+000
  0.000000000000000E+000
  0.000000000000000E+000
  0.000000000000000E+000
  0.000000000000000E+000
  0.000000000000000E+000
  0.000000000000000E+000
  0.000000000000000E+000
  0.000000000000000E+000
  0.000000000000000E+000
  0.000000000000000E+000
  0.000000000000000E+000
  0.000000000000000E+000
  0.000000000000000E+000
  0.000000000000000E+000
  0.000000000000000E+000
  0.000000000000000E+000
  0.000000000000000E+000
  0.000000000000000E+000
  0.000000000000000E+000
  0.000000000000000E+000
  0.000000000000000E+000
  0.000000000000000E+000
  0.000000000000000E+000
  0.000000000000000E+000
  0.000000000000000E+000
  0.000000000000000E+000
  0.000000000000000E+000
  0.000000000000000E+000
  0.000000000000000E+000
  0.000000000000000E+000
  0.000000000000000E+000
  0.000000000000000E+000
  0.000000000000000E+000
  0.000000000000000E+000
  0.000000000000000E+000
  0.000000000000000E+000
  0.000000000000000E+000
  0.000000000000000E+000
  0.000000000000000E+000
  0.000000000000000E+000
  0.000000000000000E+000
  0.000000000000000E+000
  0.000000000000000E+000
  0.000000000000000E+000
  0.000000000000000E+000
  0.000000000000000E+000
  0.000000000000000E+000
  0.000000000000000E+000
  0.000000000000000E+000
  0.000000000000000E+000
  0.000000000000000E+000
  0.000000000000000E+000
  0.000000000000000E+000
  0.000000000000000E+000
  0.000000000000000E+000
  0.000000000000000E+000
  0.000000000000000E+000
  0.000000000000000E+000
  0.000000000000000E+000
  0.000000000000000E+000
  0.000000000000000E+000
  0.000000000000000E+000
  0.000000000000000E+000
  0.000000000000000E+000
  0.000000000000000E+000
  0.000000000000000E+000
  0.000000000000000E+000
  0.000000000000000E+000
  0.000000000000000E+000
  0.000000000000000E+000
  0.000000000000000E+000
  0.000000000000000E+000
  0.000000000000000E+000
  0.000000000000000E+000
  0.000000000000000E+000
  0.000000000000000E+000
  0.000000000000000E+000
  0.000000000000000E+000
  0.000000000000000E+000
  0.000000000000000E+000
  0.000000000000000E+000
  0.000000000000000E+000
  0.000000000000000E+000
  0.000000000000000E+000
  0.000000000000000E+000
  0.000000000000000E+000
  0.000000000000000E+000
  0.000000000000000E+000
  0.000000000000000E+000
  0.000000000000000E+000
  0.000000000000000E+000
  0.000000000000000E+000
  0.000000000000000E+000
  0.000000000000000E+000
  0.000000000000000E+000
  0.000000000000000E+000
  0.000000000000000E+000
  0.000000000000000E+000
  0.000000000000000E+000
  0.000000000000000E+000
  0.000000000000000E+000
  0.000000000000000E+000
  0.000000000000000E+000
  0.000000000000000E+000
  0.000000000000000E+000
  0.000000000000000E+000
  0.000000000000000E+000
  0.000000000000000E+000
  0.000000000000000E+000
  0.000000000000000E+000
  0.000000000000000E+000
  0.000000000000000E+000
  0.000000000000000E+000
  0.000000000000000E+000
  0.000000000000000E+000
  0.000000000000000E+000
  0.000000000000000E+000
  0.000000000000000E+000
  0.000000000000000E+000
  0.000000000000000E+000
  0.000000000000000E+000
  0.000000000000000E+000
  0.000000000000000E+000
  0.000000000000000E+000
  0.000000000000000E+000
  0.000000000000000E+000
  0.000000000000000E+000
  0.000000000000000E+000
  0.000000000000000E+000
  0.000000000000000E+000
  0.000000000000000E+000
  0.000000000000000E+000
  0.000000000000000E+000
  0.000000000000000E+000
  0.000000000000000E+000
  0.000000000000000E+000
  0.000000000000000E+000
  0.000000000000000E+000
  0.000000000000000E+000
  0.000000000000000E+000
  0.000000000000000E+000
  0.000000000000000E+000
  0.000000000000000E+000
  0.000000000000000E+000
  0.000000000000000E+000
  0.000000000000000E+000
  0.000000000000000E+000
  0.000000000000000E+000
  0.000000000000000E+000
  0.000000000000000E+000
  0.000000000000000E+000
  0.000000000000000E+000
  0.000000000000000E+000
  0.000000000000000E+000
  0.000000000000000E+000
  0.000000000000000E+000
  0.000000000000000E+000
  0.000000000000000E+000
  0.000000000000000E+000
  0.000000000000000E+000
  0.000000000000000E+000
  0.000000000000000E+000
  0.000000000000000E+000
  0.000000000000000E+000
  0.000000000000000E+000
  0.000000000000000E+000
  0.000000000000000E+000
  0.000000000000000E+000
  0.000000000000000E+000
  0.000000000000000E+000
  0.000000000000000E+000
  0.000000000000000E+000
  0.000000000000000E+000
  0.000000000000000E+000
  0.000000000000000E+000
  0.000000000000000E+000
  0.000000000000000E+000
  0.000000000000000E+000
  0.000000000000000E+000
  0.000000000000000E+000
  0.000000000000000E+000
  0.000000000000000E+000
  0.000000000000000E+000
  0.000000000000000E+000
  0.000000000000000E+000
  0.000000000000000E+000
  0.000000000000000E+000
  0.000000000000000E+000
  0.000000000000000E+000
  0.000000000000000E+000
  0.000000000000000E+000
  0.000000000000000E+000
  0.000000000000000E+000
  0.000000000000000E+000
  0.000000000000000E+000
  0.000000000000000E+000
  0.000000000000000E+000
  0.000000000000000E+000
  0.000000000000000E+000
  0.000000000000000E+000
  0.000000000000000E+000
  0.000000000000000E+000
  0.000000000000000E+000
  0.000000000000000E+000
  0.000000000000000E+000
  0.000000000000000E+000
  0.000000000000000E+000
  0.000000000000000E+000
  0.000000000000000E+000
  0.000000000000000E+000
  0.000000000000000E+000
  0.000000000000000E+000
  0.000000000000000E+000
  0.000000000000000E+000
  0.000000000000000E+000
  0.000000000000000E+000
  0.000000000000000E+000
  0.000000000000000E+000
  0.000000000000000E+000
  0.000000000000000E+000
  0.000000000000000E+000
  0.000000000000000E+000
  0.000000000000000E+000
  0.000000000000000E+000
  0.000000000000000E+000
  0.000000000000000E+000
  0.000000000000000E+000
  0.000000000000000E+000
  0.000000000000000E+000
  0.000000000000000E+000
  0.000000000000000E+000
  0.000000000000000E+000
  0.000000000000000E+000
  0.000000000000000E+000
  0.000000000000000E+000
  0.000000000000000E+000
  0.000000000000000E+000
  0.000000000000000E+000
  0.000000000000000E+000
  0.000000000000000E+000
  0.000000000000000E+000
  0.000000000000000E+000
  0.000000000000000E+000
  0.000000000000000E+000
  0.000000000000000E+000
  0.000000000000000E+000
  0.000000000000000E+000
  0.000000000000000E+000
  0.000000000000000E+000
  0.000000000000000E+000
  0.000000000000000E+000
  0.000000000000000E+000
  0.000000000000000E+000
  0.000000000000000E+000
  0.000000000000000E+000
  0.000000000000000E+000
  0.000000000000000E+000
  0.000000000000000E+000
  0.000000000000000E+000
  0.000000000000000E+000
  0.000000000000000E+000
  0.000000000000000E+000
  0.000000000000000E+000
  0.000000000000000E+000
  0.000000000000000E+000
  0.000000000000000E+000
  0.000000000000000E+000
  0.000000000000000E+000
  0.000000000000000E+000
  0.000000000000000E+000
  0.000000000000000E+000
  0.000000000000000E+000
  0.000000000000000E+000
  0.000000000000000E+000
  0.000000000000000E+000
  0.000000000000000E+000
  0.000000000000000E+000
  0.000000000000000E+000
  0.000000000000000E+000
  0.000000000000000E+000
  0.000000000000000E+000
  0.000000000000000E+000
  0.000000000000000E+000
  0.000000000000000E+000
  0.000000000000000E+000
  0.000000000000000E+000
  0.000000000000000E+000
  0.000000000000000E+000
  0.000000000000000E+000
  0.000000000000000E+000
  0.000000000000000E+000
  0.000000000000000E+000
  0.000000000000000E+000
  0.000000000000000E+000
  0.000000000000000E+000
  0.000000000000000E+000
  0.000000000000000E+000
  0.000000000000000E+000
  0.000000000000000E+000
  0.000000000000000E+000
  0.000000000000000E+000
  0.000000000000000E+000
  0.000000000000000E+000
  0.000000000000000E+000
  0.000000000000000E+000
  0.000000000000000E+000
  0.000000000000000E+000
  0.000000000000000E+000
  0.000000000000000E+000
  0.000000000000000E+000
  0.000000000000000E+000
  0.000000000000000E+000
  0.000000000000000E+000
  0.000000000000000E+000
  0.000000000000000E+000
  0.000000000000000E+000
  0.000000000000000E+000
  0.000000000000000E+000
  0.000000000000000E+000
  0.000000000000000E+000
  0.000000000000000E+000
  0.000000000000000E+000
  0.000000000000000E+000
  0.000000000000000E+000
  0.000000000000000E+000
  0.000000000000000E+000
  0.000000000000000E+000
  0.000000000000000E+000
  0.000000000000000E+000
  0.000000000000000E+000
  0.000000000000000E+000
  0.000000000000000E+000
  0.000000000000000E+000
  0.000000000000000E+000
  0.000000000000000E+000
  0.000000000000000E+000
  0.000000000000000E+000
  0.000000000000000E+000
  0.000000000000000E+000
  0.000000000000000E+000
  0.000000000000000E+000
  0.000000000000000E+000
  0.000000000000000E+000
  0.000000000000000E+000
  0.000000000000000E+000
  0.000000000000000E+000
  0.000000000000000E+000
  0.000000000000000E+000
  0.000000000000000E+000
  0.000000000000000E+000
  0.000000000000000E+000
  0.000000000000000E+000
  0.000000000000000E+000
  0.000000000000000E+000
  0.000000000000000E+000
  0.000000000000000E+000
  0.000000000000000E+000
  0.000000000000000E+000
  0.000000000000000E+000
  0.000000000000000E+000
  0.000000000000000E+000
  0.000000000000000E+000
  0.000000000000000E+000
  0.000000000000000E+000
  0.000000000000000E+000
  0.000000000000000E+000
  0.000000000000000E+000
  0.000000000000000E+000
  0.000000000000000E+000
  0.000000000000000E+000
  0.000000000000000E+000
  0.000000000000000E+000
  0.000000000000000E+000
  0.000000000000000E+000
  0.000000000000000E+000
  0.000000000000000E+000
  0.000000000000000E+000
  0.000000000000000E+000
  0.000000000000000E+000
  0.000000000000000E+000
  0.000000000000000E+000
  0.000000000000000E+000
  0.000000000000000E+000
  0.000000000000000E+000
  0.000000000000000E+000
  0.000000000000000E+000
  0.000000000000000E+000
  0.000000000000000E+000
  0.000000000000000E+000
  0.000000000000000E+000
  0.000000000000000E+000
  0.000000000000000E+000
  0.000000000000000E+000
  0.000000000000000E+000
  0.000000000000000E+000
  0.000000000000000E+000
  0.000000000000000E+000
  0.000000000000000E+000
  0.000000000000000E+000
  0.000000000000000E+000
  0.000000000000000E+000
  0.000000000000000E+000
  0.000000000000000E+000
  0.000000000000000E+000
  0.000000000000000E+000
  0.000000000000000E+000
  0.000000000000000E+000
  0.000000000000000E+000
  0.000000000000000E+000
  0.000000000000000E+000
  0.000000000000000E+000
  0.000000000000000E+000
  0.000000000000000E+000
  0.000000000000000E+000
  0.000000000000000E+000
  0.000000000000000E+000
  0.000000000000000E+000
  0.000000000000000E+000
  0.000000000000000E+000
  0.000000000000000E+000
  0.000000000000000E+000
  0.000000000000000E+000
  0.000000000000000E+000
  0.000000000000000E+000
  0.000000000000000E+000
  0.000000000000000E+000
  0.000000000000000E+000
  0.000000000000000E+000
  0.000000000000000E+000
  0.000000000000000E+000
  0.000000000000000E+000
  0.000000000000000E+000
  0.000000000000000E+000
  0.000000000000000E+000
  0.000000000000000E+000
  0.000000000000000E+000
  0.000000000000000E+000
  0.000000000000000E+000
  0.000000000000000E+000
  0.000000000000000E+000
  0.000000000000000E+000
  0.000000000000000E+000
  0.000000000000000E+000
  0.000000000000000E+000
  0.000000000000000E+000
  0.000000000000000E+000
  0.000000000000000E+000
  0.000000000000000E+000
  0.000000000000000E+000
  0.000000000000000E+000
  0.000000000000000E+000
  0.000000000000000E+000
  0.000000000000000E+000
  0.000000000000000E+000
  0.000000000000000E+000
  0.000000000000000E+000
  0.000000000000000E+000
  0.000000000000000E+000
  0.000000000000000E+000
  0.000000000000000E+000
  0.000000000000000E+000
  0.000000000000000E+000
  0.000000000000000E+000
  0.000000000000000E+000
  0.000000000000000E+000
  0.000000000000000E+000
  0.000000000000000E+000
  0.000000000000000E+000
  0.000000000000000E+000
  0.000000000000000E+000
  0.000000000000000E+000
  0.000000000000000E+000
  0.000000000000000E+000
  0.000000000000000E+000
  0.000000000000000E+000
  0.000000000000000E+000
  0.000000000000000E+000
  0.000000000000000E+000
  0.000000000000000E+000
  0.000000000000000E+000
  0.000000000000000E+000
  0.000000000000000E+000
  0.000000000000000E+000
  0.000000000000000E+000
  0.000000000000000E+000
  0.000000000000000E+000
  0.000000000000000E+000
  0.000000000000000E+000
  0.000000000000000E+000
  0.000000000000000E+000
  0.000000000000000E+000
  0.000000000000000E+000
  0.000000000000000E+000
  0.000000000000000E+000
  0.000000000000000E+000
  0.000000000000000E+000
  0.000000000000000E+000
  0.000000000000000E+000
  0.000000000000000E+000
  0.000000000000000E+000
  0.000000000000000E+000
  0.000000000000000E+000
  0.000000000000000E+000
  0.000000000000000E+000
  0.000000000000000E+000
  0.000000000000000E+000
  0.000000000000000E+000
  0.000000000000000E+000
  0.000000000000000E+000
  0.000000000000000E+000
  0.000000000000000E+000
  0.000000000000000E+000
  0.000000000000000E+000
  0.000000000000000E+000
  0.000000000000000E+000
  0.000000000000000E+000
  0.000000000000000E+000
  0.000000000000000E+000
  0.000000000000000E+000
  0.000000000000000E+000
  0.000000000000000E+000
  0.000000000000000E+000
  0.000000000000000E+000
  0.000000000000000E+000
  0.000000000000000E+000
  0.000000000000000E+000
  0.000000000000000E+000
  0.000000000000000E+000
  0.000000000000000E+000
  0.000000000000000E+000
  0.000000000000000E+000
  0.000000000000000E+000
  0.000000000000000E+000
  0.000000000000000E+000
  0.000000000000000E+000
  0.000000000000000E+000
  0.000000000000000E+000
  0.000000000000000E+000
  0.000000000000000E+000
  0.000000000000000E+000
  0.000000000000000E+000
  0.000000000000000E+000
  0.000000000000000E+000
  0.000000000000000E+000
  0.000000000000000E+000
  0.000000000000000E+000
  0.000000000000000E+000
  0.000000000000000E+000
  0.000000000000000E+000
  0.000000000000000E+000
  0.000000000000000E+000
  0.000000000000000E+000
  0.000000000000000E+000
  0.000000000000000E+000
  0.000000000000000E+000
  0.000000000000000E+000
  0.000000000000000E+000
  0.000000000000000E+000
  0.000000000000000E+000
  0.000000000000000E+000
  0.000000000000000E+000
  0.000000000000000E+000
  0.000000000000000E+000
  0.000000000000000E+000
  0.000000000000000E+000
  0.000000000000000E+000
  0.000000000000000E+000
  0.000000000000000E+000
  0.000000000000000E+000
  0.000000000000000E+000
  0.000000000000000E+000
  0.000000000000000E+000
  0.000000000000000E+000
  0.000000000000000E+000
  0.000000000000000E+000
  0.000000000000000E+000
  0.000000000000000E+000
  0.000000000000000E+000
  0.000000000000000E+000
  0.000000000000000E+000
  0.000000000000000E+000
  0.000000000000000E+000
  0.000000000000000E+000
  0.000000000000000E+000
  0.000000000000000E+000
  0.000000000000000E+000
  0.000000000000000E+000
  0.000000000000000E+000
  0.000000000000000E+000
  0.000000000000000E+000
  0.000000000000000E+000
  0.000000000000000E+000
  0.000000000000000E+000
  0.000000000000000E+000
  0.000000000000000E+000
  0.000000000000000E+000
  0.000000000000000E+000
  0.000000000000000E+000
  0.000000000000000E+000
  0.000000000000000E+000
  0.000000000000000E+000
  0.000000000000000E+000
  0.000000000000000E+000
  0.000000000000000E+000
  0.000000000000000E+000
  0.000000000000000E+000
  0.000000000000000E+000
  0.000000000000000E+000
  0.000000000000000E+000
  0.000000000000000E+000
  0.000000000000000E+000
  0.000000000000000E+000
  0.000000000000000E+000
  0.000000000000000E+000
  0.000000000000000E+000
  0.000000000000000E+000
  0.000000000000000E+000
  0.000000000000000E+000
  0.000000000000000E+000
  0.000000000000000E+000
  0.000000000000000E+000
  0.000000000000000E+000
  0.000000000000000E+000
  0.000000000000000E+000
  0.000000000000000E+000
  0.000000000000000E+000
  0.000000000000000E+000
  0.000000000000000E+000
  0.000000000000000E+000
  0.000000000000000E+000
  0.000000000000000E+000
  0.000000000000000E+000
  0.000000000000000E+000
  0.000000000000000E+000
  0.000000000000000E+000
  0.000000000000000E+000
  0.000000000000000E+000
  0.000000000000000E+000
  0.000000000000000E+000
  0.000000000000000E+000
  0.000000000000000E+000
  0.000000000000000E+000
  0.000000000000000E+000
  0.000000000000000E+000
  0.000000000000000E+000
  0.000000000000000E+000
  0.000000000000000E+000
  0.000000000000000E+000
  0.000000000000000E+000
  0.000000000000000E+000
  0.000000000000000E+000
  0.000000000000000E+000
  0.000000000000000E+000
  0.000000000000000E+000
  0.000000000000000E+000
  0.000000000000000E+000
  0.000000000000000E+000
  0.000000000000000E+000
  0.000000000000000E+000
  0.000000000000000E+000
  0.000000000000000E+000
  0.000000000000000E+000
  0.000000000000000E+000
  0.000000000000000E+000
  0.000000000000000E+000
  0.000000000000000E+000
  0.000000000000000E+000
  0.000000000000000E+000
  0.000000000000000E+000
  0.000000000000000E+000
  0.000000000000000E+000
  0.000000000000000E+000
  0.000000000000000E+000
  0.000000000000000E+000
  0.000000000000000E+000
  0.000000000000000E+000
  0.000000000000000E+000
  0.000000000000000E+000
  0.000000000000000E+000
  0.000000000000000E+000
  0.000000000000000E+000
  0.000000000000000E+000
  0.000000000000000E+000
  0.000000000000000E+000
  0.000000000000000E+000
  0.000000000000000E+000
  0.000000000000000E+000
  0.000000000000000E+000
  0.000000000000000E+000
  0.000000000000000E+000
  0.000000000000000E+000
  0.000000000000000E+000
  0.000000000000000E+000
  0.000000000000000E+000
  0.000000000000000E+000
  0.000000000000000E+000
  0.000000000000000E+000
  0.000000000000000E+000
  0.000000000000000E+000
  0.000000000000000E+000
  0.000000000000000E+000
  0.000000000000000E+000
  0.000000000000000E+000
  0.000000000000000E+000
  0.000000000000000E+000
  0.000000000000000E+000
  0.000000000000000E+000
  0.000000000000000E+000
  0.000000000000000E+000
  0.000000000000000E+000
  0.000000000000000E+000
  0.000000000000000E+000
  0.000000000000000E+000
  0.000000000000000E+000
  0.000000000000000E+000
  0.000000000000000E+000
  0.000000000000000E+000
  0.000000000000000E+000
  0.000000000000000E+000
  0.000000000000000E+000
  0.000000000000000E+000
  0.000000000000000E+000
  0.000000000000000E+000
  0.000000000000000E+000
  0.000000000000000E+000
  0.000000000000000E+000
  0.000000000000000E+000
  0.000000000000000E+000
  0.000000000000000E+000
  0.000000000000000E+000
  0.000000000000000E+000
  0.000000000000000E+000
  0.000000000000000E+000
  0.000000000000000E+000
  0.000000000000000E+000
  0.000000000000000E+000
  0.000000000000000E+000
  0.000000000000000E+000
  0.000000000000000E+000
  0.000000000000000E+000
  0.000000000000000E+000
  0.000000000000000E+000
  0.000000000000000E+000
  0.000000000000000E+000
  0.000000000000000E+000
  0.000000000000000E+000
  0.000000000000000E+000
  0.000000000000000E+000
  0.000000000000000E+000
  0.000000000000000E+000
  0.000000000000000E+000
  0.000000000000000E+000
  0.000000000000000E+000
  0.000000000000000E+000
  0.000000000000000E+000
  0.000000000000000E+000
  0.000000000000000E+000
  0.000000000000000E+000
  0.000000000000000E+000
  0.000000000000000E+000
  0.000000000000000E+000
  0.000000000000000E+000
  0.000000000000000E+000
  0.000000000000000E+000
  0.000000000000000E+000
  0.000000000000000E+000
  0.000000000000000E+000
  0.000000000000000E+000
  0.000000000000000E+000
  0.000000000000000E+000
  0.000000000000000E+000
  0.000000000000000E+000
  0.000000000000000E+000
  0.000000000000000E+000
  0.000000000000000E+000
  0.000000000000000E+000
  0.000000000000000E+000
  0.000000000000000E+000
  0.000000000000000E+000
  0.000000000000000E+000
  0.000000000000000E+000
  0.000000000000000E+000
  0.000000000000000E+000
  0.000000000000000E+000
  0.000000000000000E+000
  0.000000000000000E+000
  0.000000000000000E+000
  0.000000000000000E+000
  0.000000000000000E+000
  0.000000000000000E+000
  0.000000000000000E+000
  0.000000000000000E+000
  0.000000000000000E+000
  0.000000000000000E+000
  0.000000000000000E+000
  0.000000000000000E+000
  0.000000000000000E+000
  0.000000000000000E+000
  0.000000000000000E+000
  0.000000000000000E+000
  0.000000000000000E+000
  0.000000000000000E+000
  0.000000000000000E+000
  0.000000000000000E+000
  0.000000000000000E+000
  0.000000000000000E+000
  0.000000000000000E+000
  0.000000000000000E+000
  0.000000000000000E+000
  0.000000000000000E+000
  0.000000000000000E+000
  0.000000000000000E+000
